       N       E                     dE             d eps       ncg     rms          ort
SDA:   1    -0.335226820065E+03   -0.33523E+03    0.00000E+00  3328   0.126E+03 0.000E+00
CGA:   2    -0.408170938959E+03   -0.72944E+02   -0.89664E+02  3328   0.924E+02-0.290E+02
CGA:   3    -0.425029843845E+03   -0.16859E+02   -0.16834E+02  3328   0.345E+02 0.103E+01
CGA:   4    -0.434878522250E+03   -0.98487E+01   -0.98216E+01  3328   0.163E+02 0.264E+00
CGA:   5    -0.438415848278E+03   -0.35373E+01   -0.35413E+01  3328   0.798E+01 0.113E+00
CGA:   6    -0.440050936654E+03   -0.16351E+01   -0.16330E+01  3328   0.291E+01-0.404E-01
CGA:   7    -0.440777417714E+03   -0.72648E+00   -0.72549E+00  3328   0.111E+01 0.250E-01
CGA:   8    -0.441047687704E+03   -0.27027E+00   -0.27026E+00  3328   0.442E+00 0.114E-02
CGA:   9    -0.441165609016E+03   -0.11792E+00   -0.11796E+00  3328   0.171E+00-0.338E-03
CGA:  10    -0.441216336764E+03   -0.50728E-01   -0.50734E-01  3328   0.741E-01-0.496E-04
CGA:  11    -0.441238834078E+03   -0.22497E-01   -0.22500E-01  3328   0.301E-01-0.408E-04
CGA:  12    -0.441247992122E+03   -0.91580E-02   -0.91621E-02  3328   0.107E-01-0.565E-04
CGA:  13    -0.441251237816E+03   -0.32457E-02   -0.32475E-02  3328   0.357E-02-0.254E-04
CGA:  14    -0.441252361889E+03   -0.11241E-02   -0.11248E-02  3328   0.127E-02-0.891E-05
CGA:  15    -0.441252796781E+03   -0.43489E-03   -0.43532E-03  3328   0.514E-03-0.438E-05
CGA:  16    -0.441252984016E+03   -0.18723E-03   -0.18755E-03  3328   0.219E-03-0.277E-05
CGA:  17    -0.441253063306E+03   -0.79290E-04   -0.79455E-04  3328   0.835E-04-0.151E-05
CGA:  18    -0.441253092676E+03   -0.29370E-04   -0.29437E-04  3328   0.287E-04-0.714E-06
CGA:  19    -0.441253102667E+03   -0.99919E-05   -0.10015E-04  3328   0.101E-04-0.273E-06
   1 F= -.44296325E+03 E0= -.44295831E+03  d E =-.988321E-02  mag=     0.0000
