       N       E                     dE             d eps       ncg     rms          ort
DAV:   1     0.101400814725E+04    0.10140E+04   -0.89261E+04  3328   0.677E+02
DAV:   2    -0.370040732615E+03   -0.13840E+04   -0.13836E+04  3328   0.996E+01
DAV:   3    -0.446503618472E+03   -0.76463E+02   -0.76435E+02  3328   0.366E+01
DAV:   4    -0.447324353449E+03   -0.82073E+00   -0.82070E+00  3328   0.418E+00
DAV:   5    -0.447324504821E+03   -0.15137E-03   -0.15137E-03  3328   0.701E-02
SDA:   6    -0.447324504821E+03    0.00000E+00   -0.15137E-03  3328   0.204E-05 0.000E+00
   1 F= -.44915386E+03 E0= -.44915315E+03  d E =-.141722E-02  mag=     2.1455
