C  N  Eu                                
   1.00000000000000     
    12.3000000000000007    0.0000000000000000    0.0000000000000000
    -6.1499999999999977   10.6521124665485960    0.0000000000000000
     0.0000000000000000    0.0000000000000000   20.0000000000000000
   C    N    Eu
    44     4     1
Direct
  0.9994019091072346  0.0005915168904380  0.7421619655518512
  0.1319956127897086  0.0653004270672781  0.7428454137043303
  0.1985714202155648  0.9987197368694112  0.7429246792702315
  0.3312534450842719  0.0644343547886876  0.7461095159402902
  0.3987326203599935  0.9981441219848080  0.7461700781051874
  0.5318823789636369  0.0663643325436638  0.7478723021380844
  0.5994089148722779  0.0003863397331898  0.7465213072268355
  0.7326317119131929  0.0688095755631721  0.7467070270482381
  0.7997115696699666  0.0019049636759760  0.7447983141987038
  0.9325976975755879  0.0673926589678189  0.7435878083870691
  0.9980849212183855  0.2002842216629546  0.7447983252082224
  0.1314663285887789  0.2654347296021697  0.7459643314849203
  0.1978024377154455  0.1979954463926390  0.7460139136004287
  0.3298915667351068  0.2647655686906489  0.7521403106745481
  0.3980723871052021  0.1965430764365550  0.7521997976153187
  0.5939382136625895  0.2002360751748071  0.7535420213443373
  0.7295864180590286  0.2704172337284234  0.7533136376478780
  0.7971201658210987  0.2028682165487083  0.7488517543933000
  0.9311807992324788  0.2673635118859465  0.7467035486490303
  0.9996204265084501  0.4005853582530605  0.7465134310891344
  0.1337793963335940  0.4661419723009885  0.7464850428940863
  0.1997423958388964  0.3985670133279271  0.7477069297152212
  0.3336280973261054  0.4605727331300713  0.7533821588090177
  0.7997761325782093  0.4060495233129373  0.7535441737260911
  0.9336453527787967  0.4681094909383887  0.7478644222771393
  0.0018493872064127  0.6012673250772735  0.7461690790109188
  0.1352388468770087  0.6664076219321018  0.7450335096199865
  0.2021830000126101  0.5993389602929966  0.7467736873099966
  0.3362197076884001  0.6637647134702647  0.7488342066495193
  0.4037712449762481  0.5962208395656603  0.7531446004464257
  0.5394061804704151  0.6663844875380605  0.7533739595167006
  0.7352227041751576  0.6701009662120043  0.7521413834069648
  0.8034572026967979  0.6019281760331836  0.7522134162926193
  0.9355626877585905  0.6687403312544760  0.7461111980985891
  0.0012777463721321  0.8014266399419014  0.7429228972008843
  0.1338732644762644  0.8661140116678538  0.7423200128911631
  0.2006895032253837  0.7993057161634241  0.7438249442372182
  0.3335774742858035  0.8647439830931134  0.7450345107653433
  0.4006616740702711  0.7978119067941520  0.7467755771341729
  0.5338523774899784  0.8662270728803207  0.7464890219417768
  0.6014268372079812  0.8002689860974854  0.7477044096384518
  0.7345586572027187  0.8685228132682568  0.7459617050855343
  0.8019976532997575  0.8021845752799166  0.7460137927551642
  0.9346862741709003  0.8679934987906321  0.7428444389643403
  0.5257089684975824  0.2593562494228934  0.7598137385076811
  0.3927728603825216  0.3924069969831194  0.7597079658534795
  0.7406851137127362  0.4742993939094191  0.7598397402456953
  0.6075787321768971  0.6072483999876113  0.7596942621701004
  0.5668075815138423  0.4333641348731945  0.8295357315577689
 
  0.00000000E+00  0.00000000E+00  0.00000000E+00
  0.00000000E+00  0.00000000E+00  0.00000000E+00
  0.00000000E+00  0.00000000E+00  0.00000000E+00
  0.00000000E+00  0.00000000E+00  0.00000000E+00
  0.00000000E+00  0.00000000E+00  0.00000000E+00
  0.00000000E+00  0.00000000E+00  0.00000000E+00
  0.00000000E+00  0.00000000E+00  0.00000000E+00
  0.00000000E+00  0.00000000E+00  0.00000000E+00
  0.00000000E+00  0.00000000E+00  0.00000000E+00
  0.00000000E+00  0.00000000E+00  0.00000000E+00
  0.00000000E+00  0.00000000E+00  0.00000000E+00
  0.00000000E+00  0.00000000E+00  0.00000000E+00
  0.00000000E+00  0.00000000E+00  0.00000000E+00
  0.00000000E+00  0.00000000E+00  0.00000000E+00
  0.00000000E+00  0.00000000E+00  0.00000000E+00
  0.00000000E+00  0.00000000E+00  0.00000000E+00
  0.00000000E+00  0.00000000E+00  0.00000000E+00
  0.00000000E+00  0.00000000E+00  0.00000000E+00
  0.00000000E+00  0.00000000E+00  0.00000000E+00
  0.00000000E+00  0.00000000E+00  0.00000000E+00
  0.00000000E+00  0.00000000E+00  0.00000000E+00
  0.00000000E+00  0.00000000E+00  0.00000000E+00
  0.00000000E+00  0.00000000E+00  0.00000000E+00
  0.00000000E+00  0.00000000E+00  0.00000000E+00
  0.00000000E+00  0.00000000E+00  0.00000000E+00
  0.00000000E+00  0.00000000E+00  0.00000000E+00
  0.00000000E+00  0.00000000E+00  0.00000000E+00
  0.00000000E+00  0.00000000E+00  0.00000000E+00
  0.00000000E+00  0.00000000E+00  0.00000000E+00
  0.00000000E+00  0.00000000E+00  0.00000000E+00
  0.00000000E+00  0.00000000E+00  0.00000000E+00
  0.00000000E+00  0.00000000E+00  0.00000000E+00
  0.00000000E+00  0.00000000E+00  0.00000000E+00
  0.00000000E+00  0.00000000E+00  0.00000000E+00
  0.00000000E+00  0.00000000E+00  0.00000000E+00
  0.00000000E+00  0.00000000E+00  0.00000000E+00
  0.00000000E+00  0.00000000E+00  0.00000000E+00
  0.00000000E+00  0.00000000E+00  0.00000000E+00
  0.00000000E+00  0.00000000E+00  0.00000000E+00
  0.00000000E+00  0.00000000E+00  0.00000000E+00
  0.00000000E+00  0.00000000E+00  0.00000000E+00
  0.00000000E+00  0.00000000E+00  0.00000000E+00
  0.00000000E+00  0.00000000E+00  0.00000000E+00
  0.00000000E+00  0.00000000E+00  0.00000000E+00
  0.00000000E+00  0.00000000E+00  0.00000000E+00
  0.00000000E+00  0.00000000E+00  0.00000000E+00
  0.00000000E+00  0.00000000E+00  0.00000000E+00
  0.00000000E+00  0.00000000E+00  0.00000000E+00
  0.00000000E+00  0.00000000E+00  0.00000000E+00
