C  N  In                                
   1.00000000000000     
    12.3000000000000007    0.0000000000000000    0.0000000000000000
    -6.1499999999999977   10.6521124665485960    0.0000000000000000
     0.0000000000000000    0.0000000000000000   20.0000000000000000
   C    N    In
    44     4     1
Direct
  0.9994194522065314  0.0005805685143017  0.7413333860539524
  0.1320201905685607  0.0654049741994172  0.7416031024308793
  0.1987142787010967  0.9986999731892041  0.7416044621682616
  0.3314261582134392  0.0642904839901846  0.7454454300645779
  0.3988038011333828  0.9979606323211456  0.7469267639410049
  0.5314478568450838  0.0665583269816210  0.7502351010039803
  0.5992517786824578  0.0004232191626272  0.7491730738068298
  0.7322184956283451  0.0691804968464851  0.7490924767866218
  0.7995415969317108  0.0024007794713867  0.7459989655540298
  0.9323455232966751  0.0676544821101857  0.7439542730972875
  0.9975992131604059  0.2004584063528370  0.7459989657230821
  0.1313041930878853  0.2654992243334675  0.7469122368237180
  0.1976410865681757  0.1981281910333905  0.7454325722510120
  0.3297353006471937  0.2652800193464770  0.7519251979430805
  0.3985718496471335  0.1963987429286718  0.7519640807276815
  0.5929454898032489  0.2006368869987298  0.7562895171999315
  0.7288634605006337  0.2711365383725592  0.7566462680273460
  0.7963716436646777  0.2036283510346948  0.7516706577996217
  0.9308194930759299  0.2677815040419063  0.7490924752278261
  0.9995767658033969  0.4007482215038678  0.7491730723744183
  0.1337563396401080  0.4659393177968738  0.7491290205240375
  0.1999001167028283  0.3981329154542337  0.7502086005567321
  0.3339794419173927  0.4596346538216167  0.7562576438472206
  0.7993631064368998  0.4070545106992398  0.7562895161060510
  0.9334416634027747  0.4685521479241999  0.7502350980518742
  0.0020393618765908  0.6011962057959437  0.7469267551636847
  0.1357537308832377  0.6662081925073409  0.7460655998540560
  0.2025382925240464  0.5988772068036923  0.7490436030230043
  0.3369771597477822  0.6630228324766065  0.7515857203017831
  0.4044721295155256  0.5955278674580171  0.7566425575210758
  0.5403653441011542  0.6660205497848040  0.7562576441757898
  0.7347199789536347  0.6702646946597639  0.7519251941997567
  0.8036012538876705  0.6014281499273366  0.7519640781671697
  0.9357095172977452  0.6685738554160849  0.7454454271224904
  0.0013000461298276  0.8012857424417703  0.7416044610073627
  0.1339233681911765  0.8660766528264148  0.7414102540376533
  0.2010014446485116  0.7989985631390510  0.7441002343870338
  0.3337918115207827  0.8642462635196182  0.7460656064691946
  0.4011227910804323  0.7974616963005232  0.7490436047531688
  0.5340606804403976  0.8662436449695008  0.7491290196784348
  0.6018670866347833  0.8000998717460917  0.7502085991779950
  0.7345007789824152  0.8686957982314993  0.7469122342550989
  0.8018718191258216  0.8023589128262145  0.7454325676041407
  0.9345950444667608  0.8679798285653533  0.7416031020444649
  0.5241891201451807  0.2596766913530431  0.7605926367882674
  0.3930217972390651  0.3908935284013992  0.7605499472758481
  0.7403232998616147  0.4758108767688682  0.7605926335879332
  0.6091064670628299  0.6069781922553759  0.7605499424909112
  0.5666783794170698  0.4333216133963447  0.8337596188225902
 
  0.00000000E+00  0.00000000E+00  0.00000000E+00
  0.00000000E+00  0.00000000E+00  0.00000000E+00
  0.00000000E+00  0.00000000E+00  0.00000000E+00
  0.00000000E+00  0.00000000E+00  0.00000000E+00
  0.00000000E+00  0.00000000E+00  0.00000000E+00
  0.00000000E+00  0.00000000E+00  0.00000000E+00
  0.00000000E+00  0.00000000E+00  0.00000000E+00
  0.00000000E+00  0.00000000E+00  0.00000000E+00
  0.00000000E+00  0.00000000E+00  0.00000000E+00
  0.00000000E+00  0.00000000E+00  0.00000000E+00
  0.00000000E+00  0.00000000E+00  0.00000000E+00
  0.00000000E+00  0.00000000E+00  0.00000000E+00
  0.00000000E+00  0.00000000E+00  0.00000000E+00
  0.00000000E+00  0.00000000E+00  0.00000000E+00
  0.00000000E+00  0.00000000E+00  0.00000000E+00
  0.00000000E+00  0.00000000E+00  0.00000000E+00
  0.00000000E+00  0.00000000E+00  0.00000000E+00
  0.00000000E+00  0.00000000E+00  0.00000000E+00
  0.00000000E+00  0.00000000E+00  0.00000000E+00
  0.00000000E+00  0.00000000E+00  0.00000000E+00
  0.00000000E+00  0.00000000E+00  0.00000000E+00
  0.00000000E+00  0.00000000E+00  0.00000000E+00
  0.00000000E+00  0.00000000E+00  0.00000000E+00
  0.00000000E+00  0.00000000E+00  0.00000000E+00
  0.00000000E+00  0.00000000E+00  0.00000000E+00
  0.00000000E+00  0.00000000E+00  0.00000000E+00
  0.00000000E+00  0.00000000E+00  0.00000000E+00
  0.00000000E+00  0.00000000E+00  0.00000000E+00
  0.00000000E+00  0.00000000E+00  0.00000000E+00
  0.00000000E+00  0.00000000E+00  0.00000000E+00
  0.00000000E+00  0.00000000E+00  0.00000000E+00
  0.00000000E+00  0.00000000E+00  0.00000000E+00
  0.00000000E+00  0.00000000E+00  0.00000000E+00
  0.00000000E+00  0.00000000E+00  0.00000000E+00
  0.00000000E+00  0.00000000E+00  0.00000000E+00
  0.00000000E+00  0.00000000E+00  0.00000000E+00
  0.00000000E+00  0.00000000E+00  0.00000000E+00
  0.00000000E+00  0.00000000E+00  0.00000000E+00
  0.00000000E+00  0.00000000E+00  0.00000000E+00
  0.00000000E+00  0.00000000E+00  0.00000000E+00
  0.00000000E+00  0.00000000E+00  0.00000000E+00
  0.00000000E+00  0.00000000E+00  0.00000000E+00
  0.00000000E+00  0.00000000E+00  0.00000000E+00
  0.00000000E+00  0.00000000E+00  0.00000000E+00
  0.00000000E+00  0.00000000E+00  0.00000000E+00
  0.00000000E+00  0.00000000E+00  0.00000000E+00
  0.00000000E+00  0.00000000E+00  0.00000000E+00
  0.00000000E+00  0.00000000E+00  0.00000000E+00
  0.00000000E+00  0.00000000E+00  0.00000000E+00
