C  N  Pr                                
   1.00000000000000     
    12.3000000000000007    0.0000000000000000    0.0000000000000000
    -6.1499999999999977   10.6521124665485960    0.0000000000000000
     0.0000000000000000    0.0000000000000000   20.0000000000000000
   C    N    Pr
    44     4     1
Direct
  0.9993728102593833  0.0005464662211607  0.7453627090045225
  0.1321067831664280  0.0655589082109530  0.7461173986551684
  0.1989109351091788  0.9987997038497971  0.7460679883160739
  0.3309727729234131  0.0642445245137866  0.7484754295894049
  0.3986124086547708  0.9980848954409047  0.7468401644793339
  0.5322250684751325  0.0667491337675650  0.7472765238537349
  0.5996841711017940  0.0005924349400713  0.7453528335405213
  0.7324814224983733  0.0684850327916195  0.7458133796134503
  0.7996391040067192  0.0012354745014196  0.7455608836344425
  0.9327220828507775  0.0671166932738450  0.7454097771607452
  0.9986145610190528  0.2002042185605073  0.7454353847495082
  0.1313340940438959  0.2652300027291292  0.7469573568477811
  0.1974962946225196  0.1975943682147365  0.7485312353904607
  0.3300623678966081  0.2643851783129811  0.7541780922759196
  0.3976634718174960  0.1967962031179380  0.7541563345887430
  0.5950265188586850  0.1999735083750742  0.7522596031946850
  0.7298921497976509  0.2699345936883051  0.7509117781871733
  0.7975303644339508  0.2023078491952776  0.7471641806693082
  0.9314136537155902  0.2673751673368579  0.7456410986292142
  0.9994084132452721  0.4001708865335677  0.7452014940154441
  0.1339031639184944  0.4663381590466448  0.7451347092112897
  0.1999709423073840  0.3988060775663257  0.7471324065119165
  0.3332188042301562  0.4616592928550846  0.7519779864423712
  0.8000680613935843  0.4047153097984929  0.7513751066955825
  0.9333007071977769  0.4676401587140470  0.7469451410566390
  0.0019050038215500  0.6013026461752563  0.7468122112395659
  0.1346152332943205  0.6663114961751619  0.7452438531614984
  0.2018138980188746  0.5991331056689722  0.7453750127690315
  0.3356557445040132  0.6642154389150928  0.7466338108922279
  0.4032364702585528  0.5965564686299345  0.7504421106695643
  0.5380067184639904  0.6666399364929781  0.7509367631756447
  0.7354826871430181  0.6697240281374707  0.7528001991088655
  0.8031049012631932  0.6021967890470055  0.7529814208863339
  0.9358736183654450  0.6690294259827830  0.7484921987326693
  0.0012135681770516  0.8010453248707567  0.7463731610347907
  0.1339524208353694  0.8660570370398738  0.7452116058159596
  0.2005267618366506  0.7994255492684754  0.7450716426178037
  0.3336315651973669  0.8653708190894226  0.7451154161690545
  0.4007341004268054  0.7980872103448554  0.7452593463094870
  0.5335273461194471  0.8660681646945232  0.7450972020632963
  0.6009747306250637  0.7999251468709091  0.7467610246239406
  0.7346263519794386  0.8685398157599885  0.7468318871752884
  0.8023488908462924  0.8024945810370259  0.7483947527485090
  0.9343878766956979  0.8678470797175802  0.7463975364154769
  0.5265708185809514  0.2599397005534830  0.7598803584568183
  0.3931337722557904  0.3933284062486199  0.7597314078105220
  0.7398958666169251  0.4730640285791225  0.7576441597445871
  0.6063188800818810  0.6064096844696051  0.7572317231228213
  0.5694216470481970  0.4361548746750087  0.8210061989427893
 
  0.00000000E+00  0.00000000E+00  0.00000000E+00
  0.00000000E+00  0.00000000E+00  0.00000000E+00
  0.00000000E+00  0.00000000E+00  0.00000000E+00
  0.00000000E+00  0.00000000E+00  0.00000000E+00
  0.00000000E+00  0.00000000E+00  0.00000000E+00
  0.00000000E+00  0.00000000E+00  0.00000000E+00
  0.00000000E+00  0.00000000E+00  0.00000000E+00
  0.00000000E+00  0.00000000E+00  0.00000000E+00
  0.00000000E+00  0.00000000E+00  0.00000000E+00
  0.00000000E+00  0.00000000E+00  0.00000000E+00
  0.00000000E+00  0.00000000E+00  0.00000000E+00
  0.00000000E+00  0.00000000E+00  0.00000000E+00
  0.00000000E+00  0.00000000E+00  0.00000000E+00
  0.00000000E+00  0.00000000E+00  0.00000000E+00
  0.00000000E+00  0.00000000E+00  0.00000000E+00
  0.00000000E+00  0.00000000E+00  0.00000000E+00
  0.00000000E+00  0.00000000E+00  0.00000000E+00
  0.00000000E+00  0.00000000E+00  0.00000000E+00
  0.00000000E+00  0.00000000E+00  0.00000000E+00
  0.00000000E+00  0.00000000E+00  0.00000000E+00
  0.00000000E+00  0.00000000E+00  0.00000000E+00
  0.00000000E+00  0.00000000E+00  0.00000000E+00
  0.00000000E+00  0.00000000E+00  0.00000000E+00
  0.00000000E+00  0.00000000E+00  0.00000000E+00
  0.00000000E+00  0.00000000E+00  0.00000000E+00
  0.00000000E+00  0.00000000E+00  0.00000000E+00
  0.00000000E+00  0.00000000E+00  0.00000000E+00
  0.00000000E+00  0.00000000E+00  0.00000000E+00
  0.00000000E+00  0.00000000E+00  0.00000000E+00
  0.00000000E+00  0.00000000E+00  0.00000000E+00
  0.00000000E+00  0.00000000E+00  0.00000000E+00
  0.00000000E+00  0.00000000E+00  0.00000000E+00
  0.00000000E+00  0.00000000E+00  0.00000000E+00
  0.00000000E+00  0.00000000E+00  0.00000000E+00
  0.00000000E+00  0.00000000E+00  0.00000000E+00
  0.00000000E+00  0.00000000E+00  0.00000000E+00
  0.00000000E+00  0.00000000E+00  0.00000000E+00
  0.00000000E+00  0.00000000E+00  0.00000000E+00
  0.00000000E+00  0.00000000E+00  0.00000000E+00
  0.00000000E+00  0.00000000E+00  0.00000000E+00
  0.00000000E+00  0.00000000E+00  0.00000000E+00
  0.00000000E+00  0.00000000E+00  0.00000000E+00
  0.00000000E+00  0.00000000E+00  0.00000000E+00
  0.00000000E+00  0.00000000E+00  0.00000000E+00
  0.00000000E+00  0.00000000E+00  0.00000000E+00
  0.00000000E+00  0.00000000E+00  0.00000000E+00
  0.00000000E+00  0.00000000E+00  0.00000000E+00
  0.00000000E+00  0.00000000E+00  0.00000000E+00
  0.00000000E+00  0.00000000E+00  0.00000000E+00
