       N       E                     dE             d eps       ncg     rms          ort
DAV:   1     0.992027434245E+03    0.99203E+03   -0.88623E+04  3328   0.679E+02
DAV:   2    -0.362466839014E+03   -0.13545E+04   -0.13539E+04  3328   0.969E+01
DAV:   3    -0.437864682613E+03   -0.75398E+02   -0.75398E+02  3328   0.367E+01
DAV:   4    -0.438723319957E+03   -0.85864E+00   -0.85863E+00  3328   0.429E+00
DAV:   5    -0.438723451580E+03   -0.13162E-03   -0.13162E-03  3328   0.655E-02
SDA:   6    -0.438723451580E+03    0.00000E+00   -0.13162E-03  3328   0.196E-05 0.000E+00
   1 F= -.44047590E+03 E0= -.44047474E+03  d E =-.232970E-02  mag=    -0.0000
