C  N  Ga                                
   1.00000000000000     
    12.3000000000000007    0.0000000000000000    0.0000000000000000
    -6.1499999999999977   10.6521124665485960    0.0000000000000000
     0.0000000000000000    0.0000000000000000   20.0000000000000000
   C    N    Ga
    44     4     1
Direct
  0.9989875710482194  0.0010123012376450  0.7499996158048934
  0.1308619849687079  0.0643941333362585  0.7499933427873426
  0.1977179821905206  0.9975396374484321  0.7499932349098527
  0.3292968960774835  0.0616750277732765  0.7499830599706301
  0.3981021519272914  0.9968211680179698  0.7499997251793985
  0.5316019209219174  0.0674169436391236  0.7499970133618464
  0.5993955394010564  0.0009182497097977  0.7499904608712695
  0.7318673817339816  0.0696652412393373  0.7499983362057367
  0.7993139338030345  0.0023584228786964  0.7500021666911704
  0.9321962672634532  0.0678036209178417  0.7500012171218445
  0.9976414835598868  0.2006859360202788  0.7500021744988058
  0.1301133947705351  0.2647419315394876  0.7499993705733575
  0.1949535609489286  0.1959396384482758  0.7499828164587210
  0.3260861177532572  0.2597758965709951  0.7499714458254516
  0.3930855479994248  0.1928027140646584  0.7499718937853129
  0.5935080806767328  0.2012740004893240  0.7500346704277147
  0.7281442712521805  0.2718555725124713  0.7500168235065893
  0.7963408411311256  0.2036590544563347  0.7499998845872387
  0.9303346396073638  0.2681324534898542  0.7499983430831335
  0.9990815964032297  0.4006043198704759  0.7499904581842924
  0.1342678352859631  0.4660253377945436  0.7499900335554363
  0.2007487176219214  0.3982232927620423  0.7499957841238363
  0.3346090706717806  0.4601804168434505  0.7500365187416741
  0.7987260089347500  0.4064918914563735  0.7500346713006242
  0.9325833493372973  0.4683984201782393  0.7499970005083008
  0.0031794798617590  0.6018982949206114  0.7499996417787486
  0.1356531989866699  0.6659457003383639  0.7500024111715181
  0.2029724360931219  0.5984942404953195  0.7499982984235242
  0.3369877873181296  0.6630120939555297  0.7499997182830213
  0.4051850858979881  0.5948148425350058  0.7500172975013207
  0.5398195304643078  0.6653908654359418  0.7500365155091571
  0.7402240543550208  0.6739137937668844  0.7499714381809212
  0.8071972691898575  0.6069142843766367  0.7499718896813790
  0.9383251562704709  0.6707031143947916  0.7499830482393928
  0.0024602053410372  0.8022818780476062  0.7499932276631529
  0.1343532063826129  0.8656466667398592  0.7499995296483444
  0.2011537783839887  0.7988463241104301  0.7500011863657415
  0.3340545269273752  0.8643473433848551  0.7500024285842730
  0.4015056156320644  0.7970275602040870  0.7499983054093299
  0.5339745662008895  0.8657321269462923  0.7499900353309092
  0.6017766306280555  0.7992512069491396  0.7499957759155059
  0.7352579671108076  0.8698865129601984  0.7499993607098578
  0.8040602853573080  0.8050463496617096  0.7499828073486076
  0.9356057839347847  0.8691378978748743  0.7499933392514337
  0.5213878003625274  0.2599712513100516  0.7500833060697332
  0.3932722668770062  0.3880679576004544  0.7500837180263221
  0.7400286213070941  0.4786120777091447  0.7500833120212489
  0.6119319913732535  0.6067276655200878  0.7500837189957673
  0.5666566104538349  0.4333433280669357  0.7507456278263163
 
  0.00000000E+00  0.00000000E+00  0.00000000E+00
  0.00000000E+00  0.00000000E+00  0.00000000E+00
  0.00000000E+00  0.00000000E+00  0.00000000E+00
  0.00000000E+00  0.00000000E+00  0.00000000E+00
  0.00000000E+00  0.00000000E+00  0.00000000E+00
  0.00000000E+00  0.00000000E+00  0.00000000E+00
  0.00000000E+00  0.00000000E+00  0.00000000E+00
  0.00000000E+00  0.00000000E+00  0.00000000E+00
  0.00000000E+00  0.00000000E+00  0.00000000E+00
  0.00000000E+00  0.00000000E+00  0.00000000E+00
  0.00000000E+00  0.00000000E+00  0.00000000E+00
  0.00000000E+00  0.00000000E+00  0.00000000E+00
  0.00000000E+00  0.00000000E+00  0.00000000E+00
  0.00000000E+00  0.00000000E+00  0.00000000E+00
  0.00000000E+00  0.00000000E+00  0.00000000E+00
  0.00000000E+00  0.00000000E+00  0.00000000E+00
  0.00000000E+00  0.00000000E+00  0.00000000E+00
  0.00000000E+00  0.00000000E+00  0.00000000E+00
  0.00000000E+00  0.00000000E+00  0.00000000E+00
  0.00000000E+00  0.00000000E+00  0.00000000E+00
  0.00000000E+00  0.00000000E+00  0.00000000E+00
  0.00000000E+00  0.00000000E+00  0.00000000E+00
  0.00000000E+00  0.00000000E+00  0.00000000E+00
  0.00000000E+00  0.00000000E+00  0.00000000E+00
  0.00000000E+00  0.00000000E+00  0.00000000E+00
  0.00000000E+00  0.00000000E+00  0.00000000E+00
  0.00000000E+00  0.00000000E+00  0.00000000E+00
  0.00000000E+00  0.00000000E+00  0.00000000E+00
  0.00000000E+00  0.00000000E+00  0.00000000E+00
  0.00000000E+00  0.00000000E+00  0.00000000E+00
  0.00000000E+00  0.00000000E+00  0.00000000E+00
  0.00000000E+00  0.00000000E+00  0.00000000E+00
  0.00000000E+00  0.00000000E+00  0.00000000E+00
  0.00000000E+00  0.00000000E+00  0.00000000E+00
  0.00000000E+00  0.00000000E+00  0.00000000E+00
  0.00000000E+00  0.00000000E+00  0.00000000E+00
  0.00000000E+00  0.00000000E+00  0.00000000E+00
  0.00000000E+00  0.00000000E+00  0.00000000E+00
  0.00000000E+00  0.00000000E+00  0.00000000E+00
  0.00000000E+00  0.00000000E+00  0.00000000E+00
  0.00000000E+00  0.00000000E+00  0.00000000E+00
  0.00000000E+00  0.00000000E+00  0.00000000E+00
  0.00000000E+00  0.00000000E+00  0.00000000E+00
  0.00000000E+00  0.00000000E+00  0.00000000E+00
  0.00000000E+00  0.00000000E+00  0.00000000E+00
  0.00000000E+00  0.00000000E+00  0.00000000E+00
  0.00000000E+00  0.00000000E+00  0.00000000E+00
  0.00000000E+00  0.00000000E+00  0.00000000E+00
  0.00000000E+00  0.00000000E+00  0.00000000E+00
