 vasp.5.4.4.18Apr17-6-g9f103f2a35 (build Nov 21 2023 15:34:30) complex          
  
 executed on             LinuxIFC date 2026.09.22  11:29:23
 running on  256 total cores
 distrk:  each k-point on  256 cores,    1 groups
 distr:  one band on NCORES_PER_BAND=   1 cores,  256 groups


--------------------------------------------------------------------------------------------------------


 INCAR:
 POTCAR:   PAW_PBE C 08Apr2002                    
 POTCAR:   PAW_PBE N 08Apr2002                    
 POTCAR:   PAW_PBE Ga_d 06Sep2000                 

 ----------------------------------------------------------------------------- 
|                                                                             |
|           W    W    AA    RRRRR   N    N  II  N    N   GGGG   !!!           |
|           W    W   A  A   R    R  NN   N  II  NN   N  G    G  !!!           |
|           W    W  A    A  R    R  N N  N  II  N N  N  G       !!!           |
|           W WW W  AAAAAA  RRRRR   N  N N  II  N  N N  G  GGG   !            |
|           WW  WW  A    A  R   R   N   NN  II  N   NN  G    G                |
|           W    W  A    A  R    R  N    N  II  N    N   GGGG   !!!           |
|                                                                             |
|      For optimal performance we recommend to set                            |
|        NCORE= 4 - approx SQRT( number of cores)                             |
|      NCORE specifies how many cores store one orbital (NPAR=cpu/NCORE).     |
|      This setting can  greatly improve the performance of VASP for DFT.     |
|      The default,   NCORE=1            might be grossly inefficient         |
|      on modern multi-core architectures or massively parallel machines.     |
|      Do your own testing !!!!                                               |
|      Unfortunately you need to use the default for GW and RPA calculations. |
|      (for HF NCORE is supported but not extensively tested yet)             |
|                                                                             |
 ----------------------------------------------------------------------------- 

 POTCAR:   PAW_PBE C 08Apr2002                    
   VRHFIN =C: s2p2                                                              
   LEXCH  = PE                                                                  
   EATOM  =   147.1560 eV,   10.8157 Ry                                         
                                                                                
   TITEL  = PAW_PBE C 08Apr2002                                                 
   LULTRA =        F    use ultrasoft PP ?                                      
   IUNSCR =        0    unscreen: 0-lin 1-nonlin 2-no                           
   RPACOR =     .000    partial core radius                                     
   POMASS =   12.011; ZVAL   =    4.000    mass and valenz                      
   RCORE  =    1.500    outmost cutoff radius                                   
   RWIGS  =    1.630; RWIGS  =     .863    wigner-seitz radius (au A)           
   ENMAX  =  400.000; ENMIN  =  300.000 eV                                      
   ICORE  =        2    local potential                                         
   LCOR   =        T    correct aug charges                                     
   LPAW   =        T    paw PP                                                  
   EAUG   =  644.873                                                            
   DEXC   =     .000                                                            
   RMAX   =    2.266    core radius for proj-oper                               
   RAUG   =    1.300    factor for augmentation sphere                          
   RDEP   =    1.501    radius for radial grids                                 
   RDEPT  =    1.300    core radius for aug-charge                              
   QCUT   =   -5.516; QGAM   =   11.032    optimization parameters              
                                                                                
   Description                                                                  
     l     E      TYP  RCUT    TYP  RCUT                                        
     0   .000     23  1.200                                                     
     0   .000     23  1.200                                                     
     1   .000     23  1.500                                                     
     1  2.500     23  1.500                                                     
     2   .000      7  1.500                                                     
  local pseudopotential read in
  atomic valenz-charges read in
  non local Contribution for L=           0  read in
    real space projection operators read in
  non local Contribution for L=           0  read in
    real space projection operators read in
  non local Contribution for L=           1  read in
    real space projection operators read in
  non local Contribution for L=           1  read in
    real space projection operators read in
    PAW grid and wavefunctions read in
 
   number of l-projection  operators is LMAX  =           4
   number of lm-projection operators is LMMAX =           8
 
 POTCAR:   PAW_PBE N 08Apr2002                    
   VRHFIN =N: s2p3                                                              
   LEXCH  = PE                                                                  
   EATOM  =   264.5486 eV,   19.4438 Ry                                         
                                                                                
   TITEL  = PAW_PBE N 08Apr2002                                                 
   LULTRA =        F    use ultrasoft PP ?                                      
   IUNSCR =        0    unscreen: 0-lin 1-nonlin 2-no                           
   RPACOR =     .000    partial core radius                                     
   POMASS =   14.001; ZVAL   =    5.000    mass and valenz                      
   RCORE  =    1.500    outmost cutoff radius                                   
   RWIGS  =    1.400; RWIGS  =     .741    wigner-seitz radius (au A)           
   ENMAX  =  400.000; ENMIN  =  300.000 eV                                      
   ICORE  =        2    local potential                                         
   LCOR   =        T    correct aug charges                                     
   LPAW   =        T    paw PP                                                  
   EAUG   =  627.112                                                            
   DEXC   =     .000                                                            
   RMAX   =    2.247    core radius for proj-oper                               
   RAUG   =    1.300    factor for augmentation sphere                          
   RDEP   =    1.514    radius for radial grids                                 
   QCUT   =   -5.562; QGAM   =   11.124    optimization parameters              
                                                                                
   Description                                                                  
     l     E      TYP  RCUT    TYP  RCUT                                        
     0   .000     23  1.200                                                     
     0   .000     23  1.200                                                     
     1   .000     23  1.500                                                     
     1   .700     23  1.500                                                     
     2   .000      7  1.500                                                     
  local pseudopotential read in
  atomic valenz-charges read in
  non local Contribution for L=           0  read in
    real space projection operators read in
  non local Contribution for L=           0  read in
    real space projection operators read in
  non local Contribution for L=           1  read in
    real space projection operators read in
  non local Contribution for L=           1  read in
    real space projection operators read in
    PAW grid and wavefunctions read in
 
   number of l-projection  operators is LMAX  =           4
   number of lm-projection operators is LMMAX =           8
 
 POTCAR:   PAW_PBE Ga_d 06Sep2000                 
   VRHFIN =Ga: s2p1                                                             
   LEXCH  = PE                                                                  
   EATOM  =  2149.0616 eV,  157.9516 Ry                                         
                                                                                
   TITEL  = PAW_PBE Ga_d 06Sep2000                                              
   LULTRA =        F    use ultrasoft PP ?                                      
   IUNSCR =        1    unscreen: 0-lin 1-nonlin 2-no                           
   RPACOR =    2.000    partial core radius                                     
   POMASS =   69.723; ZVAL   =   13.000    mass and valenz                      
   RCORE  =    2.300    outmost cutoff radius                                   
   RWIGS  =    2.300; RWIGS  =    1.217    wigner-seitz radius (au A)           
   ENMAX  =  282.697; ENMIN  =  212.022 eV                                      
   ICORE  =        3    local potential                                         
   LCOR   =        T    correct aug charges                                     
   LPAW   =        T    paw PP                                                  
   EAUG   =  490.690                                                            
   DEXC   =    -.001                                                            
   RMAX   =    2.742    core radius for proj-oper                               
   RAUG   =    1.300    factor for augmentation sphere                          
   RDEP   =    2.413    radius for radial grids                                 
   QCUT   =   -4.558; QGAM   =    9.117    optimization parameters              
                                                                                
   Description                                                                  
     l     E      TYP  RCUT    TYP  RCUT                                        
     2   .000     23  2.300                                                     
     2  -.400     23  2.300                                                     
     0   .000     23  2.300                                                     
     0   .000     23  2.300                                                     
     1   .000     23  2.300                                                     
     1   .000     23  2.300                                                     
     3  -.100      7  2.300                                                     
  local pseudopotential read in
  partial core-charges read in
  atomic valenz-charges read in
  non local Contribution for L=           2  read in
    real space projection operators read in
  non local Contribution for L=           2  read in
    real space projection operators read in
  non local Contribution for L=           0  read in
    real space projection operators read in
  non local Contribution for L=           0  read in
    real space projection operators read in
  non local Contribution for L=           1  read in
    real space projection operators read in
  non local Contribution for L=           1  read in
    real space projection operators read in
    PAW grid and wavefunctions read in
 
   number of l-projection  operators is LMAX  =           6
   number of lm-projection operators is LMMAX =          18
 
 Optimization of the real space projectors (new method)

 maximal supplied QI-value         = 25.13
 optimisation between [QCUT,QGAM] = [ 11.56, 23.12] = [ 37.43,149.72] Ry 
 Optimized for a Real-space Cutoff    1.04 Angstroem

   l    n(q)    QCUT    max X(q) W(low)/X(q) W(high)/X(q)  e(spline) 
   0      7    11.561     5.582    0.47E-04    0.94E-04    0.17E-07
   0      7    11.561    69.432    0.20E-03    0.59E-03    0.21E-06
   1      7    11.561     2.780    0.24E-04    0.70E-04    0.44E-07
   1      7    11.561     4.549    0.18E-03    0.25E-03    0.12E-06
 Optimization of the real space projectors (new method)

 maximal supplied QI-value         = 25.13
 optimisation between [QCUT,QGAM] = [ 11.56, 23.12] = [ 37.43,149.72] Ry 
 Optimized for a Real-space Cutoff    1.40 Angstroem

   l    n(q)    QCUT    max X(q) W(low)/X(q) W(high)/X(q)  e(spline) 
   0     10    11.561     4.511    0.22E-04    0.14E-04    0.74E-07
   0     10    11.561    37.799    0.45E-04    0.77E-04    0.61E-06
   1      9    11.561     2.478    0.97E-05    0.16E-04    0.10E-06
   1      9    11.561    11.620    0.23E-03    0.13E-03    0.12E-05
 Optimization of the real space projectors (new method)

 maximal supplied QI-value         = 16.25
 optimisation between [QCUT,QGAM] = [ 11.54, 23.24] = [ 37.28,151.24] Ry 
 Optimized for a Real-space Cutoff    1.28 Angstroem

   l    n(q)    QCUT    max X(q) W(low)/X(q) W(high)/X(q)  e(spline) 
   2      8    11.539     6.328    0.71E-04    0.10E-03    0.17E-07
   2      8    11.539     9.625    0.13E-03    0.37E-03    0.17E-06
   0      9    11.539     9.711    0.22E-04    0.17E-04    0.10E-07
   0      9    11.539    32.764    0.11E-03    0.16E-03    0.65E-07
   1      8    11.539     7.413    0.41E-04    0.24E-04    0.39E-07
   1      8    11.539    31.472    0.22E-03    0.35E-04    0.14E-06
 PAW_PBE C 08Apr2002                    :
 energy of atom  1       EATOM= -147.1560
 kinetic energy error for atom=    0.0071 (will be added to EATOM!!)
 PAW_PBE N 08Apr2002                    :
 energy of atom  2       EATOM= -264.5486
 kinetic energy error for atom=    0.0125 (will be added to EATOM!!)
 PAW_PBE Ga_d 06Sep2000                 :
 energy of atom  3       EATOM=-2149.0616
 kinetic energy error for atom=    0.0026 (will be added to EATOM!!)
 
 
 POSCAR: C  N  Ga                                
  positions in direct lattice
  velocities in cartesian coordinates
 exchange correlation table for  LEXCH =        8
   RHO(1)=    0.500       N(1)  =     2000
   RHO(2)=  100.500       N(2)  =     4000

 VTST: version 3.2, (02/03/18)

 CHAIN: initializing optimizer
 
 OPT: Using VASP QUASI-newton optimizer
 CHAIN: Read ICHAIN            0
 
 POSCAR: C  N  Ga                                
  positions in direct lattice
  velocities in cartesian coordinates
 


--------------------------------------------------------------------------------------------------------


 ion  position               nearest neighbor table
   1  0.999  0.001  0.750-  44 1.40   2 1.40  10 1.42
   2  0.131  0.064  0.750-  13 1.40   1 1.40   3 1.42
   3  0.198  0.998  0.750-   4 1.40  36 1.41   2 1.42
   4  0.329  0.062  0.750-  15 1.40   3 1.40   5 1.42
   5  0.398  0.997  0.750-  38 1.41   6 1.42   4 1.42
   6  0.532  0.067  0.750-   5 1.42  16 1.43   7 1.43
   7  0.599  0.001  0.750-   8 1.41   6 1.43  40 1.44
   8  0.732  0.070  0.750-   7 1.41  18 1.43   9 1.43
   9  0.799  0.002  0.750-  42 1.41  10 1.42   8 1.43
  10  0.932  0.068  0.750-  11 1.42   9 1.42   1 1.42
  11  0.998  0.201  0.750-  12 1.41  10 1.42  19 1.43
  12  0.130  0.265  0.750-  11 1.41  22 1.42  13 1.42
  13  0.195  0.196  0.750-  14 1.40   2 1.40  12 1.42
  14  0.326  0.260  0.750-  46 1.37  13 1.40  15 1.43
  15  0.393  0.193  0.750-  45 1.37   4 1.40  14 1.43
  16  0.593  0.201  0.750-  45 1.40   6 1.43  17 1.43
  17  0.728  0.272  0.750-  16 1.43  24 1.43  18 1.45
  18  0.796  0.204  0.750-   8 1.43  19 1.43  17 1.45
  19  0.930  0.268  0.750-  20 1.41  18 1.43  11 1.43
  20  0.999  0.401  0.750-  19 1.41  25 1.43  21 1.44
  21  0.134  0.466  0.750-  28 1.41  22 1.43  20 1.44
  22  0.201  0.398  0.750-  12 1.42  23 1.43  21 1.43
  23  0.335  0.460  0.750-  46 1.40  22 1.43  30 1.43
  24  0.799  0.407  0.750-  47 1.40  25 1.43  17 1.43
  25  0.933  0.468  0.750-  26 1.42  24 1.43  20 1.43
  26  0.003  0.602  0.750-  27 1.41  25 1.42  34 1.42
  27  0.136  0.666  0.750-  26 1.41  37 1.42  28 1.44
  28  0.203  0.598  0.750-  21 1.41  29 1.43  27 1.44
  29  0.337  0.663  0.750-  28 1.43  39 1.43  30 1.45
  30  0.405  0.595  0.750-  31 1.43  23 1.43  29 1.45
  31  0.540  0.665  0.750-  48 1.40  41 1.43  30 1.43
  32  0.740  0.674  0.750-  48 1.37  43 1.40  33 1.43
  33  0.807  0.607  0.750-  47 1.37  34 1.40  32 1.43
  34  0.938  0.671  0.750-  33 1.40  35 1.40  26 1.42
  35  0.002  0.802  0.750-  34 1.40  36 1.41  44 1.42
  36  0.134  0.866  0.750-  35 1.41   3 1.41  37 1.42
  37  0.201  0.799  0.750-  38 1.42  27 1.42  36 1.42
  38  0.334  0.864  0.750-   5 1.41  37 1.42  39 1.44
  39  0.402  0.797  0.750-  40 1.41  29 1.43  38 1.44
  40  0.534  0.866  0.750-  39 1.41  41 1.43   7 1.44
  41  0.602  0.799  0.750-  42 1.42  31 1.43  40 1.43
  42  0.735  0.870  0.750-   9 1.41  41 1.42  43 1.42
  43  0.804  0.805  0.750-  32 1.40  44 1.40  42 1.42
  44  0.936  0.869  0.750-  43 1.40   1 1.40  35 1.42
  45  0.521  0.260  0.750-  15 1.37  16 1.40  49 1.92
  46  0.393  0.388  0.750-  14 1.37  23 1.40  49 1.92
  47  0.740  0.479  0.750-  33 1.37  24 1.40  49 1.92
  48  0.612  0.607  0.750-  32 1.37  31 1.40  49 1.92
  49  0.567  0.433  0.751-  45 1.92  47 1.92  48 1.92  46 1.92
 

IMPORTANT INFORMATION: All symmetrisations will be switched off!
NOSYMM: (Re-)initialisation of all symmetry stuff for point group C_1.

 
 
 KPOINTS: K-POINTS                                

Automatic generation of k-mesh.
Space group operators:
 irot       det(A)        alpha          n_x          n_y          n_z        tau_x        tau_y        tau_z
    1     1.000000     0.000000     1.000000     0.000000     0.000000     0.000000     0.000000     0.000000
 
 Subroutine IBZKPT returns following result:
 ===========================================
 
 Found      4 irreducible k-points:
 
 Following reciprocal coordinates:
            Coordinates               Weight
  0.000000  0.000000  0.000000      1.000000
  0.500000 -0.000000  0.000000      1.000000
  0.000000  0.500000  0.000000      1.000000
  0.500000  0.500000  0.000000      1.000000
 
 Following cartesian coordinates:
            Coordinates               Weight
  0.000000  0.000000  0.000000      1.000000
  0.040650  0.023470  0.000000      1.000000
  0.000000  0.046939  0.000000      1.000000
  0.040650  0.070409  0.000000      1.000000
 


--------------------------------------------------------------------------------------------------------




 Dimension of arrays:
   k-points           NKPTS =      4   k-points in BZ     NKDIM =      4   number of bands    NBANDS=    256
   number of dos      NEDOS =    301   number of ions     NIONS =     49
   non local maximal  LDIM  =      6   non local SUM 2l+1 LMDIM =     18
   total plane-waves  NPLWV = ******
   max r-space proj   IRMAX =   6161   max aug-charges    IRDMAX=  20190
   dimension x,y,z NGX =    96 NGY =   96 NGZ =  150
   dimension x,y,z NGXF=   192 NGYF=  192 NGZF=  300
   support grid    NGXF=   192 NGYF=  192 NGZF=  300
   ions per type =              44   4   1
   NGX,Y,Z   is equivalent  to a cutoff of  12.98, 12.98, 12.47 a.u.
   NGXF,Y,Z  is equivalent  to a cutoff of  25.95, 25.95, 24.94 a.u.

 SYSTEM =  Ga-N-C                                  
 POSCAR =  C  N  Ga                                

 Startparameter for this run:
   NWRITE =      2    write-flag & timer
   PREC   = accura    normal or accurate (medium, high low for compatibility)
   ISTART =      1    job   : 0-new  1-cont  2-samecut
   ICHARG =      1    charge: 1-file 2-atom 10-const
   ISPIN  =      2    spin polarized calculation?
   LNONCOLLINEAR =      F non collinear calculations
   LSORBIT =      F    spin-orbit coupling
   INIWAV =      1    electr: 0-lowe 1-rand  2-diag
   LASPH  =      T    aspherical Exc in radial PAW
   METAGGA=      F    non-selfconsistent MetaGGA calc.

 Electronic Relaxation 1
   ENCUT  =  520.0 eV  38.22 Ry    6.18 a.u.  22.87 22.87 37.19*2*pi/ulx,y,z
   ENINI  =  520.0     initial cutoff
   ENAUG  =  644.9 eV  augmentation charge cutoff
   NELM   =     80;   NELMIN=  2; NELMDL=  0     # of ELM steps 
   EDIFF  = 0.1E-04   stopping-criterion for ELM
   LREAL  =      T    real-space projection
   NLSPLINE    = F    spline interpolate recip. space projectors
   LCOMPAT=      F    compatible to vasp.4.4
   GGA_COMPAT  = T    GGA compatible to vasp.4.4-vasp.4.6
   LMAXPAW     = -100 max onsite density
   LMAXMIX     =    2 max onsite mixed and CHGCAR
   VOSKOWN=      0    Vosko Wilk Nusair interpolation
   ROPT   =   -0.00025  -0.00025  -0.00025
 Ionic relaxation
   EDIFFG = -.3E-01   stopping-criterion for IOM
   NSW    =    300    number of steps for IOM
   NBLOCK =      1;   KBLOCK =    300    inner block; outer block 
   IBRION =      1    ionic relax: 0-MD 1-quasi-New 2-CG
   NFREE  =      0    steps in history (QN), initial steepest desc. (CG)
   ISIF   =      2    stress and relaxation
   IWAVPR =     11    prediction:  0-non 1-charg 2-wave 3-comb
   ISYM   =      0    0-nonsym 1-usesym 2-fastsym
   LCORR  =      T    Harris-Foulkes like correction to forces

   POTIM  = 0.2000    time-step for ionic-motion
   TEIN   =    0.0    initial temperature
   TEBEG  =    0.0;   TEEND  =   0.0 temperature during run
   SMASS  =  -3.00    Nose mass-parameter (am)
   estimated Nose-frequenzy (Omega)   =  0.10E-29 period in steps =****** mass=  -0.346E-26a.u.
   SCALEE = 1.0000    scale energy and forces
   NPACO  =    256;   APACO  = 16.0  distance and # of slots for P.C.
   PSTRESS=    0.0 pullay stress

  Mass of Ions in am
   POMASS =  12.01 14.00 69.72
  Ionic Valenz
   ZVAL   =   4.00  5.00 13.00
  Atomic Wigner-Seitz radii
   RWIGS  =  -1.00 -1.00 -1.00
  virtual crystal weights 
   VCA    =   1.00  1.00  1.00
   NELECT =     209.0000    total number of electrons
   NUPDOWN=      -1.0000    fix difference up-down

 DOS related values:
   EMIN   =  10.00;   EMAX   =-10.00  energy-range for DOS
   EFERMI =   0.00
   ISMEAR =     0;   SIGMA  =   0.10  broadening in eV -4-tet -1-fermi 0-gaus

 Electronic relaxation 2 (details)
   IALGO  =     38    algorithm
   LDIAG  =      T    sub-space diagonalisation (order eigenvalues)
   LSUBROT=      F    optimize rotation matrix (better conditioning)
   TURBO    =      0    0=normal 1=particle mesh
   IRESTART =      0    0=no restart 2=restart with 2 vectors
   NREBOOT  =      0    no. of reboots
   NMIN     =      0    reboot dimension
   EREF     =   0.00    reference energy to select bands
   IMIX   =      4    mixing-type and parameters
     AMIX     =   0.40;   BMIX     =  1.00
     AMIX_MAG =   1.60;   BMIX_MAG =  1.00
     AMIN     =   0.10
     WC   =   100.;   INIMIX=   1;  MIXPRE=   1;  MAXMIX= -45

 Intra band minimization:
   WEIMIN = 0.0010     energy-eigenvalue tresh-hold
   EBREAK =  0.98E-08  absolut break condition
   DEPER  =   0.30     relativ break condition  

   TIME   =   0.40     timestep for ELM

  volume/ion in A,a.u.               =      53.48       360.89
  Fermi-wavevector in a.u.,A,eV,Ry     =   0.704693  1.331677  6.756548  0.496592
  Thomas-Fermi vector in A             =   1.790004
 
 Write flags
   LWAVE        =      T    write WAVECAR
   LDOWNSAMPLE  =      F    k-point downsampling of WAVECAR
   LCHARG       =      T    write CHGCAR
   LVTOT        =      F    write LOCPOT, total local potential
   LVHAR        =      F    write LOCPOT, Hartree potential only
   LELF         =      F    write electronic localiz. function (ELF)
   LORBIT       =      0    0 simple, 1 ext, 2 COOP (PROOUT), +10 PAW based schemes


 Dipole corrections
   LMONO  =      F    monopole corrections only (constant potential shift)
   LDIPOL =      F    correct potential (dipole corrections)
   IDIPOL =      0    1-x, 2-y, 3-z, 4-all directions 
   EPSILON=  1.0000000 bulk dielectric constant

 Exchange correlation treatment:
   GGA     =    --    GGA type
   LEXCH   =     8    internal setting for exchange type
   VOSKOWN=      0    Vosko Wilk Nusair interpolation
   LHFCALC =     F    Hartree Fock is set to
   LHFONE  =     F    Hartree Fock one center treatment
   AEXX    =    0.0000 exact exchange contribution

 Linear response parameters
   LEPSILON=     F    determine dielectric tensor
   LRPA    =     F    only Hartree local field effects (RPA)
   LNABLA  =     F    use nabla operator in PAW spheres
   LVEL    =     F    velocity operator in full k-point grid
   LINTERFAST=   F  fast interpolation
   KINTER  =     0    interpolate to denser k-point grid
   CSHIFT  =0.1000    complex shift for real part using Kramers Kronig
   OMEGAMAX=  -1.0    maximum frequency
   DEG_THRESHOLD= 0.2000000E-02 threshold for treating states as degnerate
   RTIME   =   -0.100 relaxation time in fs
  (WPLASMAI=    0.000 imaginary part of plasma frequency in eV, 0.658/RTIME)
   DFIELD  = 0.0000000 0.0000000 0.0000000 field for delta impulse in time
 
 Orbital magnetization related:
   ORBITALMAG=     F  switch on orbital magnetization
   LCHIMAG   =     F  perturbation theory with respect to B field
   DQ        =  0.001000  dq finite difference perturbation B field
   LLRAUG    =     F  two centre corrections for induced B field



--------------------------------------------------------------------------------------------------------


 quasi-Newton-method for relaxation of ions
 charge density and potential will be updated during run
 spin polarized calculation
 Variant of blocked Davidson
 Davidson routine will perform the subspace rotation
 perform sub-space diagonalisation
    after iterative eigenvector-optimisation
 modified Broyden-mixing scheme, WC =      100.0
 initial mixing is a Kerker type mixing with AMIX =  0.4000 and BMIX =      1.0000
 Hartree-type preconditioning will be used
 using additional bands          151
 real space projection scheme for non local part
 use partial core corrections
 calculate Harris-corrections to forces 
   (improved forces if not selfconsistent)
 use gradient corrections 
 use of overlap-Matrix (Vanderbilt PP)
 Gauss-broadening in eV      SIGMA  =   0.10


--------------------------------------------------------------------------------------------------------


  energy-cutoff  :      520.00
  volume of cell :     2620.42
      direct lattice vectors                 reciprocal lattice vectors
    12.300000000  0.000000000  0.000000000     0.081300813  0.046939046  0.000000000
    -6.150000000 10.652112467  0.000000000     0.000000000  0.093878093  0.000000000
     0.000000000  0.000000000 20.000000000     0.000000000  0.000000000  0.050000000

  length of vectors
    12.300000000 12.300000000 20.000000000     0.093878093  0.093878093  0.050000000


 
 old parameters found on file WAVECAR:
  energy-cutoff  :      520.00
  volume of cell :     2620.42
      direct lattice vectors                 reciprocal lattice vectors
    12.300000000  0.000000000  0.000000000     0.081300813  0.046939046  0.000000000
    -6.150000000 10.652112467  0.000000000     0.000000000  0.093878093  0.000000000
     0.000000000  0.000000000 20.000000000     0.000000000  0.000000000  0.050000000

  length of vectors

 
 k-points in units of 2pi/SCALE and weight: K-POINTS                                
   0.00000000  0.00000000  0.00000000       0.250
   0.04065041  0.02346952  0.00000000       0.250
   0.00000000  0.04693905  0.00000000       0.250
   0.04065041  0.07040857  0.00000000       0.250
 
 k-points in reciprocal lattice and weights: K-POINTS                                
   0.00000000  0.00000000  0.00000000       0.250
   0.50000000 -0.00000000  0.00000000       0.250
   0.00000000  0.50000000  0.00000000       0.250
   0.50000000  0.50000000  0.00000000       0.250
 
 position of ions in fractional coordinates (direct lattice) 
   0.99896937  0.00103055  0.74999964
   0.13080295  0.06437559  0.74999540
   0.19771697  0.99751526  0.74999540
   0.32929495  0.06169705  0.74998515
   0.39808753  0.99674727  0.75000056
   0.53159631  0.06737918  0.74999720
   0.59942388  0.00088440  0.74999127
   0.73190105  0.06961230  0.74999883
   0.79933878  0.00238060  0.75000240
   0.93220096  0.06779903  0.75000061
   0.99761940  0.20066117  0.75000241
   0.13004453  0.26472522  0.75000056
   0.19485729  0.19589077  0.74998517
   0.32605347  0.25979540  0.74996995
   0.39309685  0.19281015  0.74997059
   0.59349209  0.20128155  0.75002775
   0.72815506  0.27184485  0.75001285
   0.79636461  0.20363533  0.74999877
   0.93038770  0.26809888  0.74999884
   0.99911560  0.40057606  0.74999127
   0.13426606  0.46601831  0.74999122
   0.20072173  0.39822235  0.74999508
   0.33463970  0.46018862  0.75003189
   0.79871839  0.40650782  0.75002775
   0.93262083  0.46840367  0.74999719
   0.00325272  0.60191229  0.75000055
   0.13567407  0.66594710  0.75000238
   0.20296147  0.59849605  0.74999886
   0.33693950  0.66306051  0.74999873
   0.40515214  0.59484788  0.75001179
   0.53981139  0.66536030  0.75003189
   0.74020465  0.67394652  0.74996994
   0.80718988  0.60690313  0.74997059
   0.93830295  0.67070500  0.74998514
   0.00248470  0.80228295  0.74999539
   0.13437183  0.86562811  0.74999966
   0.20116621  0.79883376  0.75000061
   0.33405282  0.86432589  0.75000239
   0.40150395  0.79703857  0.74999887
   0.53398163  0.86573396  0.74999122
   0.60177765  0.79927829  0.74999507
   0.73527479  0.86995548  0.75000055
   0.80410925  0.80514270  0.74998516
   0.93562444  0.86919700  0.74999540
   0.52141169  0.25999728  0.75007688
   0.39327559  0.38808207  0.75007636
   0.74000273  0.47858828  0.75007689
   0.61191797  0.60672443  0.75007637
   0.56665994  0.43334006  0.75078760
 
 position of ions in cartesian coordinates  (Angst):
  12.28098531  0.01097755 14.99999279
   1.21296643  0.68573606 14.99990799
  -3.70280010 10.62564470 14.99990797
   3.67089108  0.65720390 14.99970296
  -1.23351912 10.61746400 15.00001120
   6.12425270  0.71773061 14.99994394
   7.36747463  0.00942074 14.99982541
   8.57426720  0.74151810 14.99997657
   9.81722627  0.02535844 15.00004797
  11.04910773  0.72220290 15.00001224
  11.03665246  2.13746536 15.00004811
  -0.02851234  2.81988279 15.00001115
   1.19201640  2.08665053 14.99970343
   2.41271592  2.76736981 14.99939894
   3.64930887  2.05383543 14.99941185
   6.06207117  2.14407376 15.00055502
   7.28446137  2.89572189 15.00025706
   8.54292744  2.16914646 14.99997534
   9.79496056  2.85581939 14.99997672
   9.82557917  4.26698122 14.99982533
  -1.21454014  4.96407950 14.99982437
   0.01980981  4.24190925 14.99990159
   1.28590827  4.90198092 15.00063783
   7.32421311  4.33016707 15.00055502
   8.59055362  4.98948853 14.99994380
  -3.66175216  6.41163737 15.00001096
  -2.42678360  7.09374343 15.00004760
  -1.18432461  6.37524720 14.99997720
   0.06653363  7.06299518 14.99997461
   1.32505688  6.33638655 15.00023578
   2.54771428  7.08749276 15.00063776
   4.95974611  7.17895409 14.99939872
   6.19598122  6.46480041 14.99941171
   7.41629053  7.14442507 14.99970289
  -4.90347829  8.54600820 14.99990780
  -3.67083928  9.22076794 14.99999317
  -2.43848328  8.50926702 15.00001213
  -1.20675461  9.20689664 15.00004783
   0.03671132  8.49014453 14.99997734
   1.24371022  9.22189549 14.99982442
   2.48630355  8.51400229 14.99990140
   3.69365367  9.26686362 15.00001095
   4.93891615  8.57647060 14.99970326
   6.16261913  9.25878415 14.99990796
   4.81438059  2.76952023 15.00153757
   2.45058497  4.13389385 15.00152729
   6.15871568  5.09797622 15.00153777
   3.79523583  6.46289684 15.00152736
   4.30487590  4.61598711 15.01575192
 


--------------------------------------------------------------------------------------------------------


 k-point  1 :   0.0000 0.0000 0.0000  plane waves:   70503
 k-point  2 :   0.5000-0.0000 0.0000  plane waves:   70542
 k-point  3 :   0.0000 0.5000 0.0000  plane waves:   70542
 k-point  4 :   0.5000 0.5000 0.0000  plane waves:   70542

 maximum and minimum number of plane-waves per node :     70542    70503

 maximum number of plane-waves:     70542
 maximum index in each direction: 
   IXMAX=   22   IYMAX=   22   IZMAX=   37
   IXMIN=  -23   IYMIN=  -23   IZMIN=  -37


 serial   3D FFT for wavefunctions
 parallel 3D FFT for charge:
    minimum data exchange during FFTs selected (reduces bandwidth)


 total amount of memory used by VASP MPI-rank0   179243. kBytes
=======================================================================

   base      :      30000. kBytes
   nonlr-proj:      15080. kBytes
   fftplans  :       7547. kBytes
   grid      :     115983. kBytes
   one-center:       1524. kBytes
   wavefun   :       9109. kBytes
 
     INWAV:  cpu time   18.8483: real time   19.0059
 Broyden mixing: mesh for mixing (old mesh)
   NGX = 45   NGY = 45   NGZ = 75
  (NGX  =192   NGY  =192   NGZ  =300)
  gives a total of 151875 points

 initial charge density was supplied:
 charge density of overlapping atoms calculated
 number of electron     209.0000000 magnetization       1.0000000
 keeping initial charge density in first step


--------------------------------------------------------------------------------------------------------


 Maximum index for non-local projection operator         5936
 Maximum index for augmentation-charges          361 (set IRDMAX)


--------------------------------------------------------------------------------------------------------


 First call to EWALD:  gamma=   0.129
 Maximum number of real-space cells 3x 3x 2
 Maximum number of reciprocal cells 3x 3x 4

    FEWALD:  cpu time    0.0238: real time    0.0263


--------------------------------------- Iteration      1(   1)  ---------------------------------------


    POTLOK:  cpu time    2.3821: real time    2.4273
    SETDIJ:  cpu time    0.5389: real time    0.5528
     EDDAV:  cpu time  105.1825: real time  108.9171
       DOS:  cpu time    0.0708: real time    0.0898
    CHARGE:  cpu time    1.8680: real time    1.8779
    MIXING:  cpu time    0.0414: real time    0.0701
    --------------------------------------------
      LOOP:  cpu time  110.0838: real time  113.9352

 eigenvalue-minimisations  :  8192
 total energy-change (2. order) :-0.4724199E+03  (-0.1224227E+02)
 number of electron     208.9999996 magnetization       0.8585533
 augmentation part       14.4287348 magnetization       0.8511469

 Broyden mixing:
  rms(total) = 0.28362E+01    rms(broyden)= 0.28356E+01
  rms(prec ) = 0.30934E+01
  weight for this iteration     100.00

 Free energy of the ion-electron system (eV)
  ---------------------------------------------------
  alpha Z        PSCENC =        89.70403219
  Ewald energy   TEWEN  =     35049.56210806
  -Hartree energ DENC   =    -42223.04459506
  -exchange      EXHF   =         0.00000000
  -V(xc)+E(xc)   XCENC  =       751.04408309
  PAW double counting   =      3537.08493216    -3946.22726898
  entropy T*S    EENTRO =        -0.03884642
  eigenvalues    EBANDS =     -3412.25894144
  atomic energy  EATOM  =      9681.75459483
  Solvation  Ediel_sol  =         0.00000000
  ---------------------------------------------------
  free energy    TOTEN  =      -472.41990157 eV

  energy without entropy =     -472.38105515  energy(sigma->0) =     -472.40047836


--------------------------------------------------------------------------------------------------------




--------------------------------------- Iteration      1(   2)  ---------------------------------------


    POTLOK:  cpu time    2.3260: real time    2.3339
    SETDIJ:  cpu time    0.5389: real time    0.5389
     EDDAV:  cpu time   53.2714: real time   53.3430
       DOS:  cpu time    0.0555: real time    0.0556
    CHARGE:  cpu time    1.9201: real time    1.9202
    MIXING:  cpu time    0.0418: real time    0.0526
    --------------------------------------------
      LOOP:  cpu time   58.1538: real time   58.2441

 eigenvalue-minimisations  :  6144
 total energy-change (2. order) : 0.2388878E+02  (-0.3332099E+01)
 number of electron     208.9999997 magnetization       0.6876488
 augmentation part       14.0414535 magnetization       0.5715205

 Broyden mixing:
  rms(total) = 0.14267E+01    rms(broyden)= 0.14266E+01
  rms(prec ) = 0.15623E+01
  weight for this iteration     100.00

 eigenvalues of (default mixing * dielectric matrix)
  average eigenvalue GAMMA=   1.1963
  1.1963

 Free energy of the ion-electron system (eV)
  ---------------------------------------------------
  alpha Z        PSCENC =        89.70403219
  Ewald energy   TEWEN  =     35049.56210806
  -Hartree energ DENC   =    -42498.82952238
  -exchange      EXHF   =         0.00000000
  -V(xc)+E(xc)   XCENC  =       763.77054725
  PAW double counting   =      4255.16447109    -4668.08390315
  entropy T*S    EENTRO =        -0.03785568
  eigenvalues    EBANDS =     -3121.53559738
  atomic energy  EATOM  =      9681.75459483
  Solvation  Ediel_sol  =         0.00000000
  ---------------------------------------------------
  free energy    TOTEN  =      -448.53112517 eV

  energy without entropy =     -448.49326948  energy(sigma->0) =     -448.51219733


--------------------------------------------------------------------------------------------------------




--------------------------------------- Iteration      1(   3)  ---------------------------------------


    POTLOK:  cpu time    2.3383: real time    2.3384
    SETDIJ:  cpu time    0.5307: real time    0.5307
     EDDAV:  cpu time   83.9224: real time   83.9904
       DOS:  cpu time    0.0567: real time    0.0567
    CHARGE:  cpu time    1.8921: real time    1.8922
    MIXING:  cpu time    0.0487: real time    0.0487
    --------------------------------------------
      LOOP:  cpu time   88.7889: real time   88.8572

 eigenvalue-minimisations  :  8192
 total energy-change (2. order) : 0.7530946E+01  (-0.1803375E+01)
 number of electron     208.9999996 magnetization       0.5802817
 augmentation part       13.7849510 magnetization       0.5114221

 Broyden mixing:
  rms(total) = 0.51084E+00    rms(broyden)= 0.51072E+00
  rms(prec ) = 0.55135E+00
  weight for this iteration     100.00

 eigenvalues of (default mixing * dielectric matrix)
  average eigenvalue GAMMA=   1.3390
  0.7314  1.9466

 Free energy of the ion-electron system (eV)
  ---------------------------------------------------
  alpha Z        PSCENC =        89.70403219
  Ewald energy   TEWEN  =     35049.56210806
  -Hartree energ DENC   =    -42754.57349151
  -exchange      EXHF   =         0.00000000
  -V(xc)+E(xc)   XCENC  =       774.78827422
  PAW double counting   =      4942.98229260    -5363.21200799
  entropy T*S    EENTRO =        -0.03994910
  eigenvalues    EBANDS =     -2861.96603260
  atomic energy  EATOM  =      9681.75459483
  Solvation  Ediel_sol  =         0.00000000
  ---------------------------------------------------
  free energy    TOTEN  =      -441.00017929 eV

  energy without entropy =     -440.96023019  energy(sigma->0) =     -440.98020474


--------------------------------------------------------------------------------------------------------




--------------------------------------- Iteration      1(   4)  ---------------------------------------


    POTLOK:  cpu time    2.3151: real time    2.3164
    SETDIJ:  cpu time    0.5254: real time    0.5255
     EDDAV:  cpu time   71.1836: real time   71.2067
       DOS:  cpu time    0.0946: real time    0.0946
    CHARGE:  cpu time    1.8835: real time    1.8836
    MIXING:  cpu time    0.0458: real time    0.0458
    --------------------------------------------
      LOOP:  cpu time   76.0480: real time   76.0725

 eigenvalue-minimisations  :  7168
 total energy-change (2. order) : 0.5262582E+00  (-0.1370661E+00)
 number of electron     208.9999997 magnetization       0.4751482
 augmentation part       13.7055451 magnetization       0.3941480

 Broyden mixing:
  rms(total) = 0.21012E+00    rms(broyden)= 0.21008E+00
  rms(prec ) = 0.24220E+00
  weight for this iteration     100.00

 eigenvalues of (default mixing * dielectric matrix)
  average eigenvalue GAMMA=   1.3420
  2.0441  1.2768  0.7052

 Free energy of the ion-electron system (eV)
  ---------------------------------------------------
  alpha Z        PSCENC =        89.70403219
  Ewald energy   TEWEN  =     35049.56210806
  -Hartree energ DENC   =    -42852.25215152
  -exchange      EXHF   =         0.00000000
  -V(xc)+E(xc)   XCENC  =       778.18669012
  PAW double counting   =      5175.41485522    -5598.12545363
  entropy T*S    EENTRO =        -0.04020845
  eigenvalues    EBANDS =     -2764.67838788
  atomic energy  EATOM  =      9681.75459483
  Solvation  Ediel_sol  =         0.00000000
  ---------------------------------------------------
  free energy    TOTEN  =      -440.47392106 eV

  energy without entropy =     -440.43371262  energy(sigma->0) =     -440.45381684


--------------------------------------------------------------------------------------------------------




--------------------------------------- Iteration      1(   5)  ---------------------------------------


    POTLOK:  cpu time    2.3379: real time    2.3400
    SETDIJ:  cpu time    0.5295: real time    0.5295
     EDDAV:  cpu time   77.3392: real time   77.3949
       DOS:  cpu time    0.0587: real time    0.0588
    CHARGE:  cpu time    1.8000: real time    1.8001
    MIXING:  cpu time    0.0482: real time    0.0482
    --------------------------------------------
      LOOP:  cpu time   82.1136: real time   82.1714

 eigenvalue-minimisations  :  7680
 total energy-change (2. order) : 0.1105751E+00  (-0.1085871E-01)
 number of electron     208.9999997 magnetization       0.3612454
 augmentation part       13.6976682 magnetization       0.2957047

 Broyden mixing:
  rms(total) = 0.97355E-01    rms(broyden)= 0.97346E-01
  rms(prec ) = 0.12856E+00
  weight for this iteration     100.00

 eigenvalues of (default mixing * dielectric matrix)
  average eigenvalue GAMMA=   1.4413
  2.3072  1.9400  0.8320  0.6861

 Free energy of the ion-electron system (eV)
  ---------------------------------------------------
  alpha Z        PSCENC =        89.70403219
  Ewald energy   TEWEN  =     35049.56210806
  -Hartree energ DENC   =    -42900.63442282
  -exchange      EXHF   =         0.00000000
  -V(xc)+E(xc)   XCENC  =       778.93074689
  PAW double counting   =      5233.92666433    -5656.94764899
  entropy T*S    EENTRO =        -0.04001209
  eigenvalues    EBANDS =     -2716.61940833
  atomic energy  EATOM  =      9681.75459483
  Solvation  Ediel_sol  =         0.00000000
  ---------------------------------------------------
  free energy    TOTEN  =      -440.36334592 eV

  energy without entropy =     -440.32333383  energy(sigma->0) =     -440.34333988


--------------------------------------------------------------------------------------------------------




--------------------------------------- Iteration      1(   6)  ---------------------------------------


    POTLOK:  cpu time    2.3486: real time    2.3487
    SETDIJ:  cpu time    0.5266: real time    0.5266
     EDDAV:  cpu time   84.0806: real time   84.1002
       DOS:  cpu time    0.0477: real time    0.0477
    CHARGE:  cpu time    1.8285: real time    1.8286
    MIXING:  cpu time    0.0500: real time    0.0500
    --------------------------------------------
      LOOP:  cpu time   88.8821: real time   88.9018

 eigenvalue-minimisations  :  8192
 total energy-change (2. order) : 0.5409533E-01  (-0.4545508E-02)
 number of electron     208.9999997 magnetization       0.2991995
 augmentation part       13.7001494 magnetization       0.2540261

 Broyden mixing:
  rms(total) = 0.36697E-01    rms(broyden)= 0.36690E-01
  rms(prec ) = 0.68665E-01
  weight for this iteration     100.00

 eigenvalues of (default mixing * dielectric matrix)
  average eigenvalue GAMMA=   1.3744
  2.5064  2.0023  0.9593  0.7489  0.6550

 Free energy of the ion-electron system (eV)
  ---------------------------------------------------
  alpha Z        PSCENC =        89.70403219
  Ewald energy   TEWEN  =     35049.56210806
  -Hartree energ DENC   =    -42945.12634418
  -exchange      EXHF   =         0.00000000
  -V(xc)+E(xc)   XCENC  =       779.44850389
  PAW double counting   =      5258.06350674    -5680.63674587
  entropy T*S    EENTRO =        -0.04010636
  eigenvalues    EBANDS =     -2673.03879989
  atomic energy  EATOM  =      9681.75459483
  Solvation  Ediel_sol  =         0.00000000
  ---------------------------------------------------
  free energy    TOTEN  =      -440.30925059 eV

  energy without entropy =     -440.26914423  energy(sigma->0) =     -440.28919741


--------------------------------------------------------------------------------------------------------




--------------------------------------- Iteration      1(   7)  ---------------------------------------


    POTLOK:  cpu time    2.3438: real time    2.3446
    SETDIJ:  cpu time    0.5260: real time    0.5260
     EDDAV:  cpu time   51.7208: real time   51.7243
       DOS:  cpu time    0.0565: real time    0.0565
    CHARGE:  cpu time    1.8505: real time    1.8506
    MIXING:  cpu time    0.0519: real time    0.0519
    --------------------------------------------
      LOOP:  cpu time   56.5495: real time   56.5539

 eigenvalue-minimisations  :  5632
 total energy-change (2. order) : 0.1092807E-01  (-0.8751952E-03)
 number of electron     208.9999997 magnetization       0.1689602
 augmentation part       13.6991492 magnetization       0.1293001

 Broyden mixing:
  rms(total) = 0.26604E-01    rms(broyden)= 0.26602E-01
  rms(prec ) = 0.53922E-01
  weight for this iteration     100.00

 eigenvalues of (default mixing * dielectric matrix)
  average eigenvalue GAMMA=   1.4200
  2.6001  2.1425  1.4798  0.9240  0.7320  0.6419

 Free energy of the ion-electron system (eV)
  ---------------------------------------------------
  alpha Z        PSCENC =        89.70403219
  Ewald energy   TEWEN  =     35049.56210806
  -Hartree energ DENC   =    -42966.34563913
  -exchange      EXHF   =         0.00000000
  -V(xc)+E(xc)   XCENC  =       779.66414165
  PAW double counting   =      5254.83513769    -5677.13674229
  entropy T*S    EENTRO =        -0.04019336
  eigenvalues    EBANDS =     -2652.29576217
  atomic energy  EATOM  =      9681.75459483
  Solvation  Ediel_sol  =         0.00000000
  ---------------------------------------------------
  free energy    TOTEN  =      -440.29832252 eV

  energy without entropy =     -440.25812916  energy(sigma->0) =     -440.27822584


--------------------------------------------------------------------------------------------------------




--------------------------------------- Iteration      1(   8)  ---------------------------------------


    POTLOK:  cpu time    2.3304: real time    2.3304
    SETDIJ:  cpu time    0.5407: real time    0.5407
     EDDAV:  cpu time   79.5148: real time   79.6205
       DOS:  cpu time    0.0571: real time    0.0571
    CHARGE:  cpu time    1.8083: real time    1.8083
    MIXING:  cpu time    0.0526: real time    0.0526
    --------------------------------------------
      LOOP:  cpu time   84.3038: real time   84.4097

 eigenvalue-minimisations  :  7936
 total energy-change (2. order) : 0.5705506E-02  (-0.2514799E-02)
 number of electron     208.9999997 magnetization       0.0821047
 augmentation part       13.6943172 magnetization       0.0590312

 Broyden mixing:
  rms(total) = 0.14810E-01    rms(broyden)= 0.14806E-01
  rms(prec ) = 0.30289E-01
  weight for this iteration     100.00

 eigenvalues of (default mixing * dielectric matrix)
  average eigenvalue GAMMA=   1.5547
  3.3972  2.4467  1.8159  1.0138  0.8462  0.7276  0.6356

 Free energy of the ion-electron system (eV)
  ---------------------------------------------------
  alpha Z        PSCENC =        89.70403219
  Ewald energy   TEWEN  =     35049.56210806
  -Hartree energ DENC   =    -43008.90227255
  -exchange      EXHF   =         0.00000000
  -V(xc)+E(xc)   XCENC  =       780.04830935
  PAW double counting   =      5242.94027291    -5665.02284897
  entropy T*S    EENTRO =        -0.04033468
  eigenvalues    EBANDS =     -2610.33647816
  atomic energy  EATOM  =      9681.75459483
  Solvation  Ediel_sol  =         0.00000000
  ---------------------------------------------------
  free energy    TOTEN  =      -440.29261702 eV

  energy without entropy =     -440.25228234  energy(sigma->0) =     -440.27244968


--------------------------------------------------------------------------------------------------------




--------------------------------------- Iteration      1(   9)  ---------------------------------------


    POTLOK:  cpu time    2.3168: real time    2.3188
    SETDIJ:  cpu time    0.5472: real time    0.5473
     EDDAV:  cpu time   79.6746: real time   79.7190
       DOS:  cpu time    0.0545: real time    0.0545
    CHARGE:  cpu time    1.8513: real time    1.8583
    MIXING:  cpu time    0.0565: real time    0.0565
    --------------------------------------------
      LOOP:  cpu time   84.5010: real time   84.5545

 eigenvalue-minimisations  :  7936
 total energy-change (2. order) : 0.4704011E-02  (-0.1144229E-02)
 number of electron     208.9999997 magnetization       0.0337521
 augmentation part       13.6912963 magnetization       0.0211408

 Broyden mixing:
  rms(total) = 0.99498E-02    rms(broyden)= 0.99475E-02
  rms(prec ) = 0.18084E-01
  weight for this iteration     100.00

 eigenvalues of (default mixing * dielectric matrix)
  average eigenvalue GAMMA=   1.6755
  4.5488  2.4956  1.8783  1.3888  0.9642  0.7717  0.7246  0.6324

 Free energy of the ion-electron system (eV)
  ---------------------------------------------------
  alpha Z        PSCENC =        89.70403219
  Ewald energy   TEWEN  =     35049.56210806
  -Hartree energ DENC   =    -43035.85603744
  -exchange      EXHF   =         0.00000000
  -V(xc)+E(xc)   XCENC  =       780.22616914
  PAW double counting   =      5237.82820134    -5660.03083482
  entropy T*S    EENTRO =        -0.04035911
  eigenvalues    EBANDS =     -2583.43578720
  atomic energy  EATOM  =      9681.75459483
  Solvation  Ediel_sol  =         0.00000000
  ---------------------------------------------------
  free energy    TOTEN  =      -440.28791300 eV

  energy without entropy =     -440.24755389  energy(sigma->0) =     -440.26773345


--------------------------------------------------------------------------------------------------------




--------------------------------------- Iteration      1(  10)  ---------------------------------------


    POTLOK:  cpu time    2.3009: real time    2.3148
    SETDIJ:  cpu time    0.5962: real time    0.6328
     EDDAV:  cpu time   38.9131: real time   39.0085
       DOS:  cpu time    0.0564: real time    0.0564
    CHARGE:  cpu time    1.8902: real time    1.8908
    MIXING:  cpu time    0.1092: real time    0.1093
    --------------------------------------------
      LOOP:  cpu time   43.8659: real time   44.0125

 eigenvalue-minimisations  :  4608
 total energy-change (2. order) :-0.9344855E-02  (-0.2385168E-03)
 number of electron     208.9999997 magnetization       0.0068695
 augmentation part       13.6902269 magnetization       0.0020866

 Broyden mixing:
  rms(total) = 0.62494E-02    rms(broyden)= 0.62482E-02
  rms(prec ) = 0.10979E-01
  weight for this iteration     100.00

 eigenvalues of (default mixing * dielectric matrix)
  average eigenvalue GAMMA=   1.8053
  5.6395  2.5949  2.1577  1.7575  1.0842  0.9262  0.7309  0.7252  0.6313

 Free energy of the ion-electron system (eV)
  ---------------------------------------------------
  alpha Z        PSCENC =        89.70403219
  Ewald energy   TEWEN  =     35049.56210806
  -Hartree energ DENC   =    -43050.25052194
  -exchange      EXHF   =         0.00000000
  -V(xc)+E(xc)   XCENC  =       780.28645112
  PAW double counting   =      5238.11061918    -5660.35671943
  entropy T*S    EENTRO =        -0.04036104
  eigenvalues    EBANDS =     -2569.06746082
  atomic energy  EATOM  =      9681.75459483
  Solvation  Ediel_sol  =         0.00000000
  ---------------------------------------------------
  free energy    TOTEN  =      -440.29725786 eV

  energy without entropy =     -440.25689682  energy(sigma->0) =     -440.27707734


--------------------------------------------------------------------------------------------------------




--------------------------------------- Iteration      1(  11)  ---------------------------------------


    POTLOK:  cpu time    2.3389: real time    2.3400
    SETDIJ:  cpu time    0.5475: real time    0.5476
     EDDAV:  cpu time   69.0395: real time   69.1813
       DOS:  cpu time    0.0543: real time    0.0543
    CHARGE:  cpu time    1.9049: real time    1.9050
    MIXING:  cpu time    0.0576: real time    0.0576
    --------------------------------------------
      LOOP:  cpu time   73.9427: real time   74.0858

 eigenvalue-minimisations  :  7168
 total energy-change (2. order) :-0.1601235E-01  (-0.1503248E-03)
 number of electron     208.9999997 magnetization       0.0007596
 augmentation part       13.6903049 magnetization       0.0003499

 Broyden mixing:
  rms(total) = 0.36455E-02    rms(broyden)= 0.36448E-02
  rms(prec ) = 0.60331E-02
  weight for this iteration     100.00

 eigenvalues of (default mixing * dielectric matrix)
  average eigenvalue GAMMA=   1.8663
  6.4994  2.8748  2.3789  1.8384  1.2492  0.9784  0.8020  0.6308  0.7265  0.6846

 Free energy of the ion-electron system (eV)
  ---------------------------------------------------
  alpha Z        PSCENC =        89.70403219
  Ewald energy   TEWEN  =     35049.56210806
  -Hartree energ DENC   =    -43057.65404395
  -exchange      EXHF   =         0.00000000
  -V(xc)+E(xc)   XCENC  =       780.27663996
  PAW double counting   =      5239.83390468    -5662.02733433
  entropy T*S    EENTRO =        -0.04036071
  eigenvalues    EBANDS =     -2561.72281093
  atomic energy  EATOM  =      9681.75459483
  Solvation  Ediel_sol  =         0.00000000
  ---------------------------------------------------
  free energy    TOTEN  =      -440.31327021 eV

  energy without entropy =     -440.27290950  energy(sigma->0) =     -440.29308986


--------------------------------------------------------------------------------------------------------




--------------------------------------- Iteration      1(  12)  ---------------------------------------


    POTLOK:  cpu time    2.3508: real time    2.3510
    SETDIJ:  cpu time    0.5278: real time    0.5278
     EDDAV:  cpu time   62.1606: real time   62.3045
       DOS:  cpu time    0.0558: real time    0.0558
    CHARGE:  cpu time    1.8373: real time    1.8373
    MIXING:  cpu time    0.0559: real time    0.0559
    --------------------------------------------
      LOOP:  cpu time   66.9882: real time   67.1323

 eigenvalue-minimisations  :  6656
 total energy-change (2. order) :-0.8322045E-02  (-0.6445714E-04)
 number of electron     208.9999997 magnetization      -0.0024294
 augmentation part       13.6907133 magnetization      -0.0022446

 Broyden mixing:
  rms(total) = 0.22369E-02    rms(broyden)= 0.22369E-02
  rms(prec ) = 0.36380E-02
  weight for this iteration     100.00

 eigenvalues of (default mixing * dielectric matrix)
  average eigenvalue GAMMA=   1.9305
  7.1010  3.2997  2.4756  1.9571  1.5024  1.1589  0.9468  0.7746  0.7264  0.6298
  0.6628

 Free energy of the ion-electron system (eV)
  ---------------------------------------------------
  alpha Z        PSCENC =        89.70403219
  Ewald energy   TEWEN  =     35049.56210806
  -Hartree energ DENC   =    -43059.15331782
  -exchange      EXHF   =         0.00000000
  -V(xc)+E(xc)   XCENC  =       780.24769736
  PAW double counting   =      5240.33985637    -5662.51609374
  entropy T*S    EENTRO =        -0.04035894
  eigenvalues    EBANDS =     -2560.22011057
  atomic energy  EATOM  =      9681.75459483
  Solvation  Ediel_sol  =         0.00000000
  ---------------------------------------------------
  free energy    TOTEN  =      -440.32159226 eV

  energy without entropy =     -440.28123332  energy(sigma->0) =     -440.30141279


--------------------------------------------------------------------------------------------------------




--------------------------------------- Iteration      1(  13)  ---------------------------------------


    POTLOK:  cpu time    2.3645: real time    2.3649
    SETDIJ:  cpu time    0.5292: real time    0.5292
     EDDAV:  cpu time   65.2166: real time   65.3228
       DOS:  cpu time    0.0733: real time    0.0733
    CHARGE:  cpu time    1.8551: real time    1.8552
    MIXING:  cpu time    0.0617: real time    0.0617
    --------------------------------------------
      LOOP:  cpu time   70.1005: real time   70.2072

 eigenvalue-minimisations  :  6912
 total energy-change (2. order) :-0.5610233E-02  (-0.5418920E-04)
 number of electron     208.9999997 magnetization      -0.0034083
 augmentation part       13.6907149 magnetization      -0.0030130

 Broyden mixing:
  rms(total) = 0.11627E-02    rms(broyden)= 0.11626E-02
  rms(prec ) = 0.18330E-02
  weight for this iteration     100.00

 eigenvalues of (default mixing * dielectric matrix)
  average eigenvalue GAMMA=   1.9902
  7.6846  3.9484  2.5601  2.1284  1.7620  1.2282  0.9871  0.8414  0.7440  0.7228
  0.6285  0.6470

 Free energy of the ion-electron system (eV)
  ---------------------------------------------------
  alpha Z        PSCENC =        89.70403219
  Ewald energy   TEWEN  =     35049.56210806
  -Hartree energ DENC   =    -43060.31733442
  -exchange      EXHF   =         0.00000000
  -V(xc)+E(xc)   XCENC  =       780.23186803
  PAW double counting   =      5240.35557007    -5662.54442578
  entropy T*S    EENTRO =        -0.04035920
  eigenvalues    EBANDS =     -2559.03325625
  atomic energy  EATOM  =      9681.75459483
  Solvation  Ediel_sol  =         0.00000000
  ---------------------------------------------------
  free energy    TOTEN  =      -440.32720249 eV

  energy without entropy =     -440.28684328  energy(sigma->0) =     -440.30702289


--------------------------------------------------------------------------------------------------------




--------------------------------------- Iteration      1(  14)  ---------------------------------------


    POTLOK:  cpu time    2.3386: real time    2.3387
    SETDIJ:  cpu time    0.5338: real time    0.5338
     EDDAV:  cpu time   64.2269: real time   64.4333
       DOS:  cpu time    0.0548: real time    0.0548
    CHARGE:  cpu time    1.8404: real time    1.8404
    MIXING:  cpu time    0.0625: real time    0.0625
    --------------------------------------------
      LOOP:  cpu time   69.0568: real time   69.2635

 eigenvalue-minimisations  :  6912
 total energy-change (2. order) :-0.1479392E-02  (-0.8168477E-05)
 number of electron     208.9999997 magnetization      -0.0029524
 augmentation part       13.6905129 magnetization      -0.0025937

 Broyden mixing:
  rms(total) = 0.64987E-03    rms(broyden)= 0.64985E-03
  rms(prec ) = 0.11210E-02
  weight for this iteration     100.00

 eigenvalues of (default mixing * dielectric matrix)
  average eigenvalue GAMMA=   2.0100
  7.9986  4.3647  2.6142  2.2717  1.8758  1.3288  1.1847  0.9701  0.8144  0.7345
  0.7104  0.6347  0.6272

 Free energy of the ion-electron system (eV)
  ---------------------------------------------------
  alpha Z        PSCENC =        89.70403219
  Ewald energy   TEWEN  =     35049.56210806
  -Hartree energ DENC   =    -43061.08908630
  -exchange      EXHF   =         0.00000000
  -V(xc)+E(xc)   XCENC  =       780.23512348
  PAW double counting   =      5240.21903977    -5662.41604686
  entropy T*S    EENTRO =        -0.04036086
  eigenvalues    EBANDS =     -2558.25808618
  atomic energy  EATOM  =      9681.75459483
  Solvation  Ediel_sol  =         0.00000000
  ---------------------------------------------------
  free energy    TOTEN  =      -440.32868188 eV

  energy without entropy =     -440.28832102  energy(sigma->0) =     -440.30850145


--------------------------------------------------------------------------------------------------------




--------------------------------------- Iteration      1(  15)  ---------------------------------------


    POTLOK:  cpu time    2.3022: real time    2.3201
    SETDIJ:  cpu time    0.5271: real time    0.5271
     EDDAV:  cpu time   42.7206: real time   42.8000
       DOS:  cpu time    0.0571: real time    0.0571
    CHARGE:  cpu time    1.8275: real time    1.8421
    MIXING:  cpu time    0.0820: real time    0.0820
    --------------------------------------------
      LOOP:  cpu time   47.5164: real time   47.6283

 eigenvalue-minimisations  :  5120
 total energy-change (2. order) :-0.7846450E-03  (-0.4412102E-05)
 number of electron     208.9999997 magnetization      -0.0019981
 augmentation part       13.6904653 magnetization      -0.0016158

 Broyden mixing:
  rms(total) = 0.34906E-03    rms(broyden)= 0.34905E-03
  rms(prec ) = 0.69459E-03
  weight for this iteration     100.00

 eigenvalues of (default mixing * dielectric matrix)
  average eigenvalue GAMMA=   2.0359
  8.2496  4.7484  2.8051  2.4411  1.9192  1.6898  1.2270  1.0172  0.9055  0.8036
  0.7342  0.7039  0.6314  0.6263

 Free energy of the ion-electron system (eV)
  ---------------------------------------------------
  alpha Z        PSCENC =        89.70403219
  Ewald energy   TEWEN  =     35049.56210806
  -Hartree energ DENC   =    -43061.51810880
  -exchange      EXHF   =         0.00000000
  -V(xc)+E(xc)   XCENC  =       780.23707378
  PAW double counting   =      5240.05344543    -5662.25026154
  entropy T*S    EENTRO =        -0.04036142
  eigenvalues    EBANDS =     -2557.83198906
  atomic energy  EATOM  =      9681.75459483
  Solvation  Ediel_sol  =         0.00000000
  ---------------------------------------------------
  free energy    TOTEN  =      -440.32946653 eV

  energy without entropy =     -440.28910511  energy(sigma->0) =     -440.30928582


--------------------------------------------------------------------------------------------------------




--------------------------------------- Iteration      1(  16)  ---------------------------------------


    POTLOK:  cpu time    2.3052: real time    2.3055
    SETDIJ:  cpu time    0.5280: real time    0.5280
     EDDAV:  cpu time   40.1037: real time   40.1714
       DOS:  cpu time    0.0589: real time    0.0590
    CHARGE:  cpu time    1.8486: real time    1.8487
    MIXING:  cpu time    0.0646: real time    0.0646
    --------------------------------------------
      LOOP:  cpu time   44.9089: real time   44.9770

 eigenvalue-minimisations  :  4864
 total energy-change (2. order) :-0.3980396E-03  (-0.2928417E-05)
 number of electron     208.9999997 magnetization      -0.0013733
 augmentation part       13.6905080 magnetization      -0.0011003

 Broyden mixing:
  rms(total) = 0.20256E-03    rms(broyden)= 0.20255E-03
  rms(prec ) = 0.44896E-03
  weight for this iteration     100.00

 eigenvalues of (default mixing * dielectric matrix)
  average eigenvalue GAMMA=   2.0219
  8.3407  5.0001  3.0221  2.4918  1.9573  1.8597  1.2365  1.1342  0.9937  0.8470
  0.7624  0.7349  0.6917  0.6309  0.6258

 Free energy of the ion-electron system (eV)
  ---------------------------------------------------
  alpha Z        PSCENC =        89.70403219
  Ewald energy   TEWEN  =     35049.56210806
  -Hartree energ DENC   =    -43061.73361741
  -exchange      EXHF   =         0.00000000
  -V(xc)+E(xc)   XCENC  =       780.23644238
  PAW double counting   =      5239.96050383    -5662.15464632
  entropy T*S    EENTRO =        -0.04036101
  eigenvalues    EBANDS =     -2557.61892112
  atomic energy  EATOM  =      9681.75459483
  Solvation  Ediel_sol  =         0.00000000
  ---------------------------------------------------
  free energy    TOTEN  =      -440.32986457 eV

  energy without entropy =     -440.28950356  energy(sigma->0) =     -440.30968406


--------------------------------------------------------------------------------------------------------




--------------------------------------- Iteration      1(  17)  ---------------------------------------


    POTLOK:  cpu time    2.3559: real time    2.3560
    SETDIJ:  cpu time    0.5310: real time    0.5313
     EDDAV:  cpu time   60.4897: real time   60.7503
       DOS:  cpu time    0.0556: real time    0.0556
    CHARGE:  cpu time    1.9133: real time    1.9368
    MIXING:  cpu time    0.0652: real time    0.0652
    --------------------------------------------
      LOOP:  cpu time   65.4109: real time   65.6953

 eigenvalue-minimisations  :  6400
 total energy-change (2. order) :-0.1313215E-03  (-0.6068505E-06)
 number of electron     208.9999997 magnetization      -0.0006534
 augmentation part       13.6905091 magnetization      -0.0004597

 Broyden mixing:
  rms(total) = 0.14324E-03    rms(broyden)= 0.14323E-03
  rms(prec ) = 0.32402E-03
  weight for this iteration     100.00

 eigenvalues of (default mixing * dielectric matrix)
  average eigenvalue GAMMA=   2.0310
  8.3596  5.2172  3.2582  2.5604  2.2165  1.8849  1.5602  1.2364  1.0514  0.9418
  0.8191  0.7319  0.7319  0.6719  0.6246  0.6306

 Free energy of the ion-electron system (eV)
  ---------------------------------------------------
  alpha Z        PSCENC =        89.70403219
  Ewald energy   TEWEN  =     35049.56210806
  -Hartree energ DENC   =    -43061.90458579
  -exchange      EXHF   =         0.00000000
  -V(xc)+E(xc)   XCENC  =       780.23661536
  PAW double counting   =      5239.96141631    -5662.15513928
  entropy T*S    EENTRO =        -0.04036080
  eigenvalues    EBANDS =     -2557.44867677
  atomic energy  EATOM  =      9681.75459483
  Solvation  Ediel_sol  =         0.00000000
  ---------------------------------------------------
  free energy    TOTEN  =      -440.32999589 eV

  energy without entropy =     -440.28963508  energy(sigma->0) =     -440.30981549


--------------------------------------------------------------------------------------------------------




--------------------------------------- Iteration      1(  18)  ---------------------------------------


    POTLOK:  cpu time    2.3078: real time    2.3488
    SETDIJ:  cpu time    0.5315: real time    0.5315
     EDDAV:  cpu time   50.3008: real time   50.3933
       DOS:  cpu time    0.0573: real time    0.0573
    CHARGE:  cpu time    1.8951: real time    1.8953
    MIXING:  cpu time    0.0661: real time    0.0661
    --------------------------------------------
      LOOP:  cpu time   55.1587: real time   55.2923

 eigenvalue-minimisations  :  5632
 total energy-change (2. order) :-0.9278532E-04  (-0.4927000E-06)
 number of electron     208.9999997 magnetization      -0.0002709
 augmentation part       13.6904954 magnetization      -0.0001917

 Broyden mixing:
  rms(total) = 0.98063E-04    rms(broyden)= 0.98054E-04
  rms(prec ) = 0.19446E-03
  weight for this iteration     100.00

 eigenvalues of (default mixing * dielectric matrix)
  average eigenvalue GAMMA=   2.0349
  8.3778  5.4468  3.6212  2.7240  2.4027  1.9173  1.7458  1.2570  1.0833  1.0083
  0.8521  0.8028  0.7246  0.7226  0.6547  0.6226  0.6303

 Free energy of the ion-electron system (eV)
  ---------------------------------------------------
  alpha Z        PSCENC =        89.70403219
  Ewald energy   TEWEN  =     35049.56210806
  -Hartree energ DENC   =    -43062.11191707
  -exchange      EXHF   =         0.00000000
  -V(xc)+E(xc)   XCENC  =       780.23685017
  PAW double counting   =      5239.99219676    -5662.18626922
  entropy T*S    EENTRO =        -0.04036081
  eigenvalues    EBANDS =     -2557.24132358
  atomic energy  EATOM  =      9681.75459483
  Solvation  Ediel_sol  =         0.00000000
  ---------------------------------------------------
  free energy    TOTEN  =      -440.33008867 eV

  energy without entropy =     -440.28972786  energy(sigma->0) =     -440.30990827


--------------------------------------------------------------------------------------------------------




--------------------------------------- Iteration      1(  19)  ---------------------------------------


    POTLOK:  cpu time    2.3151: real time    2.3159
    SETDIJ:  cpu time    0.5232: real time    0.5232
     EDDAV:  cpu time   83.4214: real time   83.6002
       DOS:  cpu time    0.0563: real time    0.0563
    CHARGE:  cpu time    1.7926: real time    1.7927
    MIXING:  cpu time    0.0689: real time    0.0689
    --------------------------------------------
      LOOP:  cpu time   88.1776: real time   88.3572

 eigenvalue-minimisations  :  8192
 total energy-change (2. order) :-0.3643619E-04  (-0.5422278E-07)
 number of electron     208.9999997 magnetization       0.0000194
 augmentation part       13.6904972 magnetization       0.0000508

 Broyden mixing:
  rms(total) = 0.70842E-04    rms(broyden)= 0.70841E-04
  rms(prec ) = 0.12632E-03
  weight for this iteration     100.00

 eigenvalues of (default mixing * dielectric matrix)
  average eigenvalue GAMMA=   2.0452
  8.3861  5.6709  3.9512  2.8678  2.4582  2.0298  1.8042  1.4679  1.1983  1.0541
  0.9454  0.8563  0.7845  0.7272  0.7107  0.6482  0.6221  0.6301

 Free energy of the ion-electron system (eV)
  ---------------------------------------------------
  alpha Z        PSCENC =        89.70403219
  Ewald energy   TEWEN  =     35049.56210806
  -Hartree energ DENC   =    -43062.20432115
  -exchange      EXHF   =         0.00000000
  -V(xc)+E(xc)   XCENC  =       780.23661940
  PAW double counting   =      5240.00033924    -5662.19450043
  entropy T*S    EENTRO =        -0.04036087
  eigenvalues    EBANDS =     -2557.14863637
  atomic energy  EATOM  =      9681.75459483
  Solvation  Ediel_sol  =         0.00000000
  ---------------------------------------------------
  free energy    TOTEN  =      -440.33012511 eV

  energy without entropy =     -440.28976424  energy(sigma->0) =     -440.30994467


--------------------------------------------------------------------------------------------------------




--------------------------------------- Iteration      1(  20)  ---------------------------------------


    POTLOK:  cpu time    2.3628: real time    2.3687
    SETDIJ:  cpu time    0.5632: real time    0.5632
     EDDAV:  cpu time   55.8222: real time   55.9265
       DOS:  cpu time    0.0565: real time    0.0566
    CHARGE:  cpu time    1.8457: real time    1.8458
    MIXING:  cpu time    0.0716: real time    0.0716
    --------------------------------------------
      LOOP:  cpu time   60.7221: real time   60.8324

 eigenvalue-minimisations  :  6144
 total energy-change (2. order) :-0.3929187E-04  (-0.2106029E-07)
 number of electron     208.9999997 magnetization       0.0000885
 augmentation part       13.6904996 magnetization       0.0000875

 Broyden mixing:
  rms(total) = 0.36138E-04    rms(broyden)= 0.36136E-04
  rms(prec ) = 0.55256E-04
  weight for this iteration     100.00

 eigenvalues of (default mixing * dielectric matrix)
  average eigenvalue GAMMA=   2.1056
  8.3753  6.3052  4.5579  3.1826  2.5601  2.2893  1.8635  1.7003  1.2451  1.0582
  1.0582  0.8992  0.8251  0.7606  0.7271  0.7030  0.6219  0.6298  0.6433

 Free energy of the ion-electron system (eV)
  ---------------------------------------------------
  alpha Z        PSCENC =        89.70403219
  Ewald energy   TEWEN  =     35049.56210806
  -Hartree energ DENC   =    -43062.28592161
  -exchange      EXHF   =         0.00000000
  -V(xc)+E(xc)   XCENC  =       780.23646157
  PAW double counting   =      5239.99721066    -5662.19133547
  entropy T*S    EENTRO =        -0.04036092
  eigenvalues    EBANDS =     -2557.06695370
  atomic energy  EATOM  =      9681.75459483
  Solvation  Ediel_sol  =         0.00000000
  ---------------------------------------------------
  free energy    TOTEN  =      -440.33016440 eV

  energy without entropy =     -440.28980348  energy(sigma->0) =     -440.30998394


--------------------------------------------------------------------------------------------------------




--------------------------------------- Iteration      1(  21)  ---------------------------------------


    POTLOK:  cpu time    2.3512: real time    2.3553
    SETDIJ:  cpu time    0.5281: real time    0.5282
     EDDAV:  cpu time   79.4696: real time   79.6211
       DOS:  cpu time    0.0535: real time    0.0535
    CHARGE:  cpu time    1.8476: real time    1.8870
    MIXING:  cpu time    0.0730: real time    0.0730
    --------------------------------------------
      LOOP:  cpu time   84.3230: real time   84.5181

 eigenvalue-minimisations  :  7936
 total energy-change (2. order) :-0.1425248E-04  (-0.5728884E-08)
 number of electron     208.9999997 magnetization       0.0000899
 augmentation part       13.6904978 magnetization       0.0000798

 Broyden mixing:
  rms(total) = 0.21815E-04    rms(broyden)= 0.21815E-04
  rms(prec ) = 0.29221E-04
  weight for this iteration     100.00

 eigenvalues of (default mixing * dielectric matrix)
  average eigenvalue GAMMA=   2.1433
  8.3784  7.2348  4.9164  3.3681  2.6140  2.3553  1.8867  1.7670  1.3835  1.1838
  1.0603  0.9776  0.8714  0.8118  0.7390  0.7273  0.6979  0.6414  0.6215  0.6295

 Free energy of the ion-electron system (eV)
  ---------------------------------------------------
  alpha Z        PSCENC =        89.70403219
  Ewald energy   TEWEN  =     35049.56210806
  -Hartree energ DENC   =    -43062.31716505
  -exchange      EXHF   =         0.00000000
  -V(xc)+E(xc)   XCENC  =       780.23653694
  PAW double counting   =      5239.99605605    -5662.19018771
  entropy T*S    EENTRO =        -0.04036091
  eigenvalues    EBANDS =     -2557.03579305
  atomic energy  EATOM  =      9681.75459483
  Solvation  Ediel_sol  =         0.00000000
  ---------------------------------------------------
  free energy    TOTEN  =      -440.33017865 eV

  energy without entropy =     -440.28981774  energy(sigma->0) =     -440.30999820


--------------------------------------------------------------------------------------------------------




--------------------------------------- Iteration      1(  22)  ---------------------------------------


    POTLOK:  cpu time    2.4734: real time    2.4740
    SETDIJ:  cpu time    0.5304: real time    0.5304
     EDDAV:  cpu time   76.8782: real time   77.0143
       DOS:  cpu time    0.0568: real time    0.0568
    --------------------------------------------
      LOOP:  cpu time   79.9388: real time   80.0755

 eigenvalue-minimisations  :  7680
 total energy-change (2. order) :-0.6521010E-05  (-0.3845464E-08)
 number of electron     208.9999997 magnetization       0.0000899
 augmentation part       13.6904978 magnetization       0.0000798

 Free energy of the ion-electron system (eV)
  ---------------------------------------------------
  alpha Z        PSCENC =        89.70403219
  Ewald energy   TEWEN  =     35049.56210806
  -Hartree energ DENC   =    -43062.32766856
  -exchange      EXHF   =         0.00000000
  -V(xc)+E(xc)   XCENC  =       780.23659399
  PAW double counting   =      5239.99416139    -5662.18831748
  entropy T*S    EENTRO =        -0.04036089
  eigenvalues    EBANDS =     -2557.02532870
  atomic energy  EATOM  =      9681.75459483
  Solvation  Ediel_sol  =         0.00000000
  ---------------------------------------------------
  free energy    TOTEN  =      -440.33018517 eV

  energy without entropy =     -440.28982429  energy(sigma->0) =     -440.31000473


--------------------------------------------------------------------------------------------------------




 average (electrostatic) potential at core
  the test charge radii are     0.6991  0.7089  1.0314
  (the norm of the test charge is              1.0000)
       1 -57.9256       2 -57.8863       3 -57.8869       4 -58.0412       5 -58.0664
       6 -58.1344       7 -58.0394       8 -57.9659       9 -57.9165      10 -57.8848
      11 -57.9165      12 -58.0667      13 -58.0413      14 -58.7384      15 -58.7377
      16 -59.0233      17 -58.1942      18 -58.1207      19 -57.9659      20 -58.0394
      21 -58.0394      22 -58.1343      23 -59.0244      24 -59.0233      25 -58.1344
      26 -58.0664      27 -57.9168      28 -57.9654      29 -58.1208      30 -58.1941
      31 -59.0244      32 -58.7384      33 -58.7377      34 -58.0412      35 -57.8869
      36 -57.9266      37 -57.8852      38 -57.9168      39 -57.9654      40 -58.0394
      41 -58.1343      42 -58.0667      43 -58.0413      44 -57.8863      45 -73.1667
      46 -73.1700      47 -73.1667      48 -73.1700      49 -36.7640
 
 
 
 E-fermi :  -1.9763     XC(G=0):  -2.1718     alpha+bet : -1.8874


 spin component 1

 k-point     1 :       0.0000    0.0000    0.0000
  band No.  band energies     occupation 
      1     -23.5638      1.00000
      2     -23.1734      1.00000
      3     -22.7502      1.00000
      4     -22.4683      1.00000
      5     -21.7409      1.00000
      6     -21.3023      1.00000
      7     -21.1750      1.00000
      8     -20.8307      1.00000
      9     -20.3664      1.00000
     10     -20.1462      1.00000
     11     -19.6367      1.00000
     12     -19.5889      1.00000
     13     -19.2205      1.00000
     14     -19.1272      1.00000
     15     -18.9331      1.00000
     16     -18.7692      1.00000
     17     -18.7197      1.00000
     18     -18.4729      1.00000
     19     -18.4004      1.00000
     20     -18.2726      1.00000
     21     -18.1514      1.00000
     22     -18.0559      1.00000
     23     -17.9144      1.00000
     24     -17.8359      1.00000
     25     -17.1355      1.00000
     26     -17.0059      1.00000
     27     -16.7675      1.00000
     28     -16.4970      1.00000
     29     -16.3402      1.00000
     30     -15.8901      1.00000
     31     -15.6919      1.00000
     32     -15.6033      1.00000
     33     -15.5286      1.00000
     34     -15.4441      1.00000
     35     -15.0847      1.00000
     36     -14.6824      1.00000
     37     -14.4405      1.00000
     38     -14.3465      1.00000
     39     -14.3201      1.00000
     40     -14.1276      1.00000
     41     -13.3968      1.00000
     42     -12.9017      1.00000
     43     -12.4905      1.00000
     44     -12.4689      1.00000
     45     -12.1942      1.00000
     46     -11.8463      1.00000
     47     -11.7388      1.00000
     48     -11.6112      1.00000
     49     -11.5805      1.00000
     50     -11.5389      1.00000
     51     -11.4602      1.00000
     52     -11.1947      1.00000
     53     -11.1036      1.00000
     54     -10.6426      1.00000
     55     -10.5758      1.00000
     56     -10.4665      1.00000
     57     -10.3534      1.00000
     58     -10.1149      1.00000
     59     -10.0836      1.00000
     60      -9.7950      1.00000
     61      -9.7516      1.00000
     62      -9.7503      1.00000
     63      -9.6483      1.00000
     64      -9.4652      1.00000
     65      -9.3310      1.00000
     66      -9.2787      1.00000
     67      -9.2413      1.00000
     68      -9.2338      1.00000
     69      -9.1696      1.00000
     70      -9.0752      1.00000
     71      -9.0419      1.00000
     72      -8.9254      1.00000
     73      -8.8505      1.00000
     74      -8.7867      1.00000
     75      -8.7583      1.00000
     76      -8.1823      1.00000
     77      -8.1620      1.00000
     78      -8.0359      1.00000
     79      -7.9364      1.00000
     80      -7.7595      1.00000
     81      -7.5632      1.00000
     82      -7.5597      1.00000
     83      -7.3915      1.00000
     84      -7.2382      1.00000
     85      -7.2249      1.00000
     86      -7.1586      1.00000
     87      -7.0791      1.00000
     88      -6.6644      1.00000
     89      -6.6054      1.00000
     90      -6.5921      1.00000
     91      -6.4764      1.00000
     92      -6.3929      1.00000
     93      -6.2241      1.00000
     94      -6.2184      1.00000
     95      -6.0753      1.00000
     96      -6.0412      1.00000
     97      -5.4364      1.00000
     98      -5.0683      1.00000
     99      -4.6675      1.00000
    100      -4.4442      1.00000
    101      -4.2259      1.00000
    102      -4.1850      1.00000
    103      -4.1077      1.00000
    104      -3.0624      1.00000
    105      -1.9547      0.38013
    106      -1.6927      0.00003
    107      -1.3434      0.00000
    108      -1.3132      0.00000
    109      -0.9552      0.00000
    110      -0.7171      0.00000
    111       0.0577      0.00000
    112       0.1510      0.00000
    113       0.3320      0.00000
    114       0.3461      0.00000
    115       0.4442      0.00000
    116       0.6553      0.00000
    117       0.8225      0.00000
    118       1.1432      0.00000
    119       1.3799      0.00000
    120       1.6657      0.00000
    121       1.6877      0.00000
    122       1.7534      0.00000
    123       1.8545      0.00000
    124       1.8589      0.00000
    125       1.8797      0.00000
    126       1.9005      0.00000
    127       1.9541      0.00000
    128       2.1353      0.00000
    129       2.1796      0.00000
    130       2.2192      0.00000
    131       2.2405      0.00000
    132       2.5539      0.00000
    133       2.5581      0.00000
    134       2.6100      0.00000
    135       2.6469      0.00000
    136       2.6483      0.00000
    137       2.6758      0.00000
    138       2.9288      0.00000
    139       2.9671      0.00000
    140       2.9783      0.00000
    141       2.9807      0.00000
    142       2.9815      0.00000
    143       2.9825      0.00000
    144       3.0236      0.00000
    145       3.0411      0.00000
    146       3.4895      0.00000
    147       3.7444      0.00000
    148       3.8672      0.00000
    149       3.8715      0.00000
    150       3.9197      0.00000
    151       3.9212      0.00000
    152       3.9432      0.00000
    153       4.0427      0.00000
    154       4.1176      0.00000
    155       4.1660      0.00000
    156       4.2746      0.00000
    157       4.3091      0.00000
    158       4.3301      0.00000
    159       4.3327      0.00000
    160       4.3341      0.00000
    161       4.3384      0.00000
    162       4.3623      0.00000
    163       4.3687      0.00000
    164       4.3883      0.00000
    165       4.4159      0.00000
    166       4.5921      0.00000
    167       4.6091      0.00000
    168       4.7241      0.00000
    169       4.7393      0.00000
    170       5.0383      0.00000
    171       5.0673      0.00000
    172       5.0993      0.00000
    173       5.1438      0.00000
    174       5.1738      0.00000
    175       5.1839      0.00000
    176       5.1872      0.00000
    177       5.2218      0.00000
    178       5.3302      0.00000
    179       5.3329      0.00000
    180       5.3842      0.00000
    181       5.4125      0.00000
    182       5.4206      0.00000
    183       5.4548      0.00000
    184       5.5117      0.00000
    185       5.6006      0.00000
    186       5.6221      0.00000
    187       5.6222      0.00000
    188       5.6272      0.00000
    189       5.6339      0.00000
    190       5.6361      0.00000
    191       5.6368      0.00000
    192       5.6772      0.00000
    193       5.6793      0.00000
    194       5.6980      0.00000
    195       5.7174      0.00000
    196       5.7360      0.00000
    197       5.8066      0.00000
    198       5.8478      0.00000
    199       5.8550      0.00000
    200       5.8730      0.00000
    201       5.9563      0.00000
    202       6.0013      0.00000
    203       6.0165      0.00000
    204       6.0358      0.00000
    205       6.0395      0.00000
    206       6.0552      0.00000
    207       6.0659      0.00000
    208       6.0881      0.00000
    209       6.2082      0.00000
    210       6.3406      0.00000
    211       6.3778      0.00000
    212       6.4780      0.00000
    213       6.4813      0.00000
    214       6.4912      0.00000
    215       6.5139      0.00000
    216       6.5177      0.00000
    217       6.5179      0.00000
    218       6.5222      0.00000
    219       6.5240      0.00000
    220       6.5294      0.00000
    221       6.5706      0.00000
    222       6.5990      0.00000
    223       6.6616      0.00000
    224       6.6643      0.00000
    225       6.6869      0.00000
    226       6.7458      0.00000
    227       6.7634      0.00000
    228       6.8782      0.00000
    229       6.9077      0.00000
    230       6.9231      0.00000
    231       6.9284      0.00000
    232       6.9311      0.00000
    233       6.9469      0.00000
    234       6.9566      0.00000
    235       6.9583      0.00000
    236       6.9707      0.00000
    237       6.9709      0.00000
    238       6.9713      0.00000
    239       6.9783      0.00000
    240       7.4388      0.00000
    241       7.5842      0.00000
    242       7.6068      0.00000
    243       7.6683      0.00000
    244       7.6830      0.00000
    245       7.7215      0.00000
    246       7.7829      0.00000
    247       7.8120      0.00000
    248       7.8138      0.00000
    249       7.8157      0.00000
    250       7.8645      0.00000
    251       7.8980      0.00000
    252       7.9792      0.00000
    253       8.0386      0.00000
    254       8.1630      0.00000
    255       8.2021      0.00000
    256       8.2184      0.00000

 k-point     2 :       0.5000   -0.0000    0.0000
  band No.  band energies     occupation 
      1     -23.5495      1.00000
      2     -23.1965      1.00000
      3     -22.7676      1.00000
      4     -22.4703      1.00000
      5     -21.6195      1.00000
      6     -21.4346      1.00000
      7     -21.0467      1.00000
      8     -20.6433      1.00000
      9     -20.5775      1.00000
     10     -20.1998      1.00000
     11     -19.8178      1.00000
     12     -19.7966      1.00000
     13     -19.3355      1.00000
     14     -19.2940      1.00000
     15     -18.7475      1.00000
     16     -18.7067      1.00000
     17     -18.2378      1.00000
     18     -18.1976      1.00000
     19     -18.1511      1.00000
     20     -18.1427      1.00000
     21     -18.0559      1.00000
     22     -17.9106      1.00000
     23     -17.8255      1.00000
     24     -17.7246      1.00000
     25     -17.5584      1.00000
     26     -17.4444      1.00000
     27     -17.2126      1.00000
     28     -16.7830      1.00000
     29     -16.5247      1.00000
     30     -16.1322      1.00000
     31     -15.9816      1.00000
     32     -15.3432      1.00000
     33     -15.3378      1.00000
     34     -15.2121      1.00000
     35     -15.0637      1.00000
     36     -14.6203      1.00000
     37     -14.2569      1.00000
     38     -13.9176      1.00000
     39     -13.8222      1.00000
     40     -13.4228      1.00000
     41     -13.3463      1.00000
     42     -12.9249      1.00000
     43     -12.9113      1.00000
     44     -12.8496      1.00000
     45     -12.8492      1.00000
     46     -12.3701      1.00000
     47     -12.2751      1.00000
     48     -11.7252      1.00000
     49     -11.5533      1.00000
     50     -11.4494      1.00000
     51     -11.4176      1.00000
     52     -10.9639      1.00000
     53     -10.8569      1.00000
     54     -10.6494      1.00000
     55     -10.5584      1.00000
     56     -10.2579      1.00000
     57     -10.1775      1.00000
     58     -10.1095      1.00000
     59     -10.0674      1.00000
     60      -9.7498      1.00000
     61      -9.7215      1.00000
     62      -9.6619      1.00000
     63      -9.5748      1.00000
     64      -9.5449      1.00000
     65      -9.5407      1.00000
     66      -9.5288      1.00000
     67      -9.1901      1.00000
     68      -9.1797      1.00000
     69      -9.0342      1.00000
     70      -8.9601      1.00000
     71      -8.8995      1.00000
     72      -8.7379      1.00000
     73      -8.5785      1.00000
     74      -8.5348      1.00000
     75      -8.4192      1.00000
     76      -8.4004      1.00000
     77      -8.2483      1.00000
     78      -8.2065      1.00000
     79      -8.0379      1.00000
     80      -7.9942      1.00000
     81      -7.9210      1.00000
     82      -7.8986      1.00000
     83      -7.7330      1.00000
     84      -7.0648      1.00000
     85      -7.0193      1.00000
     86      -6.9517      1.00000
     87      -6.9450      1.00000
     88      -6.8607      1.00000
     89      -6.8450      1.00000
     90      -6.8174      1.00000
     91      -6.4171      1.00000
     92      -6.2041      1.00000
     93      -5.8614      1.00000
     94      -5.8434      1.00000
     95      -5.4566      1.00000
     96      -5.4129      1.00000
     97      -5.3454      1.00000
     98      -5.3256      1.00000
     99      -5.2380      1.00000
    100      -5.0858      1.00000
    101      -5.0075      1.00000
    102      -4.2322      1.00000
    103      -3.6765      1.00000
    104      -3.3949      1.00000
    105      -1.9431      0.31936
    106      -1.3445      0.00000
    107      -1.1879      0.00000
    108      -0.8155      0.00000
    109      -0.6763      0.00000
    110      -0.4393      0.00000
    111      -0.3639      0.00000
    112      -0.2607      0.00000
    113       0.0515      0.00000
    114       0.0737      0.00000
    115       0.2206      0.00000
    116       0.5704      0.00000
    117       0.8746      0.00000
    118       1.1362      0.00000
    119       1.1634      0.00000
    120       1.4734      0.00000
    121       1.6624      0.00000
    122       1.7092      0.00000
    123       1.7113      0.00000
    124       1.7299      0.00000
    125       1.8374      0.00000
    126       1.9887      0.00000
    127       2.0134      0.00000
    128       2.0671      0.00000
    129       2.2745      0.00000
    130       2.3817      0.00000
    131       2.6373      0.00000
    132       2.6563      0.00000
    133       2.6680      0.00000
    134       2.7578      0.00000
    135       2.7754      0.00000
    136       2.8917      0.00000
    137       2.9363      0.00000
    138       2.9668      0.00000
    139       3.0851      0.00000
    140       3.3275      0.00000
    141       3.3404      0.00000
    142       3.3873      0.00000
    143       3.4666      0.00000
    144       3.4912      0.00000
    145       3.5270      0.00000
    146       3.5599      0.00000
    147       3.5882      0.00000
    148       3.5969      0.00000
    149       3.6055      0.00000
    150       3.7223      0.00000
    151       3.8219      0.00000
    152       3.9607      0.00000
    153       3.9713      0.00000
    154       3.9889      0.00000
    155       3.9974      0.00000
    156       4.0149      0.00000
    157       4.0259      0.00000
    158       4.0454      0.00000
    159       4.1440      0.00000
    160       4.2149      0.00000
    161       4.2735      0.00000
    162       4.3278      0.00000
    163       4.3765      0.00000
    164       4.5270      0.00000
    165       4.6020      0.00000
    166       4.6298      0.00000
    167       4.6907      0.00000
    168       4.7311      0.00000
    169       4.7349      0.00000
    170       4.8505      0.00000
    171       4.8582      0.00000
    172       4.8914      0.00000
    173       4.9512      0.00000
    174       4.9819      0.00000
    175       4.9978      0.00000
    176       5.0462      0.00000
    177       5.1268      0.00000
    178       5.2196      0.00000
    179       5.2936      0.00000
    180       5.3017      0.00000
    181       5.3260      0.00000
    182       5.3603      0.00000
    183       5.3627      0.00000
    184       5.5082      0.00000
    185       5.5213      0.00000
    186       5.5556      0.00000
    187       5.5588      0.00000
    188       5.5864      0.00000
    189       5.6044      0.00000
    190       5.6121      0.00000
    191       5.6616      0.00000
    192       5.6998      0.00000
    193       5.7238      0.00000
    194       5.7793      0.00000
    195       5.7884      0.00000
    196       5.7931      0.00000
    197       5.8491      0.00000
    198       5.8536      0.00000
    199       5.8606      0.00000
    200       5.9469      0.00000
    201       5.9577      0.00000
    202       5.9601      0.00000
    203       5.9653      0.00000
    204       5.9906      0.00000
    205       6.0041      0.00000
    206       6.0797      0.00000
    207       6.1598      0.00000
    208       6.1900      0.00000
    209       6.2191      0.00000
    210       6.3006      0.00000
    211       6.3517      0.00000
    212       6.3874      0.00000
    213       6.4333      0.00000
    214       6.5016      0.00000
    215       6.5684      0.00000
    216       6.5907      0.00000
    217       6.6241      0.00000
    218       6.6289      0.00000
    219       6.6634      0.00000
    220       6.6939      0.00000
    221       6.7838      0.00000
    222       6.7992      0.00000
    223       6.8379      0.00000
    224       6.8456      0.00000
    225       6.8938      0.00000
    226       6.9319      0.00000
    227       6.9374      0.00000
    228       6.9537      0.00000
    229       6.9650      0.00000
    230       7.0675      0.00000
    231       7.0867      0.00000
    232       7.1772      0.00000
    233       7.2315      0.00000
    234       7.2435      0.00000
    235       7.2564      0.00000
    236       7.2589      0.00000
    237       7.2884      0.00000
    238       7.2933      0.00000
    239       7.2956      0.00000
    240       7.3489      0.00000
    241       7.3688      0.00000
    242       7.3818      0.00000
    243       7.4449      0.00000
    244       7.5608      0.00000
    245       7.5696      0.00000
    246       7.5913      0.00000
    247       7.6086      0.00000
    248       7.6205      0.00000
    249       7.6519      0.00000
    250       7.7712      0.00000
    251       7.8419      0.00000
    252       7.9178      0.00000
    253       7.9244      0.00000
    254       7.9327      0.00000
    255       7.9351      0.00000
    256       7.9483      0.00000

 k-point     3 :       0.0000    0.5000    0.0000
  band No.  band energies     occupation 
      1     -23.5495      1.00000
      2     -23.1965      1.00000
      3     -22.7676      1.00000
      4     -22.4703      1.00000
      5     -21.6195      1.00000
      6     -21.4346      1.00000
      7     -21.0467      1.00000
      8     -20.6433      1.00000
      9     -20.5775      1.00000
     10     -20.1998      1.00000
     11     -19.8178      1.00000
     12     -19.7966      1.00000
     13     -19.3355      1.00000
     14     -19.2940      1.00000
     15     -18.7475      1.00000
     16     -18.7067      1.00000
     17     -18.2378      1.00000
     18     -18.1976      1.00000
     19     -18.1511      1.00000
     20     -18.1427      1.00000
     21     -18.0559      1.00000
     22     -17.9106      1.00000
     23     -17.8255      1.00000
     24     -17.7246      1.00000
     25     -17.5584      1.00000
     26     -17.4444      1.00000
     27     -17.2126      1.00000
     28     -16.7830      1.00000
     29     -16.5247      1.00000
     30     -16.1322      1.00000
     31     -15.9816      1.00000
     32     -15.3432      1.00000
     33     -15.3378      1.00000
     34     -15.2121      1.00000
     35     -15.0637      1.00000
     36     -14.6203      1.00000
     37     -14.2569      1.00000
     38     -13.9176      1.00000
     39     -13.8222      1.00000
     40     -13.4228      1.00000
     41     -13.3463      1.00000
     42     -12.9249      1.00000
     43     -12.9113      1.00000
     44     -12.8496      1.00000
     45     -12.8492      1.00000
     46     -12.3701      1.00000
     47     -12.2751      1.00000
     48     -11.7252      1.00000
     49     -11.5533      1.00000
     50     -11.4494      1.00000
     51     -11.4176      1.00000
     52     -10.9639      1.00000
     53     -10.8569      1.00000
     54     -10.6494      1.00000
     55     -10.5584      1.00000
     56     -10.2579      1.00000
     57     -10.1775      1.00000
     58     -10.1095      1.00000
     59     -10.0674      1.00000
     60      -9.7498      1.00000
     61      -9.7215      1.00000
     62      -9.6619      1.00000
     63      -9.5748      1.00000
     64      -9.5449      1.00000
     65      -9.5407      1.00000
     66      -9.5288      1.00000
     67      -9.1901      1.00000
     68      -9.1797      1.00000
     69      -9.0342      1.00000
     70      -8.9601      1.00000
     71      -8.8995      1.00000
     72      -8.7379      1.00000
     73      -8.5785      1.00000
     74      -8.5348      1.00000
     75      -8.4192      1.00000
     76      -8.4004      1.00000
     77      -8.2483      1.00000
     78      -8.2065      1.00000
     79      -8.0379      1.00000
     80      -7.9942      1.00000
     81      -7.9210      1.00000
     82      -7.8986      1.00000
     83      -7.7330      1.00000
     84      -7.0648      1.00000
     85      -7.0193      1.00000
     86      -6.9517      1.00000
     87      -6.9450      1.00000
     88      -6.8607      1.00000
     89      -6.8450      1.00000
     90      -6.8174      1.00000
     91      -6.4171      1.00000
     92      -6.2041      1.00000
     93      -5.8614      1.00000
     94      -5.8434      1.00000
     95      -5.4566      1.00000
     96      -5.4129      1.00000
     97      -5.3454      1.00000
     98      -5.3256      1.00000
     99      -5.2380      1.00000
    100      -5.0858      1.00000
    101      -5.0075      1.00000
    102      -4.2322      1.00000
    103      -3.6765      1.00000
    104      -3.3949      1.00000
    105      -1.9431      0.31936
    106      -1.3445      0.00000
    107      -1.1879      0.00000
    108      -0.8155      0.00000
    109      -0.6763      0.00000
    110      -0.4393      0.00000
    111      -0.3639      0.00000
    112      -0.2607      0.00000
    113       0.0515      0.00000
    114       0.0737      0.00000
    115       0.2206      0.00000
    116       0.5704      0.00000
    117       0.8746      0.00000
    118       1.1362      0.00000
    119       1.1634      0.00000
    120       1.4734      0.00000
    121       1.6624      0.00000
    122       1.7092      0.00000
    123       1.7113      0.00000
    124       1.7299      0.00000
    125       1.8374      0.00000
    126       1.9887      0.00000
    127       2.0134      0.00000
    128       2.0671      0.00000
    129       2.2745      0.00000
    130       2.3817      0.00000
    131       2.6373      0.00000
    132       2.6563      0.00000
    133       2.6680      0.00000
    134       2.7578      0.00000
    135       2.7754      0.00000
    136       2.8917      0.00000
    137       2.9363      0.00000
    138       2.9668      0.00000
    139       3.0851      0.00000
    140       3.3275      0.00000
    141       3.3404      0.00000
    142       3.3873      0.00000
    143       3.4666      0.00000
    144       3.4912      0.00000
    145       3.5270      0.00000
    146       3.5599      0.00000
    147       3.5882      0.00000
    148       3.5969      0.00000
    149       3.6055      0.00000
    150       3.7223      0.00000
    151       3.8219      0.00000
    152       3.9607      0.00000
    153       3.9713      0.00000
    154       3.9889      0.00000
    155       3.9974      0.00000
    156       4.0149      0.00000
    157       4.0259      0.00000
    158       4.0454      0.00000
    159       4.1440      0.00000
    160       4.2149      0.00000
    161       4.2735      0.00000
    162       4.3278      0.00000
    163       4.3765      0.00000
    164       4.5270      0.00000
    165       4.6020      0.00000
    166       4.6298      0.00000
    167       4.6907      0.00000
    168       4.7311      0.00000
    169       4.7349      0.00000
    170       4.8505      0.00000
    171       4.8582      0.00000
    172       4.8914      0.00000
    173       4.9512      0.00000
    174       4.9819      0.00000
    175       4.9978      0.00000
    176       5.0462      0.00000
    177       5.1268      0.00000
    178       5.2196      0.00000
    179       5.2936      0.00000
    180       5.3017      0.00000
    181       5.3260      0.00000
    182       5.3603      0.00000
    183       5.3627      0.00000
    184       5.5082      0.00000
    185       5.5213      0.00000
    186       5.5556      0.00000
    187       5.5588      0.00000
    188       5.5864      0.00000
    189       5.6044      0.00000
    190       5.6121      0.00000
    191       5.6616      0.00000
    192       5.6998      0.00000
    193       5.7238      0.00000
    194       5.7793      0.00000
    195       5.7884      0.00000
    196       5.7931      0.00000
    197       5.8491      0.00000
    198       5.8536      0.00000
    199       5.8606      0.00000
    200       5.9469      0.00000
    201       5.9577      0.00000
    202       5.9601      0.00000
    203       5.9653      0.00000
    204       5.9906      0.00000
    205       6.0041      0.00000
    206       6.0797      0.00000
    207       6.1598      0.00000
    208       6.1900      0.00000
    209       6.2191      0.00000
    210       6.3006      0.00000
    211       6.3517      0.00000
    212       6.3874      0.00000
    213       6.4333      0.00000
    214       6.5016      0.00000
    215       6.5684      0.00000
    216       6.5907      0.00000
    217       6.6241      0.00000
    218       6.6289      0.00000
    219       6.6634      0.00000
    220       6.6939      0.00000
    221       6.7838      0.00000
    222       6.7992      0.00000
    223       6.8379      0.00000
    224       6.8456      0.00000
    225       6.8938      0.00000
    226       6.9319      0.00000
    227       6.9374      0.00000
    228       6.9537      0.00000
    229       6.9650      0.00000
    230       7.0675      0.00000
    231       7.0867      0.00000
    232       7.1772      0.00000
    233       7.2315      0.00000
    234       7.2435      0.00000
    235       7.2564      0.00000
    236       7.2589      0.00000
    237       7.2884      0.00000
    238       7.2933      0.00000
    239       7.2956      0.00000
    240       7.3489      0.00000
    241       7.3688      0.00000
    242       7.3818      0.00000
    243       7.4449      0.00000
    244       7.5608      0.00000
    245       7.5696      0.00000
    246       7.5913      0.00000
    247       7.6086      0.00000
    248       7.6205      0.00000
    249       7.6519      0.00000
    250       7.7712      0.00000
    251       7.8419      0.00000
    252       7.9178      0.00000
    253       7.9244      0.00000
    254       7.9327      0.00000
    255       7.9351      0.00000
    256       7.9483      0.00000

 k-point     4 :       0.5000    0.5000    0.0000
  band No.  band energies     occupation 
      1     -23.5520      1.00000
      2     -23.1822      1.00000
      3     -22.8020      1.00000
      4     -22.4378      1.00000
      5     -21.6542      1.00000
      6     -21.4647      1.00000
      7     -20.9380      1.00000
      8     -20.6554      1.00000
      9     -20.3608      1.00000
     10     -20.2464      1.00000
     11     -20.1934      1.00000
     12     -19.9498      1.00000
     13     -19.1081      1.00000
     14     -19.0639      1.00000
     15     -18.9191      1.00000
     16     -18.4691      1.00000
     17     -18.3290      1.00000
     18     -18.2048      1.00000
     19     -18.1511      1.00000
     20     -18.0559      1.00000
     21     -18.0358      1.00000
     22     -18.0228      1.00000
     23     -17.7964      1.00000
     24     -17.6556      1.00000
     25     -17.5504      1.00000
     26     -17.3990      1.00000
     27     -17.2632      1.00000
     28     -17.2041      1.00000
     29     -16.7604      1.00000
     30     -16.1270      1.00000
     31     -15.5023      1.00000
     32     -15.3861      1.00000
     33     -15.1940      1.00000
     34     -15.0865      1.00000
     35     -14.9555      1.00000
     36     -14.3887      1.00000
     37     -14.3180      1.00000
     38     -14.1696      1.00000
     39     -13.8433      1.00000
     40     -13.7952      1.00000
     41     -13.5128      1.00000
     42     -13.1620      1.00000
     43     -12.9351      1.00000
     44     -12.8850      1.00000
     45     -12.7312      1.00000
     46     -12.3080      1.00000
     47     -12.0934      1.00000
     48     -11.5343      1.00000
     49     -11.3686      1.00000
     50     -11.3438      1.00000
     51     -11.1689      1.00000
     52     -11.0242      1.00000
     53     -10.9952      1.00000
     54     -10.9391      1.00000
     55     -10.3049      1.00000
     56     -10.2072      1.00000
     57     -10.2045      1.00000
     58     -10.0273      1.00000
     59      -9.9914      1.00000
     60      -9.9526      1.00000
     61      -9.9084      1.00000
     62      -9.8868      1.00000
     63      -9.7548      1.00000
     64      -9.6863      1.00000
     65      -9.5775      1.00000
     66      -9.4263      1.00000
     67      -9.2221      1.00000
     68      -8.9582      1.00000
     69      -8.9008      1.00000
     70      -8.8691      1.00000
     71      -8.8081      1.00000
     72      -8.7109      1.00000
     73      -8.5806      1.00000
     74      -8.5689      1.00000
     75      -8.4843      1.00000
     76      -8.3852      1.00000
     77      -8.2245      1.00000
     78      -8.2177      1.00000
     79      -8.0006      1.00000
     80      -7.9800      1.00000
     81      -7.8786      1.00000
     82      -7.7598      1.00000
     83      -7.6557      1.00000
     84      -7.4297      1.00000
     85      -7.2064      1.00000
     86      -7.1391      1.00000
     87      -6.9110      1.00000
     88      -6.8959      1.00000
     89      -6.7590      1.00000
     90      -6.6813      1.00000
     91      -6.4461      1.00000
     92      -6.1763      1.00000
     93      -5.9633      1.00000
     94      -5.5075      1.00000
     95      -5.4758      1.00000
     96      -5.3807      1.00000
     97      -5.3171      1.00000
     98      -5.3167      1.00000
     99      -5.1822      1.00000
    100      -5.0900      1.00000
    101      -5.0357      1.00000
    102      -4.4613      1.00000
    103      -3.9631      1.00000
    104      -2.7573      1.00000
    105      -2.1232      0.98115
    106      -1.5341      0.00000
    107      -1.3078      0.00000
    108      -0.8520      0.00000
    109      -0.6002      0.00000
    110      -0.3474      0.00000
    111      -0.2504      0.00000
    112       0.0022      0.00000
    113       0.0277      0.00000
    114       0.0546      0.00000
    115       0.2435      0.00000
    116       0.3410      0.00000
    117       0.8920      0.00000
    118       1.1030      0.00000
    119       1.1737      0.00000
    120       1.4462      0.00000
    121       1.5310      0.00000
    122       1.5989      0.00000
    123       1.6664      0.00000
    124       1.7333      0.00000
    125       1.8191      0.00000
    126       1.9905      0.00000
    127       2.0127      0.00000
    128       2.2734      0.00000
    129       2.3430      0.00000
    130       2.4851      0.00000
    131       2.6364      0.00000
    132       2.6612      0.00000
    133       2.6956      0.00000
    134       2.7322      0.00000
    135       2.7323      0.00000
    136       2.7554      0.00000
    137       2.9384      0.00000
    138       2.9423      0.00000
    139       3.0406      0.00000
    140       3.3470      0.00000
    141       3.3507      0.00000
    142       3.4092      0.00000
    143       3.4755      0.00000
    144       3.4833      0.00000
    145       3.5297      0.00000
    146       3.5557      0.00000
    147       3.5742      0.00000
    148       3.5965      0.00000
    149       3.5999      0.00000
    150       3.7284      0.00000
    151       3.8708      0.00000
    152       3.9686      0.00000
    153       3.9690      0.00000
    154       3.9843      0.00000
    155       3.9947      0.00000
    156       4.0305      0.00000
    157       4.1674      0.00000
    158       4.1681      0.00000
    159       4.2231      0.00000
    160       4.2539      0.00000
    161       4.2952      0.00000
    162       4.3352      0.00000
    163       4.5145      0.00000
    164       4.6014      0.00000
    165       4.6262      0.00000
    166       4.6273      0.00000
    167       4.7133      0.00000
    168       4.7576      0.00000
    169       4.7727      0.00000
    170       4.8294      0.00000
    171       4.8605      0.00000
    172       4.8886      0.00000
    173       4.8907      0.00000
    174       4.9391      0.00000
    175       4.9802      0.00000
    176       5.0469      0.00000
    177       5.1084      0.00000
    178       5.1097      0.00000
    179       5.2204      0.00000
    180       5.2847      0.00000
    181       5.3161      0.00000
    182       5.3187      0.00000
    183       5.3931      0.00000
    184       5.3974      0.00000
    185       5.4699      0.00000
    186       5.5063      0.00000
    187       5.5229      0.00000
    188       5.5280      0.00000
    189       5.5656      0.00000
    190       5.5939      0.00000
    191       5.6355      0.00000
    192       5.6653      0.00000
    193       5.6748      0.00000
    194       5.7444      0.00000
    195       5.7556      0.00000
    196       5.7814      0.00000
    197       5.8070      0.00000
    198       5.8481      0.00000
    199       5.8492      0.00000
    200       5.9447      0.00000
    201       5.9526      0.00000
    202       5.9580      0.00000
    203       5.9630      0.00000
    204       5.9968      0.00000
    205       6.0074      0.00000
    206       6.0712      0.00000
    207       6.1085      0.00000
    208       6.1636      0.00000
    209       6.2343      0.00000
    210       6.2592      0.00000
    211       6.3400      0.00000
    212       6.3892      0.00000
    213       6.5064      0.00000
    214       6.5118      0.00000
    215       6.5708      0.00000
    216       6.5922      0.00000
    217       6.6578      0.00000
    218       6.6612      0.00000
    219       6.7032      0.00000
    220       6.7245      0.00000
    221       6.7637      0.00000
    222       6.7660      0.00000
    223       6.8349      0.00000
    224       6.8462      0.00000
    225       6.8481      0.00000
    226       6.8855      0.00000
    227       6.8958      0.00000
    228       6.9424      0.00000
    229       6.9552      0.00000
    230       7.0276      0.00000
    231       7.1287      0.00000
    232       7.1686      0.00000
    233       7.2009      0.00000
    234       7.2332      0.00000
    235       7.2568      0.00000
    236       7.2571      0.00000
    237       7.2746      0.00000
    238       7.2819      0.00000
    239       7.2948      0.00000
    240       7.2992      0.00000
    241       7.3363      0.00000
    242       7.3425      0.00000
    243       7.3974      0.00000
    244       7.5509      0.00000
    245       7.5737      0.00000
    246       7.6044      0.00000
    247       7.6191      0.00000
    248       7.6689      0.00000
    249       7.6749      0.00000
    250       7.7190      0.00000
    251       7.8237      0.00000
    252       7.8242      0.00000
    253       7.8704      0.00000
    254       7.9305      0.00000
    255       7.9324      0.00000
    256       7.9452      0.00000

 spin component 2

 k-point     1 :       0.0000    0.0000    0.0000
  band No.  band energies     occupation 
      1     -23.5638      1.00000
      2     -23.1734      1.00000
      3     -22.7502      1.00000
      4     -22.4683      1.00000
      5     -21.7409      1.00000
      6     -21.3023      1.00000
      7     -21.1750      1.00000
      8     -20.8307      1.00000
      9     -20.3664      1.00000
     10     -20.1462      1.00000
     11     -19.6367      1.00000
     12     -19.5889      1.00000
     13     -19.2205      1.00000
     14     -19.1272      1.00000
     15     -18.9331      1.00000
     16     -18.7692      1.00000
     17     -18.7197      1.00000
     18     -18.4729      1.00000
     19     -18.4004      1.00000
     20     -18.2726      1.00000
     21     -18.1515      1.00000
     22     -18.0559      1.00000
     23     -17.9144      1.00000
     24     -17.8359      1.00000
     25     -17.1355      1.00000
     26     -17.0059      1.00000
     27     -16.7675      1.00000
     28     -16.4970      1.00000
     29     -16.3402      1.00000
     30     -15.8901      1.00000
     31     -15.6919      1.00000
     32     -15.6033      1.00000
     33     -15.5286      1.00000
     34     -15.4441      1.00000
     35     -15.0847      1.00000
     36     -14.6824      1.00000
     37     -14.4405      1.00000
     38     -14.3465      1.00000
     39     -14.3201      1.00000
     40     -14.1276      1.00000
     41     -13.3968      1.00000
     42     -12.9017      1.00000
     43     -12.4905      1.00000
     44     -12.4689      1.00000
     45     -12.1942      1.00000
     46     -11.8463      1.00000
     47     -11.7388      1.00000
     48     -11.6112      1.00000
     49     -11.5805      1.00000
     50     -11.5389      1.00000
     51     -11.4602      1.00000
     52     -11.1947      1.00000
     53     -11.1036      1.00000
     54     -10.6426      1.00000
     55     -10.5758      1.00000
     56     -10.4665      1.00000
     57     -10.3534      1.00000
     58     -10.1149      1.00000
     59     -10.0836      1.00000
     60      -9.7950      1.00000
     61      -9.7516      1.00000
     62      -9.7503      1.00000
     63      -9.6483      1.00000
     64      -9.4652      1.00000
     65      -9.3310      1.00000
     66      -9.2786      1.00000
     67      -9.2413      1.00000
     68      -9.2338      1.00000
     69      -9.1696      1.00000
     70      -9.0752      1.00000
     71      -9.0419      1.00000
     72      -8.9254      1.00000
     73      -8.8505      1.00000
     74      -8.7867      1.00000
     75      -8.7583      1.00000
     76      -8.1823      1.00000
     77      -8.1620      1.00000
     78      -8.0359      1.00000
     79      -7.9364      1.00000
     80      -7.7595      1.00000
     81      -7.5632      1.00000
     82      -7.5597      1.00000
     83      -7.3915      1.00000
     84      -7.2382      1.00000
     85      -7.2249      1.00000
     86      -7.1586      1.00000
     87      -7.0791      1.00000
     88      -6.6644      1.00000
     89      -6.6054      1.00000
     90      -6.5921      1.00000
     91      -6.4764      1.00000
     92      -6.3929      1.00000
     93      -6.2241      1.00000
     94      -6.2184      1.00000
     95      -6.0753      1.00000
     96      -6.0412      1.00000
     97      -5.4364      1.00000
     98      -5.0683      1.00000
     99      -4.6675      1.00000
    100      -4.4442      1.00000
    101      -4.2259      1.00000
    102      -4.1850      1.00000
    103      -4.1077      1.00000
    104      -3.0624      1.00000
    105      -1.9547      0.38011
    106      -1.6927      0.00003
    107      -1.3434      0.00000
    108      -1.3132      0.00000
    109      -0.9552      0.00000
    110      -0.7171      0.00000
    111       0.0580      0.00000
    112       0.1510      0.00000
    113       0.3320      0.00000
    114       0.3461      0.00000
    115       0.4442      0.00000
    116       0.6554      0.00000
    117       0.8230      0.00000
    118       1.1432      0.00000
    119       1.3808      0.00000
    120       1.6532      0.00000
    121       1.6884      0.00000
    122       1.7542      0.00000
    123       1.8553      0.00000
    124       1.8597      0.00000
    125       1.8797      0.00000
    126       1.9008      0.00000
    127       1.9541      0.00000
    128       2.1353      0.00000
    129       2.1797      0.00000
    130       2.2192      0.00000
    131       2.2407      0.00000
    132       2.5555      0.00000
    133       2.5595      0.00000
    134       2.6068      0.00000
    135       2.6484      0.00000
    136       2.6498      0.00000
    137       2.6761      0.00000
    138       2.9282      0.00000
    139       2.9536      0.00000
    140       2.9642      0.00000
    141       2.9705      0.00000
    142       2.9713      0.00000
    143       2.9731      0.00000
    144       3.0064      0.00000
    145       3.0352      0.00000
    146       3.4889      0.00000
    147       3.7441      0.00000
    148       3.8632      0.00000
    149       3.8681      0.00000
    150       3.9158      0.00000
    151       3.9173      0.00000
    152       3.9383      0.00000
    153       4.0387      0.00000
    154       4.1168      0.00000
    155       4.1641      0.00000
    156       4.2737      0.00000
    157       4.3039      0.00000
    158       4.3252      0.00000
    159       4.3287      0.00000
    160       4.3302      0.00000
    161       4.3383      0.00000
    162       4.3588      0.00000
    163       4.3676      0.00000
    164       4.3884      0.00000
    165       4.4164      0.00000
    166       4.5896      0.00000
    167       4.6091      0.00000
    168       4.7197      0.00000
    169       4.7390      0.00000
    170       5.0383      0.00000
    171       5.0682      0.00000
    172       5.1001      0.00000
    173       5.1438      0.00000
    174       5.1753      0.00000
    175       5.1853      0.00000
    176       5.1888      0.00000
    177       5.2223      0.00000
    178       5.3294      0.00000
    179       5.3305      0.00000
    180       5.3841      0.00000
    181       5.4120      0.00000
    182       5.4200      0.00000
    183       5.4542      0.00000
    184       5.5111      0.00000
    185       5.5966      0.00000
    186       5.6105      0.00000
    187       5.6106      0.00000
    188       5.6160      0.00000
    189       5.6218      0.00000
    190       5.6240      0.00000
    191       5.6284      0.00000
    192       5.6774      0.00000
    193       5.6789      0.00000
    194       5.6982      0.00000
    195       5.7179      0.00000
    196       5.7360      0.00000
    197       5.8059      0.00000
    198       5.8469      0.00000
    199       5.8550      0.00000
    200       5.8700      0.00000
    201       5.9532      0.00000
    202       5.9994      0.00000
    203       6.0123      0.00000
    204       6.0328      0.00000
    205       6.0386      0.00000
    206       6.0517      0.00000
    207       6.0658      0.00000
    208       6.0863      0.00000
    209       6.2050      0.00000
    210       6.3388      0.00000
    211       6.3763      0.00000
    212       6.4751      0.00000
    213       6.4792      0.00000
    214       6.4877      0.00000
    215       6.5138      0.00000
    216       6.5161      0.00000
    217       6.5182      0.00000
    218       6.5207      0.00000
    219       6.5232      0.00000
    220       6.5292      0.00000
    221       6.5674      0.00000
    222       6.5957      0.00000
    223       6.6600      0.00000
    224       6.6631      0.00000
    225       6.6853      0.00000
    226       6.7434      0.00000
    227       6.7570      0.00000
    228       6.8731      0.00000
    229       6.9029      0.00000
    230       6.9170      0.00000
    231       6.9240      0.00000
    232       6.9247      0.00000
    233       6.9345      0.00000
    234       6.9445      0.00000
    235       6.9481      0.00000
    236       6.9561      0.00000
    237       6.9574      0.00000
    238       6.9584      0.00000
    239       6.9741      0.00000
    240       7.4382      0.00000
    241       7.5840      0.00000
    242       7.6063      0.00000
    243       7.6653      0.00000
    244       7.6768      0.00000
    245       7.7182      0.00000
    246       7.7827      0.00000
    247       7.8080      0.00000
    248       7.8096      0.00000
    249       7.8115      0.00000
    250       7.8639      0.00000
    251       7.8938      0.00000
    252       7.9790      0.00000
    253       8.0380      0.00000
    254       8.1606      0.00000
    255       8.1988      0.00000
    256       8.2165      0.00000

 k-point     2 :       0.5000   -0.0000    0.0000
  band No.  band energies     occupation 
      1     -23.5495      1.00000
      2     -23.1965      1.00000
      3     -22.7676      1.00000
      4     -22.4703      1.00000
      5     -21.6195      1.00000
      6     -21.4346      1.00000
      7     -21.0467      1.00000
      8     -20.6433      1.00000
      9     -20.5775      1.00000
     10     -20.1998      1.00000
     11     -19.8178      1.00000
     12     -19.7966      1.00000
     13     -19.3355      1.00000
     14     -19.2940      1.00000
     15     -18.7475      1.00000
     16     -18.7067      1.00000
     17     -18.2378      1.00000
     18     -18.1976      1.00000
     19     -18.1511      1.00000
     20     -18.1427      1.00000
     21     -18.0559      1.00000
     22     -17.9106      1.00000
     23     -17.8255      1.00000
     24     -17.7246      1.00000
     25     -17.5584      1.00000
     26     -17.4444      1.00000
     27     -17.2126      1.00000
     28     -16.7830      1.00000
     29     -16.5247      1.00000
     30     -16.1322      1.00000
     31     -15.9816      1.00000
     32     -15.3432      1.00000
     33     -15.3378      1.00000
     34     -15.2121      1.00000
     35     -15.0637      1.00000
     36     -14.6203      1.00000
     37     -14.2569      1.00000
     38     -13.9176      1.00000
     39     -13.8222      1.00000
     40     -13.4228      1.00000
     41     -13.3463      1.00000
     42     -12.9249      1.00000
     43     -12.9113      1.00000
     44     -12.8496      1.00000
     45     -12.8492      1.00000
     46     -12.3701      1.00000
     47     -12.2751      1.00000
     48     -11.7252      1.00000
     49     -11.5533      1.00000
     50     -11.4494      1.00000
     51     -11.4176      1.00000
     52     -10.9639      1.00000
     53     -10.8569      1.00000
     54     -10.6494      1.00000
     55     -10.5584      1.00000
     56     -10.2579      1.00000
     57     -10.1775      1.00000
     58     -10.1095      1.00000
     59     -10.0674      1.00000
     60      -9.7498      1.00000
     61      -9.7215      1.00000
     62      -9.6619      1.00000
     63      -9.5748      1.00000
     64      -9.5449      1.00000
     65      -9.5407      1.00000
     66      -9.5288      1.00000
     67      -9.1901      1.00000
     68      -9.1797      1.00000
     69      -9.0342      1.00000
     70      -8.9601      1.00000
     71      -8.8995      1.00000
     72      -8.7378      1.00000
     73      -8.5785      1.00000
     74      -8.5348      1.00000
     75      -8.4192      1.00000
     76      -8.4004      1.00000
     77      -8.2483      1.00000
     78      -8.2065      1.00000
     79      -8.0379      1.00000
     80      -7.9942      1.00000
     81      -7.9210      1.00000
     82      -7.8986      1.00000
     83      -7.7330      1.00000
     84      -7.0648      1.00000
     85      -7.0193      1.00000
     86      -6.9517      1.00000
     87      -6.9450      1.00000
     88      -6.8607      1.00000
     89      -6.8450      1.00000
     90      -6.8174      1.00000
     91      -6.4171      1.00000
     92      -6.2041      1.00000
     93      -5.8614      1.00000
     94      -5.8434      1.00000
     95      -5.4566      1.00000
     96      -5.4129      1.00000
     97      -5.3454      1.00000
     98      -5.3256      1.00000
     99      -5.2380      1.00000
    100      -5.0858      1.00000
    101      -5.0075      1.00000
    102      -4.2322      1.00000
    103      -3.6765      1.00000
    104      -3.3949      1.00000
    105      -1.9431      0.31934
    106      -1.3445      0.00000
    107      -1.1879      0.00000
    108      -0.8155      0.00000
    109      -0.6763      0.00000
    110      -0.4393      0.00000
    111      -0.3639      0.00000
    112      -0.2607      0.00000
    113       0.0515      0.00000
    114       0.0738      0.00000
    115       0.2207      0.00000
    116       0.5704      0.00000
    117       0.8753      0.00000
    118       1.1367      0.00000
    119       1.1637      0.00000
    120       1.4741      0.00000
    121       1.6635      0.00000
    122       1.7092      0.00000
    123       1.7113      0.00000
    124       1.7300      0.00000
    125       1.8383      0.00000
    126       1.9781      0.00000
    127       1.9993      0.00000
    128       2.0671      0.00000
    129       2.2761      0.00000
    130       2.3823      0.00000
    131       2.6284      0.00000
    132       2.6438      0.00000
    133       2.6655      0.00000
    134       2.7581      0.00000
    135       2.7761      0.00000
    136       2.8896      0.00000
    137       2.9319      0.00000
    138       2.9661      0.00000
    139       3.0832      0.00000
    140       3.3257      0.00000
    141       3.3355      0.00000
    142       3.3862      0.00000
    143       3.4670      0.00000
    144       3.4900      0.00000
    145       3.5263      0.00000
    146       3.5612      0.00000
    147       3.5857      0.00000
    148       3.5954      0.00000
    149       3.6059      0.00000
    150       3.7215      0.00000
    151       3.8201      0.00000
    152       3.9507      0.00000
    153       3.9593      0.00000
    154       3.9753      0.00000
    155       3.9852      0.00000
    156       4.0091      0.00000
    157       4.0207      0.00000
    158       4.0452      0.00000
    159       4.1440      0.00000
    160       4.2155      0.00000
    161       4.2739      0.00000
    162       4.3284      0.00000
    163       4.3761      0.00000
    164       4.5272      0.00000
    165       4.5956      0.00000
    166       4.6179      0.00000
    167       4.6853      0.00000
    168       4.7315      0.00000
    169       4.7355      0.00000
    170       4.8464      0.00000
    171       4.8545      0.00000
    172       4.8875      0.00000
    173       4.9474      0.00000
    174       4.9817      0.00000
    175       4.9976      0.00000
    176       5.0416      0.00000
    177       5.1224      0.00000
    178       5.2176      0.00000
    179       5.2893      0.00000
    180       5.2962      0.00000
    181       5.3203      0.00000
    182       5.3572      0.00000
    183       5.3633      0.00000
    184       5.5046      0.00000
    185       5.5201      0.00000
    186       5.5565      0.00000
    187       5.5595      0.00000
    188       5.5842      0.00000
    189       5.6038      0.00000
    190       5.6081      0.00000
    191       5.6579      0.00000
    192       5.6982      0.00000
    193       5.7225      0.00000
    194       5.7783      0.00000
    195       5.7874      0.00000
    196       5.7893      0.00000
    197       5.8473      0.00000
    198       5.8532      0.00000
    199       5.8583      0.00000
    200       5.9342      0.00000
    201       5.9489      0.00000
    202       5.9501      0.00000
    203       5.9537      0.00000
    204       5.9869      0.00000
    205       5.9993      0.00000
    206       6.0788      0.00000
    207       6.1581      0.00000
    208       6.1890      0.00000
    209       6.2185      0.00000
    210       6.2998      0.00000
    211       6.3498      0.00000
    212       6.3864      0.00000
    213       6.4329      0.00000
    214       6.5017      0.00000
    215       6.5685      0.00000
    216       6.5913      0.00000
    217       6.6242      0.00000
    218       6.6287      0.00000
    219       6.6636      0.00000
    220       6.6907      0.00000
    221       6.7830      0.00000
    222       6.7961      0.00000
    223       6.8340      0.00000
    224       6.8417      0.00000
    225       6.8894      0.00000
    226       6.9302      0.00000
    227       6.9344      0.00000
    228       6.9536      0.00000
    229       6.9606      0.00000
    230       7.0637      0.00000
    231       7.0856      0.00000
    232       7.1769      0.00000
    233       7.2314      0.00000
    234       7.2413      0.00000
    235       7.2527      0.00000
    236       7.2595      0.00000
    237       7.2894      0.00000
    238       7.2902      0.00000
    239       7.2926      0.00000
    240       7.3445      0.00000
    241       7.3688      0.00000
    242       7.3814      0.00000
    243       7.4432      0.00000
    244       7.5603      0.00000
    245       7.5657      0.00000
    246       7.5877      0.00000
    247       7.6057      0.00000
    248       7.6178      0.00000
    249       7.6476      0.00000
    250       7.7687      0.00000
    251       7.8419      0.00000
    252       7.9063      0.00000
    253       7.9131      0.00000
    254       7.9210      0.00000
    255       7.9233      0.00000
    256       7.9444      0.00000

 k-point     3 :       0.0000    0.5000    0.0000
  band No.  band energies     occupation 
      1     -23.5495      1.00000
      2     -23.1965      1.00000
      3     -22.7676      1.00000
      4     -22.4703      1.00000
      5     -21.6195      1.00000
      6     -21.4346      1.00000
      7     -21.0467      1.00000
      8     -20.6433      1.00000
      9     -20.5775      1.00000
     10     -20.1998      1.00000
     11     -19.8178      1.00000
     12     -19.7966      1.00000
     13     -19.3355      1.00000
     14     -19.2940      1.00000
     15     -18.7475      1.00000
     16     -18.7067      1.00000
     17     -18.2378      1.00000
     18     -18.1976      1.00000
     19     -18.1511      1.00000
     20     -18.1427      1.00000
     21     -18.0559      1.00000
     22     -17.9106      1.00000
     23     -17.8255      1.00000
     24     -17.7246      1.00000
     25     -17.5584      1.00000
     26     -17.4444      1.00000
     27     -17.2126      1.00000
     28     -16.7830      1.00000
     29     -16.5247      1.00000
     30     -16.1322      1.00000
     31     -15.9816      1.00000
     32     -15.3432      1.00000
     33     -15.3378      1.00000
     34     -15.2121      1.00000
     35     -15.0637      1.00000
     36     -14.6203      1.00000
     37     -14.2569      1.00000
     38     -13.9176      1.00000
     39     -13.8222      1.00000
     40     -13.4228      1.00000
     41     -13.3463      1.00000
     42     -12.9249      1.00000
     43     -12.9113      1.00000
     44     -12.8496      1.00000
     45     -12.8492      1.00000
     46     -12.3701      1.00000
     47     -12.2751      1.00000
     48     -11.7252      1.00000
     49     -11.5533      1.00000
     50     -11.4494      1.00000
     51     -11.4176      1.00000
     52     -10.9639      1.00000
     53     -10.8569      1.00000
     54     -10.6494      1.00000
     55     -10.5584      1.00000
     56     -10.2579      1.00000
     57     -10.1775      1.00000
     58     -10.1095      1.00000
     59     -10.0674      1.00000
     60      -9.7498      1.00000
     61      -9.7215      1.00000
     62      -9.6619      1.00000
     63      -9.5748      1.00000
     64      -9.5449      1.00000
     65      -9.5407      1.00000
     66      -9.5288      1.00000
     67      -9.1901      1.00000
     68      -9.1797      1.00000
     69      -9.0342      1.00000
     70      -8.9601      1.00000
     71      -8.8995      1.00000
     72      -8.7379      1.00000
     73      -8.5785      1.00000
     74      -8.5348      1.00000
     75      -8.4192      1.00000
     76      -8.4004      1.00000
     77      -8.2483      1.00000
     78      -8.2065      1.00000
     79      -8.0379      1.00000
     80      -7.9942      1.00000
     81      -7.9210      1.00000
     82      -7.8986      1.00000
     83      -7.7330      1.00000
     84      -7.0648      1.00000
     85      -7.0193      1.00000
     86      -6.9517      1.00000
     87      -6.9450      1.00000
     88      -6.8607      1.00000
     89      -6.8450      1.00000
     90      -6.8174      1.00000
     91      -6.4171      1.00000
     92      -6.2041      1.00000
     93      -5.8614      1.00000
     94      -5.8434      1.00000
     95      -5.4566      1.00000
     96      -5.4129      1.00000
     97      -5.3454      1.00000
     98      -5.3256      1.00000
     99      -5.2380      1.00000
    100      -5.0858      1.00000
    101      -5.0075      1.00000
    102      -4.2322      1.00000
    103      -3.6765      1.00000
    104      -3.3949      1.00000
    105      -1.9431      0.31934
    106      -1.3445      0.00000
    107      -1.1879      0.00000
    108      -0.8155      0.00000
    109      -0.6763      0.00000
    110      -0.4393      0.00000
    111      -0.3639      0.00000
    112      -0.2607      0.00000
    113       0.0515      0.00000
    114       0.0738      0.00000
    115       0.2207      0.00000
    116       0.5704      0.00000
    117       0.8753      0.00000
    118       1.1367      0.00000
    119       1.1637      0.00000
    120       1.4741      0.00000
    121       1.6635      0.00000
    122       1.7092      0.00000
    123       1.7113      0.00000
    124       1.7300      0.00000
    125       1.8383      0.00000
    126       1.9781      0.00000
    127       1.9993      0.00000
    128       2.0671      0.00000
    129       2.2761      0.00000
    130       2.3823      0.00000
    131       2.6284      0.00000
    132       2.6438      0.00000
    133       2.6655      0.00000
    134       2.7581      0.00000
    135       2.7761      0.00000
    136       2.8896      0.00000
    137       2.9319      0.00000
    138       2.9661      0.00000
    139       3.0832      0.00000
    140       3.3257      0.00000
    141       3.3355      0.00000
    142       3.3862      0.00000
    143       3.4670      0.00000
    144       3.4900      0.00000
    145       3.5263      0.00000
    146       3.5612      0.00000
    147       3.5857      0.00000
    148       3.5954      0.00000
    149       3.6059      0.00000
    150       3.7215      0.00000
    151       3.8201      0.00000
    152       3.9507      0.00000
    153       3.9593      0.00000
    154       3.9753      0.00000
    155       3.9852      0.00000
    156       4.0091      0.00000
    157       4.0207      0.00000
    158       4.0452      0.00000
    159       4.1440      0.00000
    160       4.2155      0.00000
    161       4.2739      0.00000
    162       4.3284      0.00000
    163       4.3761      0.00000
    164       4.5272      0.00000
    165       4.5956      0.00000
    166       4.6179      0.00000
    167       4.6853      0.00000
    168       4.7315      0.00000
    169       4.7355      0.00000
    170       4.8464      0.00000
    171       4.8545      0.00000
    172       4.8875      0.00000
    173       4.9474      0.00000
    174       4.9817      0.00000
    175       4.9976      0.00000
    176       5.0416      0.00000
    177       5.1224      0.00000
    178       5.2176      0.00000
    179       5.2893      0.00000
    180       5.2962      0.00000
    181       5.3203      0.00000
    182       5.3572      0.00000
    183       5.3633      0.00000
    184       5.5046      0.00000
    185       5.5201      0.00000
    186       5.5565      0.00000
    187       5.5595      0.00000
    188       5.5842      0.00000
    189       5.6038      0.00000
    190       5.6081      0.00000
    191       5.6579      0.00000
    192       5.6982      0.00000
    193       5.7225      0.00000
    194       5.7783      0.00000
    195       5.7874      0.00000
    196       5.7893      0.00000
    197       5.8473      0.00000
    198       5.8532      0.00000
    199       5.8583      0.00000
    200       5.9342      0.00000
    201       5.9489      0.00000
    202       5.9501      0.00000
    203       5.9537      0.00000
    204       5.9869      0.00000
    205       5.9993      0.00000
    206       6.0788      0.00000
    207       6.1581      0.00000
    208       6.1890      0.00000
    209       6.2185      0.00000
    210       6.2998      0.00000
    211       6.3498      0.00000
    212       6.3864      0.00000
    213       6.4329      0.00000
    214       6.5017      0.00000
    215       6.5685      0.00000
    216       6.5913      0.00000
    217       6.6242      0.00000
    218       6.6287      0.00000
    219       6.6636      0.00000
    220       6.6907      0.00000
    221       6.7830      0.00000
    222       6.7961      0.00000
    223       6.8340      0.00000
    224       6.8417      0.00000
    225       6.8894      0.00000
    226       6.9302      0.00000
    227       6.9344      0.00000
    228       6.9536      0.00000
    229       6.9606      0.00000
    230       7.0637      0.00000
    231       7.0856      0.00000
    232       7.1769      0.00000
    233       7.2314      0.00000
    234       7.2413      0.00000
    235       7.2527      0.00000
    236       7.2595      0.00000
    237       7.2894      0.00000
    238       7.2902      0.00000
    239       7.2926      0.00000
    240       7.3445      0.00000
    241       7.3688      0.00000
    242       7.3814      0.00000
    243       7.4432      0.00000
    244       7.5603      0.00000
    245       7.5657      0.00000
    246       7.5877      0.00000
    247       7.6057      0.00000
    248       7.6178      0.00000
    249       7.6476      0.00000
    250       7.7687      0.00000
    251       7.8419      0.00000
    252       7.9063      0.00000
    253       7.9131      0.00000
    254       7.9210      0.00000
    255       7.9233      0.00000
    256       7.9444      0.00000

 k-point     4 :       0.5000    0.5000    0.0000
  band No.  band energies     occupation 
      1     -23.5520      1.00000
      2     -23.1822      1.00000
      3     -22.8020      1.00000
      4     -22.4378      1.00000
      5     -21.6542      1.00000
      6     -21.4647      1.00000
      7     -20.9380      1.00000
      8     -20.6554      1.00000
      9     -20.3608      1.00000
     10     -20.2464      1.00000
     11     -20.1934      1.00000
     12     -19.9498      1.00000
     13     -19.1081      1.00000
     14     -19.0639      1.00000
     15     -18.9191      1.00000
     16     -18.4691      1.00000
     17     -18.3290      1.00000
     18     -18.2048      1.00000
     19     -18.1511      1.00000
     20     -18.0559      1.00000
     21     -18.0358      1.00000
     22     -18.0228      1.00000
     23     -17.7964      1.00000
     24     -17.6556      1.00000
     25     -17.5504      1.00000
     26     -17.3990      1.00000
     27     -17.2632      1.00000
     28     -17.2041      1.00000
     29     -16.7604      1.00000
     30     -16.1270      1.00000
     31     -15.5023      1.00000
     32     -15.3861      1.00000
     33     -15.1940      1.00000
     34     -15.0865      1.00000
     35     -14.9555      1.00000
     36     -14.3887      1.00000
     37     -14.3180      1.00000
     38     -14.1696      1.00000
     39     -13.8433      1.00000
     40     -13.7952      1.00000
     41     -13.5128      1.00000
     42     -13.1620      1.00000
     43     -12.9351      1.00000
     44     -12.8850      1.00000
     45     -12.7312      1.00000
     46     -12.3080      1.00000
     47     -12.0934      1.00000
     48     -11.5343      1.00000
     49     -11.3686      1.00000
     50     -11.3438      1.00000
     51     -11.1689      1.00000
     52     -11.0241      1.00000
     53     -10.9952      1.00000
     54     -10.9391      1.00000
     55     -10.3049      1.00000
     56     -10.2072      1.00000
     57     -10.2045      1.00000
     58     -10.0273      1.00000
     59      -9.9914      1.00000
     60      -9.9526      1.00000
     61      -9.9084      1.00000
     62      -9.8868      1.00000
     63      -9.7548      1.00000
     64      -9.6863      1.00000
     65      -9.5775      1.00000
     66      -9.4263      1.00000
     67      -9.2221      1.00000
     68      -8.9582      1.00000
     69      -8.9008      1.00000
     70      -8.8691      1.00000
     71      -8.8081      1.00000
     72      -8.7109      1.00000
     73      -8.5806      1.00000
     74      -8.5689      1.00000
     75      -8.4843      1.00000
     76      -8.3852      1.00000
     77      -8.2245      1.00000
     78      -8.2177      1.00000
     79      -8.0006      1.00000
     80      -7.9800      1.00000
     81      -7.8786      1.00000
     82      -7.7598      1.00000
     83      -7.6557      1.00000
     84      -7.4297      1.00000
     85      -7.2064      1.00000
     86      -7.1391      1.00000
     87      -6.9110      1.00000
     88      -6.8959      1.00000
     89      -6.7590      1.00000
     90      -6.6813      1.00000
     91      -6.4461      1.00000
     92      -6.1763      1.00000
     93      -5.9633      1.00000
     94      -5.5075      1.00000
     95      -5.4758      1.00000
     96      -5.3807      1.00000
     97      -5.3171      1.00000
     98      -5.3167      1.00000
     99      -5.1822      1.00000
    100      -5.0900      1.00000
    101      -5.0357      1.00000
    102      -4.4613      1.00000
    103      -3.9631      1.00000
    104      -2.7573      1.00000
    105      -2.1232      0.98115
    106      -1.5341      0.00000
    107      -1.3078      0.00000
    108      -0.8520      0.00000
    109      -0.6002      0.00000
    110      -0.3474      0.00000
    111      -0.2504      0.00000
    112       0.0022      0.00000
    113       0.0279      0.00000
    114       0.0546      0.00000
    115       0.2436      0.00000
    116       0.3410      0.00000
    117       0.8927      0.00000
    118       1.1035      0.00000
    119       1.1737      0.00000
    120       1.4470      0.00000
    121       1.5315      0.00000
    122       1.5989      0.00000
    123       1.6676      0.00000
    124       1.7332      0.00000
    125       1.8197      0.00000
    126       1.9798      0.00000
    127       1.9989      0.00000
    128       2.2749      0.00000
    129       2.3437      0.00000
    130       2.4851      0.00000
    131       2.6258      0.00000
    132       2.6485      0.00000
    133       2.6948      0.00000
    134       2.7314      0.00000
    135       2.7328      0.00000
    136       2.7561      0.00000
    137       2.9342      0.00000
    138       2.9418      0.00000
    139       3.0374      0.00000
    140       3.3409      0.00000
    141       3.3480      0.00000
    142       3.4091      0.00000
    143       3.4752      0.00000
    144       3.4837      0.00000
    145       3.5287      0.00000
    146       3.5562      0.00000
    147       3.5756      0.00000
    148       3.5936      0.00000
    149       3.5984      0.00000
    150       3.7279      0.00000
    151       3.8676      0.00000
    152       3.9559      0.00000
    153       3.9566      0.00000
    154       3.9716      0.00000
    155       3.9825      0.00000
    156       4.0246      0.00000
    157       4.1662      0.00000
    158       4.1678      0.00000
    159       4.2231      0.00000
    160       4.2550      0.00000
    161       4.2952      0.00000
    162       4.3359      0.00000
    163       4.5141      0.00000
    164       4.6016      0.00000
    165       4.6145      0.00000
    166       4.6155      0.00000
    167       4.7131      0.00000
    168       4.7576      0.00000
    169       4.7731      0.00000
    170       4.8255      0.00000
    171       4.8568      0.00000
    172       4.8847      0.00000
    173       4.8903      0.00000
    174       4.9352      0.00000
    175       4.9804      0.00000
    176       5.0421      0.00000
    177       5.1050      0.00000
    178       5.1089      0.00000
    179       5.2169      0.00000
    180       5.2806      0.00000
    181       5.3117      0.00000
    182       5.3127      0.00000
    183       5.3931      0.00000
    184       5.3982      0.00000
    185       5.4673      0.00000
    186       5.5032      0.00000
    187       5.5216      0.00000
    188       5.5242      0.00000
    189       5.5668      0.00000
    190       5.5912      0.00000
    191       5.6363      0.00000
    192       5.6614      0.00000
    193       5.6733      0.00000
    194       5.7437      0.00000
    195       5.7554      0.00000
    196       5.7780      0.00000
    197       5.8068      0.00000
    198       5.8451      0.00000
    199       5.8476      0.00000
    200       5.9310      0.00000
    201       5.9429      0.00000
    202       5.9451      0.00000
    203       5.9525      0.00000
    204       5.9920      0.00000
    205       6.0055      0.00000
    206       6.0681      0.00000
    207       6.1077      0.00000
    208       6.1631      0.00000
    209       6.2340      0.00000
    210       6.2565      0.00000
    211       6.3371      0.00000
    212       6.3885      0.00000
    213       6.5064      0.00000
    214       6.5118      0.00000
    215       6.5712      0.00000
    216       6.5927      0.00000
    217       6.6573      0.00000
    218       6.6615      0.00000
    219       6.7031      0.00000
    220       6.7208      0.00000
    221       6.7634      0.00000
    222       6.7637      0.00000
    223       6.8349      0.00000
    224       6.8423      0.00000
    225       6.8442      0.00000
    226       6.8809      0.00000
    227       6.8959      0.00000
    228       6.9387      0.00000
    229       6.9508      0.00000
    230       7.0238      0.00000
    231       7.1277      0.00000
    232       7.1689      0.00000
    233       7.1996      0.00000
    234       7.2334      0.00000
    235       7.2517      0.00000
    236       7.2529      0.00000
    237       7.2756      0.00000
    238       7.2830      0.00000
    239       7.2915      0.00000
    240       7.2961      0.00000
    241       7.3364      0.00000
    242       7.3395      0.00000
    243       7.3970      0.00000
    244       7.5470      0.00000
    245       7.5705      0.00000
    246       7.6011      0.00000
    247       7.6164      0.00000
    248       7.6645      0.00000
    249       7.6745      0.00000
    250       7.7164      0.00000
    251       7.8221      0.00000
    252       7.8242      0.00000
    253       7.8731      0.00000
    254       7.9189      0.00000
    255       7.9207      0.00000
    256       7.9325      0.00000


--------------------------------------------------------------------------------------------------------


 soft charge-density along one line, spin component           1
         0         1         2         3         4         5         6         7         8         9
 total charge-density along one line
 
 soft charge-density along one line, spin component           2
         0         1         2         3         4         5         6         7         8         9
 total charge-density along one line
 
 pseudopotential strength for first ion, spin component:           1
 10.216   0.019   0.000   0.000  -0.000   0.000   0.000  -0.000
  0.019  -0.002  -0.000  -0.000   0.000   0.000   0.000  -0.000
  0.000  -0.000  -4.333  -0.000  -0.000  -0.020  -0.000  -0.000
  0.000  -0.000  -0.000  -4.312   0.000  -0.000  -0.014   0.000
 -0.000   0.000  -0.000   0.000  -4.333  -0.000   0.000  -0.019
  0.000   0.000  -0.020  -0.000  -0.000  -0.772  -0.000   0.000
  0.000   0.000  -0.000  -0.014   0.000  -0.000  -0.771   0.000
 -0.000  -0.000  -0.000   0.000  -0.019   0.000   0.000  -0.772
 pseudopotential strength for first ion, spin component:           2
 10.216   0.019   0.000   0.000  -0.000   0.000   0.000  -0.000
  0.019  -0.002  -0.000  -0.000   0.000   0.000   0.000  -0.000
  0.000  -0.000  -4.333  -0.000  -0.000  -0.020  -0.000  -0.000
  0.000  -0.000  -0.000  -4.312   0.000  -0.000  -0.014   0.000
 -0.000   0.000  -0.000   0.000  -4.333  -0.000   0.000  -0.019
  0.000   0.000  -0.020  -0.000  -0.000  -0.772  -0.000   0.000
  0.000   0.000  -0.000  -0.014   0.000  -0.000  -0.771   0.000
 -0.000  -0.000  -0.000   0.000  -0.019   0.000   0.000  -0.772
 total augmentation occupancy for first ion, spin component:           1
  1.477  -1.155  -0.004  -0.000   0.007  -0.003  -0.000   0.004
 -1.155   1.109   0.011   0.000  -0.019   0.004   0.000  -0.007
 -0.004   0.011   1.255   0.000   0.011   0.228   0.000  -0.001
 -0.000   0.000   0.000   0.928  -0.000   0.000   0.105  -0.000
  0.007  -0.019   0.011  -0.000   1.242  -0.001  -0.000   0.228
 -0.003   0.004   0.228   0.000  -0.001   0.047   0.000  -0.000
 -0.000   0.000   0.000   0.105  -0.000   0.000   0.013  -0.000
  0.004  -0.007  -0.001  -0.000   0.228  -0.000  -0.000   0.048
 total augmentation occupancy for first ion, spin component:           2
 -0.000  -0.000  -0.000  -0.000   0.000  -0.000   0.000   0.000
 -0.000   0.000  -0.000  -0.000   0.000  -0.000  -0.000   0.000
 -0.000  -0.000  -0.000   0.000   0.000   0.000  -0.000  -0.000
 -0.000  -0.000   0.000  -0.000  -0.000  -0.000   0.000   0.000
  0.000   0.000   0.000  -0.000  -0.000  -0.000   0.000   0.000
 -0.000  -0.000   0.000  -0.000  -0.000   0.000  -0.000  -0.000
  0.000  -0.000  -0.000   0.000   0.000  -0.000   0.000   0.000
  0.000   0.000  -0.000   0.000   0.000  -0.000   0.000   0.000


------------------------ aborting loop because EDIFF is reached ----------------------------------------


    CHARGE:  cpu time    1.8351: real time    1.8358
    FORLOC:  cpu time    0.0262: real time    0.0303
    FORNL :  cpu time    2.1827: real time    2.1853
    STRESS:  cpu time    6.5875: real time    6.6196
    FORCOR:  cpu time    1.8955: real time    1.9006
    FORHAR:  cpu time    0.2695: real time    0.2775
    MIXING:  cpu time    0.0533: real time    0.0533
    OFIELD:  cpu time    0.0003: real time    0.0095

 ---------------------------------------------------------------------------------------------

         DFTD3 V3.0 Rev 1        
 IVDW         = 11
 DF pbe       
 parameters
 VDW_S6       =    1.0000
 VDW_S8       =    0.7220
 VDW_SR       =    1.2170
 rs18     =    1.0000
 alpha6   =   14.0000
 alpha8   =   16.0000
 k1-k3    =   16.0000    1.3333   -4.0000
 VDW_RADIUS   =   50.2022 A
 VDW_CNRADIUS =   21.1671 A
 Edisp (eV)   -1.73061

 E6    (eV) :    -0.9478
 E8    (eV) :    -0.7828
 % E8        : 45.23
    FORVDW:  cpu time    0.1140: real time    0.2577

  FORCE on cell =-STRESS in cart. coord.  units (eV):
  Direction    XX          YY          ZZ          XY          YZ          ZX
  --------------------------------------------------------------------------------------
  Alpha Z    89.70403    89.70403    89.70403
  Ewald   42649.98757 42672.41571-50272.86219    19.42295     0.00346    -0.00608
  Hartree 42291.24216 42326.12936-41555.04012    30.21320     0.00143    -0.00253
  E(xc)    -803.31438  -803.65227  -832.68840    -0.29262     0.00001    -0.00002
  Local  -87018.61277-87081.42016 89295.93895   -54.39249    -0.00443     0.00780
  n-local  -217.02383  -222.85099  -222.55564    -5.04690    -0.00028     0.00065
  augment   -56.48955   -56.97781   -55.77798    -0.42284     0.00005    -0.00009
  Kinetic  3060.89600  3097.59493  3552.99895    31.78230    -0.00047     0.00083
  Fock        0.00000     0.00000     0.00000     0.00000     0.00000     0.00000
  vdW        -0.39957    -0.36054    -0.01115     0.03380     0.00000    -0.00000
  -------------------------------------------------------------------------------------
  Total      -4.01034    20.58227    -0.29354    21.29740    -0.00022     0.00056
  in kB      -2.45200    12.58442    -0.17948    13.02166    -0.00014     0.00034
  external pressure =        3.32 kB  Pullay stress =        0.00 kB


 VOLUME and BASIS-vectors are now :
 -----------------------------------------------------------------------------
  energy-cutoff  :      520.00
  volume of cell :     2620.42
      direct lattice vectors                 reciprocal lattice vectors
    12.300000000  0.000000000  0.000000000     0.081300813  0.046939046  0.000000000
    -6.150000000 10.652112467  0.000000000     0.000000000  0.093878093  0.000000000
     0.000000000  0.000000000 20.000000000     0.000000000  0.000000000  0.050000000

  length of vectors
    12.300000000 12.300000000 20.000000000     0.093878093  0.093878093  0.050000000


 FORCES acting on ions
    electron-ion (+dipol)            ewald-force                    non-local-force                 convergence-correction
 -----------------------------------------------------------------------------------------------
   0.934E+01 -.539E+01 0.877E-01   -.955E+01 0.551E+01 -.877E-01   0.221E+00 -.128E+00 0.392E-04   0.151E-04 -.873E-05 0.751E-06
   0.477E+01 0.117E+02 0.142E+00   -.475E+01 -.122E+02 -.142E+00   0.151E-01 0.418E+00 -.139E-02   -.162E-05 -.521E-05 0.798E-06
   0.750E+01 0.102E+02 0.142E+00   -.786E+01 -.104E+02 -.142E+00   0.341E+00 0.226E+00 -.195E-02   -.371E-05 -.397E-05 0.800E-06
   -.245E+01 0.329E+02 0.343E+00   0.230E+01 -.339E+02 -.340E+00   0.170E+00 0.974E+00 -.418E-02   -.685E-05 0.636E-06 0.105E-05
   -.784E+01 0.179E+02 0.138E+00   0.800E+01 -.185E+02 -.138E+00   -.183E+00 0.610E+00 -.579E-03   -.922E-05 0.882E-05 0.825E-06
   -.187E+02 0.183E+02 0.270E+00   0.190E+02 -.188E+02 -.268E+00   -.323E+00 0.498E+00 -.198E-02   -.600E-05 0.106E-04 0.982E-06
   -.958E+00 0.764E+01 0.202E+00   0.132E+01 -.770E+01 -.204E+00   -.381E+00 0.833E-01 0.143E-02   -.497E-05 -.380E-05 0.748E-06
   -.614E+01 -.187E+01 0.124E+00   0.618E+01 0.193E+01 -.123E+00   -.737E-01 -.277E-01 -.126E-02   0.367E-05 0.127E-05 0.726E-06
   0.863E+01 -.976E+01 0.781E-01   -.865E+01 0.100E+02 -.785E-01   0.263E-01 -.276E+00 0.428E-03   0.542E-05 -.533E-05 0.701E-06
   0.483E+01 -.279E+01 0.932E-01   -.493E+01 0.285E+01 -.937E-01   0.927E-01 -.535E-01 0.955E-03   0.842E-05 -.486E-05 0.707E-06
   0.128E+02 -.259E+01 0.781E-01   -.130E+02 0.247E+01 -.785E-01   0.252E+00 0.115E+00 0.429E-03   0.732E-05 -.203E-05 0.701E-06
   0.196E+02 0.200E+01 0.136E+00   -.201E+02 -.213E+01 -.136E+00   0.610E+00 0.142E+00 -.103E-02   0.121E-04 -.364E-05 0.831E-06
   0.293E+02 0.143E+02 0.341E+00   -.301E+02 -.149E+02 -.338E+00   0.809E+00 0.658E+00 -.486E-02   0.393E-05 -.557E-05 0.105E-05
   0.407E+02 0.613E+02 0.111E+01   -.415E+02 -.656E+02 -.113E+01   0.822E+00 0.428E+01 0.209E-01   0.364E-04 0.182E-04 0.168E-05
   0.327E+02 0.658E+02 0.110E+01   -.360E+02 -.686E+02 -.112E+01   0.331E+01 0.284E+01 0.206E-01   -.249E-05 0.406E-04 0.168E-05
   -.527E+02 0.328E+02 0.355E+00   0.569E+02 -.349E+02 -.356E+00   -.415E+01 0.203E+01 0.640E-02   -.222E-05 0.253E-04 0.147E-05
   -.299E+02 0.173E+02 0.314E+00   0.302E+02 -.175E+02 -.327E+00   -.351E+00 0.203E+00 0.151E-01   -.282E-04 0.163E-04 0.116E-05
   -.370E+01 0.214E+01 0.189E+00   0.387E+01 -.223E+01 -.189E+00   -.178E+00 0.103E+00 0.961E-03   -.405E-05 0.234E-05 0.749E-06
   -.145E+01 0.625E+01 0.124E+00   0.142E+01 -.631E+01 -.123E+00   -.129E-01 0.777E-01 -.126E-02   0.733E-06 -.381E-05 0.726E-06
   -.709E+01 -.299E+01 0.202E+00   0.733E+01 0.271E+01 -.204E+00   -.263E+00 0.288E+00 0.143E-02   0.805E-06 0.620E-05 0.748E-06
   0.733E+01 0.281E+01 0.201E+00   -.758E+01 -.253E+01 -.202E+00   0.244E+00 -.272E+00 0.351E-03   -.907E-06 -.661E-05 0.753E-06
   0.251E+02 -.699E+01 0.296E+00   -.257E+02 0.703E+01 -.295E+00   0.592E+00 -.421E-01 -.308E-03   0.121E-04 -.157E-06 0.989E-06
   0.549E+02 -.294E+02 0.309E+00   -.587E+02 0.320E+02 -.309E+00   0.383E+01 -.259E+01 0.395E-02   0.232E-04 0.105E-04 0.148E-05
   -.548E+02 0.293E+02 0.355E+00   0.587E+02 -.318E+02 -.356E+00   -.383E+01 0.257E+01 0.640E-02   -.230E-04 -.107E-04 0.147E-05
   -.252E+02 0.700E+01 0.270E+00   0.258E+02 -.703E+01 -.268E+00   -.593E+00 0.309E-01 -.198E-02   -.122E-04 -.108E-06 0.982E-06
   -.195E+02 -.218E+01 0.138E+00   0.200E+02 0.232E+01 -.138E+00   -.619E+00 -.146E+00 -.664E-03   -.122E-04 0.357E-05 0.825E-06
   -.127E+02 0.255E+01 0.788E-01   0.130E+02 -.243E+01 -.791E-01   -.252E+00 -.107E+00 0.441E-03   -.759E-05 0.210E-05 0.698E-06
   0.174E+01 -.633E+01 0.124E+00   -.174E+01 0.639E+01 -.123E+00   -.271E-02 -.707E-01 -.117E-02   -.879E-06 0.363E-05 0.722E-06
   0.382E+01 -.220E+01 0.189E+00   -.398E+01 0.230E+01 -.189E+00   0.200E+00 -.116E+00 0.636E-03   0.413E-05 -.238E-05 0.750E-06
   0.299E+02 -.173E+02 0.334E+00   -.303E+02 0.175E+02 -.348E+00   0.384E+00 -.222E+00 0.176E-01   0.284E-04 -.164E-04 0.117E-05
   0.529E+02 -.328E+02 0.309E+00   -.570E+02 0.349E+02 -.309E+00   0.415E+01 -.202E+01 0.395E-02   0.251E-05 -.253E-04 0.148E-05
   -.328E+02 -.659E+02 0.111E+01   0.361E+02 0.687E+02 -.113E+01   -.330E+01 -.285E+01 0.209E-01   0.247E-05 -.406E-04 0.168E-05
   -.406E+02 -.612E+02 0.110E+01   0.414E+02 0.655E+02 -.112E+01   -.808E+00 -.428E+01 0.206E-01   -.364E-04 -.181E-04 0.168E-05
   -.297E+02 -.143E+02 0.343E+00   0.305E+02 0.150E+02 -.340E+00   -.759E+00 -.634E+00 -.419E-02   -.398E-05 0.561E-05 0.105E-05
   -.510E+01 -.116E+02 0.142E+00   0.509E+01 0.120E+02 -.142E+00   -.257E-01 -.408E+00 -.194E-02   0.159E-05 0.520E-05 0.800E-06
   -.947E+01 0.547E+01 0.876E-01   0.968E+01 -.559E+01 -.876E-01   -.216E+00 0.125E+00 0.138E-04   -.152E-04 0.875E-05 0.742E-06
   -.478E+01 0.276E+01 0.935E-01   0.488E+01 -.282E+01 -.939E-01   -.107E+00 0.620E-01 0.908E-03   -.864E-05 0.499E-05 0.700E-06
   -.857E+01 0.976E+01 0.787E-01   0.860E+01 -.100E+02 -.791E-01   -.336E-01 0.271E+00 0.441E-03   -.561E-05 0.552E-05 0.698E-06
   0.635E+01 0.166E+01 0.124E+00   -.641E+01 -.169E+01 -.123E+00   0.598E-01 0.377E-01 -.117E-02   -.358E-05 -.105E-05 0.722E-06
   0.123E+01 -.776E+01 0.201E+00   -.160E+01 0.783E+01 -.202E+00   0.358E+00 -.757E-01 0.351E-03   0.527E-05 0.409E-05 0.753E-06
   0.186E+02 -.182E+02 0.296E+00   -.189E+02 0.187E+02 -.295E+00   0.332E+00 -.491E+00 -.307E-03   0.619E-05 -.104E-04 0.989E-06
   0.805E+01 -.179E+02 0.136E+00   -.823E+01 0.185E+02 -.136E+00   0.182E+00 -.600E+00 -.103E-02   0.920E-05 -.864E-05 0.831E-06
   0.232E+01 -.325E+02 0.341E+00   -.217E+01 0.335E+02 -.338E+00   -.165E+00 -.103E+01 -.486E-02   0.679E-05 -.614E-06 0.105E-05
   -.778E+01 -.100E+02 0.142E+00   0.817E+01 0.102E+02 -.142E+00   -.354E+00 -.222E+00 -.140E-02   0.371E-05 0.401E-05 0.798E-06
   -.626E+02 0.731E+02 0.111E+01   0.640E+02 -.579E+02 -.119E+01   -.149E+01 -.153E+02 0.867E-01   -.320E-04 0.430E-04 0.202E-05
   0.943E+02 -.176E+02 0.112E+01   -.818E+02 0.265E+02 -.120E+01   -.125E+02 -.892E+01 0.891E-01   0.532E-04 -.628E-05 0.203E-05
   -.946E+02 0.176E+02 0.111E+01   0.822E+02 -.265E+02 -.119E+01   0.125E+02 0.894E+01 0.867E-01   -.532E-04 0.619E-05 0.202E-05
   0.624E+02 -.729E+02 0.112E+01   -.639E+02 0.576E+02 -.120E+01   0.147E+01 0.153E+02 0.891E-01   0.320E-04 -.429E-04 0.203E-05
   0.902E-01 -.521E-01 -.175E+02   -.686E-01 0.396E-01 0.172E+02   -.219E-01 0.127E-01 0.175E+00   0.202E-06 -.116E-06 0.388E-05
 -----------------------------------------------------------------------------------------------
   0.603E-01 -.348E-01 -.633E+00   -.291E-12 -.282E-13 0.000E+00   -.348E-01 0.215E-01 0.634E+00   0.263E-06 -.152E-06 0.547E-04
 
 
 POSITION                                       TOTAL-FORCE (eV/Angst)
 -----------------------------------------------------------------------------------
     12.28099      0.01098     14.99999         0.007807     -0.004514      0.000024
      1.21297      0.68574     14.99991         0.041707     -0.011548     -0.001125
     -3.70280     10.62564     14.99991        -0.022959      0.028765     -0.001672
      3.67089      0.65720     14.99970         0.022418     -0.035352     -0.001172
     -1.23352     10.61746     15.00001        -0.020670      0.056252     -0.000527
      6.12425      0.71773     14.99994        -0.003640      0.011748     -0.000489
      7.36747      0.00942     14.99983        -0.022753      0.022073     -0.000255
      8.57427      0.74152     14.99998        -0.037669      0.031249     -0.000390
      9.81723      0.02536     15.00005         0.003285     -0.008542      0.000021
     11.04911      0.72220     15.00001        -0.007247      0.004135      0.000411
     11.03665      2.13747     15.00005         0.009011      0.001393      0.000022
     -0.02851      2.81988     15.00001         0.030684      0.011211     -0.000801
      1.19202      2.08665     14.99970         0.041560      0.042827     -0.001836
      2.41272      2.76737     14.99940         0.016588     -0.026996      0.000844
      3.64931      2.05384     14.99941        -0.014404      0.019059      0.000702
      6.06207      2.14407     15.00056         0.016838     -0.008108      0.004859
      7.28446      2.89572     15.00026        -0.007471      0.004299      0.002383
      8.54293      2.16915     14.99998        -0.011550      0.006648      0.000758
      9.79496      2.85582     14.99998        -0.045947      0.016960     -0.000391
      9.82558      4.26698     14.99983        -0.030521      0.008622     -0.000254
     -1.21454      4.96408     14.99982         0.000659      0.011983     -0.001061
      0.01981      4.24191     14.99990         0.025689     -0.006483      0.000466
      1.28591      4.90198     15.00064        -0.030033      0.003135      0.003341
      7.32421      4.33017     15.00056         0.015421     -0.010562      0.004860
      8.59055      4.98949     14.99994        -0.012017     -0.002840     -0.000489
     -3.66175      6.41164     15.00001        -0.058287     -0.009163     -0.000612
     -2.42678      7.09374     15.00005         0.001561      0.005457      0.000064
     -1.18432      6.37525     14.99998         0.001640     -0.005052     -0.000392
      0.06653      7.06300     14.99997         0.038221     -0.022089      0.000606
      1.32506      6.33639     15.00024         0.031250     -0.018078      0.003651
      2.54771      7.08749     15.00064        -0.017751      0.024410      0.003341
      4.95975      7.17895     14.99940         0.031626     -0.000899      0.000846
      6.19598      6.46480     14.99941        -0.023731      0.002885      0.000704
      7.41629      7.14443     14.99970         0.041827     -0.001814     -0.001175
     -4.90348      8.54601     14.99991        -0.036403      0.005458     -0.001671
     -3.67084      9.22077     14.99999        -0.000103      0.000040      0.000001
     -2.43848      8.50927     15.00001        -0.011563      0.006630      0.000375
     -1.20675      9.20690     15.00005        -0.003972     -0.004108      0.000064
      0.03671      8.49014     14.99998         0.005159      0.001037     -0.000391
      1.24371      9.22190     14.99982        -0.010051     -0.006608     -0.001062
      2.48630      8.51400     14.99990         0.018428     -0.019058      0.000467
      3.69365      9.26686     15.00001         0.005607     -0.032230     -0.000801
      4.93892      8.57647     14.99970        -0.016336     -0.057454     -0.001837
      6.16262      9.25878     14.99991         0.030790     -0.030397     -0.001127
      4.81438      2.76952     15.00154        -0.009183     -0.013149      0.004395
      2.45058      4.13389     15.00153         0.003798     -0.005599      0.005126
      6.15872      5.09798     15.00154         0.006766      0.014476      0.004393
      3.79524      6.46290     15.00153         0.006717     -0.000540      0.005124
      4.30488      4.61599     15.01575        -0.000797      0.000431     -0.028320
 -----------------------------------------------------------------------------------
    total drift:                                0.025529     -0.013250      0.001945


--------------------------------------------------------------------------------------------------------



  FREE ENERGIE OF THE ION-ELECTRON SYSTEM (eV)
  ---------------------------------------------------
  free  energy   TOTEN  =      -442.06079512 eV

  energy  without entropy=     -442.02043424  energy(sigma->0) =     -442.04061468
 


--------------------------------------------------------------------------------------------------------


    POTLOK:  cpu time    2.8627: real time    2.8669


--------------------------------------------------------------------------------------------------------


 stress matrix after NEB project (eV)
     -4.01034     21.29740      0.00056
     21.29740     20.58227     -0.00022
      0.00056     -0.00022     -0.29354
  FORCES: max atom, RMS     0.059932    0.030807
  FORCE total and by dimension    0.215647    0.058287
  Stress total and by dimension   36.700915   21.297397
 Quasi-Newton relaxation of ions (Broydens 2nd method)
  g(Force)  = 0.897E-03   g(Stress)= 0.000E+00

 Reset! Starting new Quasi-Newton update for ions 


--------------------------------------------------------------------------------------------------------


    WAVPRE:  cpu time   38.6413: real time   38.7897
    FEWALD:  cpu time    0.0110: real time    0.0111
    ORTHCH:  cpu time    2.4979: real time    2.4984
     LOOP+:  cpu time 1637.0927: real time 1643.7246


--------------------------------------- Iteration      2(   1)  ---------------------------------------


    POTLOK:  cpu time    2.2843: real time    2.3121
    SETDIJ:  cpu time    0.5406: real time    0.5406
     EDDAV:  cpu time   82.8562: real time   83.1245
       DOS:  cpu time    0.0527: real time    0.0527
    CHARGE:  cpu time    1.8379: real time    1.8385
    MIXING:  cpu time    0.0360: real time    0.0360
    --------------------------------------------
      LOOP:  cpu time   87.6077: real time   87.9044

 eigenvalue-minimisations  :  8192
 total energy-change (2. order) :-0.3567206E-03  (-0.5002146E-02)
 number of electron     208.9999997 magnetization       0.0000679
 augmentation part       13.6903333 magnetization       0.0000551

 Broyden mixing:
  rms(total) = 0.53704E-02    rms(broyden)= 0.53645E-02
  rms(prec ) = 0.58732E-02
  weight for this iteration     100.00

 Free energy of the ion-electron system (eV)
  ---------------------------------------------------
  alpha Z        PSCENC =        89.70403219
  Ewald energy   TEWEN  =     35049.65504054
  -Hartree energ DENC   =    -43062.43893672
  -exchange      EXHF   =         0.00000000
  -V(xc)+E(xc)   XCENC  =       780.23614472
  PAW double counting   =      5239.99222871    -5662.18638785
  entropy T*S    EENTRO =        -0.04044991
  eigenvalues    EBANDS =     -2557.00680188
  atomic energy  EATOM  =      9681.75459483
  Solvation  Ediel_sol  =         0.00000000
  ---------------------------------------------------
  free energy    TOTEN  =      -440.33053537 eV

  energy without entropy =     -440.29008546  energy(sigma->0) =     -440.31031042


--------------------------------------------------------------------------------------------------------




--------------------------------------- Iteration      2(   2)  ---------------------------------------


    POTLOK:  cpu time    2.3603: real time    2.3606
    SETDIJ:  cpu time    0.5282: real time    0.5282
     EDDAV:  cpu time   45.2156: real time   45.3395
       DOS:  cpu time    0.0556: real time    0.0556
    CHARGE:  cpu time    1.8167: real time    1.8173
    MIXING:  cpu time    0.0415: real time    0.0415
    --------------------------------------------
      LOOP:  cpu time   50.0180: real time   50.1427

 eigenvalue-minimisations  :  5120
 total energy-change (2. order) : 0.5955719E-04  (-0.4944990E-04)
 number of electron     208.9999997 magnetization       0.0000565
 augmentation part       13.6903694 magnetization       0.0000406

 Broyden mixing:
  rms(total) = 0.28006E-02    rms(broyden)= 0.27999E-02
  rms(prec ) = 0.29554E-02
  weight for this iteration     100.00

 eigenvalues of (default mixing * dielectric matrix)
  average eigenvalue GAMMA=   1.6290
  1.6290

 Free energy of the ion-electron system (eV)
  ---------------------------------------------------
  alpha Z        PSCENC =        89.70403219
  Ewald energy   TEWEN  =     35049.65504054
  -Hartree energ DENC   =    -43062.44600550
  -exchange      EXHF   =         0.00000000
  -V(xc)+E(xc)   XCENC  =       780.23583259
  PAW double counting   =      5239.96751264    -5662.16289664
  entropy T*S    EENTRO =        -0.04041210
  eigenvalues    EBANDS =     -2556.99817436
  atomic energy  EATOM  =      9681.75459483
  Solvation  Ediel_sol  =         0.00000000
  ---------------------------------------------------
  free energy    TOTEN  =      -440.33047582 eV

  energy without entropy =     -440.29006371  energy(sigma->0) =     -440.31026976


--------------------------------------------------------------------------------------------------------




--------------------------------------- Iteration      2(   3)  ---------------------------------------


    POTLOK:  cpu time    2.3043: real time    2.3046
    SETDIJ:  cpu time    0.5331: real time    0.5331
     EDDAV:  cpu time   76.7281: real time   76.9023
       DOS:  cpu time    0.0554: real time    0.0554
    CHARGE:  cpu time    1.8462: real time    1.8468
    MIXING:  cpu time    0.0458: real time    0.0458
    --------------------------------------------
      LOOP:  cpu time   81.5130: real time   81.6880

 eigenvalue-minimisations  :  7680
 total energy-change (2. order) : 0.1023088E-04  (-0.7347373E-05)
 number of electron     208.9999997 magnetization       0.0000450
 augmentation part       13.6903936 magnetization       0.0000407

 Broyden mixing:
  rms(total) = 0.88539E-03    rms(broyden)= 0.88511E-03
  rms(prec ) = 0.93782E-03
  weight for this iteration     100.00

 eigenvalues of (default mixing * dielectric matrix)
  average eigenvalue GAMMA=   1.5447
  1.1915  1.8978

 Free energy of the ion-electron system (eV)
  ---------------------------------------------------
  alpha Z        PSCENC =        89.70403219
  Ewald energy   TEWEN  =     35049.65504054
  -Hartree energ DENC   =    -43062.45124284
  -exchange      EXHF   =         0.00000000
  -V(xc)+E(xc)   XCENC  =       780.23573277
  PAW double counting   =      5239.93968700    -5662.13427846
  entropy T*S    EENTRO =        -0.04040783
  eigenvalues    EBANDS =     -2556.99362378
  atomic energy  EATOM  =      9681.75459483
  Solvation  Ediel_sol  =         0.00000000
  ---------------------------------------------------
  free energy    TOTEN  =      -440.33046559 eV

  energy without entropy =     -440.29005775  energy(sigma->0) =     -440.31026167


--------------------------------------------------------------------------------------------------------




--------------------------------------- Iteration      2(   4)  ---------------------------------------


    POTLOK:  cpu time    2.3477: real time    2.3613
    SETDIJ:  cpu time    0.5284: real time    0.5284
     EDDAV:  cpu time   77.0449: real time   77.1897
       DOS:  cpu time    0.0916: real time    0.0916
    --------------------------------------------
      LOOP:  cpu time   80.0126: real time   80.1710

 eigenvalue-minimisations  :  7680
 total energy-change (2. order) : 0.3568894E-06  (-0.9208452E-06)
 number of electron     208.9999997 magnetization       0.0000450
 augmentation part       13.6903936 magnetization       0.0000407

 Free energy of the ion-electron system (eV)
  ---------------------------------------------------
  alpha Z        PSCENC =        89.70403219
  Ewald energy   TEWEN  =     35049.65504054
  -Hartree energ DENC   =    -43062.45379926
  -exchange      EXHF   =         0.00000000
  -V(xc)+E(xc)   XCENC  =       780.23582176
  PAW double counting   =      5239.92009092    -5662.11338849
  entropy T*S    EENTRO =        -0.04041156
  eigenvalues    EBANDS =     -2556.99244615
  atomic energy  EATOM  =      9681.75459483
  Solvation  Ediel_sol  =         0.00000000
  ---------------------------------------------------
  free energy    TOTEN  =      -440.33046523 eV

  energy without entropy =     -440.29005367  energy(sigma->0) =     -440.31025945


--------------------------------------------------------------------------------------------------------




 average (electrostatic) potential at core
  the test charge radii are     0.6991  0.7089  1.0314
  (the norm of the test charge is              1.0000)
       1 -57.9268       2 -57.8872       3 -57.8873       4 -58.0414       5 -58.0676
       6 -58.1353       7 -58.0401       8 -57.9664       9 -57.9176      10 -57.8859
      11 -57.9176      12 -58.0675      13 -58.0415      14 -58.7371      15 -58.7377
      16 -59.0238      17 -58.1945      18 -58.1213      19 -57.9664      20 -58.0401
      21 -58.0396      22 -58.1346      23 -59.0233      24 -59.0238      25 -58.1353
      26 -58.0676      27 -57.9173      28 -57.9661      29 -58.1210      30 -58.1944
      31 -59.0233      32 -58.7371      33 -58.7377      34 -58.0414      35 -57.8873
      36 -57.9268      37 -57.8859      38 -57.9173      39 -57.9661      40 -58.0396
      41 -58.1346      42 -58.0675      43 -58.0415      44 -57.8872      45 -73.1661
      46 -73.1638      47 -73.1661      48 -73.1638      49 -36.7611
 
 
 
 E-fermi :  -1.9771     XC(G=0):  -2.1610     alpha+bet : -1.8874


 spin component 1

 k-point     1 :       0.0000    0.0000    0.0000
  band No.  band energies     occupation 
      1     -23.5619      1.00000
      2     -23.1720      1.00000
      3     -22.7472      1.00000
      4     -22.4653      1.00000
      5     -21.7391      1.00000
      6     -21.3036      1.00000
      7     -21.1728      1.00000
      8     -20.8284      1.00000
      9     -20.3659      1.00000
     10     -20.1467      1.00000
     11     -19.6401      1.00000
     12     -19.5899      1.00000
     13     -19.2201      1.00000
     14     -19.1273      1.00000
     15     -18.9314      1.00000
     16     -18.7714      1.00000
     17     -18.7190      1.00000
     18     -18.4744      1.00000
     19     -18.3988      1.00000
     20     -18.2702      1.00000
     21     -18.1487      1.00000
     22     -18.0530      1.00000
     23     -17.9123      1.00000
     24     -17.8348      1.00000
     25     -17.1366      1.00000
     26     -17.0073      1.00000
     27     -16.7671      1.00000
     28     -16.4928      1.00000
     29     -16.3410      1.00000
     30     -15.8922      1.00000
     31     -15.6923      1.00000
     32     -15.6028      1.00000
     33     -15.5335      1.00000
     34     -15.4440      1.00000
     35     -15.0826      1.00000
     36     -14.6837      1.00000
     37     -14.4390      1.00000
     38     -14.3479      1.00000
     39     -14.3167      1.00000
     40     -14.1302      1.00000
     41     -13.3973      1.00000
     42     -12.9006      1.00000
     43     -12.4887      1.00000
     44     -12.4687      1.00000
     45     -12.1933      1.00000
     46     -11.8485      1.00000
     47     -11.7387      1.00000
     48     -11.6119      1.00000
     49     -11.5796      1.00000
     50     -11.5405      1.00000
     51     -11.4604      1.00000
     52     -11.1979      1.00000
     53     -11.1024      1.00000
     54     -10.6460      1.00000
     55     -10.5740      1.00000
     56     -10.4666      1.00000
     57     -10.3495      1.00000
     58     -10.1165      1.00000
     59     -10.0811      1.00000
     60      -9.7959      1.00000
     61      -9.7505      1.00000
     62      -9.7488      1.00000
     63      -9.6495      1.00000
     64      -9.4655      1.00000
     65      -9.3298      1.00000
     66      -9.2786      1.00000
     67      -9.2398      1.00000
     68      -9.2366      1.00000
     69      -9.1700      1.00000
     70      -9.0736      1.00000
     71      -9.0420      1.00000
     72      -8.9274      1.00000
     73      -8.8540      1.00000
     74      -8.7915      1.00000
     75      -8.7579      1.00000
     76      -8.1783      1.00000
     77      -8.1595      1.00000
     78      -8.0352      1.00000
     79      -7.9366      1.00000
     80      -7.7563      1.00000
     81      -7.5669      1.00000
     82      -7.5617      1.00000
     83      -7.3879      1.00000
     84      -7.2345      1.00000
     85      -7.2230      1.00000
     86      -7.1612      1.00000
     87      -7.0808      1.00000
     88      -6.6642      1.00000
     89      -6.6049      1.00000
     90      -6.5911      1.00000
     91      -6.4761      1.00000
     92      -6.3908      1.00000
     93      -6.2237      1.00000
     94      -6.2203      1.00000
     95      -6.0769      1.00000
     96      -6.0458      1.00000
     97      -5.4367      1.00000
     98      -5.0653      1.00000
     99      -4.6689      1.00000
    100      -4.4473      1.00000
    101      -4.2252      1.00000
    102      -4.1807      1.00000
    103      -4.1086      1.00000
    104      -3.0638      1.00000
    105      -1.9559      0.38234
    106      -1.6911      0.00003
    107      -1.3441      0.00000
    108      -1.3178      0.00000
    109      -0.9535      0.00000
    110      -0.7176      0.00000
    111       0.0597      0.00000
    112       0.1489      0.00000
    113       0.3357      0.00000
    114       0.3446      0.00000
    115       0.4458      0.00000
    116       0.6573      0.00000
    117       0.8244      0.00000
    118       1.1427      0.00000
    119       1.3841      0.00000
    120       1.6891      0.00000
    121       1.6908      0.00000
    122       1.7553      0.00000
    123       1.8556      0.00000
    124       1.8597      0.00000
    125       1.8789      0.00000
    126       1.9018      0.00000
    127       1.9536      0.00000
    128       2.1368      0.00000
    129       2.1788      0.00000
    130       2.2186      0.00000
    131       2.2467      0.00000
    132       2.5601      0.00000
    133       2.5640      0.00000
    134       2.6143      0.00000
    135       2.6499      0.00000
    136       2.6522      0.00000
    137       2.6790      0.00000
    138       2.9350      0.00000
    139       2.9935      0.00000
    140       3.0040      0.00000
    141       3.0066      0.00000
    142       3.0083      0.00000
    143       3.0100      0.00000
    144       3.0407      0.00000
    145       3.0698      0.00000
    146       3.4888      0.00000
    147       3.7468      0.00000
    148       3.8702      0.00000
    149       3.8755      0.00000
    150       3.9177      0.00000
    151       3.9205      0.00000
    152       3.9392      0.00000
    153       4.0439      0.00000
    154       4.1196      0.00000
    155       4.1756      0.00000
    156       4.2845      0.00000
    157       4.3272      0.00000
    158       4.3462      0.00000
    159       4.3527      0.00000
    160       4.3546      0.00000
    161       4.3624      0.00000
    162       4.3865      0.00000
    163       4.3889      0.00000
    164       4.3964      0.00000
    165       4.4170      0.00000
    166       4.5987      0.00000
    167       4.6091      0.00000
    168       4.7375      0.00000
    169       4.7408      0.00000
    170       5.0369      0.00000
    171       5.0714      0.00000
    172       5.1037      0.00000
    173       5.1424      0.00000
    174       5.1784      0.00000
    175       5.1883      0.00000
    176       5.1913      0.00000
    177       5.2263      0.00000
    178       5.3319      0.00000
    179       5.3410      0.00000
    180       5.3896      0.00000
    181       5.4118      0.00000
    182       5.4257      0.00000
    183       5.4564      0.00000
    184       5.5138      0.00000
    185       5.6054      0.00000
    186       5.6459      0.00000
    187       5.6473      0.00000
    188       5.6505      0.00000
    189       5.6567      0.00000
    190       5.6576      0.00000
    191       5.6578      0.00000
    192       5.6807      0.00000
    193       5.6822      0.00000
    194       5.6991      0.00000
    195       5.7189      0.00000
    196       5.7374      0.00000
    197       5.8113      0.00000
    198       5.8474      0.00000
    199       5.8506      0.00000
    200       5.8850      0.00000
    201       5.9684      0.00000
    202       6.0033      0.00000
    203       6.0255      0.00000
    204       6.0429      0.00000
    205       6.0461      0.00000
    206       6.0674      0.00000
    207       6.0750      0.00000
    208       6.0935      0.00000
    209       6.2141      0.00000
    210       6.3423      0.00000
    211       6.3787      0.00000
    212       6.4792      0.00000
    213       6.4821      0.00000
    214       6.4939      0.00000
    215       6.5181      0.00000
    216       6.5204      0.00000
    217       6.5254      0.00000
    218       6.5269      0.00000
    219       6.5289      0.00000
    220       6.5343      0.00000
    221       6.5839      0.00000
    222       6.6117      0.00000
    223       6.6702      0.00000
    224       6.6736      0.00000
    225       6.6950      0.00000
    226       6.7503      0.00000
    227       6.7761      0.00000
    228       6.9078      0.00000
    229       6.9395      0.00000
    230       6.9539      0.00000
    231       6.9594      0.00000
    232       6.9610      0.00000
    233       6.9746      0.00000
    234       6.9816      0.00000
    235       6.9847      0.00000
    236       6.9892      0.00000
    237       6.9914      0.00000
    238       6.9917      0.00000
    239       7.0024      0.00000
    240       7.4394      0.00000
    241       7.5850      0.00000
    242       7.6084      0.00000
    243       7.6708      0.00000
    244       7.6897      0.00000
    245       7.7229      0.00000
    246       7.7839      0.00000
    247       7.8135      0.00000
    248       7.8161      0.00000
    249       7.8178      0.00000
    250       7.8693      0.00000
    251       7.8993      0.00000
    252       7.9789      0.00000
    253       8.0457      0.00000
    254       8.1654      0.00000
    255       8.2133      0.00000
    256       8.2216      0.00000

 k-point     2 :       0.5000   -0.0000    0.0000
  band No.  band energies     occupation 
      1     -23.5474      1.00000
      2     -23.1952      1.00000
      3     -22.7647      1.00000
      4     -22.4673      1.00000
      5     -21.6176      1.00000
      6     -21.4329      1.00000
      7     -21.0462      1.00000
      8     -20.6425      1.00000
      9     -20.5783      1.00000
     10     -20.1989      1.00000
     11     -19.8201      1.00000
     12     -19.7974      1.00000
     13     -19.3346      1.00000
     14     -19.2946      1.00000
     15     -18.7477      1.00000
     16     -18.7070      1.00000
     17     -18.2352      1.00000
     18     -18.1993      1.00000
     19     -18.1483      1.00000
     20     -18.1410      1.00000
     21     -18.0530      1.00000
     22     -17.9086      1.00000
     23     -17.8261      1.00000
     24     -17.7253      1.00000
     25     -17.5570      1.00000
     26     -17.4446      1.00000
     27     -17.2120      1.00000
     28     -16.7850      1.00000
     29     -16.5229      1.00000
     30     -16.1324      1.00000
     31     -15.9823      1.00000
     32     -15.3435      1.00000
     33     -15.3397      1.00000
     34     -15.2108      1.00000
     35     -15.0661      1.00000
     36     -14.6205      1.00000
     37     -14.2550      1.00000
     38     -13.9182      1.00000
     39     -13.8221      1.00000
     40     -13.4232      1.00000
     41     -13.3468      1.00000
     42     -12.9242      1.00000
     43     -12.9103      1.00000
     44     -12.8505      1.00000
     45     -12.8499      1.00000
     46     -12.3707      1.00000
     47     -12.2727      1.00000
     48     -11.7238      1.00000
     49     -11.5539      1.00000
     50     -11.4508      1.00000
     51     -11.4187      1.00000
     52     -10.9660      1.00000
     53     -10.8553      1.00000
     54     -10.6479      1.00000
     55     -10.5603      1.00000
     56     -10.2581      1.00000
     57     -10.1778      1.00000
     58     -10.1089      1.00000
     59     -10.0673      1.00000
     60      -9.7517      1.00000
     61      -9.7230      1.00000
     62      -9.6625      1.00000
     63      -9.5739      1.00000
     64      -9.5464      1.00000
     65      -9.5393      1.00000
     66      -9.5279      1.00000
     67      -9.1904      1.00000
     68      -9.1780      1.00000
     69      -9.0342      1.00000
     70      -8.9578      1.00000
     71      -8.8982      1.00000
     72      -8.7416      1.00000
     73      -8.5795      1.00000
     74      -8.5338      1.00000
     75      -8.4182      1.00000
     76      -8.3983      1.00000
     77      -8.2541      1.00000
     78      -8.2048      1.00000
     79      -8.0371      1.00000
     80      -7.9927      1.00000
     81      -7.9229      1.00000
     82      -7.8980      1.00000
     83      -7.7311      1.00000
     84      -7.0651      1.00000
     85      -7.0188      1.00000
     86      -6.9514      1.00000
     87      -6.9432      1.00000
     88      -6.8599      1.00000
     89      -6.8454      1.00000
     90      -6.8197      1.00000
     91      -6.4166      1.00000
     92      -6.2055      1.00000
     93      -5.8616      1.00000
     94      -5.8447      1.00000
     95      -5.4539      1.00000
     96      -5.4144      1.00000
     97      -5.3457      1.00000
     98      -5.3272      1.00000
     99      -5.2365      1.00000
    100      -5.0854      1.00000
    101      -5.0063      1.00000
    102      -4.2347      1.00000
    103      -3.6750      1.00000
    104      -3.3958      1.00000
    105      -1.9437      0.31859
    106      -1.3469      0.00000
    107      -1.1876      0.00000
    108      -0.8156      0.00000
    109      -0.6771      0.00000
    110      -0.4424      0.00000
    111      -0.3623      0.00000
    112      -0.2617      0.00000
    113       0.0525      0.00000
    114       0.0760      0.00000
    115       0.2213      0.00000
    116       0.5731      0.00000
    117       0.8758      0.00000
    118       1.1383      0.00000
    119       1.1652      0.00000
    120       1.4748      0.00000
    121       1.6664      0.00000
    122       1.7087      0.00000
    123       1.7131      0.00000
    124       1.7301      0.00000
    125       1.8429      0.00000
    126       2.0146      0.00000
    127       2.0369      0.00000
    128       2.0677      0.00000
    129       2.2798      0.00000
    130       2.3883      0.00000
    131       2.6507      0.00000
    132       2.6789      0.00000
    133       2.6824      0.00000
    134       2.7604      0.00000
    135       2.7764      0.00000
    136       2.8944      0.00000
    137       2.9343      0.00000
    138       2.9718      0.00000
    139       3.0852      0.00000
    140       3.3413      0.00000
    141       3.3614      0.00000
    142       3.4036      0.00000
    143       3.4682      0.00000
    144       3.4999      0.00000
    145       3.5283      0.00000
    146       3.5645      0.00000
    147       3.5907      0.00000
    148       3.6020      0.00000
    149       3.6080      0.00000
    150       3.7242      0.00000
    151       3.8266      0.00000
    152       3.9880      0.00000
    153       3.9994      0.00000
    154       4.0087      0.00000
    155       4.0201      0.00000
    156       4.0400      0.00000
    157       4.0472      0.00000
    158       4.0544      0.00000
    159       4.1439      0.00000
    160       4.2178      0.00000
    161       4.2762      0.00000
    162       4.3339      0.00000
    163       4.3756      0.00000
    164       4.5289      0.00000
    165       4.6135      0.00000
    166       4.6539      0.00000
    167       4.7056      0.00000
    168       4.7329      0.00000
    169       4.7359      0.00000
    170       4.8526      0.00000
    171       4.8595      0.00000
    172       4.8927      0.00000
    173       4.9522      0.00000
    174       4.9833      0.00000
    175       4.9990      0.00000
    176       5.0588      0.00000
    177       5.1374      0.00000
    178       5.2284      0.00000
    179       5.3223      0.00000
    180       5.3290      0.00000
    181       5.3517      0.00000
    182       5.3667      0.00000
    183       5.3800      0.00000
    184       5.5092      0.00000
    185       5.5247      0.00000
    186       5.5587      0.00000
    187       5.5624      0.00000
    188       5.5929      0.00000
    189       5.6086      0.00000
    190       5.6163      0.00000
    191       5.6767      0.00000
    192       5.7068      0.00000
    193       5.7280      0.00000
    194       5.7811      0.00000
    195       5.7959      0.00000
    196       5.8039      0.00000
    197       5.8527      0.00000
    198       5.8565      0.00000
    199       5.8656      0.00000
    200       5.9695      0.00000
    201       5.9808      0.00000
    202       5.9848      0.00000
    203       5.9895      0.00000
    204       6.0043      0.00000
    205       6.0259      0.00000
    206       6.0856      0.00000
    207       6.1684      0.00000
    208       6.1912      0.00000
    209       6.2225      0.00000
    210       6.3012      0.00000
    211       6.3580      0.00000
    212       6.3932      0.00000
    213       6.4347      0.00000
    214       6.5010      0.00000
    215       6.5705      0.00000
    216       6.5917      0.00000
    217       6.6266      0.00000
    218       6.6316      0.00000
    219       6.6655      0.00000
    220       6.7005      0.00000
    221       6.7889      0.00000
    222       6.8027      0.00000
    223       6.8391      0.00000
    224       6.8478      0.00000
    225       6.8978      0.00000
    226       6.9376      0.00000
    227       6.9469      0.00000
    228       6.9558      0.00000
    229       6.9791      0.00000
    230       7.0779      0.00000
    231       7.0925      0.00000
    232       7.1806      0.00000
    233       7.2348      0.00000
    234       7.2558      0.00000
    235       7.2623      0.00000
    236       7.2761      0.00000
    237       7.2917      0.00000
    238       7.3196      0.00000
    239       7.3223      0.00000
    240       7.3670      0.00000
    241       7.3688      0.00000
    242       7.3873      0.00000
    243       7.4536      0.00000
    244       7.5590      0.00000
    245       7.5798      0.00000
    246       7.6034      0.00000
    247       7.6191      0.00000
    248       7.6317      0.00000
    249       7.6643      0.00000
    250       7.7790      0.00000
    251       7.8440      0.00000
    252       7.9385      0.00000
    253       7.9432      0.00000
    254       7.9541      0.00000
    255       7.9579      0.00000
    256       7.9618      0.00000

 k-point     3 :       0.0000    0.5000    0.0000
  band No.  band energies     occupation 
      1     -23.5474      1.00000
      2     -23.1952      1.00000
      3     -22.7647      1.00000
      4     -22.4673      1.00000
      5     -21.6176      1.00000
      6     -21.4329      1.00000
      7     -21.0462      1.00000
      8     -20.6424      1.00000
      9     -20.5783      1.00000
     10     -20.1989      1.00000
     11     -19.8201      1.00000
     12     -19.7974      1.00000
     13     -19.3346      1.00000
     14     -19.2946      1.00000
     15     -18.7477      1.00000
     16     -18.7070      1.00000
     17     -18.2352      1.00000
     18     -18.1993      1.00000
     19     -18.1483      1.00000
     20     -18.1410      1.00000
     21     -18.0530      1.00000
     22     -17.9086      1.00000
     23     -17.8261      1.00000
     24     -17.7252      1.00000
     25     -17.5570      1.00000
     26     -17.4446      1.00000
     27     -17.2120      1.00000
     28     -16.7850      1.00000
     29     -16.5229      1.00000
     30     -16.1324      1.00000
     31     -15.9823      1.00000
     32     -15.3435      1.00000
     33     -15.3397      1.00000
     34     -15.2108      1.00000
     35     -15.0661      1.00000
     36     -14.6205      1.00000
     37     -14.2550      1.00000
     38     -13.9181      1.00000
     39     -13.8221      1.00000
     40     -13.4232      1.00000
     41     -13.3468      1.00000
     42     -12.9242      1.00000
     43     -12.9103      1.00000
     44     -12.8505      1.00000
     45     -12.8499      1.00000
     46     -12.3707      1.00000
     47     -12.2727      1.00000
     48     -11.7238      1.00000
     49     -11.5539      1.00000
     50     -11.4508      1.00000
     51     -11.4187      1.00000
     52     -10.9660      1.00000
     53     -10.8553      1.00000
     54     -10.6479      1.00000
     55     -10.5603      1.00000
     56     -10.2581      1.00000
     57     -10.1779      1.00000
     58     -10.1089      1.00000
     59     -10.0673      1.00000
     60      -9.7517      1.00000
     61      -9.7229      1.00000
     62      -9.6625      1.00000
     63      -9.5739      1.00000
     64      -9.5464      1.00000
     65      -9.5393      1.00000
     66      -9.5279      1.00000
     67      -9.1904      1.00000
     68      -9.1780      1.00000
     69      -9.0342      1.00000
     70      -8.9578      1.00000
     71      -8.8982      1.00000
     72      -8.7416      1.00000
     73      -8.5795      1.00000
     74      -8.5338      1.00000
     75      -8.4182      1.00000
     76      -8.3983      1.00000
     77      -8.2541      1.00000
     78      -8.2048      1.00000
     79      -8.0371      1.00000
     80      -7.9927      1.00000
     81      -7.9229      1.00000
     82      -7.8981      1.00000
     83      -7.7311      1.00000
     84      -7.0651      1.00000
     85      -7.0188      1.00000
     86      -6.9514      1.00000
     87      -6.9432      1.00000
     88      -6.8599      1.00000
     89      -6.8454      1.00000
     90      -6.8196      1.00000
     91      -6.4166      1.00000
     92      -6.2055      1.00000
     93      -5.8616      1.00000
     94      -5.8447      1.00000
     95      -5.4539      1.00000
     96      -5.4144      1.00000
     97      -5.3457      1.00000
     98      -5.3272      1.00000
     99      -5.2365      1.00000
    100      -5.0854      1.00000
    101      -5.0063      1.00000
    102      -4.2347      1.00000
    103      -3.6750      1.00000
    104      -3.3958      1.00000
    105      -1.9437      0.31864
    106      -1.3469      0.00000
    107      -1.1876      0.00000
    108      -0.8156      0.00000
    109      -0.6771      0.00000
    110      -0.4424      0.00000
    111      -0.3623      0.00000
    112      -0.2617      0.00000
    113       0.0525      0.00000
    114       0.0760      0.00000
    115       0.2213      0.00000
    116       0.5731      0.00000
    117       0.8758      0.00000
    118       1.1383      0.00000
    119       1.1652      0.00000
    120       1.4748      0.00000
    121       1.6664      0.00000
    122       1.7087      0.00000
    123       1.7131      0.00000
    124       1.7301      0.00000
    125       1.8429      0.00000
    126       2.0146      0.00000
    127       2.0369      0.00000
    128       2.0677      0.00000
    129       2.2798      0.00000
    130       2.3883      0.00000
    131       2.6507      0.00000
    132       2.6789      0.00000
    133       2.6824      0.00000
    134       2.7604      0.00000
    135       2.7764      0.00000
    136       2.8944      0.00000
    137       2.9343      0.00000
    138       2.9718      0.00000
    139       3.0853      0.00000
    140       3.3413      0.00000
    141       3.3614      0.00000
    142       3.4036      0.00000
    143       3.4682      0.00000
    144       3.4999      0.00000
    145       3.5283      0.00000
    146       3.5645      0.00000
    147       3.5908      0.00000
    148       3.6020      0.00000
    149       3.6080      0.00000
    150       3.7242      0.00000
    151       3.8266      0.00000
    152       3.9880      0.00000
    153       3.9994      0.00000
    154       4.0087      0.00000
    155       4.0201      0.00000
    156       4.0400      0.00000
    157       4.0471      0.00000
    158       4.0544      0.00000
    159       4.1439      0.00000
    160       4.2178      0.00000
    161       4.2762      0.00000
    162       4.3339      0.00000
    163       4.3756      0.00000
    164       4.5289      0.00000
    165       4.6135      0.00000
    166       4.6539      0.00000
    167       4.7056      0.00000
    168       4.7329      0.00000
    169       4.7359      0.00000
    170       4.8526      0.00000
    171       4.8595      0.00000
    172       4.8927      0.00000
    173       4.9522      0.00000
    174       4.9833      0.00000
    175       4.9990      0.00000
    176       5.0588      0.00000
    177       5.1374      0.00000
    178       5.2283      0.00000
    179       5.3223      0.00000
    180       5.3290      0.00000
    181       5.3517      0.00000
    182       5.3667      0.00000
    183       5.3800      0.00000
    184       5.5092      0.00000
    185       5.5247      0.00000
    186       5.5587      0.00000
    187       5.5624      0.00000
    188       5.5929      0.00000
    189       5.6086      0.00000
    190       5.6162      0.00000
    191       5.6767      0.00000
    192       5.7068      0.00000
    193       5.7280      0.00000
    194       5.7811      0.00000
    195       5.7959      0.00000
    196       5.8039      0.00000
    197       5.8527      0.00000
    198       5.8565      0.00000
    199       5.8656      0.00000
    200       5.9695      0.00000
    201       5.9808      0.00000
    202       5.9848      0.00000
    203       5.9895      0.00000
    204       6.0043      0.00000
    205       6.0259      0.00000
    206       6.0856      0.00000
    207       6.1684      0.00000
    208       6.1912      0.00000
    209       6.2225      0.00000
    210       6.3012      0.00000
    211       6.3580      0.00000
    212       6.3932      0.00000
    213       6.4347      0.00000
    214       6.5010      0.00000
    215       6.5705      0.00000
    216       6.5917      0.00000
    217       6.6266      0.00000
    218       6.6316      0.00000
    219       6.6655      0.00000
    220       6.7005      0.00000
    221       6.7889      0.00000
    222       6.8026      0.00000
    223       6.8391      0.00000
    224       6.8478      0.00000
    225       6.8978      0.00000
    226       6.9376      0.00000
    227       6.9469      0.00000
    228       6.9558      0.00000
    229       6.9791      0.00000
    230       7.0779      0.00000
    231       7.0925      0.00000
    232       7.1806      0.00000
    233       7.2348      0.00000
    234       7.2558      0.00000
    235       7.2623      0.00000
    236       7.2762      0.00000
    237       7.2917      0.00000
    238       7.3195      0.00000
    239       7.3223      0.00000
    240       7.3670      0.00000
    241       7.3688      0.00000
    242       7.3873      0.00000
    243       7.4536      0.00000
    244       7.5590      0.00000
    245       7.5798      0.00000
    246       7.6034      0.00000
    247       7.6191      0.00000
    248       7.6317      0.00000
    249       7.6643      0.00000
    250       7.7790      0.00000
    251       7.8440      0.00000
    252       7.9385      0.00000
    253       7.9432      0.00000
    254       7.9541      0.00000
    255       7.9579      0.00000
    256       7.9618      0.00000

 k-point     4 :       0.5000    0.5000    0.0000
  band No.  band energies     occupation 
      1     -23.5500      1.00000
      2     -23.1808      1.00000
      3     -22.7993      1.00000
      4     -22.4346      1.00000
      5     -21.6532      1.00000
      6     -21.4618      1.00000
      7     -20.9367      1.00000
      8     -20.6572      1.00000
      9     -20.3605      1.00000
     10     -20.2469      1.00000
     11     -20.1944      1.00000
     12     -19.9482      1.00000
     13     -19.1088      1.00000
     14     -19.0641      1.00000
     15     -18.9208      1.00000
     16     -18.4685      1.00000
     17     -18.3270      1.00000
     18     -18.2075      1.00000
     19     -18.1484      1.00000
     20     -18.0530      1.00000
     21     -18.0336      1.00000
     22     -18.0212      1.00000
     23     -17.7941      1.00000
     24     -17.6562      1.00000
     25     -17.5505      1.00000
     26     -17.3994      1.00000
     27     -17.2610      1.00000
     28     -17.2059      1.00000
     29     -16.7614      1.00000
     30     -16.1293      1.00000
     31     -15.5013      1.00000
     32     -15.3845      1.00000
     33     -15.1940      1.00000
     34     -15.0863      1.00000
     35     -14.9566      1.00000
     36     -14.3869      1.00000
     37     -14.3190      1.00000
     38     -14.1726      1.00000
     39     -13.8437      1.00000
     40     -13.7935      1.00000
     41     -13.5130      1.00000
     42     -13.1637      1.00000
     43     -12.9333      1.00000
     44     -12.8871      1.00000
     45     -12.7337      1.00000
     46     -12.3050      1.00000
     47     -12.0926      1.00000
     48     -11.5365      1.00000
     49     -11.3674      1.00000
     50     -11.3406      1.00000
     51     -11.1687      1.00000
     52     -11.0243      1.00000
     53     -10.9954      1.00000
     54     -10.9365      1.00000
     55     -10.3052      1.00000
     56     -10.2079      1.00000
     57     -10.2077      1.00000
     58     -10.0272      1.00000
     59      -9.9909      1.00000
     60      -9.9519      1.00000
     61      -9.9120      1.00000
     62      -9.8876      1.00000
     63      -9.7585      1.00000
     64      -9.6868      1.00000
     65      -9.5798      1.00000
     66      -9.4254      1.00000
     67      -9.2205      1.00000
     68      -8.9543      1.00000
     69      -8.8995      1.00000
     70      -8.8705      1.00000
     71      -8.8081      1.00000
     72      -8.7111      1.00000
     73      -8.5780      1.00000
     74      -8.5682      1.00000
     75      -8.4851      1.00000
     76      -8.3864      1.00000
     77      -8.2240      1.00000
     78      -8.2178      1.00000
     79      -7.9996      1.00000
     80      -7.9795      1.00000
     81      -7.8799      1.00000
     82      -7.7591      1.00000
     83      -7.6537      1.00000
     84      -7.4296      1.00000
     85      -7.2012      1.00000
     86      -7.1362      1.00000
     87      -6.9139      1.00000
     88      -6.9034      1.00000
     89      -6.7585      1.00000
     90      -6.6818      1.00000
     91      -6.4474      1.00000
     92      -6.1770      1.00000
     93      -5.9643      1.00000
     94      -5.5062      1.00000
     95      -5.4784      1.00000
     96      -5.3789      1.00000
     97      -5.3194      1.00000
     98      -5.3124      1.00000
     99      -5.1809      1.00000
    100      -5.0902      1.00000
    101      -5.0352      1.00000
    102      -4.4622      1.00000
    103      -3.9637      1.00000
    104      -2.7588      1.00000
    105      -2.1229      0.98043
    106      -1.5340      0.00000
    107      -1.3089      0.00000
    108      -0.8532      0.00000
    109      -0.5988      0.00000
    110      -0.3492      0.00000
    111      -0.2476      0.00000
    112      -0.0024      0.00000
    113       0.0303      0.00000
    114       0.0545      0.00000
    115       0.2434      0.00000
    116       0.3418      0.00000
    117       0.8934      0.00000
    118       1.1049      0.00000
    119       1.1759      0.00000
    120       1.4476      0.00000
    121       1.5328      0.00000
    122       1.5977      0.00000
    123       1.6705      0.00000
    124       1.7374      0.00000
    125       1.8234      0.00000
    126       2.0161      0.00000
    127       2.0366      0.00000
    128       2.2786      0.00000
    129       2.3480      0.00000
    130       2.4885      0.00000
    131       2.6592      0.00000
    132       2.6838      0.00000
    133       2.6992      0.00000
    134       2.7345      0.00000
    135       2.7377      0.00000
    136       2.7568      0.00000
    137       2.9367      0.00000
    138       2.9464      0.00000
    139       3.0397      0.00000
    140       3.3692      0.00000
    141       3.3746      0.00000
    142       3.4185      0.00000
    143       3.4804      0.00000
    144       3.4852      0.00000
    145       3.5303      0.00000
    146       3.5595      0.00000
    147       3.5793      0.00000
    148       3.5988      0.00000
    149       3.6048      0.00000
    150       3.7303      0.00000
    151       3.8911      0.00000
    152       3.9933      0.00000
    153       3.9973      0.00000
    154       4.0051      0.00000
    155       4.0193      0.00000
    156       4.0576      0.00000
    157       4.1669      0.00000
    158       4.1784      0.00000
    159       4.2232      0.00000
    160       4.2579      0.00000
    161       4.2957      0.00000
    162       4.3416      0.00000
    163       4.5133      0.00000
    164       4.6018      0.00000
    165       4.6504      0.00000
    166       4.6512      0.00000
    167       4.7143      0.00000
    168       4.7607      0.00000
    169       4.7723      0.00000
    170       4.8328      0.00000
    171       4.8610      0.00000
    172       4.8907      0.00000
    173       4.8925      0.00000
    174       4.9387      0.00000
    175       4.9810      0.00000
    176       5.0594      0.00000
    177       5.1114      0.00000
    178       5.1211      0.00000
    179       5.2367      0.00000
    180       5.3127      0.00000
    181       5.3467      0.00000
    182       5.3479      0.00000
    183       5.3946      0.00000
    184       5.4020      0.00000
    185       5.4728      0.00000
    186       5.5146      0.00000
    187       5.5269      0.00000
    188       5.5284      0.00000
    189       5.5694      0.00000
    190       5.5998      0.00000
    191       5.6391      0.00000
    192       5.6804      0.00000
    193       5.6837      0.00000
    194       5.7522      0.00000
    195       5.7522      0.00000
    196       5.7926      0.00000
    197       5.8090      0.00000
    198       5.8547      0.00000
    199       5.8601      0.00000
    200       5.9665      0.00000
    201       5.9758      0.00000
    202       5.9836      0.00000
    203       5.9890      0.00000
    204       6.0118      0.00000
    205       6.0222      0.00000
    206       6.0852      0.00000
    207       6.1027      0.00000
    208       6.1679      0.00000
    209       6.2366      0.00000
    210       6.2662      0.00000
    211       6.3467      0.00000
    212       6.3951      0.00000
    213       6.5083      0.00000
    214       6.5157      0.00000
    215       6.5714      0.00000
    216       6.5942      0.00000
    217       6.6615      0.00000
    218       6.6647      0.00000
    219       6.7047      0.00000
    220       6.7302      0.00000
    221       6.7643      0.00000
    222       6.7714      0.00000
    223       6.8255      0.00000
    224       6.8462      0.00000
    225       6.8515      0.00000
    226       6.8884      0.00000
    227       6.8972      0.00000
    228       6.9523      0.00000
    229       6.9700      0.00000
    230       7.0375      0.00000
    231       7.1352      0.00000
    232       7.1703      0.00000
    233       7.2057      0.00000
    234       7.2349      0.00000
    235       7.2752      0.00000
    236       7.2782      0.00000
    237       7.2820      0.00000
    238       7.2851      0.00000
    239       7.3226      0.00000
    240       7.3253      0.00000
    241       7.3420      0.00000
    242       7.3571      0.00000
    243       7.4035      0.00000
    244       7.5611      0.00000
    245       7.5855      0.00000
    246       7.6142      0.00000
    247       7.6312      0.00000
    248       7.6756      0.00000
    249       7.6808      0.00000
    250       7.7275      0.00000
    251       7.8241      0.00000
    252       7.8262      0.00000
    253       7.8691      0.00000
    254       7.9578      0.00000
    255       7.9586      0.00000
    256       7.9613      0.00000

 spin component 2

 k-point     1 :       0.0000    0.0000    0.0000
  band No.  band energies     occupation 
      1     -23.5619      1.00000
      2     -23.1720      1.00000
      3     -22.7472      1.00000
      4     -22.4653      1.00000
      5     -21.7391      1.00000
      6     -21.3036      1.00000
      7     -21.1728      1.00000
      8     -20.8284      1.00000
      9     -20.3659      1.00000
     10     -20.1467      1.00000
     11     -19.6401      1.00000
     12     -19.5899      1.00000
     13     -19.2201      1.00000
     14     -19.1273      1.00000
     15     -18.9314      1.00000
     16     -18.7714      1.00000
     17     -18.7190      1.00000
     18     -18.4744      1.00000
     19     -18.3988      1.00000
     20     -18.2702      1.00000
     21     -18.1487      1.00000
     22     -18.0531      1.00000
     23     -17.9123      1.00000
     24     -17.8348      1.00000
     25     -17.1366      1.00000
     26     -17.0073      1.00000
     27     -16.7671      1.00000
     28     -16.4928      1.00000
     29     -16.3410      1.00000
     30     -15.8922      1.00000
     31     -15.6923      1.00000
     32     -15.6028      1.00000
     33     -15.5335      1.00000
     34     -15.4440      1.00000
     35     -15.0826      1.00000
     36     -14.6837      1.00000
     37     -14.4390      1.00000
     38     -14.3479      1.00000
     39     -14.3167      1.00000
     40     -14.1302      1.00000
     41     -13.3973      1.00000
     42     -12.9006      1.00000
     43     -12.4887      1.00000
     44     -12.4687      1.00000
     45     -12.1933      1.00000
     46     -11.8485      1.00000
     47     -11.7387      1.00000
     48     -11.6119      1.00000
     49     -11.5796      1.00000
     50     -11.5405      1.00000
     51     -11.4604      1.00000
     52     -11.1979      1.00000
     53     -11.1024      1.00000
     54     -10.6460      1.00000
     55     -10.5740      1.00000
     56     -10.4666      1.00000
     57     -10.3495      1.00000
     58     -10.1165      1.00000
     59     -10.0811      1.00000
     60      -9.7959      1.00000
     61      -9.7505      1.00000
     62      -9.7488      1.00000
     63      -9.6495      1.00000
     64      -9.4655      1.00000
     65      -9.3298      1.00000
     66      -9.2786      1.00000
     67      -9.2398      1.00000
     68      -9.2366      1.00000
     69      -9.1700      1.00000
     70      -9.0736      1.00000
     71      -9.0420      1.00000
     72      -8.9274      1.00000
     73      -8.8540      1.00000
     74      -8.7915      1.00000
     75      -8.7579      1.00000
     76      -8.1783      1.00000
     77      -8.1595      1.00000
     78      -8.0352      1.00000
     79      -7.9366      1.00000
     80      -7.7563      1.00000
     81      -7.5669      1.00000
     82      -7.5617      1.00000
     83      -7.3879      1.00000
     84      -7.2345      1.00000
     85      -7.2230      1.00000
     86      -7.1612      1.00000
     87      -7.0808      1.00000
     88      -6.6642      1.00000
     89      -6.6049      1.00000
     90      -6.5911      1.00000
     91      -6.4761      1.00000
     92      -6.3908      1.00000
     93      -6.2237      1.00000
     94      -6.2203      1.00000
     95      -6.0769      1.00000
     96      -6.0458      1.00000
     97      -5.4367      1.00000
     98      -5.0653      1.00000
     99      -4.6689      1.00000
    100      -4.4473      1.00000
    101      -4.2252      1.00000
    102      -4.1807      1.00000
    103      -4.1086      1.00000
    104      -3.0638      1.00000
    105      -1.9559      0.38232
    106      -1.6911      0.00003
    107      -1.3441      0.00000
    108      -1.3178      0.00000
    109      -0.9535      0.00000
    110      -0.7176      0.00000
    111       0.0598      0.00000
    112       0.1489      0.00000
    113       0.3357      0.00000
    114       0.3447      0.00000
    115       0.4458      0.00000
    116       0.6574      0.00000
    117       0.8247      0.00000
    118       1.1427      0.00000
    119       1.3851      0.00000
    120       1.6728      0.00000
    121       1.6896      0.00000
    122       1.7558      0.00000
    123       1.8562      0.00000
    124       1.8602      0.00000
    125       1.8790      0.00000
    126       1.9023      0.00000
    127       1.9536      0.00000
    128       2.1368      0.00000
    129       2.1789      0.00000
    130       2.2186      0.00000
    131       2.2465      0.00000
    132       2.5612      0.00000
    133       2.5653      0.00000
    134       2.6085      0.00000
    135       2.6510      0.00000
    136       2.6534      0.00000
    137       2.6802      0.00000
    138       2.9338      0.00000
    139       2.9755      0.00000
    140       2.9834      0.00000
    141       2.9875      0.00000
    142       2.9879      0.00000
    143       2.9905      0.00000
    144       3.0309      0.00000
    145       3.0646      0.00000
    146       3.4878      0.00000
    147       3.7463      0.00000
    148       3.8638      0.00000
    149       3.8690      0.00000
    150       3.9084      0.00000
    151       3.9111      0.00000
    152       3.9300      0.00000
    153       4.0399      0.00000
    154       4.1191      0.00000
    155       4.1741      0.00000
    156       4.2829      0.00000
    157       4.3254      0.00000
    158       4.3446      0.00000
    159       4.3491      0.00000
    160       4.3498      0.00000
    161       4.3582      0.00000
    162       4.3830      0.00000
    163       4.3858      0.00000
    164       4.3953      0.00000
    165       4.4173      0.00000
    166       4.5990      0.00000
    167       4.6089      0.00000
    168       4.7307      0.00000
    169       4.7405      0.00000
    170       5.0369      0.00000
    171       5.0725      0.00000
    172       5.1049      0.00000
    173       5.1423      0.00000
    174       5.1797      0.00000
    175       5.1894      0.00000
    176       5.1925      0.00000
    177       5.2270      0.00000
    178       5.3318      0.00000
    179       5.3353      0.00000
    180       5.3894      0.00000
    181       5.4104      0.00000
    182       5.4241      0.00000
    183       5.4557      0.00000
    184       5.5133      0.00000
    185       5.6028      0.00000
    186       5.6297      0.00000
    187       5.6300      0.00000
    188       5.6330      0.00000
    189       5.6404      0.00000
    190       5.6422      0.00000
    191       5.6428      0.00000
    192       5.6798      0.00000
    193       5.6810      0.00000
    194       5.6991      0.00000
    195       5.7190      0.00000
    196       5.7369      0.00000
    197       5.8098      0.00000
    198       5.8469      0.00000
    199       5.8499      0.00000
    200       5.8796      0.00000
    201       5.9630      0.00000
    202       6.0007      0.00000
    203       6.0186      0.00000
    204       6.0397      0.00000
    205       6.0417      0.00000
    206       6.0601      0.00000
    207       6.0744      0.00000
    208       6.0902      0.00000
    209       6.2129      0.00000
    210       6.3403      0.00000
    211       6.3766      0.00000
    212       6.4734      0.00000
    213       6.4770      0.00000
    214       6.4855      0.00000
    215       6.5174      0.00000
    216       6.5183      0.00000
    217       6.5242      0.00000
    218       6.5252      0.00000
    219       6.5279      0.00000
    220       6.5338      0.00000
    221       6.5766      0.00000
    222       6.6043      0.00000
    223       6.6623      0.00000
    224       6.6659      0.00000
    225       6.6879      0.00000
    226       6.7461      0.00000
    227       6.7718      0.00000
    228       6.8980      0.00000
    229       6.9284      0.00000
    230       6.9403      0.00000
    231       6.9462      0.00000
    232       6.9512      0.00000
    233       6.9560      0.00000
    234       6.9687      0.00000
    235       6.9745      0.00000
    236       6.9754      0.00000
    237       6.9824      0.00000
    238       6.9856      0.00000
    239       6.9963      0.00000
    240       7.4382      0.00000
    241       7.5844      0.00000
    242       7.6076      0.00000
    243       7.6644      0.00000
    244       7.6828      0.00000
    245       7.7163      0.00000
    246       7.7835      0.00000
    247       7.8063      0.00000
    248       7.8086      0.00000
    249       7.8112      0.00000
    250       7.8688      0.00000
    251       7.8923      0.00000
    252       7.9788      0.00000
    253       8.0451      0.00000
    254       8.1614      0.00000
    255       8.2109      0.00000
    256       8.2185      0.00000

 k-point     2 :       0.5000   -0.0000    0.0000
  band No.  band energies     occupation 
      1     -23.5474      1.00000
      2     -23.1952      1.00000
      3     -22.7647      1.00000
      4     -22.4673      1.00000
      5     -21.6176      1.00000
      6     -21.4329      1.00000
      7     -21.0462      1.00000
      8     -20.6425      1.00000
      9     -20.5783      1.00000
     10     -20.1989      1.00000
     11     -19.8201      1.00000
     12     -19.7974      1.00000
     13     -19.3346      1.00000
     14     -19.2946      1.00000
     15     -18.7477      1.00000
     16     -18.7070      1.00000
     17     -18.2352      1.00000
     18     -18.1993      1.00000
     19     -18.1483      1.00000
     20     -18.1410      1.00000
     21     -18.0530      1.00000
     22     -17.9086      1.00000
     23     -17.8261      1.00000
     24     -17.7253      1.00000
     25     -17.5570      1.00000
     26     -17.4446      1.00000
     27     -17.2120      1.00000
     28     -16.7850      1.00000
     29     -16.5229      1.00000
     30     -16.1324      1.00000
     31     -15.9823      1.00000
     32     -15.3435      1.00000
     33     -15.3397      1.00000
     34     -15.2108      1.00000
     35     -15.0661      1.00000
     36     -14.6205      1.00000
     37     -14.2550      1.00000
     38     -13.9182      1.00000
     39     -13.8221      1.00000
     40     -13.4232      1.00000
     41     -13.3468      1.00000
     42     -12.9242      1.00000
     43     -12.9103      1.00000
     44     -12.8505      1.00000
     45     -12.8499      1.00000
     46     -12.3707      1.00000
     47     -12.2727      1.00000
     48     -11.7238      1.00000
     49     -11.5539      1.00000
     50     -11.4508      1.00000
     51     -11.4187      1.00000
     52     -10.9660      1.00000
     53     -10.8553      1.00000
     54     -10.6479      1.00000
     55     -10.5603      1.00000
     56     -10.2581      1.00000
     57     -10.1778      1.00000
     58     -10.1089      1.00000
     59     -10.0673      1.00000
     60      -9.7517      1.00000
     61      -9.7230      1.00000
     62      -9.6625      1.00000
     63      -9.5739      1.00000
     64      -9.5464      1.00000
     65      -9.5393      1.00000
     66      -9.5279      1.00000
     67      -9.1904      1.00000
     68      -9.1780      1.00000
     69      -9.0342      1.00000
     70      -8.9578      1.00000
     71      -8.8982      1.00000
     72      -8.7416      1.00000
     73      -8.5795      1.00000
     74      -8.5338      1.00000
     75      -8.4182      1.00000
     76      -8.3983      1.00000
     77      -8.2541      1.00000
     78      -8.2048      1.00000
     79      -8.0371      1.00000
     80      -7.9927      1.00000
     81      -7.9229      1.00000
     82      -7.8980      1.00000
     83      -7.7311      1.00000
     84      -7.0651      1.00000
     85      -7.0188      1.00000
     86      -6.9514      1.00000
     87      -6.9432      1.00000
     88      -6.8599      1.00000
     89      -6.8454      1.00000
     90      -6.8197      1.00000
     91      -6.4166      1.00000
     92      -6.2055      1.00000
     93      -5.8616      1.00000
     94      -5.8447      1.00000
     95      -5.4539      1.00000
     96      -5.4144      1.00000
     97      -5.3457      1.00000
     98      -5.3272      1.00000
     99      -5.2365      1.00000
    100      -5.0854      1.00000
    101      -5.0063      1.00000
    102      -4.2347      1.00000
    103      -3.6750      1.00000
    104      -3.3958      1.00000
    105      -1.9437      0.31858
    106      -1.3469      0.00000
    107      -1.1876      0.00000
    108      -0.8156      0.00000
    109      -0.6770      0.00000
    110      -0.4424      0.00000
    111      -0.3622      0.00000
    112      -0.2617      0.00000
    113       0.0525      0.00000
    114       0.0761      0.00000
    115       0.2213      0.00000
    116       0.5731      0.00000
    117       0.8763      0.00000
    118       1.1387      0.00000
    119       1.1654      0.00000
    120       1.4753      0.00000
    121       1.6676      0.00000
    122       1.7087      0.00000
    123       1.7134      0.00000
    124       1.7302      0.00000
    125       1.8437      0.00000
    126       1.9943      0.00000
    127       2.0208      0.00000
    128       2.0677      0.00000
    129       2.2810      0.00000
    130       2.3895      0.00000
    131       2.6423      0.00000
    132       2.6630      0.00000
    133       2.6720      0.00000
    134       2.7601      0.00000
    135       2.7769      0.00000
    136       2.8912      0.00000
    137       2.9253      0.00000
    138       2.9713      0.00000
    139       3.0816      0.00000
    140       3.3396      0.00000
    141       3.3585      0.00000
    142       3.4006      0.00000
    143       3.4685      0.00000
    144       3.4989      0.00000
    145       3.5253      0.00000
    146       3.5656      0.00000
    147       3.5862      0.00000
    148       3.5986      0.00000
    149       3.6086      0.00000
    150       3.7228      0.00000
    151       3.8243      0.00000
    152       3.9719      0.00000
    153       3.9792      0.00000
    154       3.9935      0.00000
    155       4.0040      0.00000
    156       4.0330      0.00000
    157       4.0467      0.00000
    158       4.0498      0.00000
    159       4.1438      0.00000
    160       4.2185      0.00000
    161       4.2767      0.00000
    162       4.3343      0.00000
    163       4.3751      0.00000
    164       4.5290      0.00000
    165       4.6059      0.00000
    166       4.6370      0.00000
    167       4.6955      0.00000
    168       4.7328      0.00000
    169       4.7363      0.00000
    170       4.8454      0.00000
    171       4.8521      0.00000
    172       4.8847      0.00000
    173       4.9474      0.00000
    174       4.9828      0.00000
    175       4.9984      0.00000
    176       5.0510      0.00000
    177       5.1301      0.00000
    178       5.2266      0.00000
    179       5.3167      0.00000
    180       5.3249      0.00000
    181       5.3477      0.00000
    182       5.3674      0.00000
    183       5.3760      0.00000
    184       5.5026      0.00000
    185       5.5211      0.00000
    186       5.5596      0.00000
    187       5.5630      0.00000
    188       5.5886      0.00000
    189       5.6072      0.00000
    190       5.6133      0.00000
    191       5.6694      0.00000
    192       5.7008      0.00000
    193       5.7251      0.00000
    194       5.7803      0.00000
    195       5.7945      0.00000
    196       5.7989      0.00000
    197       5.8513      0.00000
    198       5.8554      0.00000
    199       5.8631      0.00000
    200       5.9546      0.00000
    201       5.9652      0.00000
    202       5.9668      0.00000
    203       5.9751      0.00000
    204       5.9994      0.00000
    205       6.0216      0.00000
    206       6.0834      0.00000
    207       6.1665      0.00000
    208       6.1900      0.00000
    209       6.2207      0.00000
    210       6.3000      0.00000
    211       6.3539      0.00000
    212       6.3891      0.00000
    213       6.4342      0.00000
    214       6.5010      0.00000
    215       6.5705      0.00000
    216       6.5920      0.00000
    217       6.6266      0.00000
    218       6.6312      0.00000
    219       6.6657      0.00000
    220       6.6944      0.00000
    221       6.7878      0.00000
    222       6.7957      0.00000
    223       6.8309      0.00000
    224       6.8417      0.00000
    225       6.8927      0.00000
    226       6.9364      0.00000
    227       6.9416      0.00000
    228       6.9554      0.00000
    229       6.9714      0.00000
    230       7.0719      0.00000
    231       7.0903      0.00000
    232       7.1802      0.00000
    233       7.2347      0.00000
    234       7.2541      0.00000
    235       7.2624      0.00000
    236       7.2735      0.00000
    237       7.2925      0.00000
    238       7.3148      0.00000
    239       7.3174      0.00000
    240       7.3634      0.00000
    241       7.3687      0.00000
    242       7.3869      0.00000
    243       7.4522      0.00000
    244       7.5582      0.00000
    245       7.5745      0.00000
    246       7.5967      0.00000
    247       7.6122      0.00000
    248       7.6238      0.00000
    249       7.6584      0.00000
    250       7.7744      0.00000
    251       7.8437      0.00000
    252       7.9240      0.00000
    253       7.9296      0.00000
    254       7.9394      0.00000
    255       7.9431      0.00000
    256       7.9514      0.00000

 k-point     3 :       0.0000    0.5000    0.0000
  band No.  band energies     occupation 
      1     -23.5474      1.00000
      2     -23.1952      1.00000
      3     -22.7647      1.00000
      4     -22.4673      1.00000
      5     -21.6176      1.00000
      6     -21.4329      1.00000
      7     -21.0462      1.00000
      8     -20.6424      1.00000
      9     -20.5783      1.00000
     10     -20.1989      1.00000
     11     -19.8201      1.00000
     12     -19.7974      1.00000
     13     -19.3346      1.00000
     14     -19.2946      1.00000
     15     -18.7477      1.00000
     16     -18.7070      1.00000
     17     -18.2352      1.00000
     18     -18.1993      1.00000
     19     -18.1483      1.00000
     20     -18.1410      1.00000
     21     -18.0530      1.00000
     22     -17.9086      1.00000
     23     -17.8261      1.00000
     24     -17.7252      1.00000
     25     -17.5570      1.00000
     26     -17.4446      1.00000
     27     -17.2120      1.00000
     28     -16.7850      1.00000
     29     -16.5229      1.00000
     30     -16.1324      1.00000
     31     -15.9823      1.00000
     32     -15.3435      1.00000
     33     -15.3397      1.00000
     34     -15.2108      1.00000
     35     -15.0661      1.00000
     36     -14.6205      1.00000
     37     -14.2550      1.00000
     38     -13.9181      1.00000
     39     -13.8221      1.00000
     40     -13.4232      1.00000
     41     -13.3468      1.00000
     42     -12.9242      1.00000
     43     -12.9103      1.00000
     44     -12.8505      1.00000
     45     -12.8499      1.00000
     46     -12.3707      1.00000
     47     -12.2727      1.00000
     48     -11.7238      1.00000
     49     -11.5539      1.00000
     50     -11.4508      1.00000
     51     -11.4187      1.00000
     52     -10.9660      1.00000
     53     -10.8553      1.00000
     54     -10.6479      1.00000
     55     -10.5603      1.00000
     56     -10.2581      1.00000
     57     -10.1778      1.00000
     58     -10.1089      1.00000
     59     -10.0673      1.00000
     60      -9.7517      1.00000
     61      -9.7229      1.00000
     62      -9.6625      1.00000
     63      -9.5739      1.00000
     64      -9.5464      1.00000
     65      -9.5393      1.00000
     66      -9.5279      1.00000
     67      -9.1904      1.00000
     68      -9.1780      1.00000
     69      -9.0342      1.00000
     70      -8.9578      1.00000
     71      -8.8982      1.00000
     72      -8.7416      1.00000
     73      -8.5795      1.00000
     74      -8.5338      1.00000
     75      -8.4182      1.00000
     76      -8.3983      1.00000
     77      -8.2541      1.00000
     78      -8.2048      1.00000
     79      -8.0371      1.00000
     80      -7.9927      1.00000
     81      -7.9229      1.00000
     82      -7.8980      1.00000
     83      -7.7311      1.00000
     84      -7.0651      1.00000
     85      -7.0188      1.00000
     86      -6.9514      1.00000
     87      -6.9432      1.00000
     88      -6.8599      1.00000
     89      -6.8454      1.00000
     90      -6.8196      1.00000
     91      -6.4166      1.00000
     92      -6.2055      1.00000
     93      -5.8616      1.00000
     94      -5.8447      1.00000
     95      -5.4539      1.00000
     96      -5.4144      1.00000
     97      -5.3457      1.00000
     98      -5.3272      1.00000
     99      -5.2365      1.00000
    100      -5.0854      1.00000
    101      -5.0063      1.00000
    102      -4.2347      1.00000
    103      -3.6750      1.00000
    104      -3.3958      1.00000
    105      -1.9437      0.31862
    106      -1.3469      0.00000
    107      -1.1876      0.00000
    108      -0.8156      0.00000
    109      -0.6771      0.00000
    110      -0.4424      0.00000
    111      -0.3622      0.00000
    112      -0.2617      0.00000
    113       0.0525      0.00000
    114       0.0761      0.00000
    115       0.2213      0.00000
    116       0.5731      0.00000
    117       0.8763      0.00000
    118       1.1387      0.00000
    119       1.1654      0.00000
    120       1.4753      0.00000
    121       1.6675      0.00000
    122       1.7087      0.00000
    123       1.7134      0.00000
    124       1.7301      0.00000
    125       1.8438      0.00000
    126       1.9943      0.00000
    127       2.0208      0.00000
    128       2.0677      0.00000
    129       2.2810      0.00000
    130       2.3895      0.00000
    131       2.6423      0.00000
    132       2.6630      0.00000
    133       2.6720      0.00000
    134       2.7601      0.00000
    135       2.7769      0.00000
    136       2.8912      0.00000
    137       2.9253      0.00000
    138       2.9713      0.00000
    139       3.0816      0.00000
    140       3.3395      0.00000
    141       3.3585      0.00000
    142       3.4006      0.00000
    143       3.4685      0.00000
    144       3.4989      0.00000
    145       3.5253      0.00000
    146       3.5656      0.00000
    147       3.5862      0.00000
    148       3.5986      0.00000
    149       3.6086      0.00000
    150       3.7228      0.00000
    151       3.8243      0.00000
    152       3.9719      0.00000
    153       3.9792      0.00000
    154       3.9935      0.00000
    155       4.0040      0.00000
    156       4.0330      0.00000
    157       4.0467      0.00000
    158       4.0498      0.00000
    159       4.1439      0.00000
    160       4.2185      0.00000
    161       4.2767      0.00000
    162       4.3343      0.00000
    163       4.3751      0.00000
    164       4.5290      0.00000
    165       4.6059      0.00000
    166       4.6370      0.00000
    167       4.6956      0.00000
    168       4.7328      0.00000
    169       4.7363      0.00000
    170       4.8454      0.00000
    171       4.8521      0.00000
    172       4.8847      0.00000
    173       4.9474      0.00000
    174       4.9828      0.00000
    175       4.9984      0.00000
    176       5.0510      0.00000
    177       5.1301      0.00000
    178       5.2266      0.00000
    179       5.3167      0.00000
    180       5.3249      0.00000
    181       5.3477      0.00000
    182       5.3674      0.00000
    183       5.3760      0.00000
    184       5.5026      0.00000
    185       5.5211      0.00000
    186       5.5596      0.00000
    187       5.5630      0.00000
    188       5.5886      0.00000
    189       5.6072      0.00000
    190       5.6133      0.00000
    191       5.6694      0.00000
    192       5.7008      0.00000
    193       5.7251      0.00000
    194       5.7803      0.00000
    195       5.7946      0.00000
    196       5.7989      0.00000
    197       5.8513      0.00000
    198       5.8554      0.00000
    199       5.8631      0.00000
    200       5.9546      0.00000
    201       5.9652      0.00000
    202       5.9668      0.00000
    203       5.9751      0.00000
    204       5.9994      0.00000
    205       6.0216      0.00000
    206       6.0834      0.00000
    207       6.1665      0.00000
    208       6.1900      0.00000
    209       6.2206      0.00000
    210       6.3000      0.00000
    211       6.3539      0.00000
    212       6.3892      0.00000
    213       6.4342      0.00000
    214       6.5010      0.00000
    215       6.5704      0.00000
    216       6.5921      0.00000
    217       6.6266      0.00000
    218       6.6312      0.00000
    219       6.6657      0.00000
    220       6.6944      0.00000
    221       6.7878      0.00000
    222       6.7957      0.00000
    223       6.8309      0.00000
    224       6.8417      0.00000
    225       6.8927      0.00000
    226       6.9364      0.00000
    227       6.9416      0.00000
    228       6.9554      0.00000
    229       6.9714      0.00000
    230       7.0720      0.00000
    231       7.0903      0.00000
    232       7.1802      0.00000
    233       7.2347      0.00000
    234       7.2541      0.00000
    235       7.2625      0.00000
    236       7.2735      0.00000
    237       7.2925      0.00000
    238       7.3148      0.00000
    239       7.3174      0.00000
    240       7.3634      0.00000
    241       7.3687      0.00000
    242       7.3869      0.00000
    243       7.4522      0.00000
    244       7.5582      0.00000
    245       7.5745      0.00000
    246       7.5967      0.00000
    247       7.6122      0.00000
    248       7.6238      0.00000
    249       7.6584      0.00000
    250       7.7744      0.00000
    251       7.8437      0.00000
    252       7.9240      0.00000
    253       7.9296      0.00000
    254       7.9394      0.00000
    255       7.9431      0.00000
    256       7.9514      0.00000

 k-point     4 :       0.5000    0.5000    0.0000
  band No.  band energies     occupation 
      1     -23.5500      1.00000
      2     -23.1808      1.00000
      3     -22.7993      1.00000
      4     -22.4346      1.00000
      5     -21.6532      1.00000
      6     -21.4618      1.00000
      7     -20.9367      1.00000
      8     -20.6572      1.00000
      9     -20.3605      1.00000
     10     -20.2469      1.00000
     11     -20.1944      1.00000
     12     -19.9482      1.00000
     13     -19.1088      1.00000
     14     -19.0641      1.00000
     15     -18.9208      1.00000
     16     -18.4685      1.00000
     17     -18.3270      1.00000
     18     -18.2075      1.00000
     19     -18.1484      1.00000
     20     -18.0530      1.00000
     21     -18.0336      1.00000
     22     -18.0212      1.00000
     23     -17.7941      1.00000
     24     -17.6562      1.00000
     25     -17.5505      1.00000
     26     -17.3994      1.00000
     27     -17.2610      1.00000
     28     -17.2059      1.00000
     29     -16.7614      1.00000
     30     -16.1293      1.00000
     31     -15.5013      1.00000
     32     -15.3845      1.00000
     33     -15.1940      1.00000
     34     -15.0863      1.00000
     35     -14.9566      1.00000
     36     -14.3869      1.00000
     37     -14.3190      1.00000
     38     -14.1726      1.00000
     39     -13.8437      1.00000
     40     -13.7935      1.00000
     41     -13.5130      1.00000
     42     -13.1637      1.00000
     43     -12.9333      1.00000
     44     -12.8871      1.00000
     45     -12.7337      1.00000
     46     -12.3050      1.00000
     47     -12.0926      1.00000
     48     -11.5365      1.00000
     49     -11.3674      1.00000
     50     -11.3406      1.00000
     51     -11.1687      1.00000
     52     -11.0243      1.00000
     53     -10.9954      1.00000
     54     -10.9365      1.00000
     55     -10.3052      1.00000
     56     -10.2079      1.00000
     57     -10.2077      1.00000
     58     -10.0272      1.00000
     59      -9.9909      1.00000
     60      -9.9519      1.00000
     61      -9.9120      1.00000
     62      -9.8876      1.00000
     63      -9.7585      1.00000
     64      -9.6868      1.00000
     65      -9.5798      1.00000
     66      -9.4254      1.00000
     67      -9.2205      1.00000
     68      -8.9543      1.00000
     69      -8.8995      1.00000
     70      -8.8705      1.00000
     71      -8.8081      1.00000
     72      -8.7111      1.00000
     73      -8.5780      1.00000
     74      -8.5682      1.00000
     75      -8.4851      1.00000
     76      -8.3864      1.00000
     77      -8.2240      1.00000
     78      -8.2178      1.00000
     79      -7.9996      1.00000
     80      -7.9795      1.00000
     81      -7.8799      1.00000
     82      -7.7591      1.00000
     83      -7.6537      1.00000
     84      -7.4296      1.00000
     85      -7.2012      1.00000
     86      -7.1362      1.00000
     87      -6.9139      1.00000
     88      -6.9034      1.00000
     89      -6.7585      1.00000
     90      -6.6818      1.00000
     91      -6.4474      1.00000
     92      -6.1770      1.00000
     93      -5.9643      1.00000
     94      -5.5062      1.00000
     95      -5.4784      1.00000
     96      -5.3789      1.00000
     97      -5.3194      1.00000
     98      -5.3124      1.00000
     99      -5.1809      1.00000
    100      -5.0902      1.00000
    101      -5.0352      1.00000
    102      -4.4622      1.00000
    103      -3.9637      1.00000
    104      -2.7588      1.00000
    105      -2.1229      0.98043
    106      -1.5340      0.00000
    107      -1.3088      0.00000
    108      -0.8532      0.00000
    109      -0.5988      0.00000
    110      -0.3492      0.00000
    111      -0.2475      0.00000
    112      -0.0024      0.00000
    113       0.0304      0.00000
    114       0.0545      0.00000
    115       0.2435      0.00000
    116       0.3418      0.00000
    117       0.8939      0.00000
    118       1.1054      0.00000
    119       1.1759      0.00000
    120       1.4481      0.00000
    121       1.5333      0.00000
    122       1.5978      0.00000
    123       1.6716      0.00000
    124       1.7376      0.00000
    125       1.8242      0.00000
    126       1.9957      0.00000
    127       2.0205      0.00000
    128       2.2799      0.00000
    129       2.3489      0.00000
    130       2.4885      0.00000
    131       2.6429      0.00000
    132       2.6676      0.00000
    133       2.6984      0.00000
    134       2.7349      0.00000
    135       2.7350      0.00000
    136       2.7573      0.00000
    137       2.9275      0.00000
    138       2.9459      0.00000
    139       3.0342      0.00000
    140       3.3651      0.00000
    141       3.3717      0.00000
    142       3.4171      0.00000
    143       3.4801      0.00000
    144       3.4856      0.00000
    145       3.5263      0.00000
    146       3.5602      0.00000
    147       3.5805      0.00000
    148       3.5940      0.00000
    149       3.6023      0.00000
    150       3.7292      0.00000
    151       3.8845      0.00000
    152       3.9767      0.00000
    153       3.9770      0.00000
    154       3.9890      0.00000
    155       4.0039      0.00000
    156       4.0536      0.00000
    157       4.1662      0.00000
    158       4.1759      0.00000
    159       4.2232      0.00000
    160       4.2589      0.00000
    161       4.2957      0.00000
    162       4.3420      0.00000
    163       4.5132      0.00000
    164       4.6019      0.00000
    165       4.6335      0.00000
    166       4.6339      0.00000
    167       4.7140      0.00000
    168       4.7602      0.00000
    169       4.7726      0.00000
    170       4.8262      0.00000
    171       4.8534      0.00000
    172       4.8828      0.00000
    173       4.8920      0.00000
    174       4.9333      0.00000
    175       4.9809      0.00000
    176       5.0513      0.00000
    177       5.1111      0.00000
    178       5.1146      0.00000
    179       5.2334      0.00000
    180       5.3077      0.00000
    181       5.3417      0.00000
    182       5.3426      0.00000
    183       5.3942      0.00000
    184       5.4030      0.00000
    185       5.4715      0.00000
    186       5.5129      0.00000
    187       5.5214      0.00000
    188       5.5235      0.00000
    189       5.5705      0.00000
    190       5.5946      0.00000
    191       5.6398      0.00000
    192       5.6731      0.00000
    193       5.6765      0.00000
    194       5.7514      0.00000
    195       5.7519      0.00000
    196       5.7872      0.00000
    197       5.8087      0.00000
    198       5.8537      0.00000
    199       5.8550      0.00000
    200       5.9515      0.00000
    201       5.9588      0.00000
    202       5.9695      0.00000
    203       5.9696      0.00000
    204       6.0101      0.00000
    205       6.0162      0.00000
    206       6.0808      0.00000
    207       6.1021      0.00000
    208       6.1675      0.00000
    209       6.2362      0.00000
    210       6.2608      0.00000
    211       6.3416      0.00000
    212       6.3922      0.00000
    213       6.5083      0.00000
    214       6.5156      0.00000
    215       6.5715      0.00000
    216       6.5945      0.00000
    217       6.6605      0.00000
    218       6.6650      0.00000
    219       6.7046      0.00000
    220       6.7240      0.00000
    221       6.7643      0.00000
    222       6.7654      0.00000
    223       6.8253      0.00000
    224       6.8372      0.00000
    225       6.8460      0.00000
    226       6.8822      0.00000
    227       6.8972      0.00000
    228       6.9465      0.00000
    229       6.9624      0.00000
    230       7.0312      0.00000
    231       7.1331      0.00000
    232       7.1705      0.00000
    233       7.2054      0.00000
    234       7.2350      0.00000
    235       7.2724      0.00000
    236       7.2777      0.00000
    237       7.2789      0.00000
    238       7.2860      0.00000
    239       7.3182      0.00000
    240       7.3205      0.00000
    241       7.3416      0.00000
    242       7.3542      0.00000
    243       7.4028      0.00000
    244       7.5556      0.00000
    245       7.5789      0.00000
    246       7.6073      0.00000
    247       7.6229      0.00000
    248       7.6749      0.00000
    249       7.6753      0.00000
    250       7.7222      0.00000
    251       7.8232      0.00000
    252       7.8258      0.00000
    253       7.8677      0.00000
    254       7.9388      0.00000
    255       7.9401      0.00000
    256       7.9515      0.00000


--------------------------------------------------------------------------------------------------------


 soft charge-density along one line, spin component           1
         0         1         2         3         4         5         6         7         8         9
 total charge-density along one line
 
 soft charge-density along one line, spin component           2
         0         1         2         3         4         5         6         7         8         9
 total charge-density along one line
 
 pseudopotential strength for first ion, spin component:           1
 10.216   0.019   0.000   0.000  -0.000   0.000   0.000  -0.000
  0.019  -0.002  -0.000  -0.000   0.000   0.000   0.000  -0.000
  0.000  -0.000  -4.333  -0.000  -0.000  -0.020  -0.000  -0.000
  0.000  -0.000  -0.000  -4.312   0.000  -0.000  -0.014   0.000
 -0.000   0.000  -0.000   0.000  -4.333  -0.000   0.000  -0.019
  0.000   0.000  -0.020  -0.000  -0.000  -0.772  -0.000   0.000
  0.000   0.000  -0.000  -0.014   0.000  -0.000  -0.771   0.000
 -0.000  -0.000  -0.000   0.000  -0.019   0.000   0.000  -0.772
 pseudopotential strength for first ion, spin component:           2
 10.216   0.019   0.000   0.000  -0.000   0.000   0.000  -0.000
  0.019  -0.002  -0.000  -0.000   0.000   0.000   0.000  -0.000
  0.000  -0.000  -4.333  -0.000  -0.000  -0.020  -0.000  -0.000
  0.000  -0.000  -0.000  -4.312   0.000  -0.000  -0.014   0.000
 -0.000   0.000  -0.000   0.000  -4.333  -0.000   0.000  -0.019
  0.000   0.000  -0.020  -0.000  -0.000  -0.772  -0.000   0.000
  0.000   0.000  -0.000  -0.014   0.000  -0.000  -0.771   0.000
 -0.000  -0.000  -0.000   0.000  -0.019   0.000   0.000  -0.772
 total augmentation occupancy for first ion, spin component:           1
  1.477  -1.153  -0.004  -0.000   0.006  -0.003  -0.000   0.004
 -1.153   1.108   0.011   0.000  -0.019   0.004   0.000  -0.007
 -0.004   0.011   1.254   0.000   0.011   0.227   0.000  -0.001
 -0.000   0.000   0.000   0.928  -0.000   0.000   0.105  -0.000
  0.006  -0.019   0.011  -0.000   1.241  -0.001  -0.000   0.228
 -0.003   0.004   0.227   0.000  -0.001   0.047   0.000  -0.000
 -0.000   0.000   0.000   0.105  -0.000   0.000   0.013  -0.000
  0.004  -0.007  -0.001  -0.000   0.228  -0.000  -0.000   0.048
 total augmentation occupancy for first ion, spin component:           2
  0.000  -0.000  -0.000   0.000   0.000   0.000  -0.000  -0.000
 -0.000   0.000   0.000   0.000  -0.000  -0.000   0.000   0.000
 -0.000   0.000  -0.000  -0.000  -0.000   0.000  -0.000   0.000
  0.000   0.000  -0.000  -0.000  -0.000  -0.000   0.000   0.000
  0.000  -0.000  -0.000  -0.000  -0.000   0.000   0.000   0.000
  0.000  -0.000   0.000  -0.000   0.000   0.000  -0.000   0.000
 -0.000   0.000  -0.000   0.000   0.000  -0.000   0.000   0.000
 -0.000   0.000   0.000   0.000   0.000   0.000   0.000   0.000


------------------------ aborting loop because EDIFF is reached ----------------------------------------


    CHARGE:  cpu time    1.8035: real time    1.8168
    FORLOC:  cpu time    0.0234: real time    0.0234
    FORNL :  cpu time    2.1880: real time    2.1894
    STRESS:  cpu time    6.5315: real time    6.5348
    FORCOR:  cpu time    1.9004: real time    1.9145
    FORHAR:  cpu time    0.2588: real time    0.2588
    MIXING:  cpu time    0.0289: real time    0.0289
    OFIELD:  cpu time    0.0001: real time    0.0001

 ---------------------------------------------------------------------------------------------

         DFTD3 V3.0 Rev 1        
 Edisp (eV)   -1.73061

 E6    (eV) :    -0.9478
 E8    (eV) :    -0.7828
 % E8        : 45.23
    FORVDW:  cpu time    0.1386: real time    0.1386

  FORCE on cell =-STRESS in cart. coord.  units (eV):
  Direction    XX          YY          ZZ          XY          YZ          ZX
  --------------------------------------------------------------------------------------
  Alpha Z    89.70403    89.70403    89.70403
  Ewald   42650.37024 42672.14689-50272.88314    18.86964     0.00254    -0.00451
  Hartree 42291.31886 42326.20998-41555.06776    30.21747     0.00151    -0.00269
  E(xc)    -803.31236  -803.65317  -832.68763    -0.29511     0.00000    -0.00001
  Local  -87018.99250-87081.32090 89295.98933   -53.98714    -0.00387     0.00688
  n-local  -217.01356  -222.85435  -222.55440    -5.05818    -0.00095     0.00164
  augment   -56.48996   -56.97700   -55.77928    -0.42180     0.00008    -0.00014
  Kinetic  3060.82504  3097.65714  3552.99556    31.89570    -0.00019     0.00033
  Fock        0.00000     0.00000     0.00000     0.00000     0.00000     0.00000
  vdW        -0.40018    -0.36127    -0.01115     0.03370     0.00000    -0.00000
  -------------------------------------------------------------------------------------
  Total      -3.99040    20.55136    -0.29444    21.25428    -0.00087     0.00150
  in kB      -2.43981    12.56552    -0.18003    12.99529    -0.00053     0.00092
  external pressure =        3.32 kB  Pullay stress =        0.00 kB


 VOLUME and BASIS-vectors are now :
 -----------------------------------------------------------------------------
  energy-cutoff  :      520.00
  volume of cell :     2620.42
      direct lattice vectors                 reciprocal lattice vectors
    12.300000000  0.000000000  0.000000000     0.081300813  0.046939046  0.000000000
    -6.150000000 10.652112467  0.000000000     0.000000000  0.093878093  0.000000000
     0.000000000  0.000000000 20.000000000     0.000000000  0.000000000  0.050000000

  length of vectors
    12.300000000 12.300000000 20.000000000     0.093878093  0.093878093  0.050000000


 FORCES acting on ions
    electron-ion (+dipol)            ewald-force                    non-local-force                 convergence-correction
 -----------------------------------------------------------------------------------------------
   0.944E+01 -.545E+01 0.805E-01   -.965E+01 0.557E+01 -.804E-01   0.225E+00 -.130E+00 -.919E-04   0.563E-03 -.325E-03 -.634E-04
   0.515E+01 0.115E+02 0.144E+00   -.517E+01 -.119E+02 -.144E+00   0.903E-03 0.430E+00 -.210E-02   -.574E-03 -.681E-03 -.807E-04
   0.736E+01 0.104E+02 0.151E+00   -.770E+01 -.106E+02 -.151E+00   0.363E+00 0.204E+00 -.116E-02   0.839E-04 -.979E-03 -.840E-04
   -.228E+01 0.328E+02 0.348E+00   0.210E+01 -.337E+02 -.345E+00   0.154E+00 0.100E+01 -.462E-02   0.372E-03 -.756E-04 -.924E-04
   -.804E+01 0.183E+02 0.139E+00   0.822E+01 -.189E+02 -.139E+00   -.173E+00 0.576E+00 -.773E-03   -.219E-03 -.821E-03 -.603E-04
   -.187E+02 0.185E+02 0.277E+00   0.190E+02 -.189E+02 -.276E+00   -.328E+00 0.502E+00 -.469E-03   0.405E-03 -.836E-04 -.484E-04
   -.107E+01 0.787E+01 0.201E+00   0.144E+01 -.796E+01 -.203E+00   -.376E+00 0.765E-01 0.411E-03   0.389E-03 0.173E-04 -.399E-04
   -.639E+01 -.165E+01 0.127E+00   0.645E+01 0.169E+01 -.126E+00   -.599E-01 -.398E-01 -.994E-03   0.275E-03 -.284E-03 -.306E-04
   0.873E+01 -.975E+01 0.746E-01   -.877E+01 0.100E+02 -.749E-01   0.211E-01 -.275E+00 -.105E-03   -.736E-03 0.471E-03 -.388E-04
   0.480E+01 -.277E+01 0.860E-01   -.489E+01 0.282E+01 -.865E-01   0.102E+00 -.588E-01 0.932E-03   -.379E-03 0.218E-03 -.425E-04
   0.128E+02 -.269E+01 0.745E-01   -.131E+02 0.259E+01 -.748E-01   0.249E+00 0.119E+00 -.105E-03   -.775E-03 0.400E-03 -.389E-04
   0.198E+02 0.217E+01 0.140E+00   -.204E+02 -.232E+01 -.139E+00   0.607E+00 0.142E+00 -.104E-02   -.559E-03 -.263E-03 -.597E-04
   0.296E+02 0.145E+02 0.354E+00   -.304E+02 -.152E+02 -.351E+00   0.798E+00 0.627E+00 -.389E-02   -.577E-03 -.233E-03 -.851E-04
   0.406E+02 0.612E+02 0.109E+01   -.414E+02 -.654E+02 -.111E+01   0.820E+00 0.429E+01 0.210E-01   0.125E-03 0.431E-03 -.123E-03
   0.327E+02 0.660E+02 0.108E+01   -.360E+02 -.688E+02 -.110E+01   0.332E+01 0.283E+01 0.209E-01   0.722E-03 -.497E-03 -.129E-03
   -.526E+02 0.327E+02 0.307E+00   0.568E+02 -.348E+02 -.308E+00   -.415E+01 0.204E+01 0.545E-02   0.382E-03 -.327E-03 -.801E-04
   -.298E+02 0.172E+02 0.301E+00   0.302E+02 -.174E+02 -.313E+00   -.350E+00 0.202E+00 0.157E-01   0.415E-03 -.238E-03 -.604E-04
   -.380E+01 0.219E+01 0.183E+00   0.396E+01 -.229E+01 -.183E+00   -.180E+00 0.104E+00 0.749E-03   0.304E-03 -.176E-03 -.235E-04
   -.177E+01 0.636E+01 0.127E+00   0.177E+01 -.643E+01 -.126E+00   0.453E-02 0.718E-01 -.996E-03   0.379E-03 -.982E-04 -.307E-04
   -.735E+01 -.301E+01 0.201E+00   0.761E+01 0.273E+01 -.203E+00   -.254E+00 0.287E+00 0.414E-03   0.170E-03 -.343E-03 -.402E-04
   0.736E+01 0.297E+01 0.210E+00   -.760E+01 -.271E+01 -.211E+00   0.240E+00 -.281E+00 0.115E-02   -.410E-03 0.177E-03 -.412E-04
   0.254E+02 -.698E+01 0.291E+00   -.260E+02 0.702E+01 -.291E+00   0.580E+00 -.297E-01 -.198E-03   -.363E-03 0.346E-03 -.491E-04
   0.547E+02 -.293E+02 0.279E+00   -.585E+02 0.319E+02 -.280E+00   0.384E+01 -.259E+01 0.346E-02   0.123E-03 -.533E-04 -.592E-04
   -.547E+02 0.292E+02 0.307E+00   0.585E+02 -.318E+02 -.308E+00   -.384E+01 0.258E+01 0.545E-02   0.479E-03 -.167E-03 -.803E-04
   -.253E+02 0.692E+01 0.277E+00   0.259E+02 -.696E+01 -.276E+00   -.599E+00 0.329E-01 -.484E-03   0.272E-03 -.313E-03 -.489E-04
   -.199E+02 -.218E+01 0.140E+00   0.205E+02 0.232E+01 -.140E+00   -.586E+00 -.139E+00 -.743E-03   0.594E-03 0.592E-03 -.609E-04
   -.127E+02 0.264E+01 0.749E-01   0.129E+02 -.254E+01 -.752E-01   -.257E+00 -.110E+00 0.296E-03   -.106E-04 0.332E-03 -.424E-04
   0.175E+01 -.646E+01 0.126E+00   -.174E+01 0.654E+01 -.125E+00   -.641E-03 -.696E-01 -.116E-02   -.405E-03 0.127E-03 -.376E-04
   0.396E+01 -.228E+01 0.186E+00   -.412E+01 0.238E+01 -.186E+00   0.183E+00 -.106E+00 0.773E-03   -.287E-03 0.165E-03 -.259E-04
   0.299E+02 -.173E+02 0.306E+00   -.303E+02 0.175E+02 -.319E+00   0.360E+00 -.208E+00 0.169E-01   -.432E-03 0.248E-03 -.487E-04
   0.528E+02 -.327E+02 0.279E+00   -.569E+02 0.347E+02 -.280E+00   0.416E+01 -.204E+01 0.346E-02   0.103E-03 -.787E-04 -.592E-04
   -.326E+02 -.658E+02 0.109E+01   0.359E+02 0.686E+02 -.111E+01   -.330E+01 -.285E+01 0.210E-01   -.305E-03 -.323E-03 -.123E-03
   -.408E+02 -.613E+02 0.108E+01   0.416E+02 0.656E+02 -.110E+01   -.789E+00 -.429E+01 0.209E-01   0.790E-03 -.380E-03 -.129E-03
   -.295E+02 -.144E+02 0.348E+00   0.303E+02 0.150E+02 -.345E+00   -.793E+00 -.636E+00 -.463E-02   0.249E-03 -.283E-03 -.929E-04
   -.531E+01 -.116E+02 0.151E+00   0.534E+01 0.120E+02 -.151E+00   0.465E-02 -.416E+00 -.116E-02   0.890E-03 0.416E-03 -.841E-04
   -.944E+01 0.545E+01 0.796E-01   0.963E+01 -.556E+01 -.794E-01   -.224E+00 0.129E+00 -.360E-03   0.451E-04 -.240E-04 -.665E-04
   -.485E+01 0.280E+01 0.866E-01   0.495E+01 -.286E+01 -.871E-01   -.104E+00 0.603E-01 0.949E-03   0.488E-03 -.276E-03 -.415E-04
   -.863E+01 0.967E+01 0.749E-01   0.866E+01 -.992E+01 -.752E-01   -.330E-01 0.278E+00 0.313E-03   -.291E-03 -.154E-03 -.420E-04
   0.647E+01 0.172E+01 0.126E+00   -.653E+01 -.176E+01 -.125E+00   0.600E-01 0.354E-01 -.117E-02   -.319E-03 0.292E-03 -.374E-04
   0.110E+01 -.786E+01 0.210E+00   -.146E+01 0.794E+01 -.211E+00   0.363E+00 -.674E-01 0.115E-02   -.358E-03 0.272E-03 -.411E-04
   0.187E+02 -.185E+02 0.291E+00   -.191E+02 0.190E+02 -.291E+00   0.316E+00 -.488E+00 -.197E-03   -.482E-03 0.146E-03 -.491E-04
   0.802E+01 -.182E+02 0.140E+00   -.819E+01 0.188E+02 -.139E+00   0.181E+00 -.597E+00 -.105E-02   -.534E-04 0.618E-03 -.597E-04
   0.223E+01 -.329E+02 0.354E+00   -.206E+01 0.339E+02 -.351E+00   -.144E+00 -.100E+01 -.389E-02   -.861E-04 0.619E-03 -.851E-04
   -.742E+01 -.102E+02 0.144E+00   0.775E+01 0.104E+02 -.144E+00   -.372E+00 -.216E+00 -.211E-02   0.303E-03 0.838E-03 -.807E-04
   -.627E+02 0.731E+02 0.101E+01   0.642E+02 -.578E+02 -.108E+01   -.151E+01 -.153E+02 0.791E-01   -.560E-03 -.746E-04 -.170E-03
   0.944E+02 -.177E+02 0.101E+01   -.819E+02 0.266E+02 -.108E+01   -.125E+02 -.892E+01 0.803E-01   0.351E-03 0.101E-02 -.127E-03
   -.946E+02 0.177E+02 0.101E+01   0.822E+02 -.267E+02 -.108E+01   0.125E+02 0.894E+01 0.790E-01   -.217E-03 0.524E-03 -.170E-03
   0.625E+02 -.729E+02 0.101E+01   -.640E+02 0.577E+02 -.108E+01   0.148E+01 0.153E+02 0.803E-01   -.702E-03 -.812E-03 -.127E-03
   -.188E-02 0.837E-03 -.168E+02   -.109E-02 0.925E-03 0.166E+02   0.579E-03 -.367E-03 0.168E+00   -.114E-02 0.656E-03 -.775E-03
 -----------------------------------------------------------------------------------------------
   0.442E-01 -.255E-01 -.589E+00   -.212E-13 0.216E-13 0.000E+00   -.116E-01 0.666E-02 0.595E+00   -.965E-03 0.555E-03 -.411E-02
 
 
 POSITION                                       TOTAL-FORCE (eV/Angst)
 -----------------------------------------------------------------------------------
     12.28114      0.01089     14.99999         0.016944     -0.009800     -0.000087
      1.21377      0.68551     14.99989        -0.017608      0.038395     -0.001775
     -3.70324     10.62620     14.99988         0.027912     -0.026981     -0.001005
      3.67132      0.65652     14.99968        -0.024964      0.040889     -0.001748
     -1.23392     10.61855     15.00000         0.011351     -0.027249     -0.000596
      6.12418      0.71796     14.99993        -0.008499      0.016037      0.000525
      7.36704      0.00985     14.99982        -0.010749     -0.005973     -0.001030
      8.57354      0.74212     14.99997        -0.001164     -0.003575     -0.000211
      9.81729      0.02519     15.00005        -0.021245     -0.006524     -0.000461
     11.04897      0.72228     15.00002         0.004927     -0.002823      0.000380
     11.03683      2.13749     15.00005        -0.004988      0.021642     -0.000461
     -0.02792      2.82010     15.00000         0.013894     -0.003499     -0.000757
      1.19282      2.08748     14.99967         0.007457     -0.027943     -0.001066
      2.41304      2.76685     14.99942         0.018403      0.028610      0.001251
      3.64903      2.05420     14.99943         0.016866     -0.040833      0.001140
      6.06240      2.14392     15.00065        -0.007472      0.006942      0.004076
      7.28432      2.89580     15.00030        -0.004973      0.002857      0.003052
      8.54270      2.16927     14.99999        -0.019675      0.011364      0.000705
      9.79407      2.85615     14.99997         0.002518      0.002775     -0.000211
      9.82499      4.26715     14.99982        -0.000286      0.012301     -0.001029
     -1.21453      4.96431     14.99980        -0.003108     -0.014289     -0.000294
      0.02031      4.24178     14.99991        -0.015488      0.012346      0.000466
      1.28533      4.90204     15.00070         0.023136     -0.013506      0.002565
      7.32451      4.32996     15.00065        -0.009674      0.003114      0.004077
      8.59032      4.98943     14.99993        -0.017979     -0.000098      0.000516
     -3.66288      6.41146     15.00000         0.028318      0.002538     -0.000576
     -2.42675      7.09385     15.00005        -0.025416     -0.010983     -0.000055
     -1.18429      6.37515     14.99997         0.010446      0.007147     -0.000336
      0.06727      7.06257     14.99999         0.014088     -0.008179      0.000736
      1.32566      6.33604     15.00031         0.000489     -0.000282      0.003628
      2.54737      7.08796     15.00070         0.023263     -0.013287      0.002564
      4.96036      7.17894     14.99942        -0.015562     -0.030255      0.001254
      6.19552      6.46486     14.99943         0.043871      0.005767      0.001142
      7.41710      7.14439     14.99968        -0.047719      0.001364     -0.001759
     -4.90418      8.54611     14.99988         0.037246     -0.010663     -0.001004
     -3.67084      9.22077     14.99999        -0.031176      0.017990     -0.000237
     -2.43871      8.50939     15.00002        -0.000639      0.000542      0.000398
     -1.20683      9.20682     15.00005        -0.003125      0.028111     -0.000044
      0.03681      8.49016     14.99997        -0.001031     -0.012545     -0.000336
      1.24352      9.22177     14.99980         0.010808      0.009866     -0.000294
      2.48666      8.51363     14.99991        -0.018407      0.007238      0.000466
      3.69376      9.26624     15.00000         0.009964     -0.010294     -0.000757
      4.93860      8.57536     14.99967         0.027910      0.007522     -0.001067
      6.16321      9.25820     14.99989        -0.042038     -0.003923     -0.001775
      4.81420      2.76927     15.00162         0.003962     -0.002144      0.003995
      2.45066      4.13379     15.00163        -0.002496     -0.003861      0.004399
      6.15885      5.09826     15.00162         0.003793     -0.002365      0.003991
      3.79537      6.46289     15.00163         0.002093      0.004102      0.004397
      4.30486      4.61600     15.01521        -0.004173      0.002415     -0.026752
 -----------------------------------------------------------------------------------
    total drift:                                0.031658     -0.018286      0.001383


--------------------------------------------------------------------------------------------------------



  FREE ENERGIE OF THE ION-ELECTRON SYSTEM (eV)
  ---------------------------------------------------
  free  energy   TOTEN  =      -442.06107832 eV

  energy  without entropy=     -442.02066676  energy(sigma->0) =     -442.04087254
 
 d Force = 0.2817397E-03[-0.334E-03, 0.897E-03]  d Energy = 0.2831961E-03-0.146E-05
 d Force =-0.9293240E-01[-0.960E-01,-0.899E-01]  d Ewald  =-0.9293248E-01 0.795E-07


--------------------------------------------------------------------------------------------------------


    POTLOK:  cpu time    2.8471: real time    2.8474


--------------------------------------------------------------------------------------------------------


 stress matrix after NEB project (eV)
     -3.99040     21.25428      0.00150
     21.25428     20.55136     -0.00087
      0.00150     -0.00087     -0.29444
  FORCES: max atom, RMS     0.047939    0.025299
  FORCE total and by dimension    0.177095    0.047719
  Stress total and by dimension   36.631369   21.254280
 Quasi-Newton relaxation of ions (Broydens 2nd method)
  g(Force)  = 0.605E-03   g(Stress)= 0.000E+00

 retain information from N=  1 steps
 eigenvalues of (default step * inverse Hessian matrix)
  average eigenvalue of G=   0.5630
 eigenvalue spectrum of G is  0.5630


--------------------------------------------------------------------------------------------------------


    WAVPRE:  cpu time    0.0716: real time    0.1027
    FEWALD:  cpu time    0.0189: real time    0.0189
    ORTHCH:  cpu time    2.5094: real time    2.5099
     LOOP+:  cpu time  318.0817: real time  318.9007


--------------------------------------- Iteration      3(   1)  ---------------------------------------


    POTLOK:  cpu time    2.3340: real time    2.3345
    SETDIJ:  cpu time    0.5115: real time    0.5257
     EDDAV:  cpu time   76.9888: real time   77.1911
       DOS:  cpu time    0.0675: real time    0.0675
    CHARGE:  cpu time    1.8138: real time    1.8153
    MIXING:  cpu time    0.0454: real time    0.0454
    --------------------------------------------
      LOOP:  cpu time   81.7610: real time   81.9796

 eigenvalue-minimisations  :  7680
 total energy-change (2. order) :-0.1757538E-03  (-0.1069630E-02)
 number of electron     208.9999997 magnetization       0.0000340
 augmentation part       13.6906064 magnetization       0.0000307

 Broyden mixing:
  rms(total) = 0.23979E-02    rms(broyden)= 0.23949E-02
  rms(prec ) = 0.25965E-02
  weight for this iteration     100.00

 Free energy of the ion-electron system (eV)
  ---------------------------------------------------
  alpha Z        PSCENC =        89.70403219
  Ewald energy   TEWEN  =     35049.75229779
  -Hartree energ DENC   =    -43062.52751767
  -exchange      EXHF   =         0.00000000
  -V(xc)+E(xc)   XCENC  =       780.23674718
  PAW double counting   =      5239.91131410    -5662.10432189
  entropy T*S    EENTRO =        -0.04033440
  eigenvalues    EBANDS =     -2557.01745348
  atomic energy  EATOM  =      9681.75459483
  Solvation  Ediel_sol  =         0.00000000
  ---------------------------------------------------
  free energy    TOTEN  =      -440.33064134 eV

  energy without entropy =     -440.29030694  energy(sigma->0) =     -440.31047414


--------------------------------------------------------------------------------------------------------




--------------------------------------- Iteration      3(   2)  ---------------------------------------


    POTLOK:  cpu time    2.3344: real time    2.3484
    SETDIJ:  cpu time    0.5289: real time    0.5290
     EDDAV:  cpu time   56.9039: real time   57.1505
       DOS:  cpu time    0.0577: real time    0.0577
    CHARGE:  cpu time    1.8293: real time    1.8495
    MIXING:  cpu time    0.0433: real time    0.0433
    --------------------------------------------
      LOOP:  cpu time   61.6976: real time   61.9785

 eigenvalue-minimisations  :  6144
 total energy-change (2. order) : 0.1040101E-04  (-0.1007675E-04)
 number of electron     208.9999997 magnetization       0.0000255
 augmentation part       13.6905667 magnetization       0.0000283

 Broyden mixing:
  rms(total) = 0.13035E-02    rms(broyden)= 0.13032E-02
  rms(prec ) = 0.13773E-02
  weight for this iteration     100.00

 eigenvalues of (default mixing * dielectric matrix)
  average eigenvalue GAMMA=   1.6206
  1.6206

 Free energy of the ion-electron system (eV)
  ---------------------------------------------------
  alpha Z        PSCENC =        89.70403219
  Ewald energy   TEWEN  =     35049.75229779
  -Hartree energ DENC   =    -43062.53193331
  -exchange      EXHF   =         0.00000000
  -V(xc)+E(xc)   XCENC  =       780.23726745
  PAW double counting   =      5239.92510880    -5662.11666794
  entropy T*S    EENTRO =        -0.04034587
  eigenvalues    EBANDS =     -2557.01498488
  atomic energy  EATOM  =      9681.75459483
  Solvation  Ediel_sol  =         0.00000000
  ---------------------------------------------------
  free energy    TOTEN  =      -440.33063094 eV

  energy without entropy =     -440.29028507  energy(sigma->0) =     -440.31045800


--------------------------------------------------------------------------------------------------------




--------------------------------------- Iteration      3(   3)  ---------------------------------------


    POTLOK:  cpu time    2.4834: real time    2.4839
    SETDIJ:  cpu time    0.5279: real time    0.5280
     EDDAV:  cpu time   76.9343: real time   77.1366
       DOS:  cpu time    0.0898: real time    0.0898
    --------------------------------------------
      LOOP:  cpu time   80.0353: real time   80.2383

 eigenvalue-minimisations  :  7680
 total energy-change (2. order) : 0.2652310E-05  (-0.1291537E-05)
 number of electron     208.9999997 magnetization       0.0000255
 augmentation part       13.6905667 magnetization       0.0000283

 Free energy of the ion-electron system (eV)
  ---------------------------------------------------
  alpha Z        PSCENC =        89.70403219
  Ewald energy   TEWEN  =     35049.75229779
  -Hartree energ DENC   =    -43062.53410274
  -exchange      EXHF   =         0.00000000
  -V(xc)+E(xc)   XCENC  =       780.23752635
  PAW double counting   =      5239.94493652    -5662.13702476
  entropy T*S    EENTRO =        -0.04034950
  eigenvalues    EBANDS =     -2557.01253897
  atomic energy  EATOM  =      9681.75459483
  Solvation  Ediel_sol  =         0.00000000
  ---------------------------------------------------
  free energy    TOTEN  =      -440.33062829 eV

  energy without entropy =     -440.29027879  energy(sigma->0) =     -440.31045354


--------------------------------------------------------------------------------------------------------




 average (electrostatic) potential at core
  the test charge radii are     0.6991  0.7089  1.0314
  (the norm of the test charge is              1.0000)
       1 -57.9265       2 -57.8866       3 -57.8869       4 -58.0410       5 -58.0671
       6 -58.1346       7 -58.0396       8 -57.9661       9 -57.9172      10 -57.8855
      11 -57.9172      12 -58.0673      13 -58.0412      14 -58.7380      15 -58.7373
      16 -59.0231      17 -58.1941      18 -58.1209      19 -57.9661      20 -58.0396
      21 -58.0396      22 -58.1346      23 -59.0239      24 -59.0231      25 -58.1346
      26 -58.0671      27 -57.9173      28 -57.9662      29 -58.1211      30 -58.1944
      31 -59.0239      32 -58.7380      33 -58.7373      34 -58.0410      35 -57.8869
      36 -57.9264      37 -57.8858      38 -57.9173      39 -57.9662      40 -58.0396
      41 -58.1346      42 -58.0673      43 -58.0412      44 -57.8866      45 -73.1658
      46 -73.1672      47 -73.1658      48 -73.1672      49 -36.7625
 
 
 
 E-fermi :  -1.9767     XC(G=0):  -2.1600     alpha+bet : -1.8874


 spin component 1

 k-point     1 :       0.0000    0.0000    0.0000
  band No.  band energies     occupation 
      1     -23.5636      1.00000
      2     -23.1738      1.00000
      3     -22.7494      1.00000
      4     -22.4675      1.00000
      5     -21.7388      1.00000
      6     -21.3034      1.00000
      7     -21.1719      1.00000
      8     -20.8286      1.00000
      9     -20.3666      1.00000
     10     -20.1469      1.00000
     11     -19.6397      1.00000
     12     -19.5898      1.00000
     13     -19.2192      1.00000
     14     -19.1276      1.00000
     15     -18.9319      1.00000
     16     -18.7705      1.00000
     17     -18.7184      1.00000
     18     -18.4735      1.00000
     19     -18.3996      1.00000
     20     -18.2713      1.00000
     21     -18.1500      1.00000
     22     -18.0545      1.00000
     23     -17.9136      1.00000
     24     -17.8355      1.00000
     25     -17.1366      1.00000
     26     -17.0071      1.00000
     27     -16.7670      1.00000
     28     -16.4943      1.00000
     29     -16.3416      1.00000
     30     -15.8903      1.00000
     31     -15.6921      1.00000
     32     -15.6036      1.00000
     33     -15.5315      1.00000
     34     -15.4446      1.00000
     35     -15.0829      1.00000
     36     -14.6835      1.00000
     37     -14.4393      1.00000
     38     -14.3465      1.00000
     39     -14.3182      1.00000
     40     -14.1292      1.00000
     41     -13.3974      1.00000
     42     -12.9017      1.00000
     43     -12.4900      1.00000
     44     -12.4696      1.00000
     45     -12.1941      1.00000
     46     -11.8476      1.00000
     47     -11.7390      1.00000
     48     -11.6114      1.00000
     49     -11.5792      1.00000
     50     -11.5393      1.00000
     51     -11.4600      1.00000
     52     -11.1968      1.00000
     53     -11.1024      1.00000
     54     -10.6444      1.00000
     55     -10.5757      1.00000
     56     -10.4670      1.00000
     57     -10.3507      1.00000
     58     -10.1164      1.00000
     59     -10.0819      1.00000
     60      -9.7966      1.00000
     61      -9.7516      1.00000
     62      -9.7496      1.00000
     63      -9.6486      1.00000
     64      -9.4662      1.00000
     65      -9.3290      1.00000
     66      -9.2788      1.00000
     67      -9.2399      1.00000
     68      -9.2367      1.00000
     69      -9.1700      1.00000
     70      -9.0730      1.00000
     71      -9.0424      1.00000
     72      -8.9263      1.00000
     73      -8.8529      1.00000
     74      -8.7879      1.00000
     75      -8.7578      1.00000
     76      -8.1798      1.00000
     77      -8.1609      1.00000
     78      -8.0347      1.00000
     79      -7.9362      1.00000
     80      -7.7577      1.00000
     81      -7.5635      1.00000
     82      -7.5618      1.00000
     83      -7.3894      1.00000
     84      -7.2379      1.00000
     85      -7.2236      1.00000
     86      -7.1610      1.00000
     87      -7.0804      1.00000
     88      -6.6633      1.00000
     89      -6.6053      1.00000
     90      -6.5923      1.00000
     91      -6.4753      1.00000
     92      -6.3923      1.00000
     93      -6.2230      1.00000
     94      -6.2195      1.00000
     95      -6.0759      1.00000
     96      -6.0422      1.00000
     97      -5.4368      1.00000
     98      -5.0676      1.00000
     99      -4.6684      1.00000
    100      -4.4459      1.00000
    101      -4.2256      1.00000
    102      -4.1824      1.00000
    103      -4.1088      1.00000
    104      -3.0625      1.00000
    105      -1.9556      0.38254
    106      -1.6921      0.00003
    107      -1.3437      0.00000
    108      -1.3153      0.00000
    109      -0.9543      0.00000
    110      -0.7170      0.00000
    111       0.0588      0.00000
    112       0.1500      0.00000
    113       0.3335      0.00000
    114       0.3460      0.00000
    115       0.4451      0.00000
    116       0.6560      0.00000
    117       0.8246      0.00000
    118       1.1430      0.00000
    119       1.3848      0.00000
    120       1.6888      0.00000
    121       1.6915      0.00000
    122       1.7550      0.00000
    123       1.8563      0.00000
    124       1.8603      0.00000
    125       1.8800      0.00000
    126       1.9029      0.00000
    127       1.9534      0.00000
    128       2.1363      0.00000
    129       2.1797      0.00000
    130       2.2192      0.00000
    131       2.2456      0.00000
    132       2.5593      0.00000
    133       2.5633      0.00000
    134       2.6108      0.00000
    135       2.6512      0.00000
    136       2.6538      0.00000
    137       2.6820      0.00000
    138       2.9340      0.00000
    139       2.9899      0.00000
    140       3.0031      0.00000
    141       3.0089      0.00000
    142       3.0122      0.00000
    143       3.0155      0.00000
    144       3.0399      0.00000
    145       3.0744      0.00000
    146       3.4898      0.00000
    147       3.7456      0.00000
    148       3.8653      0.00000
    149       3.8714      0.00000
    150       3.9154      0.00000
    151       3.9194      0.00000
    152       3.9403      0.00000
    153       4.0409      0.00000
    154       4.1213      0.00000
    155       4.1766      0.00000
    156       4.2871      0.00000
    157       4.3282      0.00000
    158       4.3476      0.00000
    159       4.3525      0.00000
    160       4.3585      0.00000
    161       4.3632      0.00000
    162       4.3932      0.00000
    163       4.3937      0.00000
    164       4.4003      0.00000
    165       4.4175      0.00000
    166       4.5995      0.00000
    167       4.6095      0.00000
    168       4.7377      0.00000
    169       4.7416      0.00000
    170       5.0376      0.00000
    171       5.0717      0.00000
    172       5.1043      0.00000
    173       5.1446      0.00000
    174       5.1787      0.00000
    175       5.1888      0.00000
    176       5.1917      0.00000
    177       5.2268      0.00000
    178       5.3322      0.00000
    179       5.3409      0.00000
    180       5.3882      0.00000
    181       5.4131      0.00000
    182       5.4257      0.00000
    183       5.4569      0.00000
    184       5.5129      0.00000
    185       5.6060      0.00000
    186       5.6470      0.00000
    187       5.6471      0.00000
    188       5.6503      0.00000
    189       5.6584      0.00000
    190       5.6585      0.00000
    191       5.6593      0.00000
    192       5.6804      0.00000
    193       5.6821      0.00000
    194       5.6990      0.00000
    195       5.7194      0.00000
    196       5.7377      0.00000
    197       5.8113      0.00000
    198       5.8489      0.00000
    199       5.8533      0.00000
    200       5.8828      0.00000
    201       5.9656      0.00000
    202       6.0036      0.00000
    203       6.0282      0.00000
    204       6.0433      0.00000
    205       6.0471      0.00000
    206       6.0689      0.00000
    207       6.0712      0.00000
    208       6.0951      0.00000
    209       6.2146      0.00000
    210       6.3431      0.00000
    211       6.3799      0.00000
    212       6.4773      0.00000
    213       6.4813      0.00000
    214       6.4898      0.00000
    215       6.5176      0.00000
    216       6.5188      0.00000
    217       6.5246      0.00000
    218       6.5254      0.00000
    219       6.5277      0.00000
    220       6.5337      0.00000
    221       6.5824      0.00000
    222       6.6109      0.00000
    223       6.6711      0.00000
    224       6.6754      0.00000
    225       6.6978      0.00000
    226       6.7501      0.00000
    227       6.7751      0.00000
    228       6.9110      0.00000
    229       6.9423      0.00000
    230       6.9574      0.00000
    231       6.9628      0.00000
    232       6.9634      0.00000
    233       6.9756      0.00000
    234       6.9818      0.00000
    235       6.9865      0.00000
    236       6.9909      0.00000
    237       6.9936      0.00000
    238       6.9943      0.00000
    239       7.0062      0.00000
    240       7.4394      0.00000
    241       7.5855      0.00000
    242       7.6101      0.00000
    243       7.6697      0.00000
    244       7.6905      0.00000
    245       7.7215      0.00000
    246       7.7845      0.00000
    247       7.8115      0.00000
    248       7.8133      0.00000
    249       7.8155      0.00000
    250       7.8683      0.00000
    251       7.8982      0.00000
    252       7.9791      0.00000
    253       8.0438      0.00000
    254       8.1643      0.00000
    255       8.2175      0.00000
    256       8.2210      0.00000

 k-point     2 :       0.5000   -0.0000    0.0000
  band No.  band energies     occupation 
      1     -23.5492      1.00000
      2     -23.1969      1.00000
      3     -22.7668      1.00000
      4     -22.4695      1.00000
      5     -21.6175      1.00000
      6     -21.4326      1.00000
      7     -21.0462      1.00000
      8     -20.6427      1.00000
      9     -20.5782      1.00000
     10     -20.1985      1.00000
     11     -19.8198      1.00000
     12     -19.7973      1.00000
     13     -19.3346      1.00000
     14     -19.2939      1.00000
     15     -18.7477      1.00000
     16     -18.7078      1.00000
     17     -18.2365      1.00000
     18     -18.1989      1.00000
     19     -18.1497      1.00000
     20     -18.1420      1.00000
     21     -18.0544      1.00000
     22     -17.9093      1.00000
     23     -17.8254      1.00000
     24     -17.7249      1.00000
     25     -17.5576      1.00000
     26     -17.4442      1.00000
     27     -17.2120      1.00000
     28     -16.7847      1.00000
     29     -16.5238      1.00000
     30     -16.1325      1.00000
     31     -15.9818      1.00000
     32     -15.3435      1.00000
     33     -15.3388      1.00000
     34     -15.2121      1.00000
     35     -15.0653      1.00000
     36     -14.6196      1.00000
     37     -14.2556      1.00000
     38     -13.9183      1.00000
     39     -13.8229      1.00000
     40     -13.4228      1.00000
     41     -13.3468      1.00000
     42     -12.9246      1.00000
     43     -12.9115      1.00000
     44     -12.8497      1.00000
     45     -12.8485      1.00000
     46     -12.3706      1.00000
     47     -12.2739      1.00000
     48     -11.7252      1.00000
     49     -11.5539      1.00000
     50     -11.4501      1.00000
     51     -11.4188      1.00000
     52     -10.9643      1.00000
     53     -10.8555      1.00000
     54     -10.6476      1.00000
     55     -10.5594      1.00000
     56     -10.2588      1.00000
     57     -10.1780      1.00000
     58     -10.1096      1.00000
     59     -10.0682      1.00000
     60      -9.7516      1.00000
     61      -9.7228      1.00000
     62      -9.6629      1.00000
     63      -9.5740      1.00000
     64      -9.5455      1.00000
     65      -9.5398      1.00000
     66      -9.5278      1.00000
     67      -9.1907      1.00000
     68      -9.1785      1.00000
     69      -9.0342      1.00000
     70      -8.9580      1.00000
     71      -8.8984      1.00000
     72      -8.7399      1.00000
     73      -8.5799      1.00000
     74      -8.5341      1.00000
     75      -8.4188      1.00000
     76      -8.3993      1.00000
     77      -8.2510      1.00000
     78      -8.2047      1.00000
     79      -8.0376      1.00000
     80      -7.9930      1.00000
     81      -7.9209      1.00000
     82      -7.8979      1.00000
     83      -7.7323      1.00000
     84      -7.0653      1.00000
     85      -7.0192      1.00000
     86      -6.9514      1.00000
     87      -6.9448      1.00000
     88      -6.8602      1.00000
     89      -6.8451      1.00000
     90      -6.8176      1.00000
     91      -6.4174      1.00000
     92      -6.2042      1.00000
     93      -5.8617      1.00000
     94      -5.8440      1.00000
     95      -5.4556      1.00000
     96      -5.4138      1.00000
     97      -5.3457      1.00000
     98      -5.3266      1.00000
     99      -5.2372      1.00000
    100      -5.0852      1.00000
    101      -5.0063      1.00000
    102      -4.2338      1.00000
    103      -3.6757      1.00000
    104      -3.3955      1.00000
    105      -1.9433      0.31817
    106      -1.3455      0.00000
    107      -1.1880      0.00000
    108      -0.8157      0.00000
    109      -0.6763      0.00000
    110      -0.4406      0.00000
    111      -0.3628      0.00000
    112      -0.2611      0.00000
    113       0.0516      0.00000
    114       0.0752      0.00000
    115       0.2203      0.00000
    116       0.5720      0.00000
    117       0.8764      0.00000
    118       1.1385      0.00000
    119       1.1646      0.00000
    120       1.4749      0.00000
    121       1.6679      0.00000
    122       1.7101      0.00000
    123       1.7125      0.00000
    124       1.7304      0.00000
    125       1.8430      0.00000
    126       2.0174      0.00000
    127       2.0365      0.00000
    128       2.0674      0.00000
    129       2.2800      0.00000
    130       2.3883      0.00000
    131       2.6510      0.00000
    132       2.6803      0.00000
    133       2.6827      0.00000
    134       2.7604      0.00000
    135       2.7766      0.00000
    136       2.8922      0.00000
    137       2.9328      0.00000
    138       2.9718      0.00000
    139       3.0844      0.00000
    140       3.3443      0.00000
    141       3.3621      0.00000
    142       3.4078      0.00000
    143       3.4683      0.00000
    144       3.5018      0.00000
    145       3.5281      0.00000
    146       3.5648      0.00000
    147       3.5892      0.00000
    148       3.5994      0.00000
    149       3.6083      0.00000
    150       3.7243      0.00000
    151       3.8280      0.00000
    152       3.9892      0.00000
    153       3.9996      0.00000
    154       4.0112      0.00000
    155       4.0210      0.00000
    156       4.0431      0.00000
    157       4.0477      0.00000
    158       4.0592      0.00000
    159       4.1440      0.00000
    160       4.2188      0.00000
    161       4.2767      0.00000
    162       4.3332      0.00000
    163       4.3770      0.00000
    164       4.5288      0.00000
    165       4.6139      0.00000
    166       4.6553      0.00000
    167       4.7057      0.00000
    168       4.7333      0.00000
    169       4.7365      0.00000
    170       4.8504      0.00000
    171       4.8570      0.00000
    172       4.8895      0.00000
    173       4.9512      0.00000
    174       4.9844      0.00000
    175       4.9995      0.00000
    176       5.0599      0.00000
    177       5.1369      0.00000
    178       5.2312      0.00000
    179       5.3265      0.00000
    180       5.3327      0.00000
    181       5.3565      0.00000
    182       5.3666      0.00000
    183       5.3833      0.00000
    184       5.5078      0.00000
    185       5.5234      0.00000
    186       5.5600      0.00000
    187       5.5635      0.00000
    188       5.5920      0.00000
    189       5.6086      0.00000
    190       5.6161      0.00000
    191       5.6749      0.00000
    192       5.7077      0.00000
    193       5.7279      0.00000
    194       5.7816      0.00000
    195       5.7971      0.00000
    196       5.8039      0.00000
    197       5.8520      0.00000
    198       5.8563      0.00000
    199       5.8661      0.00000
    200       5.9693      0.00000
    201       5.9836      0.00000
    202       5.9870      0.00000
    203       5.9901      0.00000
    204       6.0071      0.00000
    205       6.0283      0.00000
    206       6.0868      0.00000
    207       6.1683      0.00000
    208       6.1923      0.00000
    209       6.2230      0.00000
    210       6.3026      0.00000
    211       6.3586      0.00000
    212       6.3931      0.00000
    213       6.4351      0.00000
    214       6.5017      0.00000
    215       6.5697      0.00000
    216       6.5916      0.00000
    217       6.6260      0.00000
    218       6.6303      0.00000
    219       6.6650      0.00000
    220       6.6978      0.00000
    221       6.7882      0.00000
    222       6.8021      0.00000
    223       6.8373      0.00000
    224       6.8456      0.00000
    225       6.8972      0.00000
    226       6.9374      0.00000
    227       6.9466      0.00000
    228       6.9560      0.00000
    229       6.9778      0.00000
    230       7.0787      0.00000
    231       7.0927      0.00000
    232       7.1818      0.00000
    233       7.2356      0.00000
    234       7.2560      0.00000
    235       7.2621      0.00000
    236       7.2772      0.00000
    237       7.2918      0.00000
    238       7.3258      0.00000
    239       7.3285      0.00000
    240       7.3684      0.00000
    241       7.3687      0.00000
    242       7.3877      0.00000
    243       7.4533      0.00000
    244       7.5611      0.00000
    245       7.5792      0.00000
    246       7.6037      0.00000
    247       7.6187      0.00000
    248       7.6317      0.00000
    249       7.6640      0.00000
    250       7.7797      0.00000
    251       7.8443      0.00000
    252       7.9399      0.00000
    253       7.9447      0.00000
    254       7.9541      0.00000
    255       7.9577      0.00000
    256       7.9624      0.00000

 k-point     3 :       0.0000    0.5000    0.0000
  band No.  band energies     occupation 
      1     -23.5492      1.00000
      2     -23.1969      1.00000
      3     -22.7668      1.00000
      4     -22.4695      1.00000
      5     -21.6175      1.00000
      6     -21.4326      1.00000
      7     -21.0462      1.00000
      8     -20.6427      1.00000
      9     -20.5782      1.00000
     10     -20.1985      1.00000
     11     -19.8198      1.00000
     12     -19.7973      1.00000
     13     -19.3346      1.00000
     14     -19.2939      1.00000
     15     -18.7477      1.00000
     16     -18.7078      1.00000
     17     -18.2365      1.00000
     18     -18.1989      1.00000
     19     -18.1497      1.00000
     20     -18.1420      1.00000
     21     -18.0544      1.00000
     22     -17.9093      1.00000
     23     -17.8254      1.00000
     24     -17.7249      1.00000
     25     -17.5576      1.00000
     26     -17.4442      1.00000
     27     -17.2120      1.00000
     28     -16.7847      1.00000
     29     -16.5238      1.00000
     30     -16.1325      1.00000
     31     -15.9818      1.00000
     32     -15.3435      1.00000
     33     -15.3388      1.00000
     34     -15.2121      1.00000
     35     -15.0652      1.00000
     36     -14.6196      1.00000
     37     -14.2556      1.00000
     38     -13.9183      1.00000
     39     -13.8229      1.00000
     40     -13.4228      1.00000
     41     -13.3468      1.00000
     42     -12.9245      1.00000
     43     -12.9115      1.00000
     44     -12.8497      1.00000
     45     -12.8485      1.00000
     46     -12.3706      1.00000
     47     -12.2739      1.00000
     48     -11.7252      1.00000
     49     -11.5539      1.00000
     50     -11.4501      1.00000
     51     -11.4188      1.00000
     52     -10.9644      1.00000
     53     -10.8555      1.00000
     54     -10.6476      1.00000
     55     -10.5594      1.00000
     56     -10.2588      1.00000
     57     -10.1780      1.00000
     58     -10.1096      1.00000
     59     -10.0682      1.00000
     60      -9.7516      1.00000
     61      -9.7228      1.00000
     62      -9.6629      1.00000
     63      -9.5740      1.00000
     64      -9.5455      1.00000
     65      -9.5398      1.00000
     66      -9.5278      1.00000
     67      -9.1907      1.00000
     68      -9.1785      1.00000
     69      -9.0342      1.00000
     70      -8.9580      1.00000
     71      -8.8984      1.00000
     72      -8.7399      1.00000
     73      -8.5799      1.00000
     74      -8.5341      1.00000
     75      -8.4188      1.00000
     76      -8.3993      1.00000
     77      -8.2510      1.00000
     78      -8.2047      1.00000
     79      -8.0376      1.00000
     80      -7.9930      1.00000
     81      -7.9209      1.00000
     82      -7.8979      1.00000
     83      -7.7323      1.00000
     84      -7.0653      1.00000
     85      -7.0192      1.00000
     86      -6.9514      1.00000
     87      -6.9448      1.00000
     88      -6.8602      1.00000
     89      -6.8451      1.00000
     90      -6.8176      1.00000
     91      -6.4174      1.00000
     92      -6.2042      1.00000
     93      -5.8617      1.00000
     94      -5.8440      1.00000
     95      -5.4556      1.00000
     96      -5.4138      1.00000
     97      -5.3457      1.00000
     98      -5.3266      1.00000
     99      -5.2372      1.00000
    100      -5.0852      1.00000
    101      -5.0063      1.00000
    102      -4.2338      1.00000
    103      -3.6757      1.00000
    104      -3.3955      1.00000
    105      -1.9433      0.31817
    106      -1.3455      0.00000
    107      -1.1880      0.00000
    108      -0.8157      0.00000
    109      -0.6763      0.00000
    110      -0.4406      0.00000
    111      -0.3628      0.00000
    112      -0.2611      0.00000
    113       0.0516      0.00000
    114       0.0752      0.00000
    115       0.2203      0.00000
    116       0.5720      0.00000
    117       0.8764      0.00000
    118       1.1385      0.00000
    119       1.1646      0.00000
    120       1.4749      0.00000
    121       1.6679      0.00000
    122       1.7101      0.00000
    123       1.7125      0.00000
    124       1.7304      0.00000
    125       1.8430      0.00000
    126       2.0174      0.00000
    127       2.0365      0.00000
    128       2.0674      0.00000
    129       2.2800      0.00000
    130       2.3883      0.00000
    131       2.6510      0.00000
    132       2.6803      0.00000
    133       2.6827      0.00000
    134       2.7604      0.00000
    135       2.7766      0.00000
    136       2.8922      0.00000
    137       2.9328      0.00000
    138       2.9718      0.00000
    139       3.0844      0.00000
    140       3.3443      0.00000
    141       3.3621      0.00000
    142       3.4078      0.00000
    143       3.4683      0.00000
    144       3.5018      0.00000
    145       3.5280      0.00000
    146       3.5648      0.00000
    147       3.5892      0.00000
    148       3.5995      0.00000
    149       3.6083      0.00000
    150       3.7243      0.00000
    151       3.8280      0.00000
    152       3.9892      0.00000
    153       3.9996      0.00000
    154       4.0112      0.00000
    155       4.0210      0.00000
    156       4.0431      0.00000
    157       4.0477      0.00000
    158       4.0592      0.00000
    159       4.1440      0.00000
    160       4.2188      0.00000
    161       4.2767      0.00000
    162       4.3332      0.00000
    163       4.3770      0.00000
    164       4.5288      0.00000
    165       4.6139      0.00000
    166       4.6553      0.00000
    167       4.7057      0.00000
    168       4.7333      0.00000
    169       4.7365      0.00000
    170       4.8504      0.00000
    171       4.8570      0.00000
    172       4.8895      0.00000
    173       4.9512      0.00000
    174       4.9844      0.00000
    175       4.9995      0.00000
    176       5.0599      0.00000
    177       5.1369      0.00000
    178       5.2312      0.00000
    179       5.3265      0.00000
    180       5.3327      0.00000
    181       5.3565      0.00000
    182       5.3666      0.00000
    183       5.3833      0.00000
    184       5.5078      0.00000
    185       5.5234      0.00000
    186       5.5600      0.00000
    187       5.5635      0.00000
    188       5.5920      0.00000
    189       5.6086      0.00000
    190       5.6161      0.00000
    191       5.6749      0.00000
    192       5.7077      0.00000
    193       5.7279      0.00000
    194       5.7816      0.00000
    195       5.7971      0.00000
    196       5.8039      0.00000
    197       5.8520      0.00000
    198       5.8563      0.00000
    199       5.8661      0.00000
    200       5.9693      0.00000
    201       5.9836      0.00000
    202       5.9870      0.00000
    203       5.9901      0.00000
    204       6.0071      0.00000
    205       6.0283      0.00000
    206       6.0868      0.00000
    207       6.1683      0.00000
    208       6.1923      0.00000
    209       6.2230      0.00000
    210       6.3026      0.00000
    211       6.3586      0.00000
    212       6.3931      0.00000
    213       6.4351      0.00000
    214       6.5017      0.00000
    215       6.5697      0.00000
    216       6.5916      0.00000
    217       6.6260      0.00000
    218       6.6303      0.00000
    219       6.6650      0.00000
    220       6.6978      0.00000
    221       6.7882      0.00000
    222       6.8021      0.00000
    223       6.8373      0.00000
    224       6.8456      0.00000
    225       6.8972      0.00000
    226       6.9374      0.00000
    227       6.9466      0.00000
    228       6.9560      0.00000
    229       6.9778      0.00000
    230       7.0787      0.00000
    231       7.0927      0.00000
    232       7.1818      0.00000
    233       7.2356      0.00000
    234       7.2560      0.00000
    235       7.2621      0.00000
    236       7.2772      0.00000
    237       7.2918      0.00000
    238       7.3258      0.00000
    239       7.3285      0.00000
    240       7.3684      0.00000
    241       7.3687      0.00000
    242       7.3877      0.00000
    243       7.4533      0.00000
    244       7.5611      0.00000
    245       7.5792      0.00000
    246       7.6037      0.00000
    247       7.6187      0.00000
    248       7.6317      0.00000
    249       7.6640      0.00000
    250       7.7797      0.00000
    251       7.8443      0.00000
    252       7.9399      0.00000
    253       7.9447      0.00000
    254       7.9541      0.00000
    255       7.9577      0.00000
    256       7.9624      0.00000

 k-point     4 :       0.5000    0.5000    0.0000
  band No.  band energies     occupation 
      1     -23.5518      1.00000
      2     -23.1826      1.00000
      3     -22.8013      1.00000
      4     -22.4370      1.00000
      5     -21.6530      1.00000
      6     -21.4617      1.00000
      7     -20.9367      1.00000
      8     -20.6567      1.00000
      9     -20.3604      1.00000
     10     -20.2463      1.00000
     11     -20.1952      1.00000
     12     -19.9484      1.00000
     13     -19.1089      1.00000
     14     -19.0636      1.00000
     15     -18.9204      1.00000
     16     -18.4686      1.00000
     17     -18.3278      1.00000
     18     -18.2068      1.00000
     19     -18.1498      1.00000
     20     -18.0545      1.00000
     21     -18.0350      1.00000
     22     -18.0219      1.00000
     23     -17.7949      1.00000
     24     -17.6554      1.00000
     25     -17.5500      1.00000
     26     -17.3998      1.00000
     27     -17.2613      1.00000
     28     -17.2062      1.00000
     29     -16.7609      1.00000
     30     -16.1282      1.00000
     31     -15.5010      1.00000
     32     -15.3859      1.00000
     33     -15.1938      1.00000
     34     -15.0864      1.00000
     35     -14.9568      1.00000
     36     -14.3871      1.00000
     37     -14.3182      1.00000
     38     -14.1722      1.00000
     39     -13.8434      1.00000
     40     -13.7949      1.00000
     41     -13.5132      1.00000
     42     -13.1632      1.00000
     43     -12.9350      1.00000
     44     -12.8856      1.00000
     45     -12.7316      1.00000
     46     -12.3052      1.00000
     47     -12.0936      1.00000
     48     -11.5358      1.00000
     49     -11.3690      1.00000
     50     -11.3427      1.00000
     51     -11.1676      1.00000
     52     -11.0249      1.00000
     53     -10.9949      1.00000
     54     -10.9373      1.00000
     55     -10.3059      1.00000
     56     -10.2081      1.00000
     57     -10.2058      1.00000
     58     -10.0271      1.00000
     59      -9.9911      1.00000
     60      -9.9524      1.00000
     61      -9.9104      1.00000
     62      -9.8882      1.00000
     63      -9.7569      1.00000
     64      -9.6876      1.00000
     65      -9.5789      1.00000
     66      -9.4253      1.00000
     67      -9.2197      1.00000
     68      -8.9559      1.00000
     69      -8.8998      1.00000
     70      -8.8697      1.00000
     71      -8.8089      1.00000
     72      -8.7109      1.00000
     73      -8.5785      1.00000
     74      -8.5683      1.00000
     75      -8.4840      1.00000
     76      -8.3857      1.00000
     77      -8.2255      1.00000
     78      -8.2175      1.00000
     79      -8.0001      1.00000
     80      -7.9793      1.00000
     81      -7.8795      1.00000
     82      -7.7600      1.00000
     83      -7.6547      1.00000
     84      -7.4300      1.00000
     85      -7.2046      1.00000
     86      -7.1367      1.00000
     87      -6.9115      1.00000
     88      -6.8976      1.00000
     89      -6.7586      1.00000
     90      -6.6813      1.00000
     91      -6.4468      1.00000
     92      -6.1771      1.00000
     93      -5.9641      1.00000
     94      -5.5069      1.00000
     95      -5.4775      1.00000
     96      -5.3800      1.00000
     97      -5.3180      1.00000
     98      -5.3153      1.00000
     99      -5.1819      1.00000
    100      -5.0896      1.00000
    101      -5.0351      1.00000
    102      -4.4623      1.00000
    103      -3.9628      1.00000
    104      -2.7578      1.00000
    105      -2.1236      0.98111
    106      -1.5342      0.00000
    107      -1.3085      0.00000
    108      -0.8518      0.00000
    109      -0.5996      0.00000
    110      -0.3483      0.00000
    111      -0.2487      0.00000
    112       0.0005      0.00000
    113       0.0296      0.00000
    114       0.0543      0.00000
    115       0.2428      0.00000
    116       0.3411      0.00000
    117       0.8941      0.00000
    118       1.1051      0.00000
    119       1.1748      0.00000
    120       1.4477      0.00000
    121       1.5328      0.00000
    122       1.5978      0.00000
    123       1.6721      0.00000
    124       1.7369      0.00000
    125       1.8232      0.00000
    126       2.0189      0.00000
    127       2.0362      0.00000
    128       2.2789      0.00000
    129       2.3484      0.00000
    130       2.4875      0.00000
    131       2.6598      0.00000
    132       2.6853      0.00000
    133       2.6980      0.00000
    134       2.7345      0.00000
    135       2.7375      0.00000
    136       2.7569      0.00000
    137       2.9357      0.00000
    138       2.9464      0.00000
    139       3.0379      0.00000
    140       3.3714      0.00000
    141       3.3783      0.00000
    142       3.4212      0.00000
    143       3.4817      0.00000
    144       3.4851      0.00000
    145       3.5300      0.00000
    146       3.5596      0.00000
    147       3.5796      0.00000
    148       3.5969      0.00000
    149       3.6026      0.00000
    150       3.7311      0.00000
    151       3.8942      0.00000
    152       3.9945      0.00000
    153       3.9970      0.00000
    154       4.0077      0.00000
    155       4.0193      0.00000
    156       4.0624      0.00000
    157       4.1675      0.00000
    158       4.1810      0.00000
    159       4.2236      0.00000
    160       4.2590      0.00000
    161       4.2962      0.00000
    162       4.3413      0.00000
    163       4.5151      0.00000
    164       4.6021      0.00000
    165       4.6512      0.00000
    166       4.6525      0.00000
    167       4.7152      0.00000
    168       4.7607      0.00000
    169       4.7733      0.00000
    170       4.8307      0.00000
    171       4.8587      0.00000
    172       4.8874      0.00000
    173       4.8936      0.00000
    174       4.9376      0.00000
    175       4.9811      0.00000
    176       5.0611      0.00000
    177       5.1114      0.00000
    178       5.1198      0.00000
    179       5.2400      0.00000
    180       5.3169      0.00000
    181       5.3502      0.00000
    182       5.3515      0.00000
    183       5.3946      0.00000
    184       5.4017      0.00000
    185       5.4728      0.00000
    186       5.5158      0.00000
    187       5.5258      0.00000
    188       5.5263      0.00000
    189       5.5709      0.00000
    190       5.5993      0.00000
    191       5.6400      0.00000
    192       5.6788      0.00000
    193       5.6853      0.00000
    194       5.7506      0.00000
    195       5.7526      0.00000
    196       5.7925      0.00000
    197       5.8089      0.00000
    198       5.8538      0.00000
    199       5.8602      0.00000
    200       5.9639      0.00000
    201       5.9772      0.00000
    202       5.9866      0.00000
    203       5.9926      0.00000
    204       6.0152      0.00000
    205       6.0245      0.00000
    206       6.0889      0.00000
    207       6.1075      0.00000
    208       6.1661      0.00000
    209       6.2367      0.00000
    210       6.2663      0.00000
    211       6.3474      0.00000
    212       6.3952      0.00000
    213       6.5081      0.00000
    214       6.5147      0.00000
    215       6.5717      0.00000
    216       6.5937      0.00000
    217       6.6618      0.00000
    218       6.6637      0.00000
    219       6.7044      0.00000
    220       6.7260      0.00000
    221       6.7639      0.00000
    222       6.7710      0.00000
    223       6.8325      0.00000
    224       6.8453      0.00000
    225       6.8484      0.00000
    226       6.8885      0.00000
    227       6.8968      0.00000
    228       6.9527      0.00000
    229       6.9687      0.00000
    230       7.0381      0.00000
    231       7.1353      0.00000
    232       7.1697      0.00000
    233       7.2066      0.00000
    234       7.2356      0.00000
    235       7.2759      0.00000
    236       7.2781      0.00000
    237       7.2829      0.00000
    238       7.2853      0.00000
    239       7.3276      0.00000
    240       7.3318      0.00000
    241       7.3416      0.00000
    242       7.3584      0.00000
    243       7.4035      0.00000
    244       7.5607      0.00000
    245       7.5855      0.00000
    246       7.6141      0.00000
    247       7.6308      0.00000
    248       7.6758      0.00000
    249       7.6808      0.00000
    250       7.7283      0.00000
    251       7.8235      0.00000
    252       7.8262      0.00000
    253       7.8684      0.00000
    254       7.9538      0.00000
    255       7.9580      0.00000
    256       7.9585      0.00000

 spin component 2

 k-point     1 :       0.0000    0.0000    0.0000
  band No.  band energies     occupation 
      1     -23.5636      1.00000
      2     -23.1738      1.00000
      3     -22.7494      1.00000
      4     -22.4675      1.00000
      5     -21.7388      1.00000
      6     -21.3034      1.00000
      7     -21.1719      1.00000
      8     -20.8286      1.00000
      9     -20.3666      1.00000
     10     -20.1469      1.00000
     11     -19.6397      1.00000
     12     -19.5898      1.00000
     13     -19.2192      1.00000
     14     -19.1276      1.00000
     15     -18.9319      1.00000
     16     -18.7705      1.00000
     17     -18.7184      1.00000
     18     -18.4735      1.00000
     19     -18.3996      1.00000
     20     -18.2713      1.00000
     21     -18.1500      1.00000
     22     -18.0545      1.00000
     23     -17.9136      1.00000
     24     -17.8355      1.00000
     25     -17.1366      1.00000
     26     -17.0071      1.00000
     27     -16.7670      1.00000
     28     -16.4943      1.00000
     29     -16.3416      1.00000
     30     -15.8903      1.00000
     31     -15.6921      1.00000
     32     -15.6036      1.00000
     33     -15.5315      1.00000
     34     -15.4446      1.00000
     35     -15.0829      1.00000
     36     -14.6835      1.00000
     37     -14.4393      1.00000
     38     -14.3465      1.00000
     39     -14.3182      1.00000
     40     -14.1292      1.00000
     41     -13.3974      1.00000
     42     -12.9017      1.00000
     43     -12.4900      1.00000
     44     -12.4696      1.00000
     45     -12.1941      1.00000
     46     -11.8476      1.00000
     47     -11.7390      1.00000
     48     -11.6114      1.00000
     49     -11.5792      1.00000
     50     -11.5393      1.00000
     51     -11.4600      1.00000
     52     -11.1968      1.00000
     53     -11.1024      1.00000
     54     -10.6444      1.00000
     55     -10.5757      1.00000
     56     -10.4670      1.00000
     57     -10.3507      1.00000
     58     -10.1164      1.00000
     59     -10.0819      1.00000
     60      -9.7966      1.00000
     61      -9.7516      1.00000
     62      -9.7496      1.00000
     63      -9.6486      1.00000
     64      -9.4662      1.00000
     65      -9.3290      1.00000
     66      -9.2788      1.00000
     67      -9.2399      1.00000
     68      -9.2367      1.00000
     69      -9.1700      1.00000
     70      -9.0730      1.00000
     71      -9.0424      1.00000
     72      -8.9263      1.00000
     73      -8.8529      1.00000
     74      -8.7879      1.00000
     75      -8.7578      1.00000
     76      -8.1798      1.00000
     77      -8.1609      1.00000
     78      -8.0347      1.00000
     79      -7.9362      1.00000
     80      -7.7577      1.00000
     81      -7.5635      1.00000
     82      -7.5618      1.00000
     83      -7.3894      1.00000
     84      -7.2379      1.00000
     85      -7.2236      1.00000
     86      -7.1610      1.00000
     87      -7.0804      1.00000
     88      -6.6633      1.00000
     89      -6.6053      1.00000
     90      -6.5923      1.00000
     91      -6.4753      1.00000
     92      -6.3923      1.00000
     93      -6.2230      1.00000
     94      -6.2195      1.00000
     95      -6.0759      1.00000
     96      -6.0422      1.00000
     97      -5.4368      1.00000
     98      -5.0676      1.00000
     99      -4.6684      1.00000
    100      -4.4459      1.00000
    101      -4.2256      1.00000
    102      -4.1824      1.00000
    103      -4.1088      1.00000
    104      -3.0625      1.00000
    105      -1.9556      0.38252
    106      -1.6921      0.00003
    107      -1.3437      0.00000
    108      -1.3153      0.00000
    109      -0.9543      0.00000
    110      -0.7170      0.00000
    111       0.0590      0.00000
    112       0.1500      0.00000
    113       0.3335      0.00000
    114       0.3460      0.00000
    115       0.4451      0.00000
    116       0.6560      0.00000
    117       0.8247      0.00000
    118       1.1430      0.00000
    119       1.3853      0.00000
    120       1.6764      0.00000
    121       1.6891      0.00000
    122       1.7553      0.00000
    123       1.8566      0.00000
    124       1.8606      0.00000
    125       1.8800      0.00000
    126       1.9033      0.00000
    127       1.9534      0.00000
    128       2.1363      0.00000
    129       2.1797      0.00000
    130       2.2192      0.00000
    131       2.2453      0.00000
    132       2.5597      0.00000
    133       2.5640      0.00000
    134       2.6059      0.00000
    135       2.6518      0.00000
    136       2.6546      0.00000
    137       2.6826      0.00000
    138       2.9329      0.00000
    139       2.9749      0.00000
    140       2.9862      0.00000
    141       2.9928      0.00000
    142       2.9952      0.00000
    143       2.9988      0.00000
    144       3.0306      0.00000
    145       3.0689      0.00000
    146       3.4891      0.00000
    147       3.7452      0.00000
    148       3.8593      0.00000
    149       3.8653      0.00000
    150       3.9085      0.00000
    151       3.9125      0.00000
    152       3.9333      0.00000
    153       4.0369      0.00000
    154       4.1207      0.00000
    155       4.1751      0.00000
    156       4.2855      0.00000
    157       4.3266      0.00000
    158       4.3458      0.00000
    159       4.3491      0.00000
    160       4.3535      0.00000
    161       4.3593      0.00000
    162       4.3894      0.00000
    163       4.3900      0.00000
    164       4.3974      0.00000
    165       4.4176      0.00000
    166       4.5994      0.00000
    167       4.6093      0.00000
    168       4.7321      0.00000
    169       4.7413      0.00000
    170       5.0376      0.00000
    171       5.0723      0.00000
    172       5.1049      0.00000
    173       5.1445      0.00000
    174       5.1795      0.00000
    175       5.1894      0.00000
    176       5.1923      0.00000
    177       5.2272      0.00000
    178       5.3321      0.00000
    179       5.3359      0.00000
    180       5.3880      0.00000
    181       5.4118      0.00000
    182       5.4243      0.00000
    183       5.4563      0.00000
    184       5.5126      0.00000
    185       5.6040      0.00000
    186       5.6327      0.00000
    187       5.6331      0.00000
    188       5.6360      0.00000
    189       5.6441      0.00000
    190       5.6455      0.00000
    191       5.6463      0.00000
    192       5.6796      0.00000
    193       5.6808      0.00000
    194       5.6990      0.00000
    195       5.7193      0.00000
    196       5.7373      0.00000
    197       5.8102      0.00000
    198       5.8479      0.00000
    199       5.8532      0.00000
    200       5.8781      0.00000
    201       5.9611      0.00000
    202       6.0016      0.00000
    203       6.0225      0.00000
    204       6.0417      0.00000
    205       6.0427      0.00000
    206       6.0631      0.00000
    207       6.0706      0.00000
    208       6.0923      0.00000
    209       6.2129      0.00000
    210       6.3411      0.00000
    211       6.3779      0.00000
    212       6.4722      0.00000
    213       6.4767      0.00000
    214       6.4830      0.00000
    215       6.5165      0.00000
    216       6.5167      0.00000
    217       6.5229      0.00000
    218       6.5244      0.00000
    219       6.5267      0.00000
    220       6.5331      0.00000
    221       6.5760      0.00000
    222       6.6042      0.00000
    223       6.6643      0.00000
    224       6.6685      0.00000
    225       6.6914      0.00000
    226       6.7468      0.00000
    227       6.7710      0.00000
    228       6.9019      0.00000
    229       6.9324      0.00000
    230       6.9450      0.00000
    231       6.9503      0.00000
    232       6.9550      0.00000
    233       6.9596      0.00000
    234       6.9711      0.00000
    235       6.9778      0.00000
    236       6.9788      0.00000
    237       6.9856      0.00000
    238       6.9887      0.00000
    239       7.0003      0.00000
    240       7.4382      0.00000
    241       7.5849      0.00000
    242       7.6091      0.00000
    243       7.6649      0.00000
    244       7.6845      0.00000
    245       7.7164      0.00000
    246       7.7842      0.00000
    247       7.8053      0.00000
    248       7.8070      0.00000
    249       7.8094      0.00000
    250       7.8678      0.00000
    251       7.8922      0.00000
    252       7.9790      0.00000
    253       8.0432      0.00000
    254       8.1609      0.00000
    255       8.2150      0.00000
    256       8.2184      0.00000

 k-point     2 :       0.5000   -0.0000    0.0000
  band No.  band energies     occupation 
      1     -23.5492      1.00000
      2     -23.1969      1.00000
      3     -22.7668      1.00000
      4     -22.4695      1.00000
      5     -21.6175      1.00000
      6     -21.4326      1.00000
      7     -21.0462      1.00000
      8     -20.6427      1.00000
      9     -20.5782      1.00000
     10     -20.1985      1.00000
     11     -19.8198      1.00000
     12     -19.7973      1.00000
     13     -19.3346      1.00000
     14     -19.2939      1.00000
     15     -18.7477      1.00000
     16     -18.7078      1.00000
     17     -18.2365      1.00000
     18     -18.1989      1.00000
     19     -18.1497      1.00000
     20     -18.1420      1.00000
     21     -18.0544      1.00000
     22     -17.9093      1.00000
     23     -17.8254      1.00000
     24     -17.7249      1.00000
     25     -17.5576      1.00000
     26     -17.4442      1.00000
     27     -17.2120      1.00000
     28     -16.7847      1.00000
     29     -16.5238      1.00000
     30     -16.1325      1.00000
     31     -15.9818      1.00000
     32     -15.3435      1.00000
     33     -15.3388      1.00000
     34     -15.2121      1.00000
     35     -15.0652      1.00000
     36     -14.6196      1.00000
     37     -14.2556      1.00000
     38     -13.9183      1.00000
     39     -13.8229      1.00000
     40     -13.4228      1.00000
     41     -13.3468      1.00000
     42     -12.9245      1.00000
     43     -12.9115      1.00000
     44     -12.8497      1.00000
     45     -12.8485      1.00000
     46     -12.3706      1.00000
     47     -12.2739      1.00000
     48     -11.7252      1.00000
     49     -11.5539      1.00000
     50     -11.4501      1.00000
     51     -11.4188      1.00000
     52     -10.9643      1.00000
     53     -10.8555      1.00000
     54     -10.6476      1.00000
     55     -10.5594      1.00000
     56     -10.2588      1.00000
     57     -10.1780      1.00000
     58     -10.1096      1.00000
     59     -10.0682      1.00000
     60      -9.7516      1.00000
     61      -9.7228      1.00000
     62      -9.6629      1.00000
     63      -9.5740      1.00000
     64      -9.5455      1.00000
     65      -9.5398      1.00000
     66      -9.5278      1.00000
     67      -9.1907      1.00000
     68      -9.1785      1.00000
     69      -9.0342      1.00000
     70      -8.9580      1.00000
     71      -8.8984      1.00000
     72      -8.7399      1.00000
     73      -8.5799      1.00000
     74      -8.5341      1.00000
     75      -8.4188      1.00000
     76      -8.3993      1.00000
     77      -8.2510      1.00000
     78      -8.2047      1.00000
     79      -8.0376      1.00000
     80      -7.9930      1.00000
     81      -7.9209      1.00000
     82      -7.8979      1.00000
     83      -7.7323      1.00000
     84      -7.0653      1.00000
     85      -7.0192      1.00000
     86      -6.9514      1.00000
     87      -6.9448      1.00000
     88      -6.8602      1.00000
     89      -6.8451      1.00000
     90      -6.8176      1.00000
     91      -6.4174      1.00000
     92      -6.2042      1.00000
     93      -5.8617      1.00000
     94      -5.8440      1.00000
     95      -5.4556      1.00000
     96      -5.4138      1.00000
     97      -5.3457      1.00000
     98      -5.3266      1.00000
     99      -5.2372      1.00000
    100      -5.0852      1.00000
    101      -5.0063      1.00000
    102      -4.2338      1.00000
    103      -3.6757      1.00000
    104      -3.3955      1.00000
    105      -1.9433      0.31816
    106      -1.3455      0.00000
    107      -1.1880      0.00000
    108      -0.8157      0.00000
    109      -0.6763      0.00000
    110      -0.4406      0.00000
    111      -0.3628      0.00000
    112      -0.2611      0.00000
    113       0.0516      0.00000
    114       0.0752      0.00000
    115       0.2203      0.00000
    116       0.5720      0.00000
    117       0.8767      0.00000
    118       1.1387      0.00000
    119       1.1647      0.00000
    120       1.4752      0.00000
    121       1.6685      0.00000
    122       1.7101      0.00000
    123       1.7126      0.00000
    124       1.7305      0.00000
    125       1.8434      0.00000
    126       2.0006      0.00000
    127       2.0226      0.00000
    128       2.0674      0.00000
    129       2.2807      0.00000
    130       2.3889      0.00000
    131       2.6446      0.00000
    132       2.6668      0.00000
    133       2.6734      0.00000
    134       2.7600      0.00000
    135       2.7769      0.00000
    136       2.8891      0.00000
    137       2.9259      0.00000
    138       2.9712      0.00000
    139       3.0814      0.00000
    140       3.3425      0.00000
    141       3.3592      0.00000
    142       3.4042      0.00000
    143       3.4684      0.00000
    144       3.5004      0.00000
    145       3.5256      0.00000
    146       3.5654      0.00000
    147       3.5854      0.00000
    148       3.5964      0.00000
    149       3.6087      0.00000
    150       3.7230      0.00000
    151       3.8259      0.00000
    152       3.9754      0.00000
    153       3.9826      0.00000
    154       3.9980      0.00000
    155       4.0073      0.00000
    156       4.0367      0.00000
    157       4.0471      0.00000
    158       4.0541      0.00000
    159       4.1440      0.00000
    160       4.2191      0.00000
    161       4.2769      0.00000
    162       4.3332      0.00000
    163       4.3766      0.00000
    164       4.5288      0.00000
    165       4.6076      0.00000
    166       4.6409      0.00000
    167       4.6972      0.00000
    168       4.7332      0.00000
    169       4.7367      0.00000
    170       4.8444      0.00000
    171       4.8512      0.00000
    172       4.8827      0.00000
    173       4.9468      0.00000
    174       4.9840      0.00000
    175       4.9989      0.00000
    176       5.0536      0.00000
    177       5.1310      0.00000
    178       5.2293      0.00000
    179       5.3208      0.00000
    180       5.3282      0.00000
    181       5.3519      0.00000
    182       5.3668      0.00000
    183       5.3793      0.00000
    184       5.5023      0.00000
    185       5.5204      0.00000
    186       5.5605      0.00000
    187       5.5638      0.00000
    188       5.5883      0.00000
    189       5.6074      0.00000
    190       5.6134      0.00000
    191       5.6690      0.00000
    192       5.7026      0.00000
    193       5.7255      0.00000
    194       5.7809      0.00000
    195       5.7957      0.00000
    196       5.7995      0.00000
    197       5.8507      0.00000
    198       5.8554      0.00000
    199       5.8640      0.00000
    200       5.9566      0.00000
    201       5.9703      0.00000
    202       5.9728      0.00000
    203       5.9767      0.00000
    204       6.0024      0.00000
    205       6.0242      0.00000
    206       6.0846      0.00000
    207       6.1664      0.00000
    208       6.1913      0.00000
    209       6.2213      0.00000
    210       6.3015      0.00000
    211       6.3549      0.00000
    212       6.3895      0.00000
    213       6.4346      0.00000
    214       6.5016      0.00000
    215       6.5696      0.00000
    216       6.5918      0.00000
    217       6.6259      0.00000
    218       6.6300      0.00000
    219       6.6651      0.00000
    220       6.6927      0.00000
    221       6.7872      0.00000
    222       6.7964      0.00000
    223       6.8310      0.00000
    224       6.8401      0.00000
    225       6.8925      0.00000
    226       6.9363      0.00000
    227       6.9419      0.00000
    228       6.9556      0.00000
    229       6.9714      0.00000
    230       7.0738      0.00000
    231       7.0908      0.00000
    232       7.1813      0.00000
    233       7.2354      0.00000
    234       7.2544      0.00000
    235       7.2621      0.00000
    236       7.2743      0.00000
    237       7.2923      0.00000
    238       7.3205      0.00000
    239       7.3231      0.00000
    240       7.3647      0.00000
    241       7.3685      0.00000
    242       7.3871      0.00000
    243       7.4518      0.00000
    244       7.5603      0.00000
    245       7.5747      0.00000
    246       7.5982      0.00000
    247       7.6128      0.00000
    248       7.6247      0.00000
    249       7.6589      0.00000
    250       7.7754      0.00000
    251       7.8439      0.00000
    252       7.9277      0.00000
    253       7.9327      0.00000
    254       7.9425      0.00000
    255       7.9465      0.00000
    256       7.9514      0.00000

 k-point     3 :       0.0000    0.5000    0.0000
  band No.  band energies     occupation 
      1     -23.5492      1.00000
      2     -23.1969      1.00000
      3     -22.7668      1.00000
      4     -22.4695      1.00000
      5     -21.6175      1.00000
      6     -21.4326      1.00000
      7     -21.0462      1.00000
      8     -20.6427      1.00000
      9     -20.5782      1.00000
     10     -20.1985      1.00000
     11     -19.8198      1.00000
     12     -19.7973      1.00000
     13     -19.3346      1.00000
     14     -19.2939      1.00000
     15     -18.7477      1.00000
     16     -18.7078      1.00000
     17     -18.2365      1.00000
     18     -18.1989      1.00000
     19     -18.1497      1.00000
     20     -18.1420      1.00000
     21     -18.0544      1.00000
     22     -17.9093      1.00000
     23     -17.8254      1.00000
     24     -17.7249      1.00000
     25     -17.5576      1.00000
     26     -17.4442      1.00000
     27     -17.2120      1.00000
     28     -16.7847      1.00000
     29     -16.5238      1.00000
     30     -16.1325      1.00000
     31     -15.9818      1.00000
     32     -15.3435      1.00000
     33     -15.3388      1.00000
     34     -15.2121      1.00000
     35     -15.0652      1.00000
     36     -14.6196      1.00000
     37     -14.2556      1.00000
     38     -13.9183      1.00000
     39     -13.8229      1.00000
     40     -13.4228      1.00000
     41     -13.3468      1.00000
     42     -12.9245      1.00000
     43     -12.9115      1.00000
     44     -12.8497      1.00000
     45     -12.8485      1.00000
     46     -12.3706      1.00000
     47     -12.2739      1.00000
     48     -11.7252      1.00000
     49     -11.5539      1.00000
     50     -11.4501      1.00000
     51     -11.4188      1.00000
     52     -10.9644      1.00000
     53     -10.8555      1.00000
     54     -10.6476      1.00000
     55     -10.5594      1.00000
     56     -10.2588      1.00000
     57     -10.1780      1.00000
     58     -10.1096      1.00000
     59     -10.0682      1.00000
     60      -9.7516      1.00000
     61      -9.7228      1.00000
     62      -9.6629      1.00000
     63      -9.5740      1.00000
     64      -9.5455      1.00000
     65      -9.5398      1.00000
     66      -9.5278      1.00000
     67      -9.1907      1.00000
     68      -9.1785      1.00000
     69      -9.0342      1.00000
     70      -8.9580      1.00000
     71      -8.8984      1.00000
     72      -8.7399      1.00000
     73      -8.5799      1.00000
     74      -8.5341      1.00000
     75      -8.4188      1.00000
     76      -8.3993      1.00000
     77      -8.2510      1.00000
     78      -8.2047      1.00000
     79      -8.0376      1.00000
     80      -7.9930      1.00000
     81      -7.9209      1.00000
     82      -7.8979      1.00000
     83      -7.7323      1.00000
     84      -7.0653      1.00000
     85      -7.0192      1.00000
     86      -6.9514      1.00000
     87      -6.9448      1.00000
     88      -6.8602      1.00000
     89      -6.8451      1.00000
     90      -6.8176      1.00000
     91      -6.4174      1.00000
     92      -6.2042      1.00000
     93      -5.8617      1.00000
     94      -5.8440      1.00000
     95      -5.4556      1.00000
     96      -5.4138      1.00000
     97      -5.3457      1.00000
     98      -5.3266      1.00000
     99      -5.2372      1.00000
    100      -5.0852      1.00000
    101      -5.0063      1.00000
    102      -4.2338      1.00000
    103      -3.6757      1.00000
    104      -3.3955      1.00000
    105      -1.9433      0.31816
    106      -1.3455      0.00000
    107      -1.1880      0.00000
    108      -0.8157      0.00000
    109      -0.6763      0.00000
    110      -0.4406      0.00000
    111      -0.3628      0.00000
    112      -0.2611      0.00000
    113       0.0516      0.00000
    114       0.0752      0.00000
    115       0.2203      0.00000
    116       0.5720      0.00000
    117       0.8767      0.00000
    118       1.1387      0.00000
    119       1.1647      0.00000
    120       1.4752      0.00000
    121       1.6685      0.00000
    122       1.7101      0.00000
    123       1.7126      0.00000
    124       1.7305      0.00000
    125       1.8434      0.00000
    126       2.0006      0.00000
    127       2.0226      0.00000
    128       2.0674      0.00000
    129       2.2807      0.00000
    130       2.3889      0.00000
    131       2.6446      0.00000
    132       2.6668      0.00000
    133       2.6734      0.00000
    134       2.7600      0.00000
    135       2.7769      0.00000
    136       2.8891      0.00000
    137       2.9259      0.00000
    138       2.9712      0.00000
    139       3.0814      0.00000
    140       3.3425      0.00000
    141       3.3592      0.00000
    142       3.4041      0.00000
    143       3.4684      0.00000
    144       3.5004      0.00000
    145       3.5256      0.00000
    146       3.5654      0.00000
    147       3.5854      0.00000
    148       3.5964      0.00000
    149       3.6087      0.00000
    150       3.7230      0.00000
    151       3.8259      0.00000
    152       3.9754      0.00000
    153       3.9826      0.00000
    154       3.9980      0.00000
    155       4.0073      0.00000
    156       4.0367      0.00000
    157       4.0471      0.00000
    158       4.0541      0.00000
    159       4.1440      0.00000
    160       4.2191      0.00000
    161       4.2769      0.00000
    162       4.3332      0.00000
    163       4.3766      0.00000
    164       4.5288      0.00000
    165       4.6076      0.00000
    166       4.6409      0.00000
    167       4.6972      0.00000
    168       4.7332      0.00000
    169       4.7367      0.00000
    170       4.8444      0.00000
    171       4.8512      0.00000
    172       4.8827      0.00000
    173       4.9468      0.00000
    174       4.9840      0.00000
    175       4.9989      0.00000
    176       5.0536      0.00000
    177       5.1310      0.00000
    178       5.2293      0.00000
    179       5.3208      0.00000
    180       5.3282      0.00000
    181       5.3519      0.00000
    182       5.3668      0.00000
    183       5.3793      0.00000
    184       5.5023      0.00000
    185       5.5204      0.00000
    186       5.5605      0.00000
    187       5.5637      0.00000
    188       5.5883      0.00000
    189       5.6074      0.00000
    190       5.6134      0.00000
    191       5.6690      0.00000
    192       5.7026      0.00000
    193       5.7255      0.00000
    194       5.7809      0.00000
    195       5.7957      0.00000
    196       5.7995      0.00000
    197       5.8507      0.00000
    198       5.8554      0.00000
    199       5.8640      0.00000
    200       5.9566      0.00000
    201       5.9703      0.00000
    202       5.9728      0.00000
    203       5.9767      0.00000
    204       6.0024      0.00000
    205       6.0242      0.00000
    206       6.0846      0.00000
    207       6.1664      0.00000
    208       6.1913      0.00000
    209       6.2213      0.00000
    210       6.3015      0.00000
    211       6.3549      0.00000
    212       6.3895      0.00000
    213       6.4346      0.00000
    214       6.5016      0.00000
    215       6.5696      0.00000
    216       6.5918      0.00000
    217       6.6259      0.00000
    218       6.6300      0.00000
    219       6.6651      0.00000
    220       6.6927      0.00000
    221       6.7872      0.00000
    222       6.7964      0.00000
    223       6.8310      0.00000
    224       6.8401      0.00000
    225       6.8925      0.00000
    226       6.9363      0.00000
    227       6.9419      0.00000
    228       6.9556      0.00000
    229       6.9714      0.00000
    230       7.0738      0.00000
    231       7.0908      0.00000
    232       7.1813      0.00000
    233       7.2354      0.00000
    234       7.2544      0.00000
    235       7.2621      0.00000
    236       7.2743      0.00000
    237       7.2923      0.00000
    238       7.3205      0.00000
    239       7.3231      0.00000
    240       7.3647      0.00000
    241       7.3685      0.00000
    242       7.3871      0.00000
    243       7.4518      0.00000
    244       7.5603      0.00000
    245       7.5747      0.00000
    246       7.5982      0.00000
    247       7.6128      0.00000
    248       7.6247      0.00000
    249       7.6589      0.00000
    250       7.7755      0.00000
    251       7.8439      0.00000
    252       7.9277      0.00000
    253       7.9327      0.00000
    254       7.9425      0.00000
    255       7.9465      0.00000
    256       7.9514      0.00000

 k-point     4 :       0.5000    0.5000    0.0000
  band No.  band energies     occupation 
      1     -23.5518      1.00000
      2     -23.1826      1.00000
      3     -22.8013      1.00000
      4     -22.4370      1.00000
      5     -21.6530      1.00000
      6     -21.4617      1.00000
      7     -20.9367      1.00000
      8     -20.6567      1.00000
      9     -20.3604      1.00000
     10     -20.2463      1.00000
     11     -20.1952      1.00000
     12     -19.9484      1.00000
     13     -19.1089      1.00000
     14     -19.0636      1.00000
     15     -18.9204      1.00000
     16     -18.4686      1.00000
     17     -18.3278      1.00000
     18     -18.2068      1.00000
     19     -18.1498      1.00000
     20     -18.0545      1.00000
     21     -18.0350      1.00000
     22     -18.0219      1.00000
     23     -17.7949      1.00000
     24     -17.6554      1.00000
     25     -17.5500      1.00000
     26     -17.3998      1.00000
     27     -17.2613      1.00000
     28     -17.2062      1.00000
     29     -16.7609      1.00000
     30     -16.1282      1.00000
     31     -15.5010      1.00000
     32     -15.3859      1.00000
     33     -15.1938      1.00000
     34     -15.0864      1.00000
     35     -14.9568      1.00000
     36     -14.3871      1.00000
     37     -14.3182      1.00000
     38     -14.1722      1.00000
     39     -13.8434      1.00000
     40     -13.7949      1.00000
     41     -13.5132      1.00000
     42     -13.1631      1.00000
     43     -12.9350      1.00000
     44     -12.8856      1.00000
     45     -12.7316      1.00000
     46     -12.3052      1.00000
     47     -12.0936      1.00000
     48     -11.5358      1.00000
     49     -11.3690      1.00000
     50     -11.3427      1.00000
     51     -11.1676      1.00000
     52     -11.0249      1.00000
     53     -10.9949      1.00000
     54     -10.9373      1.00000
     55     -10.3059      1.00000
     56     -10.2081      1.00000
     57     -10.2058      1.00000
     58     -10.0271      1.00000
     59      -9.9911      1.00000
     60      -9.9524      1.00000
     61      -9.9104      1.00000
     62      -9.8882      1.00000
     63      -9.7569      1.00000
     64      -9.6876      1.00000
     65      -9.5789      1.00000
     66      -9.4253      1.00000
     67      -9.2197      1.00000
     68      -8.9559      1.00000
     69      -8.8998      1.00000
     70      -8.8697      1.00000
     71      -8.8089      1.00000
     72      -8.7109      1.00000
     73      -8.5785      1.00000
     74      -8.5683      1.00000
     75      -8.4840      1.00000
     76      -8.3858      1.00000
     77      -8.2255      1.00000
     78      -8.2175      1.00000
     79      -8.0001      1.00000
     80      -7.9793      1.00000
     81      -7.8795      1.00000
     82      -7.7600      1.00000
     83      -7.6547      1.00000
     84      -7.4300      1.00000
     85      -7.2046      1.00000
     86      -7.1367      1.00000
     87      -6.9115      1.00000
     88      -6.8976      1.00000
     89      -6.7586      1.00000
     90      -6.6813      1.00000
     91      -6.4468      1.00000
     92      -6.1771      1.00000
     93      -5.9641      1.00000
     94      -5.5069      1.00000
     95      -5.4775      1.00000
     96      -5.3800      1.00000
     97      -5.3180      1.00000
     98      -5.3153      1.00000
     99      -5.1819      1.00000
    100      -5.0896      1.00000
    101      -5.0351      1.00000
    102      -4.4623      1.00000
    103      -3.9628      1.00000
    104      -2.7578      1.00000
    105      -2.1236      0.98111
    106      -1.5342      0.00000
    107      -1.3085      0.00000
    108      -0.8518      0.00000
    109      -0.5996      0.00000
    110      -0.3483      0.00000
    111      -0.2487      0.00000
    112       0.0005      0.00000
    113       0.0297      0.00000
    114       0.0543      0.00000
    115       0.2429      0.00000
    116       0.3411      0.00000
    117       0.8944      0.00000
    118       1.1053      0.00000
    119       1.1748      0.00000
    120       1.4480      0.00000
    121       1.5330      0.00000
    122       1.5978      0.00000
    123       1.6728      0.00000
    124       1.7368      0.00000
    125       1.8236      0.00000
    126       2.0015      0.00000
    127       2.0230      0.00000
    128       2.2796      0.00000
    129       2.3489      0.00000
    130       2.4875      0.00000
    131       2.6463      0.00000
    132       2.6714      0.00000
    133       2.6969      0.00000
    134       2.7348      0.00000
    135       2.7351      0.00000
    136       2.7572      0.00000
    137       2.9285      0.00000
    138       2.9459      0.00000
    139       3.0334      0.00000
    140       3.3673      0.00000
    141       3.3754      0.00000
    142       3.4189      0.00000
    143       3.4812      0.00000
    144       3.4853      0.00000
    145       3.5268      0.00000
    146       3.5598      0.00000
    147       3.5803      0.00000
    148       3.5929      0.00000
    149       3.6002      0.00000
    150       3.7300      0.00000
    151       3.8878      0.00000
    152       3.9801      0.00000
    153       3.9803      0.00000
    154       3.9938      0.00000
    155       4.0070      0.00000
    156       4.0578      0.00000
    157       4.1669      0.00000
    158       4.1783      0.00000
    159       4.2236      0.00000
    160       4.2595      0.00000
    161       4.2961      0.00000
    162       4.3413      0.00000
    163       4.5149      0.00000
    164       4.6021      0.00000
    165       4.6369      0.00000
    166       4.6379      0.00000
    167       4.7148      0.00000
    168       4.7601      0.00000
    169       4.7734      0.00000
    170       4.8250      0.00000
    171       4.8525      0.00000
    172       4.8809      0.00000
    173       4.8931      0.00000
    174       4.9329      0.00000
    175       4.9810      0.00000
    176       5.0543      0.00000
    177       5.1111      0.00000
    178       5.1148      0.00000
    179       5.2362      0.00000
    180       5.3117      0.00000
    181       5.3455      0.00000
    182       5.3457      0.00000
    183       5.3942      0.00000
    184       5.4022      0.00000
    185       5.4716      0.00000
    186       5.5138      0.00000
    187       5.5205      0.00000
    188       5.5233      0.00000
    189       5.5716      0.00000
    190       5.5948      0.00000
    191       5.6405      0.00000
    192       5.6729      0.00000
    193       5.6788      0.00000
    194       5.7499      0.00000
    195       5.7523      0.00000
    196       5.7880      0.00000
    197       5.8086      0.00000
    198       5.8529      0.00000
    199       5.8554      0.00000
    200       5.9514      0.00000
    201       5.9626      0.00000
    202       5.9740      0.00000
    203       5.9761      0.00000
    204       6.0135      0.00000
    205       6.0187      0.00000
    206       6.0846      0.00000
    207       6.1070      0.00000
    208       6.1657      0.00000
    209       6.2364      0.00000
    210       6.2618      0.00000
    211       6.3428      0.00000
    212       6.3927      0.00000
    213       6.5081      0.00000
    214       6.5146      0.00000
    215       6.5718      0.00000
    216       6.5938      0.00000
    217       6.6608      0.00000
    218       6.6639      0.00000
    219       6.7043      0.00000
    220       6.7209      0.00000
    221       6.7639      0.00000
    222       6.7661      0.00000
    223       6.8324      0.00000
    224       6.8385      0.00000
    225       6.8432      0.00000
    226       6.8831      0.00000
    227       6.8967      0.00000
    228       6.9473      0.00000
    229       6.9624      0.00000
    230       7.0330      0.00000
    231       7.1335      0.00000
    232       7.1699      0.00000
    233       7.2062      0.00000
    234       7.2356      0.00000
    235       7.2732      0.00000
    236       7.2782      0.00000
    237       7.2789      0.00000
    238       7.2858      0.00000
    239       7.3234      0.00000
    240       7.3264      0.00000
    241       7.3401      0.00000
    242       7.3555      0.00000
    243       7.4028      0.00000
    244       7.5559      0.00000
    245       7.5802      0.00000
    246       7.6081      0.00000
    247       7.6237      0.00000
    248       7.6753      0.00000
    249       7.6758      0.00000
    250       7.7234      0.00000
    251       7.8226      0.00000
    252       7.8258      0.00000
    253       7.8671      0.00000
    254       7.9424      0.00000
    255       7.9430      0.00000
    256       7.9431      0.00000


--------------------------------------------------------------------------------------------------------


 soft charge-density along one line, spin component           1
         0         1         2         3         4         5         6         7         8         9
 total charge-density along one line
 
 soft charge-density along one line, spin component           2
         0         1         2         3         4         5         6         7         8         9
 total charge-density along one line
 
 pseudopotential strength for first ion, spin component:           1
 10.216   0.019   0.000   0.000  -0.000   0.000   0.000  -0.000
  0.019  -0.002  -0.000  -0.000   0.000   0.000   0.000  -0.000
  0.000  -0.000  -4.333  -0.000  -0.000  -0.020  -0.000  -0.000
  0.000  -0.000  -0.000  -4.312   0.000  -0.000  -0.014   0.000
 -0.000   0.000  -0.000   0.000  -4.333  -0.000   0.000  -0.019
  0.000   0.000  -0.020  -0.000  -0.000  -0.772  -0.000   0.000
  0.000   0.000  -0.000  -0.014   0.000  -0.000  -0.771   0.000
 -0.000  -0.000  -0.000   0.000  -0.019   0.000   0.000  -0.772
 pseudopotential strength for first ion, spin component:           2
 10.216   0.019   0.000   0.000  -0.000   0.000   0.000  -0.000
  0.019  -0.002  -0.000  -0.000   0.000   0.000   0.000  -0.000
  0.000  -0.000  -4.333  -0.000  -0.000  -0.020  -0.000  -0.000
  0.000  -0.000  -0.000  -4.312   0.000  -0.000  -0.014   0.000
 -0.000   0.000  -0.000   0.000  -4.333  -0.000   0.000  -0.019
  0.000   0.000  -0.020  -0.000  -0.000  -0.772  -0.000   0.000
  0.000   0.000  -0.000  -0.014   0.000  -0.000  -0.771   0.000
 -0.000  -0.000  -0.000   0.000  -0.019   0.000   0.000  -0.772
 total augmentation occupancy for first ion, spin component:           1
  1.477  -1.153  -0.004  -0.000   0.007  -0.003  -0.000   0.004
 -1.153   1.107   0.011   0.000  -0.019   0.004   0.000  -0.007
 -0.004   0.011   1.254   0.000   0.011   0.227   0.000  -0.001
 -0.000   0.000   0.000   0.928  -0.000   0.000   0.105  -0.000
  0.007  -0.019   0.011  -0.000   1.241  -0.001  -0.000   0.228
 -0.003   0.004   0.227   0.000  -0.001   0.047   0.000  -0.000
 -0.000   0.000   0.000   0.105  -0.000   0.000   0.013  -0.000
  0.004  -0.007  -0.001  -0.000   0.228  -0.000  -0.000   0.048
 total augmentation occupancy for first ion, spin component:           2
 -0.000  -0.000  -0.000  -0.000   0.000  -0.000   0.000   0.000
 -0.000   0.000  -0.000   0.000   0.000  -0.000  -0.000   0.000
 -0.000  -0.000  -0.000  -0.000  -0.000   0.000   0.000   0.000
 -0.000   0.000  -0.000  -0.000   0.000  -0.000   0.000   0.000
  0.000   0.000  -0.000   0.000  -0.000   0.000  -0.000  -0.000
 -0.000  -0.000   0.000  -0.000   0.000  -0.000   0.000  -0.000
  0.000  -0.000   0.000   0.000  -0.000   0.000   0.000  -0.000
  0.000   0.000   0.000   0.000  -0.000  -0.000  -0.000   0.000


------------------------ aborting loop because EDIFF is reached ----------------------------------------


    CHARGE:  cpu time    1.8676: real time    1.8680
    FORLOC:  cpu time    0.0241: real time    0.0241
    FORNL :  cpu time    2.1913: real time    2.1921
    STRESS:  cpu time    6.5355: real time    6.5577
    FORCOR:  cpu time    1.8976: real time    1.8977
    FORHAR:  cpu time    0.2580: real time    0.2580
    MIXING:  cpu time    0.0289: real time    0.0289
    OFIELD:  cpu time    0.0001: real time    0.0001

 ---------------------------------------------------------------------------------------------

         DFTD3 V3.0 Rev 1        
 Edisp (eV)   -1.73061

 E6    (eV) :    -0.9478
 E8    (eV) :    -0.7828
 % E8        : 45.23
    FORVDW:  cpu time    0.1393: real time    0.1397

  FORCE on cell =-STRESS in cart. coord.  units (eV):
  Direction    XX          YY          ZZ          XY          YZ          ZX
  --------------------------------------------------------------------------------------
  Alpha Z    89.70403    89.70403    89.70403
  Ewald   42650.08895 42672.53635-50272.89404    19.43854     0.00194    -0.00347
  Hartree 42291.30268 42326.28685-41555.06063    30.29666     0.00127    -0.00228
  E(xc)    -803.31526  -803.65364  -832.68943    -0.29305     0.00000    -0.00000
  Local  -87018.75221-87081.71213 89295.98859   -54.52308    -0.00310     0.00556
  n-local  -217.01983  -222.85512  -222.55289    -5.05350    -0.00017     0.00029
  augment   -56.48961   -56.97768   -55.77928    -0.42268     0.00009    -0.00015
  Kinetic  3060.88777  3097.61483  3553.00436    31.80674    -0.00019     0.00033
  Fock        0.00000     0.00000     0.00000     0.00000     0.00000     0.00000
  vdW        -0.40023    -0.36144    -0.01115     0.03360     0.00000    -0.00000
  -------------------------------------------------------------------------------------
  Total      -3.99370    20.58206    -0.29044    21.28322    -0.00016     0.00028
  in kB      -2.44183    12.58429    -0.17758    13.01299    -0.00010     0.00017
  external pressure =        3.32 kB  Pullay stress =        0.00 kB


 VOLUME and BASIS-vectors are now :
 -----------------------------------------------------------------------------
  energy-cutoff  :      520.00
  volume of cell :     2620.42
      direct lattice vectors                 reciprocal lattice vectors
    12.300000000  0.000000000  0.000000000     0.081300813  0.046939046  0.000000000
    -6.150000000 10.652112467  0.000000000     0.000000000  0.093878093  0.000000000
     0.000000000  0.000000000 20.000000000     0.000000000  0.000000000  0.050000000

  length of vectors
    12.300000000 12.300000000 20.000000000     0.093878093  0.093878093  0.050000000


 FORCES acting on ions
    electron-ion (+dipol)            ewald-force                    non-local-force                 convergence-correction
 -----------------------------------------------------------------------------------------------
   0.944E+01 -.545E+01 0.761E-01   -.965E+01 0.557E+01 -.760E-01   0.213E+00 -.123E+00 -.302E-03   0.945E-03 -.546E-03 -.698E-04
   0.508E+01 0.117E+02 0.150E+00   -.508E+01 -.121E+02 -.149E+00   0.557E-02 0.412E+00 -.192E-02   0.131E-02 -.722E-03 -.640E-04
   0.745E+01 0.103E+02 0.151E+00   -.781E+01 -.105E+02 -.151E+00   0.349E+00 0.220E+00 -.187E-02   -.270E-03 0.709E-03 -.754E-04
   -.235E+01 0.329E+02 0.355E+00   0.219E+01 -.339E+02 -.352E+00   0.163E+00 0.987E+00 -.432E-02   0.598E-03 -.480E-03 -.863E-04
   -.797E+01 0.182E+02 0.140E+00   0.814E+01 -.188E+02 -.140E+00   -.177E+00 0.589E+00 -.830E-03   -.139E-02 0.154E-02 -.590E-04
   -.187E+02 0.185E+02 0.275E+00   0.190E+02 -.190E+02 -.274E+00   -.324E+00 0.495E+00 -.781E-03   -.422E-04 0.424E-03 -.699E-04
   -.106E+01 0.784E+01 0.206E+00   0.143E+01 -.791E+01 -.208E+00   -.370E+00 0.784E-01 0.547E-03   -.134E-03 0.182E-03 -.303E-04
   -.639E+01 -.169E+01 0.127E+00   0.644E+01 0.173E+01 -.126E+00   -.621E-01 -.393E-01 -.105E-02   -.878E-03 0.104E-03 -.337E-04
   0.869E+01 -.977E+01 0.752E-01   -.872E+01 0.100E+02 -.755E-01   0.286E-01 -.273E+00 0.293E-03   -.405E-03 -.696E-03 -.418E-04
   0.482E+01 -.279E+01 0.812E-01   -.492E+01 0.284E+01 -.817E-01   0.974E-01 -.563E-01 0.827E-03   0.474E-03 -.273E-03 -.648E-04
   0.128E+02 -.264E+01 0.751E-01   -.131E+02 0.253E+01 -.755E-01   0.251E+00 0.112E+00 0.293E-03   0.403E-03 0.697E-03 -.417E-04
   0.198E+02 0.216E+01 0.142E+00   -.204E+02 -.230E+01 -.141E+00   0.600E+00 0.144E+00 -.104E-02   0.816E-03 -.717E-04 -.599E-04
   0.296E+02 0.144E+02 0.357E+00   -.304E+02 -.150E+02 -.354E+00   0.793E+00 0.641E+00 -.385E-02   0.820E-03 0.788E-03 -.899E-04
   0.406E+02 0.612E+02 0.108E+01   -.414E+02 -.655E+02 -.110E+01   0.813E+00 0.428E+01 0.211E-01   0.291E-03 -.565E-04 -.239E-03
   0.327E+02 0.658E+02 0.107E+01   -.360E+02 -.687E+02 -.109E+01   0.331E+01 0.284E+01 0.209E-01   -.329E-03 0.486E-03 -.228E-03
   -.527E+02 0.327E+02 0.285E+00   0.568E+02 -.348E+02 -.286E+00   -.415E+01 0.204E+01 0.520E-02   0.346E-03 0.137E-03 -.174E-03
   -.299E+02 0.172E+02 0.289E+00   0.302E+02 -.174E+02 -.301E+00   -.350E+00 0.202E+00 0.157E-01   -.671E-03 0.386E-03 -.137E-03
   -.386E+01 0.223E+01 0.181E+00   0.402E+01 -.232E+01 -.181E+00   -.174E+00 0.101E+00 0.796E-03   -.403E-03 0.229E-03 -.530E-04
   -.173E+01 0.638E+01 0.127E+00   0.172E+01 -.645E+01 -.126E+00   0.292E-02 0.735E-01 -.105E-02   -.528E-03 0.703E-03 -.336E-04
   -.732E+01 -.300E+01 0.206E+00   0.757E+01 0.272E+01 -.208E+00   -.253E+00 0.281E+00 0.549E-03   -.249E-03 0.433E-04 -.302E-04
   0.737E+01 0.292E+01 0.210E+00   -.761E+01 -.264E+01 -.211E+00   0.242E+00 -.276E+00 0.105E-02   -.318E-03 -.289E-03 -.438E-04
   0.253E+02 -.697E+01 0.289E+00   -.259E+02 0.701E+01 -.288E+00   0.588E+00 -.366E-01 -.133E-03   0.804E-03 0.157E-03 -.815E-04
   0.548E+02 -.294E+02 0.267E+00   -.586E+02 0.319E+02 -.268E+00   0.384E+01 -.258E+01 0.437E-02   0.154E-02 -.538E-03 -.181E-03
   -.547E+02 0.293E+02 0.285E+00   0.585E+02 -.318E+02 -.286E+00   -.384E+01 0.258E+01 0.520E-02   0.647E-04 -.331E-03 -.174E-03
   -.253E+02 0.693E+01 0.275E+00   0.259E+02 -.696E+01 -.274E+00   -.590E+00 0.334E-01 -.791E-03   -.404E-03 -.184E-03 -.698E-04
   -.197E+02 -.220E+01 0.141E+00   0.203E+02 0.234E+01 -.141E+00   -.599E+00 -.142E+00 -.808E-03   -.204E-02 0.423E-03 -.595E-04
   -.128E+02 0.258E+01 0.735E-01   0.130E+02 -.247E+01 -.738E-01   -.248E+00 -.106E+00 0.228E-03   -.237E-03 -.217E-03 -.472E-04
   0.177E+01 -.647E+01 0.127E+00   -.176E+01 0.654E+01 -.126E+00   -.335E-02 -.745E-01 -.108E-02   -.541E-03 -.561E-03 -.383E-04
   0.397E+01 -.229E+01 0.184E+00   -.415E+01 0.240E+01 -.184E+00   0.176E+00 -.102E+00 0.843E-03   0.893E-03 -.517E-03 -.653E-04
   0.299E+02 -.173E+02 0.289E+00   -.303E+02 0.175E+02 -.302E+00   0.365E+00 -.211E+00 0.164E-01   0.993E-03 -.577E-03 -.181E-03
   0.528E+02 -.328E+02 0.267E+00   -.570E+02 0.348E+02 -.268E+00   0.416E+01 -.203E+01 0.437E-02   0.123E-02 -.106E-02 -.181E-03
   -.327E+02 -.658E+02 0.108E+01   0.360E+02 0.687E+02 -.110E+01   -.330E+01 -.285E+01 0.211E-01   0.207E-03 -.226E-03 -.239E-03
   -.407E+02 -.612E+02 0.107E+01   0.415E+02 0.655E+02 -.109E+01   -.805E+00 -.429E+01 0.209E-01   -.565E-03 0.196E-04 -.228E-03
   -.297E+02 -.144E+02 0.355E+00   0.305E+02 0.151E+02 -.352E+00   -.773E+00 -.635E+00 -.433E-02   0.709E-03 -.301E-03 -.862E-04
   -.521E+01 -.116E+02 0.151E+00   0.521E+01 0.120E+02 -.151E+00   -.157E-01 -.412E+00 -.186E-02   -.754E-03 -.120E-03 -.753E-04
   -.951E+01 0.549E+01 0.771E-01   0.972E+01 -.561E+01 -.769E-01   -.211E+00 0.122E+00 -.356E-03   0.316E-03 -.178E-03 -.733E-04
   -.485E+01 0.280E+01 0.824E-01   0.495E+01 -.286E+01 -.829E-01   -.107E+00 0.619E-01 0.886E-03   -.144E-02 0.861E-03 -.628E-04
   -.864E+01 0.979E+01 0.735E-01   0.867E+01 -.101E+02 -.738E-01   -.326E-01 0.268E+00 0.240E-03   0.616E-04 0.281E-03 -.473E-04
   0.649E+01 0.170E+01 0.127E+00   -.655E+01 -.174E+01 -.126E+00   0.629E-01 0.402E-01 -.108E-02   0.192E-03 0.760E-03 -.383E-04
   0.116E+01 -.784E+01 0.210E+00   -.152E+01 0.791E+01 -.211E+00   0.360E+00 -.720E-01 0.105E-02   0.955E-04 0.423E-03 -.437E-04
   0.187E+02 -.184E+02 0.289E+00   -.190E+02 0.189E+02 -.288E+00   0.326E+00 -.491E+00 -.132E-03   0.261E-03 -.769E-03 -.815E-04
   0.802E+01 -.182E+02 0.142E+00   -.819E+01 0.188E+02 -.141E+00   0.175E+00 -.591E+00 -.104E-02   0.467E-03 -.668E-03 -.600E-04
   0.232E+01 -.328E+02 0.357E+00   -.216E+01 0.338E+02 -.354E+00   -.158E+00 -.101E+01 -.385E-02   -.268E-03 -.110E-02 -.900E-04
   -.758E+01 -.102E+02 0.150E+00   0.794E+01 0.104E+02 -.149E+00   -.354E+00 -.211E+00 -.192E-02   0.128E-02 -.773E-03 -.640E-04
   -.626E+02 0.730E+02 0.951E+00   0.641E+02 -.578E+02 -.102E+01   -.150E+01 -.153E+02 0.751E-01   -.909E-03 -.432E-03 -.532E-03
   0.944E+02 -.177E+02 0.948E+00   -.819E+02 0.266E+02 -.102E+01   -.125E+02 -.892E+01 0.756E-01   0.136E-02 0.216E-02 -.490E-03
   -.946E+02 0.177E+02 0.951E+00   0.821E+02 -.266E+02 -.102E+01   0.125E+02 0.893E+01 0.751E-01   -.669E-04 0.101E-02 -.532E-03
   0.625E+02 -.729E+02 0.948E+00   -.640E+02 0.577E+02 -.102E+01   0.149E+01 0.153E+02 0.756E-01   -.119E-02 -.226E-02 -.490E-03
   -.137E-01 0.778E-02 -.164E+02   0.277E-01 -.159E-01 0.162E+02   -.756E-02 0.437E-02 0.164E+00   -.491E-02 0.285E-02 -.140E-02
 -----------------------------------------------------------------------------------------------
   0.352E-01 -.203E-01 -.565E+00   -.178E-12 0.192E-12 -.355E-14   -.296E-02 0.171E-02 0.574E+00   -.246E-02 0.143E-02 -.743E-02
 
 
 POSITION                                       TOTAL-FORCE (eV/Angst)
 -----------------------------------------------------------------------------------
     12.28132      0.01078     14.99999        -0.001413      0.000823     -0.000249
      1.21358      0.68593     14.99987         0.007794     -0.007484     -0.001691
     -3.70294     10.62590     14.99986        -0.005486      0.010930     -0.001664
      3.67105      0.65697     14.99966         0.000591     -0.010155     -0.001593
     -1.23379     10.61825     14.99999        -0.003010      0.010440     -0.000630
      6.12409      0.71813     14.99994        -0.005814      0.003146      0.000103
      7.36692      0.00978     14.99981        -0.003970      0.004818     -0.000914
      8.57353      0.74208     14.99997        -0.010402      0.000176     -0.000248
      9.81706      0.02512     15.00004        -0.003504     -0.004533     -0.000102
     11.04902      0.72225     15.00002        -0.000644      0.000363      0.000296
     11.03677      2.13773     15.00004         0.002170      0.005308     -0.000101
     -0.02777      2.82006     14.99999         0.006754      0.002308     -0.000754
      1.19290      2.08717     14.99966         0.011670      0.010064     -0.001102
      2.41324      2.76716     14.99943         0.010824     -0.003172      0.001364
      3.64922      2.05376     14.99944         0.004900      0.006857      0.001308
      6.06231      2.14399     15.00069        -0.004221      0.007162      0.003789
      7.28426      2.89584     15.00034        -0.006695      0.003944      0.003200
      8.54249      2.16940     15.00000        -0.008620      0.004962      0.000753
      9.79410      2.85618     14.99997        -0.005376      0.008950     -0.000248
      9.82499      4.26728     14.99981        -0.006112      0.001085     -0.000914
     -1.21456      4.96415     14.99980        -0.003911      0.004275     -0.000341
      0.02014      4.24192     14.99992         0.002667     -0.001417      0.000475
      1.28558      4.90189     15.00073         0.003597     -0.002548      0.003256
      7.32440      4.33000     15.00069        -0.008277      0.000107      0.003789
      8.59012      4.98943     14.99994        -0.005670      0.003367      0.000096
     -3.66257      6.41149     14.99999        -0.010641     -0.002730     -0.000615
     -2.42703      7.09373     15.00005         0.000216      0.002601     -0.000129
     -1.18418      6.37523     14.99997         0.003340     -0.002900     -0.000272
      0.06743      7.06248     14.99999         0.002966     -0.001677      0.000797
      1.32567      6.33603     15.00035         0.013892     -0.008012      0.003525
      2.54763      7.08782     15.00073         0.003997     -0.001846      0.003256
      4.96019      7.17861     14.99943         0.008189     -0.007799      0.001366
      6.19600      6.46492     14.99944        -0.003466     -0.007619      0.001309
      7.41658      7.14441     14.99966         0.009037      0.004510     -0.001602
     -4.90377      8.54600     14.99986        -0.012172     -0.000664     -0.001664
     -3.67118      9.22097     14.99999         0.003979     -0.002289     -0.000264
     -2.43871      8.50940     15.00002        -0.009132      0.005338      0.000335
     -1.20687      9.20713     15.00005        -0.002119     -0.001578     -0.000121
      0.03680      8.49003     14.99997         0.004190     -0.001402     -0.000271
      1.24363      9.22188     14.99980        -0.005672      0.001193     -0.000341
      2.48646      8.51371     14.99992         0.002545     -0.001599      0.000476
      3.69387      9.26613     14.99999         0.001386     -0.007002     -0.000754
      4.93891      8.57544     14.99966        -0.002886     -0.015146     -0.001102
      6.16275      9.25815     14.99987         0.010354     -0.003005     -0.001691
      4.81425      2.76924     15.00167         0.001452     -0.003561      0.003742
      2.45063      4.13374     15.00167         0.004612     -0.001161      0.004035
      6.15889      5.09823     15.00167         0.003851      0.000529      0.003738
      3.79539      6.46293     15.00167         0.003314     -0.003416      0.004033
      4.30481      4.61602     15.01491         0.000924     -0.000543     -0.025663
 -----------------------------------------------------------------------------------
    total drift:                                0.029760     -0.017191      0.001813


--------------------------------------------------------------------------------------------------------



  FREE ENERGIE OF THE ION-ELECTRON SYSTEM (eV)
  ---------------------------------------------------
  free  energy   TOTEN  =      -442.06123859 eV

  energy  without entropy=     -442.02088910  energy(sigma->0) =     -442.04106384
 
 d Force = 0.1606262E-03[-0.221E-04, 0.343E-03]  d Energy = 0.1602754E-03 0.351E-06
 d Force =-0.9725729E-01[-0.978E-01,-0.967E-01]  d Ewald  =-0.9725725E-01-0.355E-07


--------------------------------------------------------------------------------------------------------


    POTLOK:  cpu time    2.8566: real time    2.8568


--------------------------------------------------------------------------------------------------------


 stress matrix after NEB project (eV)
     -3.99370     21.28322      0.00028
     21.28322     20.58206     -0.00016
      0.00028     -0.00016     -0.29044
  FORCES: max atom, RMS     0.025686    0.009231
  FORCE total and by dimension    0.064617    0.025663
  Stress total and by dimension   36.682508   21.283221
 Quasi-Newton relaxation of ions (Broydens 2nd method)
  g(Force)  = 0.806E-04   g(Stress)= 0.000E+00

 retain information from N=  2 steps
 eigenvalues of (default step * inverse Hessian matrix)
  average eigenvalue of G=   2.1818
 eigenvalue spectrum of G is  0.4398  3.9238


--------------------------------------------------------------------------------------------------------


  
 reached required accuracy - stopping structural energy minimisation
 writing wavefunctions
     LOOP+:  cpu time  326.3384: real time  344.4016
    4ORBIT:  cpu time    0.0000: real time    0.0000

 total amount of memory used by VASP MPI-rank0   179243. kBytes
=======================================================================

   base      :      30000. kBytes
   nonlr-proj:      15080. kBytes
   fftplans  :       7547. kBytes
   grid      :     115983. kBytes
   one-center:       1524. kBytes
   wavefun   :       9109. kBytes
 
  
  
 General timing and accounting informations for this job:
 ========================================================
  
                  Total CPU time used (sec):     2360.715
                            User time (sec):     2290.891
                          System time (sec):       69.824
                         Elapsed time (sec):     2390.505
  
                   Maximum memory used (kb):      449588.
                   Average memory used (kb):           0.
  
                          Minor page faults:       136550
                          Major page faults:            9
                 Voluntary context switches:         5175
