C  N  Ga                                
   1.00000000000000     
    12.3000000000000007    0.0000000000000000    0.0000000000000000
    -6.1499999999999977   10.6521124665485960    0.0000000000000000
     0.0000000000000000    0.0000000000000000   20.0000000000000000
   C    N    Ga
    44     4     1
Direct
  0.9989693661421787  0.0010305511533882  0.7499996396786854
  0.1308029533393174  0.0643755936599429  0.7499953994044442
  0.1977169696493145  0.9975152569355528  0.7499953987057477
  0.3292949540816904  0.0616970489374363  0.7499851479048623
  0.3980875269427900  0.9967472678491390  0.7500005601845855
  0.5315963137177662  0.0673791803350758  0.7499971971487411
  0.5994238775031501  0.0008844009127175  0.7499912703863111
  0.7319010465327536  0.0696123049144395  0.7499988283796728
  0.7993387785554440  0.0023806022281174  0.7500023985887460
  0.9322009567044052  0.0677990311504543  0.7500006121456088
  0.9976194034163623  0.2006611706873979  0.7500024053172029
  0.1300445326140829  0.2647252175530697  0.7500005572734025
  0.1948572881107098  0.1958907711396765  0.7499851713169300
  0.3260534654861432  0.2597953991045182  0.7499699468954361
  0.3930968539805568  0.1928101526244970  0.7499705926620911
  0.5934920922452732  0.2012815545162035  0.7500277510764156
  0.7281550555846611  0.2718448473153786  0.7500128531105860
  0.7963646121737280  0.2036353317623703  0.7499987671440103
  0.9303876954502440  0.2680988767526785  0.7499988361652347
  0.9991156039740537  0.4005760577863957  0.7499912664389921
  0.1342660565126495  0.4660183144155956  0.7499912186088178
  0.2007217281235407  0.3982223492233496  0.7499950794436514
  0.3346396969938232  0.4601886184372485  0.7500318913945554
  0.7987183928307274  0.4065078249252927  0.7500277508650136
  0.9326208261972871  0.4684036655537796  0.7499971900319093
  0.0032527158550547  0.6019122865291632  0.7500005477660427
  0.1356740717178667  0.6659471019879630  0.7500023797607428
  0.2029614693617061  0.5984960463918373  0.7499988599932506
  0.3369394959100417  0.6630605148622911  0.7499987303571347
  0.4051521433494785  0.5948478826795327  0.7500117889090068
  0.5398113926496483  0.6653603010528478  0.7500318881887413
  0.7402046494428025  0.6739465163073547  0.7499699361730171
  0.8071898765236026  0.6069031311639008  0.7499705855783786
  0.9383029484034126  0.6707049975280136  0.7499851444672524
  0.0024847025866222  0.8022829487844173  0.7499953898683654
  0.1343718348022430  0.8656281060006745  0.7499996584592248
  0.2011662053665589  0.7988337569367859  0.7500006064486305
  0.3340528163051179  0.8643258949134616  0.7500023914447429
  0.4015039472261095  0.7970385739890040  0.7499988668344059
  0.5339816311183523  0.8657339585798440  0.7499912207934569
  0.6017776469786823  0.7992782945419487  0.7499950701064884
  0.7352747860420121  0.8699554802036766  0.7500005474447461
  0.8041092488833934  0.8051427011517348  0.7499851632138756
  0.9356244428311847  0.8691969954057711  0.7499953979440040
  0.5214116937685699  0.2599972760543033  0.7500768786439973
  0.3932755855031832  0.3880820697912629  0.7500763646027115
  0.7400027334836932  0.4785882830309163  0.7500768886060082
  0.6119179720792723  0.6067244273111108  0.7500763682174232
  0.5666599429487537  0.4333400649284483  0.7507875959066929
 
  0.00000000E+00  0.00000000E+00  0.00000000E+00
  0.00000000E+00  0.00000000E+00  0.00000000E+00
  0.00000000E+00  0.00000000E+00  0.00000000E+00
  0.00000000E+00  0.00000000E+00  0.00000000E+00
  0.00000000E+00  0.00000000E+00  0.00000000E+00
  0.00000000E+00  0.00000000E+00  0.00000000E+00
  0.00000000E+00  0.00000000E+00  0.00000000E+00
  0.00000000E+00  0.00000000E+00  0.00000000E+00
  0.00000000E+00  0.00000000E+00  0.00000000E+00
  0.00000000E+00  0.00000000E+00  0.00000000E+00
  0.00000000E+00  0.00000000E+00  0.00000000E+00
  0.00000000E+00  0.00000000E+00  0.00000000E+00
  0.00000000E+00  0.00000000E+00  0.00000000E+00
  0.00000000E+00  0.00000000E+00  0.00000000E+00
  0.00000000E+00  0.00000000E+00  0.00000000E+00
  0.00000000E+00  0.00000000E+00  0.00000000E+00
  0.00000000E+00  0.00000000E+00  0.00000000E+00
  0.00000000E+00  0.00000000E+00  0.00000000E+00
  0.00000000E+00  0.00000000E+00  0.00000000E+00
  0.00000000E+00  0.00000000E+00  0.00000000E+00
  0.00000000E+00  0.00000000E+00  0.00000000E+00
  0.00000000E+00  0.00000000E+00  0.00000000E+00
  0.00000000E+00  0.00000000E+00  0.00000000E+00
  0.00000000E+00  0.00000000E+00  0.00000000E+00
  0.00000000E+00  0.00000000E+00  0.00000000E+00
  0.00000000E+00  0.00000000E+00  0.00000000E+00
  0.00000000E+00  0.00000000E+00  0.00000000E+00
  0.00000000E+00  0.00000000E+00  0.00000000E+00
  0.00000000E+00  0.00000000E+00  0.00000000E+00
  0.00000000E+00  0.00000000E+00  0.00000000E+00
  0.00000000E+00  0.00000000E+00  0.00000000E+00
  0.00000000E+00  0.00000000E+00  0.00000000E+00
  0.00000000E+00  0.00000000E+00  0.00000000E+00
  0.00000000E+00  0.00000000E+00  0.00000000E+00
  0.00000000E+00  0.00000000E+00  0.00000000E+00
  0.00000000E+00  0.00000000E+00  0.00000000E+00
  0.00000000E+00  0.00000000E+00  0.00000000E+00
  0.00000000E+00  0.00000000E+00  0.00000000E+00
  0.00000000E+00  0.00000000E+00  0.00000000E+00
  0.00000000E+00  0.00000000E+00  0.00000000E+00
  0.00000000E+00  0.00000000E+00  0.00000000E+00
  0.00000000E+00  0.00000000E+00  0.00000000E+00
  0.00000000E+00  0.00000000E+00  0.00000000E+00
  0.00000000E+00  0.00000000E+00  0.00000000E+00
  0.00000000E+00  0.00000000E+00  0.00000000E+00
  0.00000000E+00  0.00000000E+00  0.00000000E+00
  0.00000000E+00  0.00000000E+00  0.00000000E+00
  0.00000000E+00  0.00000000E+00  0.00000000E+00
  0.00000000E+00  0.00000000E+00  0.00000000E+00
