       N       E                     dE             d eps       ncg     rms          ort
SDA:   1    -0.334498438343E+03   -0.33450E+03    0.00000E+00  3328   0.138E+03 0.000E+00
CGA:   2    -0.402970319370E+03   -0.68472E+02   -0.76979E+02  3328   0.143E+03-0.200E+02
CGA:   3    -0.424852770810E+03   -0.21882E+02   -0.22241E+02  3328   0.491E+02 0.307E+01
CGA:   4    -0.434757101372E+03   -0.99043E+01   -0.99198E+01  3328   0.275E+02 0.129E+00
CGA:   5    -0.439392087660E+03   -0.46350E+01   -0.46468E+01  3328   0.184E+02-0.599E-02
CGA:   6    -0.442062823119E+03   -0.26707E+01   -0.26773E+01  3328   0.698E+01 0.643E-01
CGA:   7    -0.443317148259E+03   -0.12543E+01   -0.12553E+01  3328   0.314E+01 0.439E-02
CGA:   8    -0.443871670156E+03   -0.55452E+00   -0.55470E+00  3328   0.143E+01 0.312E-02
CGA:   9    -0.444142407978E+03   -0.27074E+00   -0.27077E+00  3328   0.568E+00 0.176E-02
CGA:  10    -0.444259585716E+03   -0.11718E+00   -0.11718E+00  3328   0.240E+00 0.800E-03
CGA:  11    -0.444311532578E+03   -0.51947E-01   -0.51944E-01  3328   0.104E+00 0.216E-03
CGA:  12    -0.444337334003E+03   -0.25801E-01   -0.25801E-01  3328   0.489E-01 0.196E-04
CGA:  13    -0.444349862568E+03   -0.12529E-01   -0.12530E-01  3328   0.220E-01-0.318E-04
CGA:  14    -0.444355554151E+03   -0.56916E-02   -0.56933E-02  3328   0.878E-02-0.332E-04
CGA:  15    -0.444357879638E+03   -0.23255E-02   -0.23265E-02  3328   0.335E-02-0.168E-04
CGA:  16    -0.444358778936E+03   -0.89930E-03   -0.89967E-03  3328   0.122E-02-0.602E-05
CGA:  17    -0.444359127969E+03   -0.34903E-03   -0.34920E-03  3328   0.487E-03-0.234E-05
CGA:  18    -0.444359270758E+03   -0.14279E-03   -0.14288E-03  3328   0.220E-03-0.126E-05
CGA:  19    -0.444359337355E+03   -0.66596E-04   -0.66701E-04  3328   0.102E-03-0.135E-05
CGA:  20    -0.444359367554E+03   -0.30200E-04   -0.30272E-04  3328   0.447E-04-0.105E-05
CGA:  21    -0.444359380305E+03   -0.12751E-04   -0.12772E-04  3328   0.179E-04-0.371E-06
CGA:  22    -0.444359385432E+03   -0.51274E-05   -0.51372E-05  3328   0.726E-05-0.179E-06
   1 F= -.44609422E+03 E0= -.44608987E+03  d E =-.870106E-02  mag=     2.9582
