C  N  V                                 
   1.00000000000000     
    12.3000000000000007    0.0000000000000000    0.0000000000000000
    -6.1499999999999977   10.6521124665485960    0.0000000000000000
     0.0000000000000000    0.0000000000000000   20.0000000000000000
   C    N    V 
    44     4     1
Direct
  0.9992517511886666  0.0007482727004066  0.7417732691542712
  0.1314696332699704  0.0647468014377305  0.7421779376141762
  0.1980586893082429  0.9981299874668397  0.7422323666736401
  0.3303942837704819  0.0632111450951385  0.7461018236803010
  0.3985377977715190  0.9976075836448193  0.7471385362705925
  0.5317093818773011  0.0663002720385621  0.7496779920763904
  0.5993688672328996  0.0004223695452188  0.7486089545768657
  0.7325035884510870  0.0691205400651465  0.7485423490848226
  0.7996287851570195  0.0022034469229329  0.7460559157963691
  0.9324459487524763  0.0675540604453483  0.7442187522930858
  0.9977965446407940  0.2003712213677001  0.7460559176090608
  0.1309381625398272  0.2652233257034022  0.7470450626955218
  0.1965447934289419  0.1970721327256236  0.7460109592978121
  0.3275635392530797  0.2619622908622647  0.7522746895184511
  0.3952807997181522  0.1942528455615372  0.7523329274807637
  0.5938381115306497  0.1999602752009763  0.7549750901480902
  0.7292150735533663  0.2707849198116759  0.7546742132439089
  0.7969058893789929  0.2030940992467484  0.7504752726357800
  0.9308794452970571  0.2674964113545772  0.7485423484118304
  0.9995776096547826  0.4006311341904387  0.7486089520578320
  0.1337483967392226  0.4660480077162282  0.7485658900566416
  0.1996144098969290  0.3983717083714324  0.7495802744246175
  0.3332997473129199  0.4604987167953079  0.7548465101577070
  0.8000397108523795  0.4061618862859640  0.7549750909580394
  0.9336997121933885  0.4682906232528893  0.7496779870017324
  0.0023924078850283  0.6014622114736613  0.7471385243895678
  0.1355350784967871  0.6662838874141926  0.7461474635868145
  0.2024673402884861  0.5991659767761260  0.7484888120541866
  0.3364409578119037  0.6635590297625044  0.7503791710522566
  0.4041284422621713  0.5958715493400421  0.7545535709686709
  0.5395012788487135  0.6667002367045819  0.7548465070828880
  0.7380377112310429  0.6724364596321426  0.7522746804369242
  0.8057471541452069  0.6047192048632513  0.7523329237235983
  0.9367888582602429  0.6696057345929043  0.7461018206493314
  0.0018700350821427  0.8019413353001521  0.7422323648906805
  0.1340916571719511  0.8659083676817209  0.7418852304183668
  0.2009023502185903  0.7990976601535295  0.7443716556770601
  0.3337161205125216  0.8644649145802672  0.7461474742741073
  0.4008340226072360  0.7975326446118990  0.7484888159047068
  0.5339519932055412  0.8662515821543549  0.7485658884446396
  0.6016282946817569  0.8003855725343878  0.7495802674779057
  0.7347766814013847  0.8690618276582311  0.7470450565640825
  0.8029278830984589  0.8034552089624316  0.7460109506223990
  0.9352532218262476  0.8685303898978202  0.7421779356935115
  0.5235440347156525  0.2576059784667760  0.7605661593671111
  0.3909304296109662  0.3902276479971767  0.7604734612985342
  0.7423940111382072  0.4764559658650590  0.7605661566617548
  0.6097723512582177  0.6090695595967637  0.7604734586105280
  0.5666490114713695  0.4333509761710976  0.7849795672321175
 
  0.00000000E+00  0.00000000E+00  0.00000000E+00
  0.00000000E+00  0.00000000E+00  0.00000000E+00
  0.00000000E+00  0.00000000E+00  0.00000000E+00
  0.00000000E+00  0.00000000E+00  0.00000000E+00
  0.00000000E+00  0.00000000E+00  0.00000000E+00
  0.00000000E+00  0.00000000E+00  0.00000000E+00
  0.00000000E+00  0.00000000E+00  0.00000000E+00
  0.00000000E+00  0.00000000E+00  0.00000000E+00
  0.00000000E+00  0.00000000E+00  0.00000000E+00
  0.00000000E+00  0.00000000E+00  0.00000000E+00
  0.00000000E+00  0.00000000E+00  0.00000000E+00
  0.00000000E+00  0.00000000E+00  0.00000000E+00
  0.00000000E+00  0.00000000E+00  0.00000000E+00
  0.00000000E+00  0.00000000E+00  0.00000000E+00
  0.00000000E+00  0.00000000E+00  0.00000000E+00
  0.00000000E+00  0.00000000E+00  0.00000000E+00
  0.00000000E+00  0.00000000E+00  0.00000000E+00
  0.00000000E+00  0.00000000E+00  0.00000000E+00
  0.00000000E+00  0.00000000E+00  0.00000000E+00
  0.00000000E+00  0.00000000E+00  0.00000000E+00
  0.00000000E+00  0.00000000E+00  0.00000000E+00
  0.00000000E+00  0.00000000E+00  0.00000000E+00
  0.00000000E+00  0.00000000E+00  0.00000000E+00
  0.00000000E+00  0.00000000E+00  0.00000000E+00
  0.00000000E+00  0.00000000E+00  0.00000000E+00
  0.00000000E+00  0.00000000E+00  0.00000000E+00
  0.00000000E+00  0.00000000E+00  0.00000000E+00
  0.00000000E+00  0.00000000E+00  0.00000000E+00
  0.00000000E+00  0.00000000E+00  0.00000000E+00
  0.00000000E+00  0.00000000E+00  0.00000000E+00
  0.00000000E+00  0.00000000E+00  0.00000000E+00
  0.00000000E+00  0.00000000E+00  0.00000000E+00
  0.00000000E+00  0.00000000E+00  0.00000000E+00
  0.00000000E+00  0.00000000E+00  0.00000000E+00
  0.00000000E+00  0.00000000E+00  0.00000000E+00
  0.00000000E+00  0.00000000E+00  0.00000000E+00
  0.00000000E+00  0.00000000E+00  0.00000000E+00
  0.00000000E+00  0.00000000E+00  0.00000000E+00
  0.00000000E+00  0.00000000E+00  0.00000000E+00
  0.00000000E+00  0.00000000E+00  0.00000000E+00
  0.00000000E+00  0.00000000E+00  0.00000000E+00
  0.00000000E+00  0.00000000E+00  0.00000000E+00
  0.00000000E+00  0.00000000E+00  0.00000000E+00
  0.00000000E+00  0.00000000E+00  0.00000000E+00
  0.00000000E+00  0.00000000E+00  0.00000000E+00
  0.00000000E+00  0.00000000E+00  0.00000000E+00
  0.00000000E+00  0.00000000E+00  0.00000000E+00
  0.00000000E+00  0.00000000E+00  0.00000000E+00
  0.00000000E+00  0.00000000E+00  0.00000000E+00
