       N       E                     dE             d eps       ncg     rms          ort
DAV:   1     0.453220075943E+02    0.45322E+02   -0.88125E+03   256   0.926E+01
DAV:   2     0.472907981366E-01   -0.45275E+02   -0.45244E+02   256   0.780E+00
DAV:   3    -0.637676823608E-01   -0.11106E+00   -0.11096E+00   256   0.473E-01
DAV:   4    -0.643253713433E-01   -0.55769E-03   -0.55768E-03   256   0.327E-02
DAV:   5    -0.643254388815E-01   -0.67538E-07   -0.67628E-07   256   0.298E-04
SDA:   6    -0.194869629291E+00   -0.13054E+00   -0.67628E-07   256   0.251E-01 0.000E+00
CGA:   7    -0.200431255176E+00   -0.55616E-02   -0.55629E-02   256   0.781E-02-0.617E-04
CGA:   8    -0.201647698605E+00   -0.12164E-02   -0.12111E-02   256   0.356E-02-0.173E-03
CGA:   9    -0.202439013575E+00   -0.79131E-03   -0.81165E-03   256   0.438E-02-0.910E-03
CGA:  10    -0.204232545547E+00   -0.17935E-02    0.88091E-03   256   0.214E-02-0.897E-04
CGA:  11    -0.209427629985E+00   -0.51951E-02    0.40393E-04   256   0.194E-02-0.756E-04
CGA:  12    -0.233687816057E+00   -0.24260E-01    0.59950E-05   256   0.446E-02 0.141E-02
CGA:  13    -0.273575929581E+00   -0.39888E-01    0.21039E-04   256   0.628E-02 0.439E-02
CGA:  14    -0.296682874081E+00   -0.23107E-01    0.77034E-04   256   0.425E-02 0.479E-02
CGA:  15    -0.299212483161E+00   -0.25296E-02    0.88334E-03   256   0.185E-02 0.247E-02
CGA:  16    -0.300147662762E+00   -0.93518E-03   -0.10052E-02   256   0.189E-02-0.149E-03
CGA:  17    -0.300457108486E+00   -0.30945E-03   -0.30947E-03   256   0.292E-03 0.456E-06
CGA:  18    -0.300592360030E+00   -0.13525E-03   -0.13481E-03   256   0.217E-03 0.186E-05
CGA:  19    -0.300635742735E+00   -0.43383E-04   -0.43410E-04   256   0.266E-04 0.916E-06
CGA:  20    -0.300644024826E+00   -0.82821E-05   -0.82688E-05   256   0.101E-04 0.159E-06
   1 F= -.30064402E+00 E0= -.28653929E+00  d E =-.282095E-01  mag=     1.0000
