 vasp.5.4.4.18Apr17-6-g9f103f2a35 (build Nov 21 2023 15:34:30) complex          
  
 executed on             LinuxIFC date 2026.09.21  18:07:31
 running on  256 total cores
 distrk:  each k-point on  256 cores,    1 groups
 distr:  one band on NCORES_PER_BAND=   1 cores,  256 groups


--------------------------------------------------------------------------------------------------------


 INCAR:
 POTCAR:    PAW_PBE Lu 23Dec2003                  

 ----------------------------------------------------------------------------- 
|                                                                             |
|           W    W    AA    RRRRR   N    N  II  N    N   GGGG   !!!           |
|           W    W   A  A   R    R  NN   N  II  NN   N  G    G  !!!           |
|           W    W  A    A  R    R  N N  N  II  N N  N  G       !!!           |
|           W WW W  AAAAAA  RRRRR   N  N N  II  N  N N  G  GGG   !            |
|           WW  WW  A    A  R   R   N   NN  II  N   NN  G    G                |
|           W    W  A    A  R    R  N    N  II  N    N   GGGG   !!!           |
|                                                                             |
|      For optimal performance we recommend to set                            |
|        NCORE= 4 - approx SQRT( number of cores)                             |
|      NCORE specifies how many cores store one orbital (NPAR=cpu/NCORE).     |
|      This setting can  greatly improve the performance of VASP for DFT.     |
|      The default,   NCORE=1            might be grossly inefficient         |
|      on modern multi-core architectures or massively parallel machines.     |
|      Do your own testing !!!!                                               |
|      Unfortunately you need to use the default for GW and RPA calculations. |
|      (for HF NCORE is supported but not extensively tested yet)             |
|                                                                             |
 ----------------------------------------------------------------------------- 

 POTCAR:    PAW_PBE Lu 23Dec2003                  
   VRHFIN =Lu : [core=Xe4]                                                      
   LEXCH  = PE                                                                  
   EATOM  =  7549.2566 eV,  554.8547 Ry                                         
                                                                                
   TITEL  = PAW_PBE Lu 23Dec2003                                                
   LULTRA =        F    use ultrasoft PP ?                                      
   IUNSCR =        1    unscreen: 0-lin 1-nonlin 2-no                           
   RPACOR =    2.300    partial core radius                                     
   POMASS =  174.967; ZVAL   =   25.000    mass and valenz                      
   RCORE  =    2.800    outmost cutoff radius                                   
   RWIGS  =    3.000; RWIGS  =    1.588    wigner-seitz radius (au A)           
   ENMAX  =  255.695; ENMIN  =  191.771 eV                                      
   RCLOC  =    2.306    cutoff for local pot                                    
   LCOR   =        T    correct aug charges                                     
   LPAW   =        T    paw PP                                                  
   EAUG   =  568.657                                                            
   DEXC   =     .000                                                            
   RMAX   =    2.883    core radius for proj-oper                               
   RAUG   =    1.300    factor for augmentation sphere                          
   RDEP   =    2.839    radius for radial grids                                 
   QCUT   =   -4.335; QGAM   =    8.670    optimization parameters              
                                                                                
   Description                                                                  
     l     E      TYP  RCUT    TYP  RCUT                                        
     3   .000     23  2.800                                                     
     3  -.750     23  2.800                                                     
     0   .000     23  2.400                                                     
     0   .000     23  2.400                                                     
     0   .000     23  2.400                                                     
     0   .000     23  2.400                                                     
     1   .000     23  2.400                                                     
     1  1.000     23  2.400                                                     
     2   .000     23  2.600                                                     
     2  1.000     23  2.600                                                     
  local pseudopotential read in
  partial core-charges read in
  atomic valenz-charges read in
  non local Contribution for L=           3  read in
    real space projection operators read in
  non local Contribution for L=           3  read in
    real space projection operators read in
  non local Contribution for L=           0  read in
    real space projection operators read in
  non local Contribution for L=           0  read in
    real space projection operators read in
  non local Contribution for L=           1  read in
    real space projection operators read in
  non local Contribution for L=           1  read in
    real space projection operators read in
  non local Contribution for L=           2  read in
    real space projection operators read in
  non local Contribution for L=           2  read in
    real space projection operators read in
    PAW grid and wavefunctions read in
 
   number of l-projection  operators is LMAX  =           8
   number of lm-projection operators is LMMAX =          32
 
  PAW_PBE Lu 23Dec2003                  :
 energy of atom  1       EATOM=-7549.2566
 kinetic energy error for atom=    0.0023 (will be added to EATOM!!)
 
 
 POSCAR: Lu                                      
  positions in direct lattice
  No initial velocities read in
 exchange correlation table for  LEXCH =        8
   RHO(1)=    0.500       N(1)  =     2000
   RHO(2)=  100.500       N(2)  =     4000

 VTST: version 3.2, (02/03/18)

 CHAIN: initializing optimizer
 
 OPT: Using VASP Dynamics algorithm
 CHAIN: Read ICHAIN            0
 
 POSCAR: Lu                                      
  positions in direct lattice
  No initial velocities read in
 


--------------------------------------------------------------------------------------------------------


 ion  position               nearest neighbor table
   1  0.010  0.010  0.751-
 

IMPORTANT INFORMATION: All symmetrisations will be switched off!
NOSYMM: (Re-)initialisation of all symmetry stuff for point group C_1.

 
 

Automatic generation of k-mesh.
 generate k-points for:    1    1    1
Space group operators:
 irot       det(A)        alpha          n_x          n_y          n_z        tau_x        tau_y        tau_z
    1     1.000000     0.000000     1.000000     0.000000     0.000000     0.000000     0.000000     0.000000
 
 Subroutine IBZKPT returns following result:
 ===========================================
 
 Found      1 irreducible k-points:
 
 Following reciprocal coordinates:
            Coordinates               Weight
  0.000000  0.000000  0.000000      1.000000
 
 Following cartesian coordinates:
            Coordinates               Weight
  0.000000  0.000000  0.000000      1.000000
 


--------------------------------------------------------------------------------------------------------




 Dimension of arrays:
   k-points           NKPTS =      1   k-points in BZ     NKDIM =      1   number of bands    NBANDS=    256
   number of dos      NEDOS =    301   number of ions     NIONS =      1
   non local maximal  LDIM  =      8   non local SUM 2l+1 LMDIM =     32
   total plane-waves  NPLWV = ******
   max r-space proj   IRMAX =      1   max aug-charges    IRDMAX=  22810
   dimension x,y,z NGX =   112 NGY =  112 NGZ =  112
   dimension x,y,z NGXF=   224 NGYF=  224 NGZF=  224
   support grid    NGXF=   224 NGYF=  224 NGZF=  224
   ions per type =               1
   NGX,Y,Z   is equivalent  to a cutoff of  12.41, 12.41, 12.41 a.u.
   NGXF,Y,Z  is equivalent  to a cutoff of  24.83, 24.83, 24.83 a.u.

 SYSTEM =  Lu                                      
 POSCAR =  Lu                                      

 Startparameter for this run:
   NWRITE =      2    write-flag & timer
   PREC   = accura    normal or accurate (medium, high low for compatibility)
   ISTART =      0    job   : 0-new  1-cont  2-samecut
   ICHARG =      2    charge: 1-file 2-atom 10-const
   ISPIN  =      2    spin polarized calculation?
   LNONCOLLINEAR =      F non collinear calculations
   LSORBIT =      F    spin-orbit coupling
   INIWAV =      1    electr: 0-lowe 1-rand  2-diag
   LASPH  =      T    aspherical Exc in radial PAW
   METAGGA=      F    non-selfconsistent MetaGGA calc.

 Electronic Relaxation 1
   ENCUT  =  520.0 eV  38.22 Ry    6.18 a.u.  27.89 27.89 27.89*2*pi/ulx,y,z
   ENINI  =  520.0     initial cutoff
   ENAUG  =  568.7 eV  augmentation charge cutoff
   NELM   =    200;   NELMIN=  2; NELMDL= -5     # of ELM steps 
   EDIFF  = 0.1E-04   stopping-criterion for ELM
   LREAL  =      F    real-space projection
   NLSPLINE    = F    spline interpolate recip. space projectors
   LCOMPAT=      F    compatible to vasp.4.4
   GGA_COMPAT  = T    GGA compatible to vasp.4.4-vasp.4.6
   LMAXPAW     = -100 max onsite density
   LMAXMIX     =    2 max onsite mixed and CHGCAR
   VOSKOWN=      0    Vosko Wilk Nusair interpolation
   ROPT   =    0.00000
 Ionic relaxation
   EDIFFG = 0.1E-03   stopping-criterion for IOM
   NSW    =      0    number of steps for IOM
   NBLOCK =      1;   KBLOCK =      1    inner block; outer block 
   IBRION =     -1    ionic relax: 0-MD 1-quasi-New 2-CG
   NFREE  =      0    steps in history (QN), initial steepest desc. (CG)
   ISIF   =      0    stress and relaxation
   IWAVPR =     10    prediction:  0-non 1-charg 2-wave 3-comb
   ISYM   =      0    0-nonsym 1-usesym 2-fastsym
   LCORR  =      T    Harris-Foulkes like correction to forces

   POTIM  = 0.5000    time-step for ionic-motion
   TEIN   =    0.0    initial temperature
   TEBEG  =    0.0;   TEEND  =   0.0 temperature during run
   SMASS  =  -3.00    Nose mass-parameter (am)
   estimated Nose-frequenzy (Omega)   =  0.10E-29 period in steps =****** mass=  -0.514E-26a.u.
   SCALEE = 1.0000    scale energy and forces
   NPACO  =    256;   APACO  = 16.0  distance and # of slots for P.C.
   PSTRESS=    0.0 pullay stress

  Mass of Ions in am
   POMASS = 174.97
  Ionic Valenz
   ZVAL   =  25.00
  Atomic Wigner-Seitz radii
   RWIGS  =  -1.00
  virtual crystal weights 
   VCA    =   1.00
   NELECT =      25.0000    total number of electrons
   NUPDOWN=       1.0000    fix difference up-down

 DOS related values:
   EMIN   =  10.00;   EMAX   =-10.00  energy-range for DOS
   EFERMI =   0.00
   ISMEAR =     0;   SIGMA  =   0.05  broadening in eV -4-tet -1-fermi 0-gaus

 Electronic relaxation 2 (details)
   IALGO  =     58    algorithm
   LDIAG  =      T    sub-space diagonalisation (order eigenvalues)
   LSUBROT=      F    optimize rotation matrix (better conditioning)
   TURBO    =      0    0=normal 1=particle mesh
   IRESTART =      0    0=no restart 2=restart with 2 vectors
   NREBOOT  =      0    no. of reboots
   NMIN     =      0    reboot dimension
   EREF     =   0.00    reference energy to select bands
   IMIX   =      4    mixing-type and parameters
     AMIX     =   0.40;   BMIX     =  1.00
     AMIX_MAG =   1.60;   BMIX_MAG =  1.00
     AMIN     =   0.10
     WC   =   100.;   INIMIX=   1;  MIXPRE=   1;  MAXMIX= -45

 Intra band minimization:
   WEIMIN = 0.0000     energy-eigenvalue tresh-hold
   EBREAK =  0.98E-08  absolut break condition
   DEPER  =   0.30     relativ break condition  

   TIME   =   0.40     timestep for ELM

  volume/ion in A,a.u.               =    3375.00     22775.62
  Fermi-wavevector in a.u.,A,eV,Ry     =   0.319127  0.603063  1.385645  0.101842
  Thomas-Fermi vector in A             =   1.204580
 
 Write flags
   LWAVE        =      F    write WAVECAR
   LDOWNSAMPLE  =      F    k-point downsampling of WAVECAR
   LCHARG       =      F    write CHGCAR
   LVTOT        =      F    write LOCPOT, total local potential
   LVHAR        =      F    write LOCPOT, Hartree potential only
   LELF         =      F    write electronic localiz. function (ELF)
   LORBIT       =      0    0 simple, 1 ext, 2 COOP (PROOUT), +10 PAW based schemes


 Dipole corrections
   LMONO  =      F    monopole corrections only (constant potential shift)
   LDIPOL =      F    correct potential (dipole corrections)
   IDIPOL =      0    1-x, 2-y, 3-z, 4-all directions 
   EPSILON=  1.0000000 bulk dielectric constant

 Exchange correlation treatment:
   GGA     =    --    GGA type
   LEXCH   =     8    internal setting for exchange type
   VOSKOWN=      0    Vosko Wilk Nusair interpolation
   LHFCALC =     F    Hartree Fock is set to
   LHFONE  =     F    Hartree Fock one center treatment
   AEXX    =    0.0000 exact exchange contribution

 Linear response parameters
   LEPSILON=     F    determine dielectric tensor
   LRPA    =     F    only Hartree local field effects (RPA)
   LNABLA  =     F    use nabla operator in PAW spheres
   LVEL    =     F    velocity operator in full k-point grid
   LINTERFAST=   F  fast interpolation
   KINTER  =     0    interpolate to denser k-point grid
   CSHIFT  =0.1000    complex shift for real part using Kramers Kronig
   OMEGAMAX=  -1.0    maximum frequency
   DEG_THRESHOLD= 0.2000000E-02 threshold for treating states as degnerate
   RTIME   =   -0.100 relaxation time in fs
  (WPLASMAI=    0.000 imaginary part of plasma frequency in eV, 0.658/RTIME)
   DFIELD  = 0.0000000 0.0000000 0.0000000 field for delta impulse in time
 
 Orbital magnetization related:
   ORBITALMAG=     F  switch on orbital magnetization
   LCHIMAG   =     F  perturbation theory with respect to B field
   DQ        =  0.001000  dq finite difference perturbation B field
   LLRAUG    =     F  two centre corrections for induced B field



--------------------------------------------------------------------------------------------------------


 Static calculation
 charge density and potential will be updated during run
 spin polarized calculation
 Conjugate gradient for all bands (Freysoldt, et al. PRB 79, 241103 (2009))
 preconditioned conjugated gradient                                        
 perform sub-space diagonalisation
    before iterative eigenvector-optimisation
 modified Broyden-mixing scheme, WC =      100.0
 initial mixing is a Kerker type mixing with AMIX =  0.4000 and BMIX =      1.0000
 Hartree-type preconditioning will be used
 using additional bands          243
 reciprocal scheme for non local part
 use partial core corrections
 no Harris-corrections to forces 
 use gradient corrections 
 use of overlap-Matrix (Vanderbilt PP)
 Gauss-broadening in eV      SIGMA  =   0.05


--------------------------------------------------------------------------------------------------------


  energy-cutoff  :      520.00
  volume of cell :     3375.00
      direct lattice vectors                 reciprocal lattice vectors
    15.000000000  0.000000000  0.000000000     0.066666667  0.000000000  0.000000000
     0.000000000 15.000000000  0.000000000     0.000000000  0.066666667  0.000000000
     0.000000000  0.000000000 15.000000000     0.000000000  0.000000000  0.066666667

  length of vectors
    15.000000000 15.000000000 15.000000000     0.066666667  0.066666667  0.066666667


 
 k-points in units of 2pi/SCALE and weight: read from INCAR                         
   0.00000000  0.00000000  0.00000000       1.000
 
 k-points in reciprocal lattice and weights: read from INCAR                         
   0.00000000  0.00000000  0.00000000       1.000
 
 position of ions in fractional coordinates (direct lattice) 
   0.01000000  0.01000000  0.75100000
 
 position of ions in cartesian coordinates  (Angst):
   0.15000000  0.15000000 11.26500000
 


--------------------------------------------------------------------------------------------------------


 k-point  1 :   0.0000 0.0000 0.0000  plane waves:   90879

 maximum and minimum number of plane-waves per node :     90879    90879

 maximum number of plane-waves:     90879
 maximum index in each direction: 
   IXMAX=   27   IYMAX=   27   IZMAX=   27
   IXMIN=  -27   IYMIN=  -27   IZMIN=  -27


 serial   3D FFT for wavefunctions
 parallel 3D FFT for charge:
    minimum data exchange during FFTs selected (reduces bandwidth)


 total amount of memory used by VASP MPI-rank0   187477. kBytes
=======================================================================

   base      :      30000. kBytes
   nonl-proj :      24719. kBytes
   fftplans  :       7479. kBytes
   grid      :     116433. kBytes
   one-center:         98. kBytes
   wavefun   :       8748. kBytes
 
     INWAV:  cpu time    0.0000: real time    0.0000
 Broyden mixing: mesh for mixing (old mesh)
   NGX = 55   NGY = 55   NGZ = 55
  (NGX  =224   NGY  =224   NGZ  =224)
  gives a total of 166375 points

 initial charge density was supplied:
 charge density of overlapping atoms calculated
 number of electron      25.0000000 magnetization       1.0000000
 keeping initial charge density in first step


--------------------------------------------------------------------------------------------------------


 Maximum index for augmentation-charges          929 (set IRDMAX)


--------------------------------------------------------------------------------------------------------


 First call to EWALD:  gamma=   0.118
 Maximum number of real-space cells 3x 3x 3
 Maximum number of reciprocal cells 3x 3x 3

    FEWALD:  cpu time    0.0157: real time    0.0158


--------------------------------------- Iteration      1(   1)  ---------------------------------------


    POTLOK:  cpu time    2.5576: real time    2.5812
    SETDIJ:  cpu time    0.8554: real time    0.8657
    TRIAL :  cpu time    8.8583: real time    8.8930
    CORREC:  cpu time    0.1072: real time    0.1072
    --------------------------------------------
      LOOP:  cpu time   12.3875: real time   12.4625

 eigenvalue-minimisations  :  1024
 total energy-change (2. order) : 0.4532201E+02  (-0.8812470E+03)
 number of electron      25.0000000 magnetization       1.0000000
 augmentation part       25.0000000 magnetization       1.0000000

 Free energy of the ion-electron system (eV)
  ---------------------------------------------------
  alpha Z        PSCENC =         2.75854378
  Ewald energy   TEWEN  =      -851.17666689
  -Hartree energ DENC   =     -5134.43374353
  -exchange      EXHF   =         0.00000000
  -V(xc)+E(xc)   XCENC  =       163.23600484
  PAW double counting   =      5688.99489341    -6962.44552018
  entropy T*S    EENTRO =        -0.01561291
  eigenvalues    EBANDS =      -410.85017836
  atomic energy  EATOM  =      7549.25428744
  ---------------------------------------------------
  free energy    TOTEN  =        45.32200759 eV

  energy without entropy =       45.33762050  energy(sigma->0) =       45.32981405


--------------------------------------------------------------------------------------------------------




--------------------------------------- Iteration      1(   2)  ---------------------------------------


    TRIAL :  cpu time   31.7665: real time   37.9598
    CORREC:  cpu time    0.2265: real time    0.3110
    --------------------------------------------
      LOOP:  cpu time   32.0156: real time   38.3615

 eigenvalue-minimisations  :  1536
 total energy-change (2. order) :-0.4527472E+02  (-0.4524364E+02)
 number of electron      25.0000000 magnetization       1.0000000
 augmentation part       25.0000000 magnetization       1.0000000

 Free energy of the ion-electron system (eV)
  ---------------------------------------------------
  alpha Z        PSCENC =         2.75854378
  Ewald energy   TEWEN  =      -851.17666689
  -Hartree energ DENC   =     -5134.43374353
  -exchange      EXHF   =         0.00000000
  -V(xc)+E(xc)   XCENC  =       163.23600484
  PAW double counting   =      5688.99489341    -6962.44552018
  entropy T*S    EENTRO =        -0.04937486
  eigenvalues    EBANDS =      -456.09113321
  atomic energy  EATOM  =      7549.25428744
  ---------------------------------------------------
  free energy    TOTEN  =         0.04729080 eV

  energy without entropy =        0.09666566  energy(sigma->0) =        0.07197823


--------------------------------------------------------------------------------------------------------




--------------------------------------- Iteration      1(   3)  ---------------------------------------


    TRIAL :  cpu time   10.4073: real time   10.8108
    CORREC:  cpu time    0.0973: real time    0.0973
    --------------------------------------------
      LOOP:  cpu time   10.5611: real time   10.9646

 eigenvalue-minimisations  :  1024
 total energy-change (2. order) :-0.1110585E+00  (-0.1109575E+00)
 number of electron      25.0000000 magnetization       1.0000000
 augmentation part       25.0000000 magnetization       1.0000000

 Free energy of the ion-electron system (eV)
  ---------------------------------------------------
  alpha Z        PSCENC =         2.75854378
  Ewald energy   TEWEN  =      -851.17666689
  -Hartree energ DENC   =     -5134.43374353
  -exchange      EXHF   =         0.00000000
  -V(xc)+E(xc)   XCENC  =       163.23600484
  PAW double counting   =      5688.99489341    -6962.44552018
  entropy T*S    EENTRO =        -0.04949006
  eigenvalues    EBANDS =      -456.20207649
  atomic energy  EATOM  =      7549.25428744
  ---------------------------------------------------
  free energy    TOTEN  =        -0.06376768 eV

  energy without entropy =       -0.01427762  energy(sigma->0) =       -0.03902265


--------------------------------------------------------------------------------------------------------




--------------------------------------- Iteration      1(   4)  ---------------------------------------


    TRIAL :  cpu time   22.6942: real time   22.6977
    CORREC:  cpu time    0.0974: real time    0.0974
    --------------------------------------------
      LOOP:  cpu time   22.7995: real time   22.8035

 eigenvalue-minimisations  :  2048
 total energy-change (2. order) :-0.5576890E-03  (-0.5576842E-03)
 number of electron      25.0000000 magnetization       1.0000000
 augmentation part       25.0000000 magnetization       1.0000000

 Free energy of the ion-electron system (eV)
  ---------------------------------------------------
  alpha Z        PSCENC =         2.75854378
  Ewald energy   TEWEN  =      -851.17666689
  -Hartree energ DENC   =     -5134.43374353
  -exchange      EXHF   =         0.00000000
  -V(xc)+E(xc)   XCENC  =       163.23600484
  PAW double counting   =      5688.99489341    -6962.44552018
  entropy T*S    EENTRO =        -0.04949003
  eigenvalues    EBANDS =      -456.20263421
  atomic energy  EATOM  =      7549.25428744
  ---------------------------------------------------
  free energy    TOTEN  =        -0.06432537 eV

  energy without entropy =       -0.01483534  energy(sigma->0) =       -0.03958036


--------------------------------------------------------------------------------------------------------




--------------------------------------- Iteration      1(   5)  ---------------------------------------


    TRIAL :  cpu time    8.7386: real time    8.7444
    CORREC:  cpu time    0.0976: real time    0.0976
    CHARGE:  cpu time    1.3726: real time    1.3946
    --------------------------------------------
      LOOP:  cpu time   10.2167: real time   10.2452

 eigenvalue-minimisations  :  1024
 total energy-change (2. order) :-0.6753817E-07  (-0.6762761E-07)
 number of electron      25.0000003 magnetization       1.0000000
 augmentation part       14.8297710 magnetization       0.0763339

 Free energy of the ion-electron system (eV)
  ---------------------------------------------------
  alpha Z        PSCENC =         2.75854378
  Ewald energy   TEWEN  =      -851.17666689
  -Hartree energ DENC   =     -5134.43374353
  -exchange      EXHF   =         0.00000000
  -V(xc)+E(xc)   XCENC  =       163.23600484
  PAW double counting   =      5688.99489341    -6962.44552018
  entropy T*S    EENTRO =        -0.04949003
  eigenvalues    EBANDS =      -456.20263427
  atomic energy  EATOM  =      7549.25428744
  ---------------------------------------------------
  free energy    TOTEN  =        -0.06432544 eV

  energy without entropy =       -0.01483541  energy(sigma->0) =       -0.03958042


--------------------------------------------------------------------------------------------------------




--------------------------------------- Iteration      1(   6)  ---------------------------------------


    POTLOK:  cpu time    2.5005: real time    2.5244
    SETDIJ:  cpu time    0.8659: real time    0.8667
    TRIAL :  cpu time    3.8103: real time    4.1492
    CORREC:  cpu time    6.6862: real time    6.8067
    CHARGE:  cpu time    1.3900: real time    1.3911
    --------------------------------------------
      LOOP:  cpu time   15.2835: real time   15.7687

 eigenvalue-minimisations  :     0
 total energy-change (2. order) :-0.1305442E+00  (-0.5562914E-02)
 number of electron      25.0000003 magnetization       1.0000000
 augmentation part       14.8286565 magnetization       0.0611504

 Free energy of the ion-electron system (eV)
  ---------------------------------------------------
  alpha Z        PSCENC =         2.75854378
  Ewald energy   TEWEN  =      -851.17666689
  -Hartree energ DENC   =     -5137.01611850
  -exchange      EXHF   =         0.00000000
  -V(xc)+E(xc)   XCENC  =       163.28605058
  PAW double counting   =      5691.99260476    -6965.65260180
  entropy T*S    EENTRO =        -0.04948793
  eigenvalues    EBANDS =      -453.59147897
  atomic energy  EATOM  =      7549.25428744
  ---------------------------------------------------
  free energy    TOTEN  =        -0.19486963 eV

  energy without entropy =       -0.14538170  energy(sigma->0) =       -0.17012567


--------------------------------------------------------------------------------------------------------




--------------------------------------- Iteration      1(   7)  ---------------------------------------


    POTLOK:  cpu time    2.5334: real time    2.5357
    SETDIJ:  cpu time    0.8480: real time    0.8482
    TRIAL :  cpu time    3.6006: real time    3.6861
    CORREC:  cpu time    6.5834: real time    6.6653
    CHARGE:  cpu time    1.5017: real time    1.5024
    --------------------------------------------
      LOOP:  cpu time   15.0869: real time   15.2585

 eigenvalue-minimisations  :     0
 total energy-change (2. order) :-0.5561626E-02  (-0.1211121E-02)
 number of electron      25.0000003 magnetization       1.0000000
 augmentation part       14.8296171 magnetization       0.0568358

 Free energy of the ion-electron system (eV)
  ---------------------------------------------------
  alpha Z        PSCENC =         2.75854378
  Ewald energy   TEWEN  =      -851.17666689
  -Hartree energ DENC   =     -5135.72401927
  -exchange      EXHF   =         0.00000000
  -V(xc)+E(xc)   XCENC  =       163.25597831
  PAW double counting   =      5690.59288440    -6963.87880195
  entropy T*S    EENTRO =        -0.04948192
  eigenvalues    EBANDS =      -455.23314913
  atomic energy  EATOM  =      7549.25428744
  ---------------------------------------------------
  free energy    TOTEN  =        -0.20043126 eV

  energy without entropy =       -0.15094933  energy(sigma->0) =       -0.17569029


--------------------------------------------------------------------------------------------------------




--------------------------------------- Iteration      1(   8)  ---------------------------------------


    POTLOK:  cpu time    2.5941: real time    2.5956
    SETDIJ:  cpu time    0.8459: real time    0.8461
    TRIAL :  cpu time    3.6265: real time    3.7067
    CORREC:  cpu time    6.7515: real time    6.9154
    CHARGE:  cpu time    1.3930: real time    1.3932
    --------------------------------------------
      LOOP:  cpu time   15.2297: real time   15.4765

 eigenvalue-minimisations  :     0
 total energy-change (2. order) :-0.1216443E-02  (-0.8116532E-03)
 number of electron      25.0000003 magnetization       1.0000000
 augmentation part       14.8309598 magnetization       0.0570723

 Free energy of the ion-electron system (eV)
  ---------------------------------------------------
  alpha Z        PSCENC =         2.75854378
  Ewald energy   TEWEN  =      -851.17666689
  -Hartree energ DENC   =     -5135.92837598
  -exchange      EXHF   =         0.00000000
  -V(xc)+E(xc)   XCENC  =       163.26343380
  PAW double counting   =      5690.73983359    -6964.22400907
  entropy T*S    EENTRO =        -0.04944486
  eigenvalues    EBANDS =      -454.83921244
  atomic energy  EATOM  =      7549.25428744
  ---------------------------------------------------
  free energy    TOTEN  =        -0.20164770 eV

  energy without entropy =       -0.15220284  energy(sigma->0) =       -0.17692527


--------------------------------------------------------------------------------------------------------




--------------------------------------- Iteration      1(   9)  ---------------------------------------


    POTLOK:  cpu time    2.5408: real time    2.5418
    SETDIJ:  cpu time    0.8470: real time    0.8470
    TRIAL :  cpu time    3.5325: real time    3.6186
    CORREC:  cpu time    5.4422: real time    5.4435
    CHARGE:  cpu time    1.3540: real time    1.3548
    --------------------------------------------
      LOOP:  cpu time   13.7377: real time   13.8273

 eigenvalue-minimisations  :     0
 total energy-change (2. order) :-0.7913150E-03  ( 0.8809062E-03)
 number of electron      25.0000003 magnetization       1.0000000
 augmentation part       14.8314166 magnetization       0.0567349

 Free energy of the ion-electron system (eV)
  ---------------------------------------------------
  alpha Z        PSCENC =         2.75854378
  Ewald energy   TEWEN  =      -851.17666689
  -Hartree energ DENC   =     -5135.97914504
  -exchange      EXHF   =         0.00000000
  -V(xc)+E(xc)   XCENC  =       163.26639580
  PAW double counting   =      5690.85828381    -6964.56752207
  entropy T*S    EENTRO =        -0.04921931
  eigenvalues    EBANDS =      -454.56717097
  atomic energy  EATOM  =      7549.25428744
  ---------------------------------------------------
  free energy    TOTEN  =        -0.20243901 eV

  energy without entropy =       -0.15321971  energy(sigma->0) =       -0.17782936


--------------------------------------------------------------------------------------------------------




--------------------------------------- Iteration      1(  10)  ---------------------------------------


    POTLOK:  cpu time    2.6258: real time    2.6310
    SETDIJ:  cpu time    0.8489: real time    0.8492
    TRIAL :  cpu time    3.6399: real time    3.7187
    CORREC:  cpu time    5.4820: real time    5.4847
    CHARGE:  cpu time    1.3760: real time    1.3772
    --------------------------------------------
      LOOP:  cpu time   13.9934: real time   14.0815

 eigenvalue-minimisations  :     0
 total energy-change (2. order) :-0.1793532E-02  ( 0.4039285E-04)
 number of electron      25.0000003 magnetization       1.0000000
 augmentation part       14.8308808 magnetization       0.0556386

 Free energy of the ion-electron system (eV)
  ---------------------------------------------------
  alpha Z        PSCENC =         2.75854378
  Ewald energy   TEWEN  =      -851.17666689
  -Hartree energ DENC   =     -5135.67519912
  -exchange      EXHF   =         0.00000000
  -V(xc)+E(xc)   XCENC  =       163.25996770
  PAW double counting   =      5690.84038114    -6964.58940030
  entropy T*S    EENTRO =        -0.04827987
  eigenvalues    EBANDS =      -454.82692698
  atomic energy  EATOM  =      7549.25428744
  ---------------------------------------------------
  free energy    TOTEN  =        -0.20423255 eV

  energy without entropy =       -0.15595267  energy(sigma->0) =       -0.18009261


--------------------------------------------------------------------------------------------------------




--------------------------------------- Iteration      1(  11)  ---------------------------------------


    POTLOK:  cpu time    2.5431: real time    2.5436
    SETDIJ:  cpu time    0.8541: real time    0.8542
    TRIAL :  cpu time    3.6080: real time    3.6999
    CORREC:  cpu time    5.4369: real time    5.4379
    CHARGE:  cpu time    1.3597: real time    1.3599
    --------------------------------------------
      LOOP:  cpu time   13.8337: real time   13.9275

 eigenvalue-minimisations  :     0
 total energy-change (2. order) :-0.5195084E-02  ( 0.5995002E-05)
 number of electron      25.0000003 magnetization       1.0000000
 augmentation part       14.8305397 magnetization       0.0548921

 Free energy of the ion-electron system (eV)
  ---------------------------------------------------
  alpha Z        PSCENC =         2.75854378
  Ewald energy   TEWEN  =      -851.17666689
  -Hartree energ DENC   =     -5135.41042492
  -exchange      EXHF   =         0.00000000
  -V(xc)+E(xc)   XCENC  =       163.25477819
  PAW double counting   =      5690.96389170    -6964.54886577
  entropy T*S    EENTRO =        -0.04349610
  eigenvalues    EBANDS =      -455.25669129
  atomic energy  EATOM  =      7549.25428744
  ---------------------------------------------------
  free energy    TOTEN  =        -0.20942763 eV

  energy without entropy =       -0.16593153  energy(sigma->0) =       -0.18767958


--------------------------------------------------------------------------------------------------------




--------------------------------------- Iteration      1(  12)  ---------------------------------------


    POTLOK:  cpu time    2.5502: real time    2.5507
    SETDIJ:  cpu time    0.8393: real time    0.8458
    TRIAL :  cpu time    3.4705: real time    3.5651
    CORREC:  cpu time    5.7282: real time    5.7295
    CHARGE:  cpu time    1.3744: real time    1.3746
    --------------------------------------------
      LOOP:  cpu time   13.9851: real time   14.0884

 eigenvalue-minimisations  :     0
 total energy-change (2. order) :-0.2426019E-01  ( 0.2103901E-04)
 number of electron      25.0000003 magnetization       1.0000000
 augmentation part       14.8309832 magnetization       0.0546623

 Free energy of the ion-electron system (eV)
  ---------------------------------------------------
  alpha Z        PSCENC =         2.75854378
  Ewald energy   TEWEN  =      -851.17666689
  -Hartree energ DENC   =     -5135.39736532
  -exchange      EXHF   =         0.00000000
  -V(xc)+E(xc)   XCENC  =       163.26349742
  PAW double counting   =      5691.46942943    -6964.93793856
  entropy T*S    EENTRO =        -0.03483331
  eigenvalues    EBANDS =      -455.42397901
  atomic energy  EATOM  =      7549.25428744
  ---------------------------------------------------
  free energy    TOTEN  =        -0.23368782 eV

  energy without entropy =       -0.19885450  energy(sigma->0) =       -0.21627116


--------------------------------------------------------------------------------------------------------




--------------------------------------- Iteration      1(  13)  ---------------------------------------


    POTLOK:  cpu time    2.5835: real time    2.5840
    SETDIJ:  cpu time    0.8455: real time    0.8456
    TRIAL :  cpu time    3.5475: real time    3.6320
    CORREC:  cpu time    5.6146: real time    5.6157
    CHARGE:  cpu time    1.3611: real time    1.3613
    --------------------------------------------
      LOOP:  cpu time   13.9749: real time   14.0615

 eigenvalue-minimisations  :     0
 total energy-change (2. order) :-0.3988811E-01  ( 0.7703371E-04)
 number of electron      25.0000003 magnetization       1.0000000
 augmentation part       14.8309537 magnetization       0.0543812

 Free energy of the ion-electron system (eV)
  ---------------------------------------------------
  alpha Z        PSCENC =         2.75854378
  Ewald energy   TEWEN  =      -851.17666689
  -Hartree energ DENC   =     -5135.79033822
  -exchange      EXHF   =         0.00000000
  -V(xc)+E(xc)   XCENC  =       163.28994420
  PAW double counting   =      5691.91527870    -6965.54187986
  entropy T*S    EENTRO =        -0.02873964
  eigenvalues    EBANDS =      -454.94791176
  atomic energy  EATOM  =      7549.25428744
  ---------------------------------------------------
  free energy    TOTEN  =        -0.27357593 eV

  energy without entropy =       -0.24483629  energy(sigma->0) =       -0.25920611


--------------------------------------------------------------------------------------------------------




--------------------------------------- Iteration      1(  14)  ---------------------------------------


    POTLOK:  cpu time    2.5617: real time    2.5622
    SETDIJ:  cpu time    0.8483: real time    0.8484
    TRIAL :  cpu time    3.4793: real time    3.6778
    CORREC:  cpu time    5.5975: real time    5.5989
    CHARGE:  cpu time    1.3933: real time    1.3934
    --------------------------------------------
      LOOP:  cpu time   13.8993: real time   14.1020

 eigenvalue-minimisations  :     0
 total energy-change (2. order) :-0.2310694E-01  ( 0.8833391E-03)
 number of electron      25.0000003 magnetization       1.0000000
 augmentation part       14.8311097 magnetization       0.0544804

 Free energy of the ion-electron system (eV)
  ---------------------------------------------------
  alpha Z        PSCENC =         2.75854378
  Ewald energy   TEWEN  =      -851.17666689
  -Hartree energ DENC   =     -5135.88483856
  -exchange      EXHF   =         0.00000000
  -V(xc)+E(xc)   XCENC  =       163.30231606
  PAW double counting   =      5692.10600426    -6965.71060441
  entropy T*S    EENTRO =        -0.02821718
  eigenvalues    EBANDS =      -454.91698491
  atomic energy  EATOM  =      7549.25428744
  ---------------------------------------------------
  free energy    TOTEN  =        -0.29668287 eV

  energy without entropy =       -0.26846570  energy(sigma->0) =       -0.28257429


--------------------------------------------------------------------------------------------------------




--------------------------------------- Iteration      1(  15)  ---------------------------------------


    POTLOK:  cpu time    2.5599: real time    2.5715
    SETDIJ:  cpu time    0.8447: real time    0.8449
    TRIAL :  cpu time    3.5542: real time    3.6490
    CORREC:  cpu time    6.6839: real time    6.7771
    CHARGE:  cpu time    1.3949: real time    1.3955
    --------------------------------------------
      LOOP:  cpu time   15.0545: real time   15.2555

 eigenvalue-minimisations  :     0
 total energy-change (2. order) :-0.2529609E-02  (-0.1005243E-02)
 number of electron      25.0000003 magnetization       1.0000000
 augmentation part       14.8315688 magnetization       0.0549592

 Free energy of the ion-electron system (eV)
  ---------------------------------------------------
  alpha Z        PSCENC =         2.75854378
  Ewald energy   TEWEN  =      -851.17666689
  -Hartree energ DENC   =     -5135.97726128
  -exchange      EXHF   =         0.00000000
  -V(xc)+E(xc)   XCENC  =       163.30594958
  PAW double counting   =      5692.27814866    -6965.89873296
  entropy T*S    EENTRO =        -0.02820948
  eigenvalues    EBANDS =      -454.81526363
  atomic energy  EATOM  =      7549.25428744
  ---------------------------------------------------
  free energy    TOTEN  =        -0.29921248 eV

  energy without entropy =       -0.27100300  energy(sigma->0) =       -0.28510774


--------------------------------------------------------------------------------------------------------




--------------------------------------- Iteration      1(  16)  ---------------------------------------


    POTLOK:  cpu time    2.4923: real time    2.4940
    SETDIJ:  cpu time    0.8464: real time    0.8469
    TRIAL :  cpu time    3.6918: real time    3.7893
    CORREC:  cpu time    7.0968: real time    7.1972
    CHARGE:  cpu time    1.4917: real time    1.4935
    --------------------------------------------
      LOOP:  cpu time   15.6364: real time   15.8387

 eigenvalue-minimisations  :     0
 total energy-change (2. order) :-0.9351796E-03  (-0.3094697E-03)
 number of electron      25.0000003 magnetization       1.0000000
 augmentation part       14.8319198 magnetization       0.0551164

 Free energy of the ion-electron system (eV)
  ---------------------------------------------------
  alpha Z        PSCENC =         2.75854378
  Ewald energy   TEWEN  =      -851.17666689
  -Hartree energ DENC   =     -5136.03455153
  -exchange      EXHF   =         0.00000000
  -V(xc)+E(xc)   XCENC  =       163.30832777
  PAW double counting   =      5692.48597740    -6966.10748605
  entropy T*S    EENTRO =        -0.02820948
  eigenvalues    EBANDS =      -454.76037010
  atomic energy  EATOM  =      7549.25428744
  ---------------------------------------------------
  free energy    TOTEN  =        -0.30014766 eV

  energy without entropy =       -0.27193818  energy(sigma->0) =       -0.28604292


--------------------------------------------------------------------------------------------------------




--------------------------------------- Iteration      1(  17)  ---------------------------------------


    POTLOK:  cpu time    2.5127: real time    2.5150
    SETDIJ:  cpu time    0.8492: real time    0.8493
    TRIAL :  cpu time    3.5294: real time    3.6252
    CORREC:  cpu time    6.6668: real time    6.7519
    CHARGE:  cpu time    1.3331: real time    1.3340
    --------------------------------------------
      LOOP:  cpu time   14.9159: real time   15.1000

 eigenvalue-minimisations  :     0
 total energy-change (2. order) :-0.3094457E-03  (-0.1348073E-03)
 number of electron      25.0000003 magnetization       1.0000000
 augmentation part       14.8325962 magnetization       0.0557467

 Free energy of the ion-electron system (eV)
  ---------------------------------------------------
  alpha Z        PSCENC =         2.75854378
  Ewald energy   TEWEN  =      -851.17666689
  -Hartree energ DENC   =     -5136.06697881
  -exchange      EXHF   =         0.00000000
  -V(xc)+E(xc)   XCENC  =       163.30942646
  PAW double counting   =      5692.58111802    -6966.22353535
  entropy T*S    EENTRO =        -0.02820948
  eigenvalues    EBANDS =      -454.70844227
  atomic energy  EATOM  =      7549.25428744
  ---------------------------------------------------
  free energy    TOTEN  =        -0.30045711 eV

  energy without entropy =       -0.27224763  energy(sigma->0) =       -0.28635237


--------------------------------------------------------------------------------------------------------




--------------------------------------- Iteration      1(  18)  ---------------------------------------


    POTLOK:  cpu time    2.5401: real time    2.5424
    SETDIJ:  cpu time    0.8464: real time    0.8467
    TRIAL :  cpu time    3.6740: real time    3.7949
    CORREC:  cpu time    6.7764: real time    6.8537
    CHARGE:  cpu time    1.3543: real time    1.3578
    --------------------------------------------
      LOOP:  cpu time   15.2151: real time   15.4193

 eigenvalue-minimisations  :     0
 total energy-change (2. order) :-0.1352515E-03  (-0.4341017E-04)
 number of electron      25.0000003 magnetization       1.0000000
 augmentation part       14.8328851 magnetization       0.0560241

 Free energy of the ion-electron system (eV)
  ---------------------------------------------------
  alpha Z        PSCENC =         2.75854378
  Ewald energy   TEWEN  =      -851.17666689
  -Hartree energ DENC   =     -5136.05554164
  -exchange      EXHF   =         0.00000000
  -V(xc)+E(xc)   XCENC  =       163.30881947
  PAW double counting   =      5692.60335555    -6966.29401372
  entropy T*S    EENTRO =        -0.02820948
  eigenvalues    EBANDS =      -454.67116686
  atomic energy  EATOM  =      7549.25428744
  ---------------------------------------------------
  free energy    TOTEN  =        -0.30059236 eV

  energy without entropy =       -0.27238288  energy(sigma->0) =       -0.28648762


--------------------------------------------------------------------------------------------------------




--------------------------------------- Iteration      1(  19)  ---------------------------------------


    POTLOK:  cpu time    2.5110: real time    2.5141
    SETDIJ:  cpu time    0.8465: real time    0.8469
    TRIAL :  cpu time    3.5378: real time    3.6302
    CORREC:  cpu time    6.5843: real time    6.6945
    CHARGE:  cpu time    1.4097: real time    1.4106
    --------------------------------------------
      LOOP:  cpu time   14.9086: real time   15.1158

 eigenvalue-minimisations  :     0
 total energy-change (2. order) :-0.4338270E-04  (-0.8268825E-05)
 number of electron      25.0000003 magnetization       1.0000000
 augmentation part       14.8329501 magnetization       0.0560741

 Free energy of the ion-electron system (eV)
  ---------------------------------------------------
  alpha Z        PSCENC =         2.75854378
  Ewald energy   TEWEN  =      -851.17666689
  -Hartree energ DENC   =     -5136.03261685
  -exchange      EXHF   =         0.00000000
  -V(xc)+E(xc)   XCENC  =       163.30808857
  PAW double counting   =      5692.59942862    -6966.30112109
  entropy T*S    EENTRO =        -0.02820948
  eigenvalues    EBANDS =      -454.68236984
  atomic energy  EATOM  =      7549.25428744
  ---------------------------------------------------
  free energy    TOTEN  =        -0.30063574 eV

  energy without entropy =       -0.27242627  energy(sigma->0) =       -0.28653100


--------------------------------------------------------------------------------------------------------




--------------------------------------- Iteration      1(  20)  ---------------------------------------


    POTLOK:  cpu time    2.6055: real time    2.6067
    SETDIJ:  cpu time    0.8475: real time    0.8479
    TRIAL :  cpu time    3.5325: real time    3.6181
    CORREC:  cpu time    7.0491: real time    7.1418
    EDDIAG:  cpu time    1.7852: real time    1.8072
    CHARGE:  cpu time    1.3505: real time    1.3507
    --------------------------------------------
      LOOP:  cpu time   17.1922: real time   17.3943

 eigenvalue-minimisations  :     0
 total energy-change (2. order) :-0.8282092E-05  (-0.2713917E-05)
 number of electron      25.0000003 magnetization       1.0000000
 augmentation part       14.8329862 magnetization       0.0561475

 Free energy of the ion-electron system (eV)
  ---------------------------------------------------
  alpha Z        PSCENC =         2.75854378
  Ewald energy   TEWEN  =      -851.17666689
  -Hartree energ DENC   =     -5136.02696356
  -exchange      EXHF   =         0.00000000
  -V(xc)+E(xc)   XCENC  =       163.30798180
  PAW double counting   =      5692.60488308    -6966.30658406
  entropy T*S    EENTRO =        -0.02820948
  eigenvalues    EBANDS =      -454.68791612
  atomic energy  EATOM  =      7549.25428744
  ---------------------------------------------------
  free energy    TOTEN  =        -0.30064402 eV

  energy without entropy =       -0.27243455  energy(sigma->0) =       -0.28653929


--------------------------------------------------------------------------------------------------------


  average scaling for gradient   1.2757


 average (electrostatic) potential at core
  the test charge radii are     1.1629
  (the norm of the test charge is              1.0000)
       1 -42.4380
 
 
 
 E-fermi :  -3.9499     XC(G=0):  -0.4836     alpha+bet : -0.0739


 spin component 1

 k-point     1 :       0.0000    0.0000    0.0000
  band No.  band energies     occupation 
      1     -60.9954      1.00000
      2     -31.6609      1.00000
      3     -31.6608      1.00000
      4     -31.6607      1.00000
      5      -9.5248      1.00000
      6      -9.5248      1.00000
      7      -9.5248      1.00000
      8      -9.5235      1.00000
      9      -9.5231      1.00000
     10      -9.5231      1.00000
     11      -9.5230      1.00000
     12      -4.7261      1.00000
     13      -2.0656      0.50021
     14      -2.0655      0.49979
     15      -1.6775      0.00000
     16      -1.6774      0.00000
     17      -1.6774      0.00000
     18      -1.3543      0.00000
     19      -1.3542      0.00000
     20      -1.3542      0.00000
     21      -0.2479      0.00000
     22       0.3834      0.00000
     23       0.3834      0.00000
     24       0.5762      0.00000
     25       0.6223      0.00000
     26       0.6223      0.00000
     27       0.6223      0.00000
     28       0.9430      0.00000
     29       0.9430      0.00000
     30       0.9430      0.00000
     31       1.1184      0.00000
     32       1.1184      0.00000
     33       1.1184      0.00000
     34       1.1234      0.00000
     35       1.1234      0.00000
     36       1.3801      0.00000
     37       1.3801      0.00000
     38       1.3801      0.00000
     39       1.4302      0.00000
     40       1.6780      0.00000
     41       1.7348      0.00000
     42       1.7348      0.00000
     43       1.7348      0.00000
     44       1.8272      0.00000
     45       1.8272      0.00000
     46       1.8272      0.00000
     47       1.9563      0.00000
     48       2.0905      0.00000
     49       2.0905      0.00000
     50       2.5051      0.00000
     51       2.5051      0.00000
     52       2.5051      0.00000
     53       2.6638      0.00000
     54       2.7206      0.00000
     55       2.7206      0.00000
     56       2.7206      0.00000
     57       2.8672      0.00000
     58       2.8672      0.00000
     59       2.8672      0.00000
     60       2.9118      0.00000
     61       2.9118      0.00000
     62       2.9462      0.00000
     63       2.9463      0.00000
     64       2.9463      0.00000
     65       3.0070      0.00000
     66       3.0070      0.00000
     67       3.0070      0.00000
     68       3.1127      0.00000
     69       3.1127      0.00000
     70       3.1717      0.00000
     71       3.1717      0.00000
     72       3.1717      0.00000
     73       3.2168      0.00000
     74       3.3545      0.00000
     75       3.4695      0.00000
     76       3.4695      0.00000
     77       3.4695      0.00000
     78       3.5410      0.00000
     79       3.5803      0.00000
     80       3.5804      0.00000
     81       3.5804      0.00000
     82       3.7608      0.00000
     83       3.7608      0.00000
     84       3.7609      0.00000
     85       3.7680      0.00000
     86       3.7680      0.00000
     87       3.7680      0.00000
     88       3.7794      0.00000
     89       3.7794      0.00000
     90       3.7794      0.00000
     91       3.7952      0.00000
     92       3.7952      0.00000
     93       3.8050      0.00000
     94       3.8050      0.00000
     95       3.8050      0.00000
     96       3.8119      0.00000
     97       3.8119      0.00000
     98       4.4844      0.00000
     99       4.4845      0.00000
    100       4.4845      0.00000
    101       4.6899      0.00000
    102       4.7272      0.00000
    103       4.7272      0.00000
    104       4.7272      0.00000
    105       4.8705      0.00000
    106       4.8705      0.00000
    107       4.9547      0.00000
    108       4.9547      0.00000
    109       4.9547      0.00000
    110       4.9800      0.00000
    111       4.9801      0.00000
    112       4.9801      0.00000
    113       5.2347      0.00000
    114       5.2521      0.00000
    115       5.3856      0.00000
    116       5.3856      0.00000
    117       5.3856      0.00000
    118       5.4060      0.00000
    119       5.4060      0.00000
    120       5.5170      0.00000
    121       5.5270      0.00000
    122       5.5270      0.00000
    123       5.5270      0.00000
    124       5.7080      0.00000
    125       5.7080      0.00000
    126       5.7080      0.00000
    127       5.7517      0.00000
    128       5.7517      0.00000
    129       5.7517      0.00000
    130       5.7671      0.00000
    131       5.7672      0.00000
    132       5.7706      0.00000
    133       5.7706      0.00000
    134       5.7706      0.00000
    135       5.7877      0.00000
    136       5.7877      0.00000
    137       5.7889      0.00000
    138       5.7889      0.00000
    139       5.7889      0.00000
    140       6.1045      0.00000
    141       6.1045      0.00000
    142       6.1045      0.00000
    143       6.1171      0.00000
    144       6.1171      0.00000
    145       6.1171      0.00000
    146       6.1427      0.00000
    147       6.1427      0.00000
    148       6.1427      0.00000
    149       6.1636      0.00000
    150       6.1636      0.00000
    151       6.1636      0.00000
    152       6.2156      0.00000
    153       6.2588      0.00000
    154       6.2588      0.00000
    155       6.2961      0.00000
    156       6.2961      0.00000
    157       6.2961      0.00000
    158       6.4583      0.00000
    159       6.4583      0.00000
    160       6.4584      0.00000
    161       6.4593      0.00000
    162       6.4664      0.00000
    163       6.4664      0.00000
    164       6.9249      0.00000
    165       6.9492      0.00000
    166       6.9492      0.00000
    167       6.9492      0.00000
    168       6.9902      0.00000
    169       6.9902      0.00000
    170       6.9902      0.00000
    171       7.0154      0.00000
    172       7.0154      0.00000
    173       7.0154      0.00000
    174       7.0183      0.00000
    175       7.0183      0.00000
    176       7.0184      0.00000
    177       7.0240      0.00000
    178       7.0240      0.00000
    179       7.0286      0.00000
    180       7.0286      0.00000
    181       7.0286      0.00000
    182       7.0566      0.00000
    183       7.0961      0.00000
    184       7.0961      0.00000
    185       7.0985      0.00000
    186       7.0986      0.00000
    187       7.0986      0.00000
    188       7.4977      0.00000
    189       7.4978      0.00000
    190       7.4978      0.00000
    191       7.5090      0.00000
    192       7.5900      0.00000
    193       7.6595      0.00000
    194       7.6595      0.00000
    195       7.6595      0.00000
    196       7.7191      0.00000
    197       7.7191      0.00000
    198       7.7191      0.00000
    199       7.9619      0.00000
    200       7.9619      0.00000
    201       7.9620      0.00000
    202       8.0015      0.00000
    203       8.0015      0.00000
    204       8.1115      0.00000
    205       8.1730      0.00000
    206       8.1731      0.00000
    207       8.1731      0.00000
    208       8.2360      0.00000
    209       8.2360      0.00000
    210       8.2360      0.00000
    211       8.3196      0.00000
    212       8.3197      0.00000
    213       8.3197      0.00000
    214       8.3443      0.00000
    215       8.3443      0.00000
    216       8.3443      0.00000
    217       8.3577      0.00000
    218       8.3880      0.00000
    219       8.3880      0.00000
    220       8.5652      0.00000
    221       8.7275      0.00000
    222       8.7275      0.00000
    223       8.7275      0.00000
    224       8.8324      0.00000
    225       8.8324      0.00000
    226       8.8324      0.00000
    227       8.8787      0.00000
    228       8.8787      0.00000
    229       8.8787      0.00000
    230       8.8843      0.00000
    231       8.8843      0.00000
    232       8.8861      0.00000
    233       8.8861      0.00000
    234       8.8861      0.00000
    235       8.9135      0.00000
    236       8.9135      0.00000
    237       8.9135      0.00000
    238       8.9154      0.00000
    239       8.9943      0.00000
    240       8.9943      0.00000
    241       9.0140      0.00000
    242       9.0140      0.00000
    243       9.0142      0.00000
    244       9.1090      0.00000
    245       9.1090      0.00000
    246       9.1090      0.00000
    247       9.1233      0.00000
    248       9.1233      0.00000
    249       9.1233      0.00000
    250       9.1289      0.00000
    251       9.1290      0.00000
    252       9.1329      0.00000
    253       9.1329      0.00000
    254       9.1329      0.00000
    255       9.1387      0.00000
    256       9.1387      0.00000

 spin component 2

 k-point     1 :       0.0000    0.0000    0.0000
  band No.  band energies     occupation 
      1     -60.7682      1.00000
      2     -31.3234      1.00000
      3     -31.3233      1.00000
      4     -31.3231      1.00000
      5      -9.5205      1.00000
      6      -9.4680      1.00000
      7      -9.4680      1.00000
      8      -9.4680      1.00000
      9      -9.4257      1.00000
     10      -9.4256      1.00000
     11      -9.4255      1.00000
     12      -4.3106      1.00000
     13      -1.4623      0.00000
     14      -1.4622      0.00000
     15      -1.4622      0.00000
     16      -1.2574      0.00000
     17      -1.2571      0.00000
     18      -1.0811      0.00000
     19      -1.0811      0.00000
     20      -1.0810      0.00000
     21      -0.1373      0.00000
     22       0.5312      0.00000
     23       0.5312      0.00000
     24       0.6484      0.00000
     25       0.7045      0.00000
     26       0.7045      0.00000
     27       0.7045      0.00000
     28       1.0180      0.00000
     29       1.0180      0.00000
     30       1.0180      0.00000
     31       1.2080      0.00000
     32       1.2080      0.00000
     33       1.2080      0.00000
     34       1.2243      0.00000
     35       1.2243      0.00000
     36       1.4869      0.00000
     37       1.4869      0.00000
     38       1.4869      0.00000
     39       1.5069      0.00000
     40       1.7106      0.00000
     41       1.7942      0.00000
     42       1.7942      0.00000
     43       1.7942      0.00000
     44       1.9578      0.00000
     45       1.9578      0.00000
     46       1.9578      0.00000
     47       2.0828      0.00000
     48       2.2758      0.00000
     49       2.2759      0.00000
     50       2.5984      0.00000
     51       2.5984      0.00000
     52       2.5984      0.00000
     53       2.7272      0.00000
     54       2.8172      0.00000
     55       2.8172      0.00000
     56       2.8172      0.00000
     57       2.9351      0.00000
     58       2.9351      0.00000
     59       2.9351      0.00000
     60       3.0238      0.00000
     61       3.0238      0.00000
     62       3.0420      0.00000
     63       3.0420      0.00000
     64       3.0420      0.00000
     65       3.1156      0.00000
     66       3.1156      0.00000
     67       3.1156      0.00000
     68       3.2057      0.00000
     69       3.2057      0.00000
     70       3.2664      0.00000
     71       3.2664      0.00000
     72       3.2664      0.00000
     73       3.3091      0.00000
     74       3.3745      0.00000
     75       3.5359      0.00000
     76       3.5359      0.00000
     77       3.5359      0.00000
     78       3.6086      0.00000
     79       3.6378      0.00000
     80       3.6379      0.00000
     81       3.6379      0.00000
     82       3.8312      0.00000
     83       3.8312      0.00000
     84       3.8312      0.00000
     85       3.8370      0.00000
     86       3.8370      0.00000
     87       3.8370      0.00000
     88       3.8520      0.00000
     89       3.8520      0.00000
     90       3.8520      0.00000
     91       3.8580      0.00000
     92       3.8580      0.00000
     93       3.8657      0.00000
     94       3.8657      0.00000
     95       3.8657      0.00000
     96       3.8967      0.00000
     97       3.8967      0.00000
     98       4.6113      0.00000
     99       4.6113      0.00000
    100       4.6113      0.00000
    101       4.8065      0.00000
    102       4.8346      0.00000
    103       4.8346      0.00000
    104       4.8346      0.00000
    105       4.9859      0.00000
    106       4.9859      0.00000
    107       5.0424      0.00000
    108       5.0424      0.00000
    109       5.0424      0.00000
    110       5.1530      0.00000
    111       5.1530      0.00000
    112       5.1531      0.00000
    113       5.2749      0.00000
    114       5.3645      0.00000
    115       5.4588      0.00000
    116       5.4588      0.00000
    117       5.4588      0.00000
    118       5.5883      0.00000
    119       5.5883      0.00000
    120       5.5897      0.00000
    121       5.5897      0.00000
    122       5.5897      0.00000
    123       5.5916      0.00000
    124       5.7807      0.00000
    125       5.7807      0.00000
    126       5.7807      0.00000
    127       5.8330      0.00000
    128       5.8330      0.00000
    129       5.8330      0.00000
    130       5.8421      0.00000
    131       5.8421      0.00000
    132       5.8453      0.00000
    133       5.8453      0.00000
    134       5.8453      0.00000
    135       5.8560      0.00000
    136       5.8560      0.00000
    137       5.8560      0.00000
    138       5.8696      0.00000
    139       5.8696      0.00000
    140       6.1961      0.00000
    141       6.1961      0.00000
    142       6.1961      0.00000
    143       6.2303      0.00000
    144       6.2303      0.00000
    145       6.2304      0.00000
    146       6.2466      0.00000
    147       6.2466      0.00000
    148       6.2466      0.00000
    149       6.2633      0.00000
    150       6.2633      0.00000
    151       6.2633      0.00000
    152       6.2908      0.00000
    153       6.3610      0.00000
    154       6.3610      0.00000
    155       6.3822      0.00000
    156       6.3822      0.00000
    157       6.3822      0.00000
    158       6.5590      0.00000
    159       6.5590      0.00000
    160       6.5590      0.00000
    161       6.5626      0.00000
    162       6.5676      0.00000
    163       6.5676      0.00000
    164       6.9546      0.00000
    165       7.0249      0.00000
    166       7.0249      0.00000
    167       7.0249      0.00000
    168       7.0588      0.00000
    169       7.0588      0.00000
    170       7.0588      0.00000
    171       7.0728      0.00000
    172       7.0728      0.00000
    173       7.0728      0.00000
    174       7.0812      0.00000
    175       7.0812      0.00000
    176       7.0846      0.00000
    177       7.0846      0.00000
    178       7.0846      0.00000
    179       7.0985      0.00000
    180       7.0985      0.00000
    181       7.0985      0.00000
    182       7.1276      0.00000
    183       7.1631      0.00000
    184       7.1631      0.00000
    185       7.1631      0.00000
    186       7.1861      0.00000
    187       7.1862      0.00000
    188       7.5699      0.00000
    189       7.6042      0.00000
    190       7.6042      0.00000
    191       7.6042      0.00000
    192       7.6876      0.00000
    193       7.7365      0.00000
    194       7.7365      0.00000
    195       7.7365      0.00000
    196       7.8402      0.00000
    197       7.8402      0.00000
    198       7.8402      0.00000
    199       8.0492      0.00000
    200       8.0492      0.00000
    201       8.0493      0.00000
    202       8.1386      0.00000
    203       8.1387      0.00000
    204       8.2003      0.00000
    205       8.2490      0.00000
    206       8.2490      0.00000
    207       8.2490      0.00000
    208       8.3639      0.00000
    209       8.3639      0.00000
    210       8.3639      0.00000
    211       8.4333      0.00000
    212       8.4333      0.00000
    213       8.4333      0.00000
    214       8.4505      0.00000
    215       8.4505      0.00000
    216       8.4505      0.00000
    217       8.4644      0.00000
    218       8.4977      0.00000
    219       8.4977      0.00000
    220       8.6002      0.00000
    221       8.8133      0.00000
    222       8.8133      0.00000
    223       8.8133      0.00000
    224       8.8969      0.00000
    225       8.8969      0.00000
    226       8.8969      0.00000
    227       8.9508      0.00000
    228       8.9508      0.00000
    229       8.9513      0.00000
    230       8.9513      0.00000
    231       8.9513      0.00000
    232       8.9611      0.00000
    233       8.9611      0.00000
    234       8.9611      0.00000
    235       8.9824      0.00000
    236       8.9824      0.00000
    237       8.9824      0.00000
    238       9.0002      0.00000
    239       9.0826      0.00000
    240       9.0826      0.00000
    241       9.0826      0.00000
    242       9.0862      0.00000
    243       9.0863      0.00000
    244       9.1824      0.00000
    245       9.1824      0.00000
    246       9.1824      0.00000
    247       9.1975      0.00000
    248       9.1975      0.00000
    249       9.1975      0.00000
    250       9.2003      0.00000
    251       9.2003      0.00000
    252       9.2029      0.00000
    253       9.2029      0.00000
    254       9.2029      0.00000
    255       9.2073      0.00000
    256       9.2073      0.00000


--------------------------------------------------------------------------------------------------------


 soft charge-density along one line, spin component           1
         0         1         2         3         4         5         6         7         8         9
 total charge-density along one line
 
 soft charge-density along one line, spin component           2
         0         1         2         3         4         5         6         7         8         9
 total charge-density along one line
 
 pseudopotential strength for first ion, spin component:           1
-10.528   0.000   0.003   0.000  -0.000   0.000   0.000   8.325
  0.000 -10.537   0.000  -0.000   0.000   0.000  -0.000  -0.000
  0.003   0.000 -10.529   0.000   0.000  -0.000   0.000  -0.004
  0.000  -0.000   0.000 -10.525   0.000   0.000  -0.000  -0.000
 -0.000   0.000   0.000   0.000 -10.529   0.000  -0.003   0.000
  0.000   0.000  -0.000   0.000   0.000 -10.531   0.000  -0.000
  0.000  -0.000   0.000  -0.000  -0.003   0.000 -10.528  -0.000
  8.325  -0.000  -0.004  -0.000   0.000  -0.000  -0.000  -6.526
 -0.000   8.339  -0.000   0.000  -0.000  -0.000   0.000   0.000
 -0.004  -0.000   8.327  -0.000  -0.000   0.000  -0.000   0.004
 -0.000   0.000  -0.000   8.322  -0.000  -0.000   0.000   0.000
  0.000  -0.000  -0.000  -0.000   8.327  -0.000   0.004  -0.000
 -0.000  -0.000   0.000  -0.000  -0.000   8.330  -0.000   0.000
 -0.000   0.000  -0.000   0.000   0.004  -0.000   8.325   0.000
 -0.000   0.000  -0.000   0.000  -0.000  -0.000   0.000   0.000
 -0.000   0.000  -0.000   0.000  -0.000  -0.000   0.000   0.000
  0.009   0.000   0.007  -0.000  -0.000  -0.000  -0.000  -0.004
  0.000   0.000   0.000  -0.012   0.000  -0.000  -0.000  -0.000
  0.000   0.000  -0.000  -0.000   0.007   0.000  -0.009  -0.000
  0.008  -0.000   0.006   0.000   0.000   0.000   0.000  -0.005
  0.000  -0.000  -0.000  -0.010  -0.000   0.000  -0.000  -0.000
 -0.000  -0.000   0.000   0.000   0.006  -0.000  -0.008   0.000
 -0.000  -0.000   0.000  -0.000   0.000   0.000   0.000   0.000
 -0.000  -0.000  -0.000   0.000   0.000   0.000  -0.000   0.000
  0.000  -0.000   0.000   0.000   0.000   0.000  -0.000  -0.000
  0.000  -0.000   0.000   0.000  -0.000  -0.000   0.000  -0.000
  0.000   0.000   0.000   0.000  -0.000  -0.000   0.000  -0.000
 -0.000  -0.000   0.000  -0.000   0.000   0.000   0.000   0.000
 -0.000  -0.000  -0.000   0.000   0.000   0.000  -0.000   0.000
  0.000  -0.000   0.000   0.000   0.000   0.000  -0.000  -0.000
  0.000  -0.000   0.000   0.000  -0.000  -0.000   0.000  -0.000
  0.000   0.000   0.000   0.000  -0.000   0.000   0.000  -0.000
 pseudopotential strength for first ion, spin component:           2
-10.461   0.000   0.019   0.000  -0.000   0.000   0.000   8.277
  0.000 -10.533   0.000  -0.000   0.000   0.000  -0.000  -0.000
  0.019   0.000 -10.471   0.000   0.000  -0.000   0.000  -0.016
  0.000  -0.000   0.000 -10.446   0.000   0.000  -0.000  -0.000
 -0.000   0.000   0.000   0.000 -10.471   0.000  -0.019   0.000
  0.000   0.000  -0.000   0.000   0.000 -10.485   0.000  -0.000
  0.000  -0.000   0.000  -0.000  -0.019   0.000 -10.461  -0.000
  8.277  -0.000  -0.016  -0.000   0.000  -0.000  -0.000  -6.490
 -0.000   8.339  -0.000   0.000  -0.000  -0.000   0.000   0.000
 -0.016  -0.000   8.285  -0.000  -0.000   0.000  -0.000   0.014
 -0.000   0.000  -0.000   8.265  -0.000  -0.000   0.000   0.000
  0.000  -0.000  -0.000  -0.000   8.285  -0.000   0.016  -0.000
 -0.000  -0.000   0.000  -0.000  -0.000   8.298  -0.000   0.000
 -0.000   0.000  -0.000   0.000   0.016  -0.000   8.277   0.000
 -0.000   0.000  -0.000   0.000  -0.000  -0.000   0.000   0.000
 -0.000   0.000  -0.000   0.000  -0.000   0.000   0.000   0.000
 -0.035   0.000  -0.027  -0.000  -0.000  -0.000  -0.000   0.030
 -0.000   0.000   0.000   0.044   0.000  -0.000   0.000   0.000
  0.000   0.000  -0.000  -0.000  -0.027   0.000   0.035  -0.000
  0.013  -0.000   0.010   0.000   0.000   0.000   0.000  -0.011
  0.000  -0.000  -0.000  -0.017  -0.000   0.000  -0.000  -0.000
 -0.000  -0.000   0.000   0.000   0.010  -0.000  -0.013   0.000
 -0.000  -0.000   0.000  -0.000   0.000  -0.000   0.000   0.000
 -0.000  -0.000  -0.000   0.000   0.000   0.000  -0.000   0.000
  0.000  -0.000   0.000   0.000   0.000  -0.000  -0.000  -0.000
  0.000  -0.000   0.000   0.000  -0.000  -0.000   0.000  -0.000
  0.000  -0.000   0.000  -0.000  -0.000   0.000   0.000  -0.000
 -0.000  -0.000   0.000  -0.000   0.000  -0.000   0.000   0.000
 -0.000  -0.000  -0.000   0.000   0.000   0.000  -0.000   0.000
  0.000  -0.000   0.000   0.000   0.000  -0.000  -0.000  -0.000
  0.000  -0.000   0.000   0.000  -0.000  -0.000   0.000  -0.000
  0.000  -0.000   0.000  -0.000  -0.000   0.000   0.000  -0.000
 total augmentation occupancy for first ion, spin component:           1
  2.001  -0.000   0.002   0.000  -0.000  -0.000  -0.000   0.001  -0.000   0.001   0.000  -0.000  -0.000  -0.000  -0.000   0.000
 -0.000   1.991  -0.000   0.000  -0.000   0.000   0.000   0.000  -0.005   0.000  -0.000   0.000   0.000  -0.000   0.000  -0.000
  0.002  -0.000   2.000  -0.000  -0.000  -0.000   0.000   0.001  -0.000   0.000  -0.000  -0.000  -0.000   0.000  -0.000   0.000
  0.000   0.000  -0.000   2.003  -0.000  -0.000  -0.000   0.000   0.000  -0.000   0.002  -0.000  -0.000  -0.000   0.000  -0.000
 -0.000  -0.000  -0.000  -0.000   2.000   0.000  -0.002  -0.000  -0.000  -0.000  -0.000   0.000   0.000  -0.001  -0.000   0.000
 -0.000   0.000  -0.000  -0.000   0.000   1.999  -0.000  -0.000   0.000  -0.000  -0.000   0.000  -0.001  -0.000  -0.000   0.000
 -0.000   0.000   0.000  -0.000  -0.002  -0.000   2.001  -0.000   0.000   0.000  -0.000  -0.001  -0.000   0.001   0.000  -0.000
  0.001   0.000   0.001   0.000  -0.000  -0.000  -0.000   0.000  -0.000   0.000   0.000  -0.000   0.000   0.000  -0.000   0.000
 -0.000  -0.005  -0.000   0.000  -0.000   0.000   0.000  -0.000   0.000  -0.000   0.000  -0.000   0.000   0.000   0.000  -0.000
  0.001   0.000   0.000  -0.000  -0.000  -0.000   0.000   0.000  -0.000   0.000   0.000   0.000  -0.000   0.000  -0.000   0.000
  0.000  -0.000  -0.000   0.002  -0.000  -0.000  -0.000   0.000   0.000   0.000   0.000   0.000   0.000  -0.000   0.000  -0.000
 -0.000   0.000  -0.000  -0.000   0.000   0.000  -0.001  -0.000  -0.000   0.000   0.000   0.000   0.000  -0.000  -0.000   0.000
 -0.000   0.000  -0.000  -0.000   0.000  -0.001  -0.000   0.000   0.000  -0.000   0.000   0.000   0.000   0.000  -0.000   0.000
 -0.000  -0.000   0.000  -0.000  -0.001  -0.000   0.001   0.000   0.000   0.000  -0.000  -0.000   0.000   0.000   0.000  -0.000
 -0.000   0.000  -0.000   0.000  -0.000  -0.000   0.000  -0.000   0.000  -0.000   0.000  -0.000  -0.000   0.000   3.086  -1.828
  0.000  -0.000   0.000  -0.000   0.000   0.000  -0.000   0.000  -0.000   0.000  -0.000   0.000   0.000  -0.000  -1.828   3.074
 -0.003  -0.000  -0.002   0.000  -0.000   0.000   0.000  -0.003  -0.000  -0.003   0.000  -0.000   0.000   0.000   0.000  -0.000
 -0.000  -0.000  -0.000   0.004  -0.000   0.000   0.000  -0.000  -0.000  -0.000   0.004  -0.000   0.000   0.000   0.000  -0.000
 -0.000  -0.000  -0.000   0.000  -0.002  -0.000   0.003  -0.000  -0.000  -0.000   0.000  -0.003  -0.000   0.003   0.000  -0.000
 -0.002  -0.000  -0.002  -0.000  -0.000  -0.000  -0.000  -0.000   0.000  -0.000  -0.000  -0.000  -0.000  -0.000   0.000  -0.000
 -0.000  -0.000   0.000   0.003   0.000  -0.000   0.000  -0.000   0.000   0.000   0.000   0.000   0.000   0.000   0.000  -0.000
  0.000  -0.000  -0.000  -0.000  -0.002   0.000   0.002   0.000   0.000  -0.000   0.000  -0.000   0.000   0.000   0.000  -0.000
  0.000   0.000  -0.000   0.000  -0.000   0.000  -0.000   0.000  -0.000   0.000   0.000   0.000  -0.000  -0.000   0.000  -0.000
  0.000   0.000   0.000  -0.000  -0.000  -0.000   0.000   0.000  -0.000   0.000  -0.000  -0.000   0.000   0.000   0.000  -0.000
 -0.000   0.000  -0.000  -0.000  -0.000  -0.000   0.000  -0.000   0.000  -0.000  -0.000  -0.000  -0.000   0.000   0.000  -0.000
 -0.000   0.000  -0.000  -0.000   0.000   0.000  -0.000  -0.000  -0.000  -0.000  -0.000   0.000  -0.000  -0.000   0.000  -0.000
 -0.000  -0.000  -0.000   0.000   0.000  -0.000  -0.000  -0.000  -0.000  -0.000  -0.000   0.000  -0.000  -0.000  -0.000   0.000
  0.000  -0.000  -0.000  -0.000  -0.000   0.000  -0.000   0.000   0.000   0.000  -0.000   0.000   0.000  -0.000   0.000  -0.000
 -0.000  -0.000   0.000  -0.000   0.000  -0.000  -0.000   0.000   0.000   0.000  -0.000   0.000  -0.000  -0.000   0.000  -0.000
  0.000  -0.000  -0.000   0.000  -0.000  -0.000  -0.000  -0.000   0.000  -0.000  -0.000  -0.000  -0.000   0.000   0.000  -0.000
  0.000  -0.000   0.000  -0.000   0.000   0.000   0.000   0.000   0.000   0.000  -0.000   0.000   0.000  -0.000   0.000  -0.000
  0.000  -0.000   0.000  -0.000  -0.000  -0.000   0.000  -0.000  -0.000  -0.000  -0.000   0.000  -0.000  -0.000  -0.000   0.000
 total augmentation occupancy for first ion, spin component:           2
  0.027   0.000   0.006   0.000  -0.000   0.000  -0.000   0.016  -0.000   0.004   0.000  -0.000   0.000  -0.000   0.000  -0.000
  0.000   0.001   0.000  -0.000   0.000   0.000  -0.000   0.000   0.001   0.000  -0.000   0.000   0.000  -0.000  -0.000   0.000
  0.006   0.000   0.024   0.000   0.000  -0.000   0.000   0.004  -0.000   0.014   0.000   0.000  -0.000   0.000   0.000  -0.000
  0.000  -0.000   0.000   0.032   0.000   0.000  -0.000   0.000   0.000   0.000   0.019   0.000   0.000  -0.000  -0.000   0.000
 -0.000   0.000   0.000   0.000   0.024   0.000  -0.006  -0.000  -0.000   0.000   0.000   0.014   0.000  -0.004   0.000  -0.000
  0.000   0.000  -0.000   0.000   0.000   0.019   0.000   0.000   0.000  -0.000   0.000   0.000   0.011   0.000  -0.000   0.000
 -0.000  -0.000   0.000  -0.000  -0.006   0.000   0.027  -0.000   0.000   0.000  -0.000  -0.004   0.000   0.016  -0.000   0.000
  0.016   0.000   0.004   0.000  -0.000   0.000  -0.000   0.000  -0.000   0.000  -0.000   0.000  -0.000  -0.000   0.000  -0.000
 -0.000   0.001  -0.000   0.000  -0.000   0.000   0.000  -0.000  -0.000  -0.000   0.000  -0.000   0.000   0.000  -0.000   0.000
  0.004   0.000   0.014   0.000   0.000  -0.000   0.000   0.000  -0.000   0.000  -0.000   0.000  -0.000  -0.000   0.000  -0.000
  0.000  -0.000   0.000   0.019   0.000   0.000  -0.000  -0.000   0.000  -0.000   0.000  -0.000   0.000   0.000  -0.000   0.000
 -0.000   0.000   0.000   0.000   0.014   0.000  -0.004   0.000  -0.000   0.000  -0.000   0.000   0.000  -0.000   0.000  -0.000
  0.000   0.000  -0.000   0.000   0.000   0.011   0.000  -0.000   0.000  -0.000   0.000   0.000  -0.000  -0.000  -0.000   0.000
 -0.000  -0.000   0.000  -0.000  -0.004   0.000   0.016  -0.000   0.000  -0.000   0.000  -0.000  -0.000   0.000  -0.000   0.000
  0.000  -0.000   0.000  -0.000   0.000  -0.000  -0.000   0.000  -0.000   0.000  -0.000   0.000  -0.000  -0.000   0.009  -0.023
 -0.000   0.000  -0.000   0.000  -0.000   0.000   0.000  -0.000   0.000  -0.000   0.000  -0.000   0.000   0.000  -0.023   0.058
 -0.011   0.000  -0.009  -0.000  -0.000  -0.000  -0.000  -0.013   0.000  -0.010  -0.000  -0.000  -0.000  -0.000   0.000  -0.000
 -0.000   0.000   0.000   0.014   0.000   0.000   0.000  -0.000   0.000   0.000   0.017   0.000   0.000   0.000   0.000  -0.000
  0.000   0.000  -0.000  -0.000  -0.009   0.000   0.011   0.000   0.000  -0.000  -0.000  -0.010   0.000   0.013   0.000  -0.000
 -0.002   0.000  -0.002  -0.000  -0.000  -0.000  -0.000  -0.000  -0.000  -0.000   0.000  -0.000   0.000   0.000  -0.000   0.000
 -0.000   0.000   0.000   0.003   0.000   0.000   0.000  -0.000  -0.000  -0.000   0.000  -0.000   0.000   0.000  -0.000   0.000
  0.000   0.000  -0.000  -0.000  -0.002   0.000   0.002  -0.000  -0.000  -0.000   0.000  -0.000  -0.000   0.000  -0.000   0.000
  0.000   0.000  -0.000   0.000  -0.000  -0.000  -0.000   0.000  -0.000   0.000   0.000   0.000   0.000  -0.000  -0.000   0.000
  0.000   0.000   0.000  -0.000  -0.000  -0.000   0.000   0.000  -0.000   0.000  -0.000  -0.000  -0.000   0.000  -0.000   0.000
 -0.000  -0.000  -0.000  -0.000  -0.000  -0.000   0.000  -0.000   0.000  -0.000  -0.000  -0.000  -0.000   0.000  -0.000   0.000
 -0.000   0.000  -0.000  -0.000   0.000   0.000  -0.000  -0.000  -0.000  -0.000  -0.000   0.000   0.000  -0.000  -0.000   0.000
 -0.000  -0.000  -0.000  -0.000   0.000  -0.000  -0.000  -0.000  -0.000  -0.000  -0.000   0.000  -0.000  -0.000   0.000  -0.000
  0.000  -0.000  -0.000  -0.000  -0.000   0.000  -0.000   0.000   0.000   0.000  -0.000   0.000   0.000  -0.000  -0.000   0.000
 -0.000  -0.000   0.000  -0.000   0.000  -0.000  -0.000   0.000   0.000   0.000  -0.000   0.000  -0.000  -0.000  -0.000   0.000
  0.000   0.000  -0.000   0.000  -0.000  -0.000  -0.000  -0.000   0.000  -0.000  -0.000  -0.000  -0.000   0.000  -0.000   0.000
  0.000  -0.000   0.000  -0.000   0.000   0.000   0.000   0.000   0.000   0.000  -0.000   0.000   0.000  -0.000  -0.000   0.000
 -0.000  -0.000   0.000   0.000  -0.000  -0.000  -0.000  -0.000  -0.000  -0.000  -0.000   0.000  -0.000  -0.000   0.000  -0.000


------------------------ aborting loop because EDIFF is reached ----------------------------------------


    FORLOC:  cpu time    0.0006: real time    0.0047
    FORNL :  cpu time    0.0771: real time    0.0940
    FORCOR:  cpu time    2.8943: real time    2.9017
    OFIELD:  cpu time    0.0011: real time    0.0050

 VOLUME and BASIS-vectors are now :
 -----------------------------------------------------------------------------
  energy-cutoff  :      520.00
  volume of cell :     3375.00
      direct lattice vectors                 reciprocal lattice vectors
    15.000000000  0.000000000  0.000000000     0.066666667  0.000000000  0.000000000
     0.000000000 15.000000000  0.000000000     0.000000000  0.066666667  0.000000000
     0.000000000  0.000000000 15.000000000     0.000000000  0.000000000  0.066666667

  length of vectors
    15.000000000 15.000000000 15.000000000     0.066666667  0.066666667  0.066666667


 FORCES acting on ions:
    Electron-Ion                     Ewald-Force                    Non-Local-Force
 -----------------------------------------------------------------------------------------------
   -.797E-04 -.808E-04 -.716E-04   -.375E-15 -.203E-15 -.647E-17   -.609E-03 -.608E-03 -.610E-03
 -----------------------------------------------------------------------------------------------
   -.798E-04 -.808E-04 -.716E-04   -.375E-15 -.203E-15 -.647E-17   -.609E-03 -.608E-03 -.610E-03
 
 
 POSITION                                       TOTAL-FORCE (eV/Angst)
 -----------------------------------------------------------------------------------
      0.15000      0.15000     11.26500        -0.000688     -0.000689     -0.000682
 -----------------------------------------------------------------------------------
    total drift:                               -0.000688     -0.000689     -0.000682


--------------------------------------------------------------------------------------------------------



  FREE ENERGIE OF THE ION-ELECTRON SYSTEM (eV)
  ---------------------------------------------------
  free  energy   TOTEN  =        -0.30064402 eV

  energy  without entropy=       -0.27243455  energy(sigma->0) =       -0.28653929
 


--------------------------------------------------------------------------------------------------------


    POTLOK:  cpu time    3.4097: real time    3.4265


--------------------------------------------------------------------------------------------------------


 stress matrix after NEB project (eV)
      0.00000      0.00000      0.00000
      0.00000      0.00000      0.00000
      0.00000      0.00000      0.00000
  FORCES: max atom, RMS     0.001189    0.001189
  FORCE total and by dimension    0.001189    0.000689
  Stress total and by dimension    0.000000    0.000000
     LOOP+:  cpu time  316.3583: real time  326.0951
    4ORBIT:  cpu time    0.0000: real time    0.0000

 total amount of memory used by VASP MPI-rank0   187477. kBytes
=======================================================================

   base      :      30000. kBytes
   nonl-proj :      24719. kBytes
   fftplans  :       7479. kBytes
   grid      :     116433. kBytes
   one-center:         98. kBytes
   wavefun   :       8748. kBytes
 
  
  
 General timing and accounting informations for this job:
 ========================================================
  
                  Total CPU time used (sec):      331.026
                            User time (sec):      323.656
                          System time (sec):        7.370
                         Elapsed time (sec):      343.926
  
                   Maximum memory used (kb):      470436.
                   Average memory used (kb):           0.
  
                          Minor page faults:        57397
                          Major page faults:            0
                 Voluntary context switches:         2632
