C  N  Sc                                
   1.00000000000000     
    12.3000000000000007    0.0000000000000000    0.0000000000000000
    -6.1499999999999977   10.6521124665485960    0.0000000000000000
     0.0000000000000000    0.0000000000000000   20.0000000000000000
   C    N    Sc
    44     4     1
Direct
  0.9993050379668915  0.0006949125510118  0.7481610021425666
  0.1316962893705522  0.0651426073299248  0.7485447973603669
  0.1984674939493232  0.9983708548358265  0.7485299063352642
  0.3304424007854365  0.0634103655757414  0.7491225627326230
  0.3984807559792714  0.9976826414882538  0.7481966345305011
  0.5321320608074487  0.0667321378984980  0.7479044516942537
  0.5996992861749462  0.0005965510039161  0.7469706295123615
  0.7323966607813119  0.0687595870151227  0.7473946047449118
  0.7996674849782224  0.0015700930998364  0.7476214317313534
  0.9326606773864299  0.0673392882334056  0.7478500822319489
  0.9984298694825426  0.2003324928916257  0.7476214427770955
  0.1309922628412750  0.2651333749288298  0.7482033437833735
  0.1967306201731276  0.1971041205005477  0.7491280295070197
  0.3288728289800602  0.2630020942750093  0.7513311007562251
  0.3962933717266779  0.1955527155508747  0.7513490316090881
  0.5947873947543769  0.2000634065529923  0.7503635396101274
  0.7296063867812705  0.2703935792121044  0.7497949904182093
  0.7973668846558724  0.2026330968145587  0.7480066574293645
  0.9312403925273429  0.2676033345533710  0.7473946051439952
  0.9994034350920558  0.4003007098628331  0.7469706135338328
  0.1339649890776471  0.4663850027106378  0.7469152595189570
  0.2000693308071746  0.3987795120471276  0.7478584574904019
  0.3334182636650240  0.4614709795242149  0.7503315741225265
  0.7999365608593862  0.4052125645780080  0.7503635318971220
  0.9332678367034504  0.4678679201177900  0.7479044238211614
  0.0023173376873089  0.6015192203519533  0.7481965866850047
  0.1348907614894443  0.6663098613269369  0.7475076544735018
  0.2020946236168442  0.5990615692904981  0.7472902022720476
  0.3359546725580387  0.6640453276094505  0.7479217580709729
  0.4037043420311264  0.5962956320754245  0.7497560391067992
  0.5385289923167775  0.6665816899068417  0.7503315604948071
  0.7369978547633593  0.6711270961709275  0.7513310610770390
  0.8044472322634135  0.6037065553516925  0.7513489965773914
  0.9365895845084466  0.6695575404303824  0.7491225122680163
  0.0016291014601251  0.8015324507340296  0.7485298700892642
  0.1340362829765667  0.8659636696156312  0.7481406647566047
  0.2006803743770931  0.7993196171515393  0.7477778905060930
  0.3336901287848733  0.8651092213546576  0.7475076897056638
  0.4009384407816015  0.7979053773395108  0.7472902232471839
  0.5336150047123169  0.8660349953510931  0.7469152724192369
  0.6012205280313268  0.7999322779004387  0.7478584225201672
  0.7348666032490883  0.8690076888796625  0.7482033216035688
  0.8028958345990560  0.8032693073394981  0.7491279941666136
  0.9348573415575743  0.8683036465280836  0.7485447720103267
  0.5256111714096292  0.2600815021579947  0.7546797072518316
  0.3934274862480081  0.3923191790300962  0.7546752282621014
  0.7399184489266872  0.4743887678753609  0.7546797042986952
  0.6076807718795152  0.6065724415739737  0.7546752062109903
  0.5666675034646431  0.4333324215022643  0.7957569574914487
 
  0.00000000E+00  0.00000000E+00  0.00000000E+00
  0.00000000E+00  0.00000000E+00  0.00000000E+00
  0.00000000E+00  0.00000000E+00  0.00000000E+00
  0.00000000E+00  0.00000000E+00  0.00000000E+00
  0.00000000E+00  0.00000000E+00  0.00000000E+00
  0.00000000E+00  0.00000000E+00  0.00000000E+00
  0.00000000E+00  0.00000000E+00  0.00000000E+00
  0.00000000E+00  0.00000000E+00  0.00000000E+00
  0.00000000E+00  0.00000000E+00  0.00000000E+00
  0.00000000E+00  0.00000000E+00  0.00000000E+00
  0.00000000E+00  0.00000000E+00  0.00000000E+00
  0.00000000E+00  0.00000000E+00  0.00000000E+00
  0.00000000E+00  0.00000000E+00  0.00000000E+00
  0.00000000E+00  0.00000000E+00  0.00000000E+00
  0.00000000E+00  0.00000000E+00  0.00000000E+00
  0.00000000E+00  0.00000000E+00  0.00000000E+00
  0.00000000E+00  0.00000000E+00  0.00000000E+00
  0.00000000E+00  0.00000000E+00  0.00000000E+00
  0.00000000E+00  0.00000000E+00  0.00000000E+00
  0.00000000E+00  0.00000000E+00  0.00000000E+00
  0.00000000E+00  0.00000000E+00  0.00000000E+00
  0.00000000E+00  0.00000000E+00  0.00000000E+00
  0.00000000E+00  0.00000000E+00  0.00000000E+00
  0.00000000E+00  0.00000000E+00  0.00000000E+00
  0.00000000E+00  0.00000000E+00  0.00000000E+00
  0.00000000E+00  0.00000000E+00  0.00000000E+00
  0.00000000E+00  0.00000000E+00  0.00000000E+00
  0.00000000E+00  0.00000000E+00  0.00000000E+00
  0.00000000E+00  0.00000000E+00  0.00000000E+00
  0.00000000E+00  0.00000000E+00  0.00000000E+00
  0.00000000E+00  0.00000000E+00  0.00000000E+00
  0.00000000E+00  0.00000000E+00  0.00000000E+00
  0.00000000E+00  0.00000000E+00  0.00000000E+00
  0.00000000E+00  0.00000000E+00  0.00000000E+00
  0.00000000E+00  0.00000000E+00  0.00000000E+00
  0.00000000E+00  0.00000000E+00  0.00000000E+00
  0.00000000E+00  0.00000000E+00  0.00000000E+00
  0.00000000E+00  0.00000000E+00  0.00000000E+00
  0.00000000E+00  0.00000000E+00  0.00000000E+00
  0.00000000E+00  0.00000000E+00  0.00000000E+00
  0.00000000E+00  0.00000000E+00  0.00000000E+00
  0.00000000E+00  0.00000000E+00  0.00000000E+00
  0.00000000E+00  0.00000000E+00  0.00000000E+00
  0.00000000E+00  0.00000000E+00  0.00000000E+00
  0.00000000E+00  0.00000000E+00  0.00000000E+00
  0.00000000E+00  0.00000000E+00  0.00000000E+00
  0.00000000E+00  0.00000000E+00  0.00000000E+00
  0.00000000E+00  0.00000000E+00  0.00000000E+00
  0.00000000E+00  0.00000000E+00  0.00000000E+00
