       N       E                     dE             d eps       ncg     rms          ort
DAV:   1     0.102700280456E+04    0.10270E+04   -0.88623E+04  3328   0.674E+02
DAV:   2    -0.294231589383E+03   -0.13212E+04   -0.13209E+04  3328   0.991E+01
DAV:   3    -0.441231396895E+03   -0.14700E+03   -0.14680E+03  3328   0.457E+01
DAV:   4    -0.443717639814E+03   -0.24862E+01   -0.24861E+01  3328   0.751E+00
DAV:   5    -0.443718294347E+03   -0.65453E-03   -0.65453E-03  3328   0.140E-01
SDA:   6    -0.443718294347E+03    0.00000E+00   -0.65453E-03  3328   0.106E-04 0.000E+00
   1 F= -.44544206E+03 E0= -.44543996E+03  d E =-.419944E-02  mag=    -0.0000
