C  N  Fe                                
   1.00000000000000     
    12.3000000000000007    0.0000000000000000    0.0000000000000000
    -6.1499999999999977   10.6521124665485960    0.0000000000000000
     0.0000000000000000    0.0000000000000000   20.0000000000000000
   C    N    Fe
    44     4     1
Direct
  0.9991241788638403  0.0008758358450945  0.7499987727050125
  0.1311233993173974  0.0644386508125600  0.7499848143158387
  0.1977659732530538  0.9978011064779210  0.7499848971176852
  0.3301324595749339  0.0626518032896225  0.7499740367204087
  0.3984496657335989  0.9973755480492931  0.7499879894066269
  0.5314481825813928  0.0671329298237408  0.7499898963607734
  0.5991249016864161  0.0007134662328848  0.7499847559640832
  0.7321933319841889  0.0696458069158009  0.7499990180775139
  0.7993892720488859  0.0026170003363861  0.7500002622460284
  0.9321989785969943  0.0678007151485507  0.7500068841336101
  0.9973831951552983  0.2006104138667507  0.7500000524328665
  0.1306536798797051  0.2650879434265458  0.7499853679008055
  0.1959197773367891  0.1967904351846625  0.7499742760585264
  0.3271917921502931  0.2611347480462540  0.7500239852904855
  0.3943994673981978  0.1939232222767497  0.7500214422172276
  0.5932210288298095  0.2019468184829262  0.7500493607978881
  0.7282876020239060  0.2717123824048480  0.7500330898513972
  0.7962598166671432  0.2037403102405201  0.7500037860288736
  0.9303543324291270  0.2678064802924663  0.7499990058620993
  0.9992865392547376  0.4008750399788409  0.7499847466024459
  0.1340897501362061  0.4657548536695056  0.7499833454682469
  0.2004796121800531  0.3980620758576040  0.7499871585203013
  0.3352939109765095  0.4599007048649245  0.7500534989689669
  0.7980531731733234  0.4067789452272250  0.7500495105124104
  0.9328670370038663  0.4685517956702714  0.7499899091419849
  0.0026244358252631  0.6015503146738470  0.7499879431079126
  0.1359060209585798  0.6660185082194519  0.7500014592587468
  0.2029555760491474  0.5988203297195088  0.7499996161545999
  0.3370533110819161  0.6629466925168364  0.7500088529851993
  0.4050429665710557  0.5949570802111583  0.7500401632745922
  0.5400993341905926  0.6647061198343645  0.7500536338730280
  0.7388652542837052  0.6728082452306544  0.7500240502588973
  0.8060767751889140  0.6056005447749220  0.7500215200449216
  0.9373481592902073  0.6698675129238102  0.7499739321516881
  0.0021989095360263  0.8022340500049946  0.7499847858353115
  0.1342317899548937  0.8657681593283088  0.7499993014097495
  0.2011552323573407  0.7988447565981184  0.7500057069516244
  0.3339814584923835  0.8640939431578420  0.7500014794822272
  0.4011796635388379  0.7970444219006072  0.7499996232308241
  0.5342451700686534  0.8659102743006079  0.7499833454597071
  0.6019379788866648  0.7995204021489128  0.7499871675655758
  0.7349120315742282  0.8693464842455573  0.7499853458884205
  0.8032096407904784  0.8040803361655908  0.7499741675818445
  0.9355613648562662  0.8688765992278280  0.7499847114788171
  0.5232458705691633  0.2610510878878828  0.7501460500297998
  0.3944002106079750  0.3899579961345669  0.7501467159846403
  0.7389489172786108  0.4767541508080931  0.7501463659128629
  0.6100420176335529  0.6055998009175669  0.7501470066208454
  0.5666738521798919  0.4333261566470261  0.7503451927559891
 
  0.00000000E+00  0.00000000E+00  0.00000000E+00
  0.00000000E+00  0.00000000E+00  0.00000000E+00
  0.00000000E+00  0.00000000E+00  0.00000000E+00
  0.00000000E+00  0.00000000E+00  0.00000000E+00
  0.00000000E+00  0.00000000E+00  0.00000000E+00
  0.00000000E+00  0.00000000E+00  0.00000000E+00
  0.00000000E+00  0.00000000E+00  0.00000000E+00
  0.00000000E+00  0.00000000E+00  0.00000000E+00
  0.00000000E+00  0.00000000E+00  0.00000000E+00
  0.00000000E+00  0.00000000E+00  0.00000000E+00
  0.00000000E+00  0.00000000E+00  0.00000000E+00
  0.00000000E+00  0.00000000E+00  0.00000000E+00
  0.00000000E+00  0.00000000E+00  0.00000000E+00
  0.00000000E+00  0.00000000E+00  0.00000000E+00
  0.00000000E+00  0.00000000E+00  0.00000000E+00
  0.00000000E+00  0.00000000E+00  0.00000000E+00
  0.00000000E+00  0.00000000E+00  0.00000000E+00
  0.00000000E+00  0.00000000E+00  0.00000000E+00
  0.00000000E+00  0.00000000E+00  0.00000000E+00
  0.00000000E+00  0.00000000E+00  0.00000000E+00
  0.00000000E+00  0.00000000E+00  0.00000000E+00
  0.00000000E+00  0.00000000E+00  0.00000000E+00
  0.00000000E+00  0.00000000E+00  0.00000000E+00
  0.00000000E+00  0.00000000E+00  0.00000000E+00
  0.00000000E+00  0.00000000E+00  0.00000000E+00
  0.00000000E+00  0.00000000E+00  0.00000000E+00
  0.00000000E+00  0.00000000E+00  0.00000000E+00
  0.00000000E+00  0.00000000E+00  0.00000000E+00
  0.00000000E+00  0.00000000E+00  0.00000000E+00
  0.00000000E+00  0.00000000E+00  0.00000000E+00
  0.00000000E+00  0.00000000E+00  0.00000000E+00
  0.00000000E+00  0.00000000E+00  0.00000000E+00
  0.00000000E+00  0.00000000E+00  0.00000000E+00
  0.00000000E+00  0.00000000E+00  0.00000000E+00
  0.00000000E+00  0.00000000E+00  0.00000000E+00
  0.00000000E+00  0.00000000E+00  0.00000000E+00
  0.00000000E+00  0.00000000E+00  0.00000000E+00
  0.00000000E+00  0.00000000E+00  0.00000000E+00
  0.00000000E+00  0.00000000E+00  0.00000000E+00
  0.00000000E+00  0.00000000E+00  0.00000000E+00
  0.00000000E+00  0.00000000E+00  0.00000000E+00
  0.00000000E+00  0.00000000E+00  0.00000000E+00
  0.00000000E+00  0.00000000E+00  0.00000000E+00
  0.00000000E+00  0.00000000E+00  0.00000000E+00
  0.00000000E+00  0.00000000E+00  0.00000000E+00
  0.00000000E+00  0.00000000E+00  0.00000000E+00
  0.00000000E+00  0.00000000E+00  0.00000000E+00
  0.00000000E+00  0.00000000E+00  0.00000000E+00
  0.00000000E+00  0.00000000E+00  0.00000000E+00
