       N       E                     dE             d eps       ncg     rms          rms(c)
DAV:   1    -0.481173405050E+03   -0.48117E+03   -0.20538E+02  8192   0.176E+01    0.344E+01
DAV:   2    -0.481489319542E+03   -0.31591E+00   -0.58117E+02  6400   0.230E+01    0.477E+01
DAV:   3    -0.446713731634E+03    0.34776E+02   -0.16078E+02  4352   0.404E+01    0.145E+01
DAV:   4    -0.443270707616E+03    0.34430E+01   -0.11111E+01  8192   0.425E+00    0.630E+00
DAV:   5    -0.442940767857E+03    0.32994E+00   -0.24483E+00  5632   0.193E+00    0.269E+00
DAV:   6    -0.443237520729E+03   -0.29675E+00   -0.99070E-01  8192   0.945E-01    0.164E+00
DAV:   7    -0.443406399217E+03   -0.16888E+00   -0.51624E-01  6656   0.620E-01    0.110E+00
DAV:   8    -0.443509667695E+03   -0.10327E+00   -0.19748E-01  8192   0.423E-01    0.771E-01
DAV:   9    -0.443615469523E+03   -0.10580E+00   -0.43130E-01  6912   0.552E-01    0.370E-01
DAV:  10    -0.443631845275E+03   -0.16376E-01   -0.46115E-02  6912   0.213E-01    0.247E-01
DAV:  11    -0.443649911121E+03   -0.18066E-01   -0.12877E-01  6144   0.267E-01    0.163E-01
DAV:  12    -0.443661113610E+03   -0.11202E-01   -0.25566E-02  4352   0.123E-01    0.850E-02
DAV:  13    -0.443668273347E+03   -0.71597E-02   -0.22385E-03  7424   0.413E-02    0.392E-02
DAV:  14    -0.443672032020E+03   -0.37587E-02   -0.64341E-04  6144   0.247E-02    0.245E-02
DAV:  15    -0.443675303383E+03   -0.32714E-02   -0.24063E-04  7936   0.180E-02    0.201E-02
DAV:  16    -0.443677034870E+03   -0.17315E-02   -0.15639E-04  6400   0.108E-02    0.140E-02
DAV:  17    -0.443678640490E+03   -0.16056E-02   -0.25663E-04  5632   0.130E-02    0.750E-03
DAV:  18    -0.443679023301E+03   -0.38281E-03   -0.38718E-05  4864   0.570E-03    0.483E-03
DAV:  19    -0.443679095804E+03   -0.72503E-04   -0.53483E-06  6656   0.281E-03    0.235E-03
DAV:  20    -0.443679137793E+03   -0.41989E-04   -0.33716E-06  5888   0.198E-03    0.129E-03
DAV:  21    -0.443679178839E+03   -0.41047E-04   -0.17882E-06  7936   0.113E-03    0.870E-04
DAV:  22    -0.443679226823E+03   -0.47984E-04   -0.12346E-06  6144   0.878E-04    0.528E-04
DAV:  23    -0.443679238713E+03   -0.11890E-04   -0.11166E-07  5888   0.325E-04    0.371E-04
DAV:  24    -0.443679245228E+03   -0.65148E-05   -0.14435E-07  5888   0.314E-04
   1 F= -.44544196E+03 E0= -.44544175E+03  d E =-.445442E+03  mag=     2.0003
       N       E                     dE             d eps       ncg     rms          rms(c)
DAV:   1    -0.443679434702E+03   -0.19599E-03   -0.28965E-02  5120   0.262E-01    0.390E-02
DAV:   2    -0.443679420931E+03    0.13771E-04   -0.39420E-04  6656   0.332E-02    0.224E-02
DAV:   3    -0.443679413998E+03    0.69328E-05   -0.33164E-05  7168   0.964E-03
   2 F= -.44544213E+03 E0= -.44544193E+03  d E =-.177237E-03  mag=     2.0003
       N       E                     dE             d eps       ncg     rms          rms(c)
DAV:   1    -0.443679533384E+03   -0.11245E-03   -0.66975E-03  6912   0.127E-01    0.186E-02
DAV:   2    -0.443679530518E+03    0.28665E-05   -0.83342E-05  5888   0.160E-02
   3 F= -.44544225E+03 E0= -.44544205E+03  d E =-.116830E-03  mag=     2.0003
