C  N  Fe                                
   1.00000000000000     
    12.3000000000000007    0.0000000000000000    0.0000000000000000
    -6.1499999999999977   10.6521124665485960    0.0000000000000000
     0.0000000000000000    0.0000000000000000   20.0000000000000000
   C    N    Fe
    44     4     1
Direct
  0.9991263302047868  0.0008738222266952  0.7500004202256919
  0.1311080966126885  0.0644283438549418  0.7499870966011126
  0.1977619898507721  0.9977958733150193  0.7499852456857309
  0.3301348593724171  0.0627026687172669  0.7499739013142347
  0.3984694730951771  0.9974181492660384  0.7499878797741566
  0.5314477532735321  0.0670895786437309  0.7499875270544519
  0.5991219192555215  0.0006672229073389  0.7499869784467241
  0.7321892710436766  0.0696533020467375  0.7499992735483274
  0.7993682226189613  0.0026184741078027  0.7500024567287213
  0.9322083315468180  0.0677916398334471  0.7500081127872559
  0.9973816075640187  0.2006318644736645  0.7500024576380109
  0.1306197554126948  0.2650812259999899  0.7499853882475163
  0.1958795504668744  0.1967619977621902  0.7499722854970721
  0.3271598078933283  0.2611498563445735  0.7500183912390145
  0.3943578285827917  0.1939188972024719  0.7500150935487675
  0.5931975804705384  0.2019278372744117  0.7500460764810573
  0.7282617030553616  0.2717382346603609  0.7500273858701321
  0.7962418385890014  0.2037581628288913  0.7500014140458618
  0.9303467407543984  0.2678107931558329  0.7499992773291444
  0.9993328444561642  0.4008781147208922  0.7499869614493717
  0.1340913609414311  0.4657284638507577  0.7499846644299396
  0.2004726696344495  0.3980712452660990  0.7499852688435708
  0.3353432438414900  0.4598974149158154  0.7500493524090671
  0.7980720982846606  0.4068023431668240  0.7500462382999461
  0.9329104154522116  0.4685521831486570  0.7499875244267955
  0.0025818778019431  0.6015305071352016  0.7499878350405050
  0.1358491546279511  0.6659584195467356  0.7500031408014208
  0.2029897503108447  0.5987901530381118  0.7499998060141285
  0.3370642566445569  0.6629357450301122  0.7500072988060542
  0.4050596163076358  0.5949404433292214  0.7500358950790751
  0.5401026619153361  0.6646568191791371  0.7500495007612388
  0.7388501050179422  0.6728402082322547  0.7500184383939996
  0.8060810891348867  0.6056422095259905  0.7500151540276877
  0.9372971903822818  0.6698650372044250  0.7499737854850642
  0.0022042069296922  0.8022380939634275  0.7499851411971243
  0.1342390383446211  0.8657608044889200  0.7500020072273439
  0.2011644327366304  0.7988355953382219  0.7500072291212244
  0.3340414945494300  0.8641507653382483  0.7500031510003752
  0.4012097840716480  0.7970102067151297  0.7499998104474275
  0.5342715041076747  0.8659085655416180  0.7499846592105324
  0.6019288185807817  0.7995273294760215  0.7499852637928982
  0.7349187977074350  0.8693802136394302  0.7499853510127963
  0.8032381072269549  0.8041205895772185  0.7499721642679665
  0.9355715705397882  0.8688918177925327  0.7499870030778640
  0.5232229613475864  0.2610373558743184  0.7501502074976603
  0.3944019750762668  0.3899456591707341  0.7501499467272711
  0.7389626732733906  0.4767770553323226  0.7501505602792278
  0.6100543291799254  0.6055980077418669  0.7501502732086833
  0.5666763119110387  0.4333236880983627  0.7503677056007088
 
  0.00000000E+00  0.00000000E+00  0.00000000E+00
  0.00000000E+00  0.00000000E+00  0.00000000E+00
  0.00000000E+00  0.00000000E+00  0.00000000E+00
  0.00000000E+00  0.00000000E+00  0.00000000E+00
  0.00000000E+00  0.00000000E+00  0.00000000E+00
  0.00000000E+00  0.00000000E+00  0.00000000E+00
  0.00000000E+00  0.00000000E+00  0.00000000E+00
  0.00000000E+00  0.00000000E+00  0.00000000E+00
  0.00000000E+00  0.00000000E+00  0.00000000E+00
  0.00000000E+00  0.00000000E+00  0.00000000E+00
  0.00000000E+00  0.00000000E+00  0.00000000E+00
  0.00000000E+00  0.00000000E+00  0.00000000E+00
  0.00000000E+00  0.00000000E+00  0.00000000E+00
  0.00000000E+00  0.00000000E+00  0.00000000E+00
  0.00000000E+00  0.00000000E+00  0.00000000E+00
  0.00000000E+00  0.00000000E+00  0.00000000E+00
  0.00000000E+00  0.00000000E+00  0.00000000E+00
  0.00000000E+00  0.00000000E+00  0.00000000E+00
  0.00000000E+00  0.00000000E+00  0.00000000E+00
  0.00000000E+00  0.00000000E+00  0.00000000E+00
  0.00000000E+00  0.00000000E+00  0.00000000E+00
  0.00000000E+00  0.00000000E+00  0.00000000E+00
  0.00000000E+00  0.00000000E+00  0.00000000E+00
  0.00000000E+00  0.00000000E+00  0.00000000E+00
  0.00000000E+00  0.00000000E+00  0.00000000E+00
  0.00000000E+00  0.00000000E+00  0.00000000E+00
  0.00000000E+00  0.00000000E+00  0.00000000E+00
  0.00000000E+00  0.00000000E+00  0.00000000E+00
  0.00000000E+00  0.00000000E+00  0.00000000E+00
  0.00000000E+00  0.00000000E+00  0.00000000E+00
  0.00000000E+00  0.00000000E+00  0.00000000E+00
  0.00000000E+00  0.00000000E+00  0.00000000E+00
  0.00000000E+00  0.00000000E+00  0.00000000E+00
  0.00000000E+00  0.00000000E+00  0.00000000E+00
  0.00000000E+00  0.00000000E+00  0.00000000E+00
  0.00000000E+00  0.00000000E+00  0.00000000E+00
  0.00000000E+00  0.00000000E+00  0.00000000E+00
  0.00000000E+00  0.00000000E+00  0.00000000E+00
  0.00000000E+00  0.00000000E+00  0.00000000E+00
  0.00000000E+00  0.00000000E+00  0.00000000E+00
  0.00000000E+00  0.00000000E+00  0.00000000E+00
  0.00000000E+00  0.00000000E+00  0.00000000E+00
  0.00000000E+00  0.00000000E+00  0.00000000E+00
  0.00000000E+00  0.00000000E+00  0.00000000E+00
  0.00000000E+00  0.00000000E+00  0.00000000E+00
  0.00000000E+00  0.00000000E+00  0.00000000E+00
  0.00000000E+00  0.00000000E+00  0.00000000E+00
  0.00000000E+00  0.00000000E+00  0.00000000E+00
  0.00000000E+00  0.00000000E+00  0.00000000E+00
