       N       E                     dE             d eps       ncg     rms          ort
DAV:   1     0.949712359839E+03    0.94971E+03   -0.83887E+04  3328   0.643E+02
DAV:   2    -0.370247933628E+03   -0.13200E+04   -0.13195E+04  3328   0.927E+01
DAV:   3    -0.442380320468E+03   -0.72132E+02   -0.72129E+02  3328   0.345E+01
DAV:   4    -0.443136874645E+03   -0.75655E+00   -0.75655E+00  3328   0.385E+00
DAV:   5    -0.443136986188E+03   -0.11154E-03   -0.11154E-03  3328   0.577E-02
SDA:   6    -0.443136986188E+03    0.00000E+00   -0.11154E-03  3328   0.166E-05 0.000E+00
   1 F= -.44483485E+03 E0= -.44483260E+03  d E =-.448399E-02  mag=     0.0000
