C  N  Be                                
   1.00000000000000     
    12.3000000000000007    0.0000000000000000    0.0000000000000000
    -6.1499999999999977   10.6521124665485960    0.0000000000000000
     0.0000000000000000    0.0000000000000000   20.0000000000000000
   C    N    Be
    44     4     1
Direct
  0.9992643446942964  0.0007356553304945  0.7499999999940812
  0.1318311902648546  0.0651627650484343  0.7500000002475318
  0.1984851457377133  0.9985079598840301  0.7500000003226077
  0.3313127160873748  0.0641826967670198  0.7500000000074394
  0.3987405161954030  0.9980378196635016  0.7499999999578648
  0.5315865722207178  0.0685360884307116  0.7500000000556852
  0.5990165804626173  0.0010760992858323  0.7500000000009095
  0.7320662499361106  0.0696983713338426  0.7499999996973514
  0.7992272542507166  0.0023151590155024  0.7499999999083471
  0.9322539837998391  0.0677460161822125  0.7499999998699352
  0.9976848411297681  0.2007727456967743  0.7500000001040448
  0.1313786592073143  0.2654039248777735  0.7499999999247748
  0.1975245378455099  0.1979725610028424  0.7499999999695603
  0.3296055744744990  0.2633995197604619  0.7499999997804352
  0.3967137060110204  0.1962720943445291  0.7499999997612790
  0.5930259695854758  0.2042933469280328  0.7500000000388312
  0.7277562929416774  0.2722437072729704  0.7500000000448068
  0.7960373426242811  0.2039626574141593  0.7500000000242650
  0.9303016285288450  0.2679337501306591  0.7500000003028617
  0.9989239003992125  0.4009834193638966  0.7499999999963478
  0.1344086532262807  0.4656925100919977  0.7500000000173443
  0.2018564971529884  0.3982535414491224  0.7500000000991065
  0.3376193123606299  0.4597130482323024  0.7500000000114611
  0.7957066529160386  0.4069740304448430  0.7499999999874731
  0.9314639115836556  0.4684134278516154  0.7499999999328750
  0.0019621804027139  0.6012594838362588  0.7500000000489777
  0.1356438195762806  0.6659026733189535  0.7499999998402771
  0.2030240939109547  0.5987324544697472  0.7499999996792042
  0.3372941848611646  0.6627058150674898  0.7500000000024798
  0.4055870727918034  0.5944129271202812  0.7499999999437605
  0.5402869516754407  0.6623806875379330  0.7499999998230820
  0.7366004801913490  0.6703944254262169  0.7500000002294058
  0.8037279058568103  0.6032862939373231  0.7500000002215543
  0.9358173035355932  0.6686872842154443  0.7500000000039364
  0.0014920402057825  0.8015148541146786  0.7499999997161240
  0.1340771968668264  0.8659228027220394  0.7500000000496883
  0.2010754184186112  0.7989245815300237  0.7500000000144382
  0.3340973268088163  0.8643561804387261  0.7500000002122249
  0.4012675454622538  0.7969759061136017  0.7500000003642242
  0.5343074900080893  0.8655913470172436  0.7500000000235332
  0.6017464586469856  0.7981435029692463  0.7499999998888356
  0.7345960750559613  0.8686213407457899  0.7500000000666063
  0.8020274391156832  0.8024754621662780  0.7500000000126903
  0.9348372352222327  0.8681688098305003  0.7499999998503171
  0.5249758655536638  0.2669557542852203  0.7500000001546425
  0.4002872041182073  0.3916453206048729  0.7500000001502301
  0.7330442455160977  0.4750241339552090  0.7499999998814673
  0.6083546793873893  0.5997127958524189  0.7499999997630695
  0.5666667531744665  0.4333332469209381  0.7500000000020108
 
  0.00000000E+00  0.00000000E+00  0.00000000E+00
  0.00000000E+00  0.00000000E+00  0.00000000E+00
  0.00000000E+00  0.00000000E+00  0.00000000E+00
  0.00000000E+00  0.00000000E+00  0.00000000E+00
  0.00000000E+00  0.00000000E+00  0.00000000E+00
  0.00000000E+00  0.00000000E+00  0.00000000E+00
  0.00000000E+00  0.00000000E+00  0.00000000E+00
  0.00000000E+00  0.00000000E+00  0.00000000E+00
  0.00000000E+00  0.00000000E+00  0.00000000E+00
  0.00000000E+00  0.00000000E+00  0.00000000E+00
  0.00000000E+00  0.00000000E+00  0.00000000E+00
  0.00000000E+00  0.00000000E+00  0.00000000E+00
  0.00000000E+00  0.00000000E+00  0.00000000E+00
  0.00000000E+00  0.00000000E+00  0.00000000E+00
  0.00000000E+00  0.00000000E+00  0.00000000E+00
  0.00000000E+00  0.00000000E+00  0.00000000E+00
  0.00000000E+00  0.00000000E+00  0.00000000E+00
  0.00000000E+00  0.00000000E+00  0.00000000E+00
  0.00000000E+00  0.00000000E+00  0.00000000E+00
  0.00000000E+00  0.00000000E+00  0.00000000E+00
  0.00000000E+00  0.00000000E+00  0.00000000E+00
  0.00000000E+00  0.00000000E+00  0.00000000E+00
  0.00000000E+00  0.00000000E+00  0.00000000E+00
  0.00000000E+00  0.00000000E+00  0.00000000E+00
  0.00000000E+00  0.00000000E+00  0.00000000E+00
  0.00000000E+00  0.00000000E+00  0.00000000E+00
  0.00000000E+00  0.00000000E+00  0.00000000E+00
  0.00000000E+00  0.00000000E+00  0.00000000E+00
  0.00000000E+00  0.00000000E+00  0.00000000E+00
  0.00000000E+00  0.00000000E+00  0.00000000E+00
  0.00000000E+00  0.00000000E+00  0.00000000E+00
  0.00000000E+00  0.00000000E+00  0.00000000E+00
  0.00000000E+00  0.00000000E+00  0.00000000E+00
  0.00000000E+00  0.00000000E+00  0.00000000E+00
  0.00000000E+00  0.00000000E+00  0.00000000E+00
  0.00000000E+00  0.00000000E+00  0.00000000E+00
  0.00000000E+00  0.00000000E+00  0.00000000E+00
  0.00000000E+00  0.00000000E+00  0.00000000E+00
  0.00000000E+00  0.00000000E+00  0.00000000E+00
  0.00000000E+00  0.00000000E+00  0.00000000E+00
  0.00000000E+00  0.00000000E+00  0.00000000E+00
  0.00000000E+00  0.00000000E+00  0.00000000E+00
  0.00000000E+00  0.00000000E+00  0.00000000E+00
  0.00000000E+00  0.00000000E+00  0.00000000E+00
  0.00000000E+00  0.00000000E+00  0.00000000E+00
  0.00000000E+00  0.00000000E+00  0.00000000E+00
  0.00000000E+00  0.00000000E+00  0.00000000E+00
  0.00000000E+00  0.00000000E+00  0.00000000E+00
  0.00000000E+00  0.00000000E+00  0.00000000E+00
