       N       E                     dE             d eps       ncg     rms          rms(c)
DAV:   1    -0.470916007247E+03   -0.47092E+03   -0.12405E+02  8192   0.149E+01    0.283E+01
DAV:   2    -0.446871163659E+03    0.24045E+02   -0.58440E+01  6400   0.140E+01    0.142E+01
DAV:   3    -0.440098211135E+03    0.67730E+01   -0.12991E+01  6144   0.495E+00    0.518E+00
DAV:   4    -0.439346659560E+03    0.75155E+00   -0.21119E+00  8192   0.183E+00    0.191E+00
DAV:   5    -0.439310033594E+03    0.36626E-01   -0.93054E-02  7680   0.414E-01    0.974E-01
DAV:   6    -0.439278964454E+03    0.31069E-01   -0.45460E-02  8192   0.301E-01    0.381E-01
DAV:   7    -0.439273553813E+03    0.54106E-02   -0.12070E-02  8192   0.170E-01    0.252E-01
DAV:   8    -0.439280901995E+03   -0.73482E-02   -0.15088E-02  7680   0.151E-01    0.157E-01
DAV:   9    -0.439288067194E+03   -0.71652E-02   -0.10679E-02  6144   0.124E-01    0.987E-02
DAV:  10    -0.439295486781E+03   -0.74196E-02   -0.36583E-03  7168   0.677E-02    0.621E-02
DAV:  11    -0.439305174149E+03   -0.96874E-02   -0.96678E-04  6144   0.265E-02    0.367E-02
DAV:  12    -0.439313982951E+03   -0.88088E-02   -0.68537E-04  7168   0.231E-02    0.208E-02
DAV:  13    -0.439319424179E+03   -0.54412E-02   -0.52820E-04  7168   0.168E-02    0.110E-02
DAV:  14    -0.439321006519E+03   -0.15823E-02   -0.10188E-04  6144   0.897E-03    0.627E-03
DAV:  15    -0.439321916591E+03   -0.91007E-03   -0.71245E-05  5376   0.711E-03    0.327E-03
DAV:  16    -0.439322198602E+03   -0.28201E-03   -0.15566E-05  6400   0.314E-03    0.217E-03
DAV:  17    -0.439322388409E+03   -0.18981E-03   -0.12960E-05  7680   0.275E-03    0.137E-03
DAV:  18    -0.439322459537E+03   -0.71128E-04   -0.34568E-06  7168   0.136E-03    0.100E-03
DAV:  19    -0.439322504865E+03   -0.45328E-04   -0.12729E-06  7168   0.101E-03    0.680E-04
DAV:  20    -0.439322540344E+03   -0.35479E-04   -0.11492E-06  7424   0.641E-04    0.390E-04
DAV:  21    -0.439322553484E+03   -0.13140E-04   -0.20470E-07  5120   0.408E-04    0.247E-04
DAV:  22    -0.439322560963E+03   -0.74789E-05   -0.97893E-08  7680   0.276E-04
   1 F= -.44110709E+03 E0= -.44109636E+03  d E =-.441107E+03  mag=     0.0000
       N       E                     dE             d eps       ncg     rms          rms(c)
DAV:   1    -0.439322949371E+03   -0.39589E-03   -0.39724E-02  4608   0.313E-01    0.415E-02
DAV:   2    -0.439322942377E+03    0.69942E-05   -0.54797E-04  7936   0.390E-02    0.240E-02
DAV:   3    -0.439322935842E+03    0.65347E-05   -0.42251E-05  5120   0.101E-02
   2 F= -.44110745E+03 E0= -.44109677E+03  d E =-.356848E-03  mag=     0.0000
       N       E                     dE             d eps       ncg     rms          rms(c)
DAV:   1    -0.439323072858E+03   -0.13048E-03   -0.79112E-03  8192   0.137E-01    0.194E-02
DAV:   2    -0.439323066274E+03    0.65835E-05   -0.68748E-05  4608   0.138E-02
   3 F= -.44110758E+03 E0= -.44109687E+03  d E =-.126444E-03  mag=     0.0000
