C  N  In                                
   1.00000000000000     
    12.3000000000000007    0.0000000000000000    0.0000000000000000
    -6.1499999999999977   10.6521124665485960    0.0000000000000000
     0.0000000000000000    0.0000000000000000   20.0000000000000000
   C    N    In
    44     4     1
Direct
  0.9994252186581928  0.0005748226279560  0.7413455811465214
  0.1320125227190007  0.0653897708855850  0.7416166739884803
  0.1986977852395907  0.9986954356552739  0.7416064909545289
  0.3313911769700740  0.0642994157000075  0.7454679526190683
  0.3987879035901513  0.9979896673255425  0.7469040415648165
  0.5314050858651151  0.0665631244383930  0.7502266464222622
  0.5992155180817968  0.0004145931414456  0.7491632606288595
  0.7322329472578002  0.0691408555569008  0.7490612897690500
  0.7995917517395333  0.0023806919235772  0.7459773763401970
  0.9323720225319250  0.0676279887569770  0.7439593025787339
  0.9976192996732252  0.2004082487018894  0.7459773755280210
  0.1313209812621365  0.2655150349930445  0.7469182003678757
  0.1976320422029684  0.1981522443088511  0.7454383963140189
  0.3297310422615601  0.2652742608439280  0.7519216068833099
  0.3985757634512643  0.1963631815608672  0.7519827208343864
  0.5929636597835679  0.2006595784463936  0.7563122933188066
  0.7288674316922767  0.2711325837156904  0.7566089741590374
  0.7963777750390056  0.2036222299091515  0.7516944572193706
  0.9308591344965774  0.2677670548342980  0.7490612876332273
  0.9995853797782187  0.4007844787071831  0.7491632582014305
  0.1337735338970736  0.4659301091721623  0.7491023611010525
  0.1998993902502362  0.3981373661707304  0.7502132439500638
  0.3340147282841648  0.4596959806458517  0.7562516695671951
  0.7993404254582090  0.4070363466211252  0.7563122918769584
  0.9334368581792858  0.4685949112165088  0.7502266455531466
  0.0020103222344988  0.6012120932871630  0.7469040311339061
  0.1357492061119916  0.6662048022285860  0.7460456338768729
  0.2025839906925776  0.5988693185550693  0.7490144273865793
  0.3369653127866307  0.6630346862190373  0.7515947710160173
  0.4044381201598204  0.5955618941270066  0.7566570260013282
  0.5403040246361479  0.6659852759123670  0.7562516711939420
  0.7347257275703328  0.6702689425889489  0.7519216050110431
  0.8036368060422883  0.6014242270469649  0.7519827188941187
  0.9357005867624365  0.6686088350152930  0.7454679502807545
  0.0013045979037440  0.8013022461259907  0.7416064874806225
  0.1339323598179157  0.8660676784050211  0.7414256941362789
  0.2009776720453915  0.7990223438478917  0.7441317385367604
  0.3337951998781351  0.8642507857816702  0.7460456391993054
  0.4011306785830512  0.7974159962943016  0.7490144286477104
  0.5340698850361972  0.8662264397866077  0.7491023589466108
  0.6018626302193305  0.8001005885857609  0.7502132429058154
  0.7344849552768667  0.8686790028266900  0.7469181993092161
  0.8018477599407665  0.8023679545145048  0.7454383886841999
  0.9346102583602138  0.8679875116282046  0.7416166736788458
  0.5242318811193865  0.2597335173860559  0.7606070066745483
  0.3930689879426377  0.3909197148248716  0.7605681965036836
  0.7402664652120008  0.4757681044329167  0.7606070038430016
  0.6090802713789789  0.6069309955669362  0.7605681905146625
  0.5666819219257125  0.4333180691528032  0.8337865176237595
 
  0.00000000E+00  0.00000000E+00  0.00000000E+00
  0.00000000E+00  0.00000000E+00  0.00000000E+00
  0.00000000E+00  0.00000000E+00  0.00000000E+00
  0.00000000E+00  0.00000000E+00  0.00000000E+00
  0.00000000E+00  0.00000000E+00  0.00000000E+00
  0.00000000E+00  0.00000000E+00  0.00000000E+00
  0.00000000E+00  0.00000000E+00  0.00000000E+00
  0.00000000E+00  0.00000000E+00  0.00000000E+00
  0.00000000E+00  0.00000000E+00  0.00000000E+00
  0.00000000E+00  0.00000000E+00  0.00000000E+00
  0.00000000E+00  0.00000000E+00  0.00000000E+00
  0.00000000E+00  0.00000000E+00  0.00000000E+00
  0.00000000E+00  0.00000000E+00  0.00000000E+00
  0.00000000E+00  0.00000000E+00  0.00000000E+00
  0.00000000E+00  0.00000000E+00  0.00000000E+00
  0.00000000E+00  0.00000000E+00  0.00000000E+00
  0.00000000E+00  0.00000000E+00  0.00000000E+00
  0.00000000E+00  0.00000000E+00  0.00000000E+00
  0.00000000E+00  0.00000000E+00  0.00000000E+00
  0.00000000E+00  0.00000000E+00  0.00000000E+00
  0.00000000E+00  0.00000000E+00  0.00000000E+00
  0.00000000E+00  0.00000000E+00  0.00000000E+00
  0.00000000E+00  0.00000000E+00  0.00000000E+00
  0.00000000E+00  0.00000000E+00  0.00000000E+00
  0.00000000E+00  0.00000000E+00  0.00000000E+00
  0.00000000E+00  0.00000000E+00  0.00000000E+00
  0.00000000E+00  0.00000000E+00  0.00000000E+00
  0.00000000E+00  0.00000000E+00  0.00000000E+00
  0.00000000E+00  0.00000000E+00  0.00000000E+00
  0.00000000E+00  0.00000000E+00  0.00000000E+00
  0.00000000E+00  0.00000000E+00  0.00000000E+00
  0.00000000E+00  0.00000000E+00  0.00000000E+00
  0.00000000E+00  0.00000000E+00  0.00000000E+00
  0.00000000E+00  0.00000000E+00  0.00000000E+00
  0.00000000E+00  0.00000000E+00  0.00000000E+00
  0.00000000E+00  0.00000000E+00  0.00000000E+00
  0.00000000E+00  0.00000000E+00  0.00000000E+00
  0.00000000E+00  0.00000000E+00  0.00000000E+00
  0.00000000E+00  0.00000000E+00  0.00000000E+00
  0.00000000E+00  0.00000000E+00  0.00000000E+00
  0.00000000E+00  0.00000000E+00  0.00000000E+00
  0.00000000E+00  0.00000000E+00  0.00000000E+00
  0.00000000E+00  0.00000000E+00  0.00000000E+00
  0.00000000E+00  0.00000000E+00  0.00000000E+00
  0.00000000E+00  0.00000000E+00  0.00000000E+00
  0.00000000E+00  0.00000000E+00  0.00000000E+00
  0.00000000E+00  0.00000000E+00  0.00000000E+00
  0.00000000E+00  0.00000000E+00  0.00000000E+00
  0.00000000E+00  0.00000000E+00  0.00000000E+00
