       N       E                     dE             d eps       ncg     rms          ort
DAV:   1     0.100125519599E+04    0.10013E+04   -0.86119E+04  3328   0.661E+02
DAV:   2    -0.371416153554E+03   -0.13727E+04   -0.13724E+04  3328   0.965E+01
DAV:   3    -0.445631715622E+03   -0.74216E+02   -0.74034E+02  3328   0.359E+01
DAV:   4    -0.446526964709E+03   -0.89525E+00   -0.89523E+00  3328   0.521E+00
DAV:   5    -0.446529576091E+03   -0.26114E-02   -0.26114E-02  3328   0.258E-01
SDA:   6    -0.446529576091E+03    0.00000E+00   -0.26114E-02  3328   0.864E-04 0.000E+00
   1 F= -.44839726E+03 E0= -.44839595E+03  d E =-.263959E-02  mag=     2.9258
