C  N  Re                                
   1.00000000000000     
    12.3000000000000007    0.0000000000000000    0.0000000000000000
    -6.1499999999999977   10.6521124665485960    0.0000000000000000
     0.0000000000000000    0.0000000000000000   20.0000000000000000
   C    N    Re
    44     4     1
Direct
  0.9990034426723753  0.0009965595421448  0.7421917310520030
  0.1309161995830337  0.0642671226603042  0.7427451450079730
  0.1975736158907395  0.9975823475899617  0.7427792805041662
  0.3295684182228911  0.0618291174530583  0.7470840913719812
  0.3982564529735910  0.9968655781876805  0.7480268682628477
  0.5314511813253375  0.0663040893915792  0.7508062431591256
  0.5992669958865093  0.0004191896358350  0.7494703230607271
  0.7322616620562954  0.0694443156786022  0.7492874558327429
  0.7994563173032248  0.0025753105330750  0.7466750940976610
  0.9322058772196797  0.0677941260452926  0.7447025348519745
  0.9974246860934883  0.2005436838570773  0.7466750986745936
  0.1301898091442482  0.2649352420610569  0.7479776403056348
  0.1951697474812022  0.1962446760384822  0.7470525760455189
  0.3251704540773019  0.2590373875691228  0.7538063449839569
  0.3923501796156117  0.1918620917830509  0.7537886510252036
  0.5937642892896591  0.1993853837998856  0.7567153862847960
  0.7288854804167428  0.2711145188775674  0.7563084711605654
  0.7966621116764756  0.2033378880512373  0.7514250287900879
  0.9305556809291886  0.2677383401196565  0.7492874648972432
  0.9995808099756402  0.4007330080063696  0.7494703274709948
  0.1337491494418188  0.4659404095138626  0.7494591439808005
  0.1996376353627198  0.3981082089131291  0.7508006324459728
  0.3327339582264841  0.4604296033129174  0.7567075068491818
  0.8006146178440190  0.4062357087261361  0.7567153980457135
  0.9336959099558797  0.4685488201259957  0.7508062506862032
  0.0031344219716587  0.6017435500223840  0.7480268695918895
  0.1359085248475154  0.6661272772636480  0.7467281051923607
  0.2027786032952577  0.5989355093979754  0.7493096979042519
  0.3366773958332487  0.6633226016316343  0.7513745115325960
  0.4044588457251166  0.5955411513667528  0.7562549981391626
  0.5395703941094254  0.6672660354252713  0.7567075021883696
  0.7409626098742379  0.6748295399806565  0.7538063531290291
  0.8081379092164767  0.6076498198921882  0.7537886653320740
  0.9381708838416571  0.6704315840485791  0.7470841068525118
  0.0024176536179894  0.8024263867285484  0.7427793014556840
  0.1343329968441580  0.8656670078245980  0.7422699971808981
  0.2011192520191116  0.7988807518444005  0.7447500251480363
  0.3338727275145388  0.8640914740049226  0.7467281127949690
  0.4010644939892103  0.7972213980268492  0.7493097086121665
  0.5340595947467719  0.8662508503200570  0.7494591508136921
  0.6018917936387993  0.8003623627816481  0.7508006325046139
  0.7350647599519959  0.8698101859543144  0.7479776429116427
  0.8037553284690802  0.8048302487793819  0.7470525960444476
  0.9357328825880771  0.8690838073215232  0.7427451692682538
  0.5215327612372107  0.2563562298037851  0.7633437322976064
  0.3896898145677525  0.3882036467672378  0.7633715744142506
  0.7436437704067913  0.4784672331967528  0.7633437433402648
  0.6117963488892357  0.6103101750053952  0.7633715643935588
  0.5666725501406020  0.4333274451383531  0.7798515501100098
 
  0.00000000E+00  0.00000000E+00  0.00000000E+00
  0.00000000E+00  0.00000000E+00  0.00000000E+00
  0.00000000E+00  0.00000000E+00  0.00000000E+00
  0.00000000E+00  0.00000000E+00  0.00000000E+00
  0.00000000E+00  0.00000000E+00  0.00000000E+00
  0.00000000E+00  0.00000000E+00  0.00000000E+00
  0.00000000E+00  0.00000000E+00  0.00000000E+00
  0.00000000E+00  0.00000000E+00  0.00000000E+00
  0.00000000E+00  0.00000000E+00  0.00000000E+00
  0.00000000E+00  0.00000000E+00  0.00000000E+00
  0.00000000E+00  0.00000000E+00  0.00000000E+00
  0.00000000E+00  0.00000000E+00  0.00000000E+00
  0.00000000E+00  0.00000000E+00  0.00000000E+00
  0.00000000E+00  0.00000000E+00  0.00000000E+00
  0.00000000E+00  0.00000000E+00  0.00000000E+00
  0.00000000E+00  0.00000000E+00  0.00000000E+00
  0.00000000E+00  0.00000000E+00  0.00000000E+00
  0.00000000E+00  0.00000000E+00  0.00000000E+00
  0.00000000E+00  0.00000000E+00  0.00000000E+00
  0.00000000E+00  0.00000000E+00  0.00000000E+00
  0.00000000E+00  0.00000000E+00  0.00000000E+00
  0.00000000E+00  0.00000000E+00  0.00000000E+00
  0.00000000E+00  0.00000000E+00  0.00000000E+00
  0.00000000E+00  0.00000000E+00  0.00000000E+00
  0.00000000E+00  0.00000000E+00  0.00000000E+00
  0.00000000E+00  0.00000000E+00  0.00000000E+00
  0.00000000E+00  0.00000000E+00  0.00000000E+00
  0.00000000E+00  0.00000000E+00  0.00000000E+00
  0.00000000E+00  0.00000000E+00  0.00000000E+00
  0.00000000E+00  0.00000000E+00  0.00000000E+00
  0.00000000E+00  0.00000000E+00  0.00000000E+00
  0.00000000E+00  0.00000000E+00  0.00000000E+00
  0.00000000E+00  0.00000000E+00  0.00000000E+00
  0.00000000E+00  0.00000000E+00  0.00000000E+00
  0.00000000E+00  0.00000000E+00  0.00000000E+00
  0.00000000E+00  0.00000000E+00  0.00000000E+00
  0.00000000E+00  0.00000000E+00  0.00000000E+00
  0.00000000E+00  0.00000000E+00  0.00000000E+00
  0.00000000E+00  0.00000000E+00  0.00000000E+00
  0.00000000E+00  0.00000000E+00  0.00000000E+00
  0.00000000E+00  0.00000000E+00  0.00000000E+00
  0.00000000E+00  0.00000000E+00  0.00000000E+00
  0.00000000E+00  0.00000000E+00  0.00000000E+00
  0.00000000E+00  0.00000000E+00  0.00000000E+00
  0.00000000E+00  0.00000000E+00  0.00000000E+00
  0.00000000E+00  0.00000000E+00  0.00000000E+00
  0.00000000E+00  0.00000000E+00  0.00000000E+00
  0.00000000E+00  0.00000000E+00  0.00000000E+00
  0.00000000E+00  0.00000000E+00  0.00000000E+00
