       N       E                     dE             d eps       ncg     rms          ort
DAV:   1     0.101098420287E+04    0.10110E+04   -0.88572E+04  3328   0.676E+02
DAV:   2    -0.360788069954E+03   -0.13718E+04   -0.13714E+04  3328   0.101E+02
DAV:   3    -0.435767871119E+03   -0.74980E+02   -0.74979E+02  3328   0.365E+01
DAV:   4    -0.436735385799E+03   -0.96751E+00   -0.96751E+00  3328   0.477E+00
DAV:   5    -0.436735501592E+03   -0.11579E-03   -0.11579E-03  3328   0.630E-02
SDA:   6    -0.436735501592E+03    0.00000E+00   -0.11579E-03  3328   0.219E-05 0.000E+00
   1 F= -.43853218E+03 E0= -.43853082E+03  d E =-.272647E-02  mag=    -0.0000
