C  N  Co                                
   1.00000000000000     
    12.3000000000000007    0.0000000000000000    0.0000000000000000
    -6.1499999999999977   10.6521124665485960    0.0000000000000000
     0.0000000000000000    0.0000000000000000   20.0000000000000000
   C    N    Co
    44     4     1
Direct
  0.9991269230448339  0.0008722822170881  0.7499916091463987
  0.1312648083310748  0.0646075041519154  0.7499803842557782
  0.1979109092462750  0.9979355567864516  0.7499793397554981
  0.3303969799735640  0.0629665124614505  0.7499795793314661
  0.3985005829397537  0.9975109487255835  0.7499870291090502
  0.5314405799428741  0.0674473487537171  0.7499921295192138
  0.5990897796883914  0.0007984677066588  0.7499825784039302
  0.7321608760319407  0.0696603543940881  0.7499970585465547
  0.7993519919554899  0.0025934300522650  0.7499973071810686
  0.9321871869954208  0.0678160467594608  0.7500030834414559
  0.9974092257310474  0.2006520687179361  0.7499969050985129
  0.1307928142398112  0.2651429356990818  0.7499897092196051
  0.1962521023421502  0.1970767911803222  0.7499862090406850
  0.3277280067364003  0.2616150289228685  0.7500550464364935
  0.3948694957790551  0.1944378170709413  0.7500443321490948
  0.5931679787484256  0.2025554517589825  0.7500642435814342
  0.7281876804817173  0.2718114974106456  0.7500453326082024
  0.7961935988477364  0.2038092203980355  0.7500055803764951
  0.9303413213311487  0.2678424759457130  0.7499966881034510
  0.9992013808444540  0.4009141691032454  0.7499825050548452
  0.1341852167809634  0.4657266519095558  0.7499836457107847
  0.2007974954477305  0.3980621060232821  0.7500013675090287
  0.3359082015848003  0.4598550666936063  0.7500609997056245
  0.7974420265925488  0.4068309230952352  0.7500575455648288
  0.9325502679786553  0.4685607217166208  0.7499910462878248
  0.0024877711590179  0.6015002719835820  0.7499863645921607
  0.1358853461631426  0.6659814699859083  0.7499966835639498
  0.2029822978566926  0.5987951982472026  0.7499949462530893
  0.3371385021779858  0.6628643539194954  0.7500023468817218
  0.4051537745976006  0.5948480288085989  0.7500347661578033
  0.5401463717132131  0.6640921467522745  0.7500556328745489
  0.7383829478775468  0.6722693468949785  0.7500468515423506
  0.8055586685438243  0.6051274951436767  0.7500339424060414
  0.9370296382800944  0.6696009771399574  0.7499782748058124
  0.0020607463113436  0.8020859975927905  0.7499804726574624
  0.1342178693216738  0.8657789319661404  0.7499938059957074
  0.2011614021327333  0.7988388876519679  0.7500029997324802
  0.3340195574767222  0.8641146221143572  0.7499965248884806
  0.4012077925636959  0.7970196371881713  0.7499949500217440
  0.5342769685417110  0.8658148851873335  0.7499844375410518
  0.6019407895449973  0.7992032293468370  0.7500011322774967
  0.7348605694397463  0.8692085258172355  0.7499901880937756
  0.8029226490840458  0.8037454735167842  0.7499870536681144
  0.9353911595207620  0.8687337793226888  0.7499820963596662
  0.5235356884229247  0.2621661049967727  0.7501542552671907
  0.3955279327587107  0.3902573205825917  0.7501426855887132
  0.7378312149877146  0.4764622764515494  0.7501378319120633
  0.6097412499331938  0.6044702974515488  0.7501271950192816
  0.5666706599746973  0.4333293642827840  0.7502493067619085
 
  0.00000000E+00  0.00000000E+00  0.00000000E+00
  0.00000000E+00  0.00000000E+00  0.00000000E+00
  0.00000000E+00  0.00000000E+00  0.00000000E+00
  0.00000000E+00  0.00000000E+00  0.00000000E+00
  0.00000000E+00  0.00000000E+00  0.00000000E+00
  0.00000000E+00  0.00000000E+00  0.00000000E+00
  0.00000000E+00  0.00000000E+00  0.00000000E+00
  0.00000000E+00  0.00000000E+00  0.00000000E+00
  0.00000000E+00  0.00000000E+00  0.00000000E+00
  0.00000000E+00  0.00000000E+00  0.00000000E+00
  0.00000000E+00  0.00000000E+00  0.00000000E+00
  0.00000000E+00  0.00000000E+00  0.00000000E+00
  0.00000000E+00  0.00000000E+00  0.00000000E+00
  0.00000000E+00  0.00000000E+00  0.00000000E+00
  0.00000000E+00  0.00000000E+00  0.00000000E+00
  0.00000000E+00  0.00000000E+00  0.00000000E+00
  0.00000000E+00  0.00000000E+00  0.00000000E+00
  0.00000000E+00  0.00000000E+00  0.00000000E+00
  0.00000000E+00  0.00000000E+00  0.00000000E+00
  0.00000000E+00  0.00000000E+00  0.00000000E+00
  0.00000000E+00  0.00000000E+00  0.00000000E+00
  0.00000000E+00  0.00000000E+00  0.00000000E+00
  0.00000000E+00  0.00000000E+00  0.00000000E+00
  0.00000000E+00  0.00000000E+00  0.00000000E+00
  0.00000000E+00  0.00000000E+00  0.00000000E+00
  0.00000000E+00  0.00000000E+00  0.00000000E+00
  0.00000000E+00  0.00000000E+00  0.00000000E+00
  0.00000000E+00  0.00000000E+00  0.00000000E+00
  0.00000000E+00  0.00000000E+00  0.00000000E+00
  0.00000000E+00  0.00000000E+00  0.00000000E+00
  0.00000000E+00  0.00000000E+00  0.00000000E+00
  0.00000000E+00  0.00000000E+00  0.00000000E+00
  0.00000000E+00  0.00000000E+00  0.00000000E+00
  0.00000000E+00  0.00000000E+00  0.00000000E+00
  0.00000000E+00  0.00000000E+00  0.00000000E+00
  0.00000000E+00  0.00000000E+00  0.00000000E+00
  0.00000000E+00  0.00000000E+00  0.00000000E+00
  0.00000000E+00  0.00000000E+00  0.00000000E+00
  0.00000000E+00  0.00000000E+00  0.00000000E+00
  0.00000000E+00  0.00000000E+00  0.00000000E+00
  0.00000000E+00  0.00000000E+00  0.00000000E+00
  0.00000000E+00  0.00000000E+00  0.00000000E+00
  0.00000000E+00  0.00000000E+00  0.00000000E+00
  0.00000000E+00  0.00000000E+00  0.00000000E+00
  0.00000000E+00  0.00000000E+00  0.00000000E+00
  0.00000000E+00  0.00000000E+00  0.00000000E+00
  0.00000000E+00  0.00000000E+00  0.00000000E+00
  0.00000000E+00  0.00000000E+00  0.00000000E+00
  0.00000000E+00  0.00000000E+00  0.00000000E+00
