       N       E                     dE             d eps       ncg     rms          ort
SDA:   1    -0.337264556269E+03   -0.33726E+03    0.00000E+00  3328   0.126E+03 0.000E+00
CGA:   2    -0.412066871639E+03   -0.74802E+02   -0.90252E+02  3328   0.770E+02-0.270E+02
CGA:   3    -0.428782217986E+03   -0.16715E+02   -0.16650E+02  3328   0.281E+02 0.703E+00
CGA:   4    -0.437893222467E+03   -0.91110E+01   -0.90906E+01  3328   0.103E+02 0.116E+00
CGA:   5    -0.440980098557E+03   -0.30869E+01   -0.31165E+01  3328   0.390E+01-0.322E+00
CGA:   6    -0.441981330222E+03   -0.10012E+01   -0.99909E+00  3328   0.137E+01 0.447E-01
CGA:   7    -0.442345801014E+03   -0.36447E+00   -0.36460E+00  3328   0.542E+00-0.202E-02
CGA:   8    -0.442486737763E+03   -0.14094E+00   -0.14098E+00  3328   0.203E+00-0.756E-03
CGA:   9    -0.442547038475E+03   -0.60301E-01   -0.60319E-01  3328   0.764E-01-0.222E-03
CGA:  10    -0.442572838330E+03   -0.25800E-01   -0.25791E-01  3328   0.306E-01 0.625E-04
CGA:  11    -0.442582165768E+03   -0.93274E-02   -0.93290E-02  3328   0.126E-01-0.337E-04
CGA:  12    -0.442585441603E+03   -0.32758E-02   -0.32762E-02  3328   0.472E-02-0.341E-04
CGA:  13    -0.442586740924E+03   -0.12993E-02   -0.12994E-02  3328   0.147E-02-0.124E-05
CGA:  14    -0.442587217605E+03   -0.47668E-03   -0.47722E-03  3328   0.537E-03-0.701E-05
CGA:  15    -0.442587391149E+03   -0.17354E-03   -0.17358E-03  3328   0.269E-03-0.544E-06
CGA:  16    -0.442587468159E+03   -0.77010E-04   -0.77112E-04  3328   0.124E-03-0.364E-05
CGA:  17    -0.442587506359E+03   -0.38200E-04   -0.38201E-04  3328   0.459E-04 0.120E-07
CGA:  18    -0.442587522433E+03   -0.16074E-04   -0.16183E-04  3328   0.186E-04-0.120E-05
CGA:  19    -0.442587527781E+03   -0.53484E-05   -0.53433E-05  3328   0.909E-05 0.210E-06
   1 F= -.44433590E+03 E0= -.44433107E+03  d E =-.965364E-02  mag=    -1.0058
