       N       E                     dE             d eps       ncg     rms          ort
DAV:   1     0.183732804598E+03    0.18373E+03   -0.97496E+04  3328   0.683E+02
DAV:   2    -0.419358118948E+03   -0.60309E+03   -0.60243E+03  3328   0.884E+01
DAV:   3    -0.445980322222E+03   -0.26622E+02   -0.26597E+02  3328   0.215E+01
DAV:   4    -0.445990839098E+03   -0.10517E-01   -0.10517E-01  3328   0.534E-01
DAV:   5    -0.445990901718E+03   -0.62620E-04   -0.62620E-04  3328   0.383E-02
SDA:   6    -0.445990901718E+03   -0.72760E-11   -0.62620E-04  3328   0.322E-07 0.000E+00
   1 F= -.44774924E+03 E0= -.44774430E+03  d E =-.986373E-02  mag=     3.3868
