C  N  Mo                                
   1.00000000000000     
    12.3000000000000007    0.0000000000000000    0.0000000000000000
    -6.1499999999999977   10.6521124665485960    0.0000000000000000
     0.0000000000000000    0.0000000000000000   20.0000000000000000
   C    N    Mo
    44     4     1
Direct
  0.9991679882549818  0.0008320286779835  0.7370196221924346
  0.1315742969203484  0.0649397986189797  0.7378945973429580
  0.1982521659767755  0.9982556254941244  0.7378823862311918
  0.3303935825192070  0.0631262962895889  0.7443528860278477
  0.3984897053973100  0.9974578872052504  0.7458605381253562
  0.5317037359531227  0.0665627645151972  0.7500714445273005
  0.5994137374748902  0.0004972606732636  0.7482982465939116
  0.7324456319283570  0.0691917755312801  0.7478688469602162
  0.7995440210393170  0.0021881613865347  0.7439537363100612
  0.9323830049971917  0.0676170028660152  0.7408254617214354
  0.9978118346231355  0.2004559836153916  0.7439537363360174
  0.1307932961698981  0.2651650127985334  0.7458913929068700
  0.1964440431248278  0.1970356221442486  0.7443910710914352
  0.3267278622209489  0.2607961053246726  0.7538008558956264
  0.3941358051160151  0.1934079520648311  0.7537972483255615
  0.5939302189432070  0.1996278392601525  0.7578127842068199
  0.7292064150511948  0.2707935803162158  0.7572010959517002
  0.7969197230939784  0.2030802721648399  0.7507438622426079
  0.9308082184394664  0.2675543684515986  0.7478688454452822
  0.9995027272070161  0.4005862624288881  0.7482982454679004
  0.1338380269999035  0.4661139970756238  0.7483136810404289
  0.1999000881443749  0.3983650726786578  0.7500854016234157
  0.3329773579860031  0.4605968059168788  0.7578082018253411
  0.8003721515904303  0.4060697778511582  0.7578127849623328
  0.9334372263956325  0.4682962651406797  0.7500714430336188
  0.0025421078876491  0.6015102987674936  0.7458605362578226
  0.1355343477305695  0.6662275612061137  0.7439176394133042
  0.2025024008974086  0.5990911180662835  0.7478420741883198
  0.3364135976492975  0.6635863956769086  0.7507188329734760
  0.4041070636173671  0.5958929314587138  0.7572104588797757
  0.5394031898020231  0.6670226330038176  0.7578082028545978
  0.7392038930532152  0.6732721353061777  0.7538008521707908
  0.8065920459048428  0.6058641956709963  0.7537972466136154
  0.9368737053575487  0.6696064281388274  0.7443528871632310
  0.0017443903727852  0.8017478504600746  0.7378823869265432
  0.1341736382070380  0.8658263798703416  0.7370222250276086
  0.2009536251236028  0.7990463833718451  0.7408135111979135
  0.3337724439871366  0.8644656489024953  0.7439176405587418
  0.4009088811088262  0.7974975914065396  0.7478420738135014
  0.5338860020974252  0.8661619607006799  0.7483136792939149
  0.6016349276928423  0.8000999026601576  0.7500853997674213
  0.7348349904036624  0.8692066990034775  0.7458913925181037
  0.8029643865868508  0.8035559581263882  0.7443910694068308
  0.9350602168637678  0.8684257194757095  0.7378945977301115
  0.5223333807976687  0.2566212903988898  0.7662354989995634
  0.3899485018334801  0.3890146587122842  0.7662386318241445
  0.7433787017881315  0.4776666155710672  0.7662354961414692
  0.6109853368302964  0.6100514904783978  0.7662386289648921
  0.5666663588390008  0.4333336350757264  0.7948076209266617
 
  0.00000000E+00  0.00000000E+00  0.00000000E+00
  0.00000000E+00  0.00000000E+00  0.00000000E+00
  0.00000000E+00  0.00000000E+00  0.00000000E+00
  0.00000000E+00  0.00000000E+00  0.00000000E+00
  0.00000000E+00  0.00000000E+00  0.00000000E+00
  0.00000000E+00  0.00000000E+00  0.00000000E+00
  0.00000000E+00  0.00000000E+00  0.00000000E+00
  0.00000000E+00  0.00000000E+00  0.00000000E+00
  0.00000000E+00  0.00000000E+00  0.00000000E+00
  0.00000000E+00  0.00000000E+00  0.00000000E+00
  0.00000000E+00  0.00000000E+00  0.00000000E+00
  0.00000000E+00  0.00000000E+00  0.00000000E+00
  0.00000000E+00  0.00000000E+00  0.00000000E+00
  0.00000000E+00  0.00000000E+00  0.00000000E+00
  0.00000000E+00  0.00000000E+00  0.00000000E+00
  0.00000000E+00  0.00000000E+00  0.00000000E+00
  0.00000000E+00  0.00000000E+00  0.00000000E+00
  0.00000000E+00  0.00000000E+00  0.00000000E+00
  0.00000000E+00  0.00000000E+00  0.00000000E+00
  0.00000000E+00  0.00000000E+00  0.00000000E+00
  0.00000000E+00  0.00000000E+00  0.00000000E+00
  0.00000000E+00  0.00000000E+00  0.00000000E+00
  0.00000000E+00  0.00000000E+00  0.00000000E+00
  0.00000000E+00  0.00000000E+00  0.00000000E+00
  0.00000000E+00  0.00000000E+00  0.00000000E+00
  0.00000000E+00  0.00000000E+00  0.00000000E+00
  0.00000000E+00  0.00000000E+00  0.00000000E+00
  0.00000000E+00  0.00000000E+00  0.00000000E+00
  0.00000000E+00  0.00000000E+00  0.00000000E+00
  0.00000000E+00  0.00000000E+00  0.00000000E+00
  0.00000000E+00  0.00000000E+00  0.00000000E+00
  0.00000000E+00  0.00000000E+00  0.00000000E+00
  0.00000000E+00  0.00000000E+00  0.00000000E+00
  0.00000000E+00  0.00000000E+00  0.00000000E+00
  0.00000000E+00  0.00000000E+00  0.00000000E+00
  0.00000000E+00  0.00000000E+00  0.00000000E+00
  0.00000000E+00  0.00000000E+00  0.00000000E+00
  0.00000000E+00  0.00000000E+00  0.00000000E+00
  0.00000000E+00  0.00000000E+00  0.00000000E+00
  0.00000000E+00  0.00000000E+00  0.00000000E+00
  0.00000000E+00  0.00000000E+00  0.00000000E+00
  0.00000000E+00  0.00000000E+00  0.00000000E+00
  0.00000000E+00  0.00000000E+00  0.00000000E+00
  0.00000000E+00  0.00000000E+00  0.00000000E+00
  0.00000000E+00  0.00000000E+00  0.00000000E+00
  0.00000000E+00  0.00000000E+00  0.00000000E+00
  0.00000000E+00  0.00000000E+00  0.00000000E+00
  0.00000000E+00  0.00000000E+00  0.00000000E+00
  0.00000000E+00  0.00000000E+00  0.00000000E+00
