       N       E                     dE             d eps       ncg     rms          ort
SDA:   1    -0.334122543219E+03   -0.33412E+03    0.00000E+00  3328   0.131E+03 0.000E+00
CGA:   2    -0.407741467233E+03   -0.73619E+02   -0.91032E+02  3328   0.914E+02-0.289E+02
CGA:   3    -0.425234210531E+03   -0.17493E+02   -0.17436E+02  3328   0.329E+02 0.148E+01
CGA:   4    -0.435273033599E+03   -0.10039E+02   -0.10019E+02  3328   0.132E+02 0.932E-01
CGA:   5    -0.438986650390E+03   -0.37136E+01   -0.37061E+01  3328   0.454E+01 0.745E-01
CGA:   6    -0.440344868475E+03   -0.13582E+01   -0.13640E+01  3328   0.154E+01-0.502E-01
CGA:   7    -0.440802400979E+03   -0.45753E+00   -0.45668E+00  3328   0.494E+00 0.991E-02
CGA:   8    -0.440962804626E+03   -0.16040E+00   -0.16049E+00  3328   0.168E+00-0.749E-03
CGA:   9    -0.441021027675E+03   -0.58223E-01   -0.58254E-01  3328   0.640E-01-0.212E-03
CGA:  10    -0.441043872374E+03   -0.22845E-01   -0.22852E-01  3328   0.231E-01-0.676E-04
CGA:  11    -0.441052074112E+03   -0.82017E-02   -0.82072E-02  3328   0.734E-02-0.520E-04
CGA:  12    -0.441054643039E+03   -0.25689E-02   -0.25703E-02  3328   0.218E-02-0.122E-04
CGA:  13    -0.441055438686E+03   -0.79565E-03   -0.79635E-03  3328   0.721E-03-0.652E-05
CGA:  14    -0.441055722397E+03   -0.28371E-03   -0.28420E-03  3328   0.269E-03-0.395E-05
CGA:  15    -0.441055833344E+03   -0.11095E-03   -0.11112E-03  3328   0.101E-03-0.122E-05
CGA:  16    -0.441055874263E+03   -0.40919E-04   -0.41043E-04  3328   0.337E-04-0.965E-06
CGA:  17    -0.441055887490E+03   -0.13227E-04   -0.13279E-04  3328   0.105E-04-0.463E-06
CGA:  18    -0.441055891677E+03   -0.41868E-05   -0.41899E-05  3328   0.343E-05-0.268E-07
   1 F= -.44279649E+03 E0= -.44279221E+03  d E =-.856967E-02  mag=     0.0000
