       N       E                     dE             d eps       ncg     rms          ort
DAV:   1     0.104947028416E+04    0.10495E+04   -0.87459E+04  3328   0.669E+02
DAV:   2    -0.367271083705E+03   -0.14167E+04   -0.14162E+04  3328   0.101E+02
DAV:   3    -0.442588124655E+03   -0.75317E+02   -0.75317E+02  3328   0.362E+01
DAV:   4    -0.443341752087E+03   -0.75363E+00   -0.75362E+00  3328   0.395E+00
DAV:   5    -0.443341881844E+03   -0.12976E-03   -0.12976E-03  3328   0.633E-02
SDA:   6    -0.443341881844E+03    0.00000E+00   -0.12976E-03  3328   0.192E-05 0.000E+00
   1 F= -.44523260E+03 E0= -.44523098E+03  d E =-.323076E-02  mag=    -0.0000
