       N       E                     dE             d eps       ncg     rms          ort
DAV:   1     0.991230810439E+03    0.99123E+03   -0.87178E+04  3328   0.669E+02
DAV:   2    -0.362847632241E+03   -0.13541E+04   -0.13536E+04  3328   0.948E+01
DAV:   3    -0.439867728442E+03   -0.77020E+02   -0.77020E+02  3328   0.361E+01
DAV:   4    -0.440799747584E+03   -0.93202E+00   -0.93202E+00  3328   0.447E+00
DAV:   5    -0.440799881292E+03   -0.13371E-03   -0.13371E-03  3328   0.648E-02
SDA:   6    -0.440799881292E+03    0.00000E+00   -0.13371E-03  3328   0.220E-05 0.000E+00
   1 F= -.44254092E+03 E0= -.44253984E+03  d E =-.215730E-02  mag=    -0.0000
