       N       E                     dE             d eps       ncg     rms          ort
DAV:   1     0.543153968716E+02    0.54315E+02   -0.43763E+03   256   0.373E+01
DAV:   2    -0.771590583904E-01   -0.54393E+02   -0.54393E+02   256   0.819E+00
DAV:   3    -0.123795412129E+00   -0.46636E-01   -0.46636E-01   256   0.328E-01
DAV:   4    -0.123867689716E+00   -0.72278E-04   -0.72278E-04   256   0.129E-02
DAV:   5    -0.123867693640E+00   -0.39240E-08   -0.38899E-08   256   0.101E-04
SDA:   6    -0.123815223127E+00    0.52471E-04   -0.38899E-08   256   0.332E-03 0.000E+00
CGA:   7    -0.123869817220E+00   -0.54594E-04   -0.54909E-04   256   0.139E-04 0.911E-05
CGA:   8    -0.123875016741E+00   -0.51995E-05   -0.50650E-05   256   0.463E-05 0.862E-06
   1 F= -.12387502E+00 E0= -.12387502E+00  d E =-.201065E-15
