C  N  Sn                                
   1.00000000000000     
    12.3000000000000007    0.0000000000000000    0.0000000000000000
    -6.1499999999999977   10.6521124665485960    0.0000000000000000
     0.0000000000000000    0.0000000000000000   20.0000000000000000
   C    N    Sn
    44     4     1
Direct
  0.9992979416210798  0.0007021666603493  0.7392195745605328
  0.1318137875253966  0.0651536376505780  0.7392587163192084
  0.1984576470758570  0.9984773646003915  0.7393242308521047
  0.3309498942977149  0.0638221292616350  0.7437398501724201
  0.3986871317127579  0.9978717627927828  0.7458691349636793
  0.5316989979965326  0.0668346430618066  0.7496333465390600
  0.5993197669102829  0.0005917519332238  0.7489444339443898
  0.7324712882012703  0.0692219706328926  0.7489434612286461
  0.7995469130062098  0.0021981641956665  0.7452200522020034
  0.9324355373104168  0.0675644503227634  0.7427642685764670
  0.9978017887150591  0.2004530500622051  0.7452200504617496
  0.1312345732855608  0.2653881948688324  0.7456964445295967
  0.1972146125820131  0.1976732830580105  0.7436420808023438
  0.3287143705239397  0.2632105876995476  0.7507169706657666
  0.3965086344342589  0.1953820213211197  0.7507845926594530
  0.5934489158069952  0.2010004603331215  0.7556042465379715
  0.7289494533205916  0.2710505421006027  0.7565226034692941
  0.7967245254690870  0.2032754661908560  0.7517306339961943
  0.9307780329682811  0.2675287230800234  0.7489434595257318
  0.9994082822858337  0.4006802274273187  0.7489444329810361
  0.1339164813119193  0.4659999777991016  0.7489107346678537
  0.2001951122167844  0.3983784499321305  0.7494968539351810
  0.3343519949356517  0.4601578373527893  0.7555222297443883
  0.7989995279478672  0.4065511013280479  0.7556042455902412
  0.9331653783757815  0.4683010171697327  0.7496333443979978
  0.0021281703041204  0.6013128707557531  0.7458691298370101
  0.1355766648943225  0.6662168627278763  0.7454124910756005
  0.2025610347145470  0.5991519951508149  0.7489668776343779
  0.3366305705348422  0.6633694108945154  0.7516668869965375
  0.4043710226969159  0.5956288127959881  0.7564809147103991
  0.5398423219773547  0.6656480602199756  0.7555222342946750
  0.7367893259994820  0.6712856082099259  0.7507169881166722
  0.8046179494984976  0.6034914661566094  0.7507845883617473
  0.9361778114625319  0.6690501130609628  0.7437398523122415
  0.0015226541290162  0.8015423661759392  0.7393242318302865
  0.1340597870335464  0.8659402241778360  0.7394289415711732
  0.2009023325799216  0.7990976934306996  0.7430377334315355
  0.3337831363174548  0.8644232788237034  0.7454124959787878
  0.4008479118353443  0.7974388554377393  0.7489668804844607
  0.5339999277728676  0.8660835276362295  0.7489107266937052
  0.6016215401441105  0.7998049403556671  0.7494968335331349
  0.7346117625366548  0.8687654831523743  0.7456964399099451
  0.8023267233358504  0.8027854911735525  0.7436420639919712
  0.9348464672415914  0.8681863062515002  0.7392587081069248
  0.5235313601616486  0.2593235556456430  0.7597046666727703
  0.3927000510573987  0.3902938680098216  0.7596611891566698
  0.7406764135983144  0.4764686460768206  0.7597046567235588
  0.6097059822595848  0.6072999799986046  0.7596612527894137
  0.5666704880769695  0.4333296028458946  0.8200452224631328
 
  0.00000000E+00  0.00000000E+00  0.00000000E+00
  0.00000000E+00  0.00000000E+00  0.00000000E+00
  0.00000000E+00  0.00000000E+00  0.00000000E+00
  0.00000000E+00  0.00000000E+00  0.00000000E+00
  0.00000000E+00  0.00000000E+00  0.00000000E+00
  0.00000000E+00  0.00000000E+00  0.00000000E+00
  0.00000000E+00  0.00000000E+00  0.00000000E+00
  0.00000000E+00  0.00000000E+00  0.00000000E+00
  0.00000000E+00  0.00000000E+00  0.00000000E+00
  0.00000000E+00  0.00000000E+00  0.00000000E+00
  0.00000000E+00  0.00000000E+00  0.00000000E+00
  0.00000000E+00  0.00000000E+00  0.00000000E+00
  0.00000000E+00  0.00000000E+00  0.00000000E+00
  0.00000000E+00  0.00000000E+00  0.00000000E+00
  0.00000000E+00  0.00000000E+00  0.00000000E+00
  0.00000000E+00  0.00000000E+00  0.00000000E+00
  0.00000000E+00  0.00000000E+00  0.00000000E+00
  0.00000000E+00  0.00000000E+00  0.00000000E+00
  0.00000000E+00  0.00000000E+00  0.00000000E+00
  0.00000000E+00  0.00000000E+00  0.00000000E+00
  0.00000000E+00  0.00000000E+00  0.00000000E+00
  0.00000000E+00  0.00000000E+00  0.00000000E+00
  0.00000000E+00  0.00000000E+00  0.00000000E+00
  0.00000000E+00  0.00000000E+00  0.00000000E+00
  0.00000000E+00  0.00000000E+00  0.00000000E+00
  0.00000000E+00  0.00000000E+00  0.00000000E+00
  0.00000000E+00  0.00000000E+00  0.00000000E+00
  0.00000000E+00  0.00000000E+00  0.00000000E+00
  0.00000000E+00  0.00000000E+00  0.00000000E+00
  0.00000000E+00  0.00000000E+00  0.00000000E+00
  0.00000000E+00  0.00000000E+00  0.00000000E+00
  0.00000000E+00  0.00000000E+00  0.00000000E+00
  0.00000000E+00  0.00000000E+00  0.00000000E+00
  0.00000000E+00  0.00000000E+00  0.00000000E+00
  0.00000000E+00  0.00000000E+00  0.00000000E+00
  0.00000000E+00  0.00000000E+00  0.00000000E+00
  0.00000000E+00  0.00000000E+00  0.00000000E+00
  0.00000000E+00  0.00000000E+00  0.00000000E+00
  0.00000000E+00  0.00000000E+00  0.00000000E+00
  0.00000000E+00  0.00000000E+00  0.00000000E+00
  0.00000000E+00  0.00000000E+00  0.00000000E+00
  0.00000000E+00  0.00000000E+00  0.00000000E+00
  0.00000000E+00  0.00000000E+00  0.00000000E+00
  0.00000000E+00  0.00000000E+00  0.00000000E+00
  0.00000000E+00  0.00000000E+00  0.00000000E+00
  0.00000000E+00  0.00000000E+00  0.00000000E+00
  0.00000000E+00  0.00000000E+00  0.00000000E+00
  0.00000000E+00  0.00000000E+00  0.00000000E+00
  0.00000000E+00  0.00000000E+00  0.00000000E+00
