       N       E                     dE             d eps       ncg     rms          rms(c)
DAV:   1    -0.471645309318E+03   -0.47165E+03   -0.11702E+02  8192   0.140E+01    0.292E+01
DAV:   2    -0.448255328878E+03    0.23390E+02   -0.35279E+01  6144   0.113E+01    0.145E+01
DAV:   3    -0.440998422925E+03    0.72569E+01   -0.12935E+01  7168   0.505E+00    0.636E+00
DAV:   4    -0.440418156338E+03    0.58027E+00   -0.30027E+00  7680   0.204E+00    0.213E+00
DAV:   5    -0.440612421409E+03   -0.19427E+00   -0.22985E-01  6656   0.536E-01    0.105E+00
DAV:   6    -0.440751105537E+03   -0.13868E+00   -0.79237E-02  7936   0.348E-01    0.441E-01
DAV:   7    -0.440902866191E+03   -0.15176E+00   -0.10806E-02  7168   0.169E-01    0.298E-01
DAV:   8    -0.440985467559E+03   -0.82601E-01   -0.47522E-02  8192   0.223E-01    0.163E-01
DAV:   9    -0.441009098462E+03   -0.23631E-01   -0.21250E-02  7168   0.146E-01    0.990E-02
DAV:  10    -0.441026120751E+03   -0.17022E-01   -0.53487E-03  7680   0.744E-02    0.612E-02
DAV:  11    -0.441039071137E+03   -0.12950E-01   -0.17109E-03  6912   0.477E-02    0.368E-02
DAV:  12    -0.441045643238E+03   -0.65721E-02   -0.53136E-04  7168   0.294E-02    0.225E-02
DAV:  13    -0.441050318148E+03   -0.46749E-02   -0.42381E-04  8192   0.197E-02    0.135E-02
DAV:  14    -0.441052828161E+03   -0.25100E-02   -0.23637E-04  6400   0.115E-02    0.732E-03
DAV:  15    -0.441054087173E+03   -0.12590E-02   -0.74778E-05  5888   0.704E-03    0.452E-03
DAV:  16    -0.441054602640E+03   -0.51547E-03   -0.31723E-05  4864   0.376E-03    0.283E-03
DAV:  17    -0.441054881003E+03   -0.27836E-03   -0.27206E-05  5888   0.290E-03    0.163E-03
DAV:  18    -0.441054974376E+03   -0.93373E-04   -0.55204E-06  7936   0.153E-03    0.109E-03
DAV:  19    -0.441055030294E+03   -0.55918E-04   -0.21516E-06  8192   0.882E-04    0.636E-04
DAV:  20    -0.441055062407E+03   -0.32112E-04   -0.69559E-07  7168   0.647E-04    0.424E-04
DAV:  21    -0.441055076920E+03   -0.14514E-04   -0.27075E-07  7168   0.398E-04    0.292E-04
DAV:  22    -0.441055084711E+03   -0.77901E-05   -0.13594E-07  8192   0.320E-04
   1 F= -.44279568E+03 E0= -.44279091E+03  d E =-.442796E+03  mag=     0.0003
       N       E                     dE             d eps       ncg     rms          rms(c)
DAV:   1    -0.441055395313E+03   -0.31839E-03   -0.36025E-02  5632   0.300E-01    0.404E-02
DAV:   2    -0.441055383245E+03    0.12069E-04   -0.47090E-04  7168   0.369E-02    0.232E-02
DAV:   3    -0.441055376756E+03    0.64886E-05   -0.45717E-05  6656   0.107E-02
   2 F= -.44279598E+03 E0= -.44279110E+03  d E =-.297721E-03  mag=     0.0002
