 vasp.5.4.4.18Apr17-6-g9f103f2a35 (build Nov 21 2023 15:34:30) complex          
  
 executed on             LinuxIFC date 2026.09.22  18:24:29
 running on  256 total cores
 distrk:  each k-point on  256 cores,    1 groups
 distr:  one band on NCORES_PER_BAND=   1 cores,  256 groups


--------------------------------------------------------------------------------------------------------


 INCAR:
 POTCAR:   PAW_PBE C 08Apr2002                    
 POTCAR:   PAW_PBE N 08Apr2002                    
 POTCAR:   PAW_PBE Sn_d 06Sep2000                 

 ----------------------------------------------------------------------------- 
|                                                                             |
|           W    W    AA    RRRRR   N    N  II  N    N   GGGG   !!!           |
|           W    W   A  A   R    R  NN   N  II  NN   N  G    G  !!!           |
|           W    W  A    A  R    R  N N  N  II  N N  N  G       !!!           |
|           W WW W  AAAAAA  RRRRR   N  N N  II  N  N N  G  GGG   !            |
|           WW  WW  A    A  R   R   N   NN  II  N   NN  G    G                |
|           W    W  A    A  R    R  N    N  II  N    N   GGGG   !!!           |
|                                                                             |
|      For optimal performance we recommend to set                            |
|        NCORE= 4 - approx SQRT( number of cores)                             |
|      NCORE specifies how many cores store one orbital (NPAR=cpu/NCORE).     |
|      This setting can  greatly improve the performance of VASP for DFT.     |
|      The default,   NCORE=1            might be grossly inefficient         |
|      on modern multi-core architectures or massively parallel machines.     |
|      Do your own testing !!!!                                               |
|      Unfortunately you need to use the default for GW and RPA calculations. |
|      (for HF NCORE is supported but not extensively tested yet)             |
|                                                                             |
 ----------------------------------------------------------------------------- 

 POTCAR:   PAW_PBE C 08Apr2002                    
   VRHFIN =C: s2p2                                                              
   LEXCH  = PE                                                                  
   EATOM  =   147.1560 eV,   10.8157 Ry                                         
                                                                                
   TITEL  = PAW_PBE C 08Apr2002                                                 
   LULTRA =        F    use ultrasoft PP ?                                      
   IUNSCR =        0    unscreen: 0-lin 1-nonlin 2-no                           
   RPACOR =     .000    partial core radius                                     
   POMASS =   12.011; ZVAL   =    4.000    mass and valenz                      
   RCORE  =    1.500    outmost cutoff radius                                   
   RWIGS  =    1.630; RWIGS  =     .863    wigner-seitz radius (au A)           
   ENMAX  =  400.000; ENMIN  =  300.000 eV                                      
   ICORE  =        2    local potential                                         
   LCOR   =        T    correct aug charges                                     
   LPAW   =        T    paw PP                                                  
   EAUG   =  644.873                                                            
   DEXC   =     .000                                                            
   RMAX   =    2.266    core radius for proj-oper                               
   RAUG   =    1.300    factor for augmentation sphere                          
   RDEP   =    1.501    radius for radial grids                                 
   RDEPT  =    1.300    core radius for aug-charge                              
   QCUT   =   -5.516; QGAM   =   11.032    optimization parameters              
                                                                                
   Description                                                                  
     l     E      TYP  RCUT    TYP  RCUT                                        
     0   .000     23  1.200                                                     
     0   .000     23  1.200                                                     
     1   .000     23  1.500                                                     
     1  2.500     23  1.500                                                     
     2   .000      7  1.500                                                     
  local pseudopotential read in
  atomic valenz-charges read in
  non local Contribution for L=           0  read in
    real space projection operators read in
  non local Contribution for L=           0  read in
    real space projection operators read in
  non local Contribution for L=           1  read in
    real space projection operators read in
  non local Contribution for L=           1  read in
    real space projection operators read in
    PAW grid and wavefunctions read in
 
   number of l-projection  operators is LMAX  =           4
   number of lm-projection operators is LMMAX =           8
 
 POTCAR:   PAW_PBE N 08Apr2002                    
   VRHFIN =N: s2p3                                                              
   LEXCH  = PE                                                                  
   EATOM  =   264.5486 eV,   19.4438 Ry                                         
                                                                                
   TITEL  = PAW_PBE N 08Apr2002                                                 
   LULTRA =        F    use ultrasoft PP ?                                      
   IUNSCR =        0    unscreen: 0-lin 1-nonlin 2-no                           
   RPACOR =     .000    partial core radius                                     
   POMASS =   14.001; ZVAL   =    5.000    mass and valenz                      
   RCORE  =    1.500    outmost cutoff radius                                   
   RWIGS  =    1.400; RWIGS  =     .741    wigner-seitz radius (au A)           
   ENMAX  =  400.000; ENMIN  =  300.000 eV                                      
   ICORE  =        2    local potential                                         
   LCOR   =        T    correct aug charges                                     
   LPAW   =        T    paw PP                                                  
   EAUG   =  627.112                                                            
   DEXC   =     .000                                                            
   RMAX   =    2.247    core radius for proj-oper                               
   RAUG   =    1.300    factor for augmentation sphere                          
   RDEP   =    1.514    radius for radial grids                                 
   QCUT   =   -5.562; QGAM   =   11.124    optimization parameters              
                                                                                
   Description                                                                  
     l     E      TYP  RCUT    TYP  RCUT                                        
     0   .000     23  1.200                                                     
     0   .000     23  1.200                                                     
     1   .000     23  1.500                                                     
     1   .700     23  1.500                                                     
     2   .000      7  1.500                                                     
  local pseudopotential read in
  atomic valenz-charges read in
  non local Contribution for L=           0  read in
    real space projection operators read in
  non local Contribution for L=           0  read in
    real space projection operators read in
  non local Contribution for L=           1  read in
    real space projection operators read in
  non local Contribution for L=           1  read in
    real space projection operators read in
    PAW grid and wavefunctions read in
 
   number of l-projection  operators is LMAX  =           4
   number of lm-projection operators is LMMAX =           8
 
 POTCAR:   PAW_PBE Sn_d 06Sep2000                 
   VRHFIN =Sn: s2p2                                                             
   LEXCH  = PE                                                                  
   EATOM  =  1893.0782 eV,  139.1373 Ry                                         
                                                                                
   TITEL  = PAW_PBE Sn_d 06Sep2000                                              
   LULTRA =        F    use ultrasoft PP ?                                      
   IUNSCR =        1    unscreen: 0-lin 1-nonlin 2-no                           
   RPACOR =    2.300    partial core radius                                     
   POMASS =  118.710; ZVAL   =   14.000    mass and valenz                      
   RCORE  =    2.500    outmost cutoff radius                                   
   RWIGS  =    2.960; RWIGS  =    1.566    wigner-seitz radius (au A)           
   ENMAX  =  241.090; ENMIN  =  180.817 eV                                      
   ICORE  =        3    local potential                                         
   LCOR   =        T    correct aug charges                                     
   LPAW   =        T    paw PP                                                  
   EAUG   =  439.825                                                            
   DEXC   =    -.001                                                            
   RMAX   =    2.969    core radius for proj-oper                               
   RAUG   =    1.300    factor for augmentation sphere                          
   RDEP   =    2.659    radius for radial grids                                 
   QCUT   =   -4.209; QGAM   =    8.419    optimization parameters              
                                                                                
   Description                                                                  
     l     E      TYP  RCUT    TYP  RCUT                                        
     2   .000     23  2.500                                                     
     2  -.400     23  2.500                                                     
     0   .000     23  2.500                                                     
     0  1.000     23  2.500                                                     
     1   .000     23  2.500                                                     
     1   .000     23  2.500                                                     
     3  -.100      7  2.500                                                     
  local pseudopotential read in
  partial core-charges read in
  atomic valenz-charges read in
  non local Contribution for L=           2  read in
    real space projection operators read in
  non local Contribution for L=           2  read in
    real space projection operators read in
  non local Contribution for L=           0  read in
    real space projection operators read in
  non local Contribution for L=           0  read in
    real space projection operators read in
  non local Contribution for L=           1  read in
    real space projection operators read in
  non local Contribution for L=           1  read in
    real space projection operators read in
    PAW grid and wavefunctions read in
 
   number of l-projection  operators is LMAX  =           6
   number of lm-projection operators is LMMAX =          18
 
 Optimization of the real space projectors (new method)

 maximal supplied QI-value         = 25.13
 optimisation between [QCUT,QGAM] = [ 11.56, 23.12] = [ 37.43,149.72] Ry 
 Optimized for a Real-space Cutoff    1.04 Angstroem

   l    n(q)    QCUT    max X(q) W(low)/X(q) W(high)/X(q)  e(spline) 
   0      7    11.561     5.582    0.47E-04    0.94E-04    0.17E-07
   0      7    11.561    69.432    0.20E-03    0.59E-03    0.21E-06
   1      7    11.561     2.780    0.24E-04    0.70E-04    0.44E-07
   1      7    11.561     4.549    0.18E-03    0.25E-03    0.12E-06
 Optimization of the real space projectors (new method)

 maximal supplied QI-value         = 25.13
 optimisation between [QCUT,QGAM] = [ 11.56, 23.12] = [ 37.43,149.72] Ry 
 Optimized for a Real-space Cutoff    1.40 Angstroem

   l    n(q)    QCUT    max X(q) W(low)/X(q) W(high)/X(q)  e(spline) 
   0     10    11.561     4.511    0.22E-04    0.14E-04    0.74E-07
   0     10    11.561    37.799    0.45E-04    0.77E-04    0.61E-06
   1      9    11.561     2.478    0.97E-05    0.16E-04    0.10E-06
   1      9    11.561    11.620    0.23E-03    0.13E-03    0.12E-05
 Optimization of the real space projectors (new method)

 maximal supplied QI-value         = 15.12
 optimisation between [QCUT,QGAM] = [ 11.64, 23.28] = [ 37.95,151.78] Ry 
 Optimized for a Real-space Cutoff    1.36 Angstroem

   l    n(q)    QCUT    max X(q) W(low)/X(q) W(high)/X(q)  e(spline) 
   2      9    11.641     6.369    0.11E-03    0.18E-03    0.58E-07
   2      9    11.641    10.755    0.17E-03    0.18E-03    0.15E-06
   0      9    11.641     8.594    0.12E-04    0.73E-06    0.48E-08
   0      9    11.641    13.234    0.13E-03    0.43E-04    0.95E-07
   1      9    11.641     7.249    0.80E-05    0.19E-04    0.11E-07
   1      9    11.641    72.638    0.24E-03    0.18E-03    0.20E-06
 PAW_PBE C 08Apr2002                    :
 energy of atom  1       EATOM= -147.1560
 kinetic energy error for atom=    0.0071 (will be added to EATOM!!)
 PAW_PBE N 08Apr2002                    :
 energy of atom  2       EATOM= -264.5486
 kinetic energy error for atom=    0.0125 (will be added to EATOM!!)
 PAW_PBE Sn_d 06Sep2000                 :
 energy of atom  3       EATOM=-1893.0782
 kinetic energy error for atom=    0.0026 (will be added to EATOM!!)
 
 
 POSCAR: C  N  Sn                                
  positions in direct lattice
  velocities in cartesian coordinates
 exchange correlation table for  LEXCH =        8
   RHO(1)=    0.500       N(1)  =     2000
   RHO(2)=  100.500       N(2)  =     4000

 VTST: version 3.2, (02/03/18)

 CHAIN: initializing optimizer
 
 OPT: Using VASP QUASI-newton optimizer
 CHAIN: Read ICHAIN            0
 
 POSCAR: C  N  Sn                                
  positions in direct lattice
  velocities in cartesian coordinates
 


--------------------------------------------------------------------------------------------------------


 ion  position               nearest neighbor table
   1  0.999  0.001  0.739-  44 1.41   2 1.41  10 1.43
   2  0.132  0.065  0.739-   1 1.41  13 1.41   3 1.42
   3  0.198  0.998  0.739-  36 1.41   4 1.41   2 1.42
   4  0.331  0.064  0.744-  15 1.41   3 1.41   5 1.42
   5  0.399  0.998  0.746-   6 1.42  38 1.42   4 1.42
   6  0.532  0.067  0.750-   5 1.42   7 1.43  16 1.44
   7  0.599  0.001  0.749-   8 1.42   6 1.43  40 1.43
   8  0.733  0.069  0.749-   7 1.42   9 1.43  18 1.43
   9  0.800  0.002  0.745-  10 1.42  42 1.42   8 1.43
  10  0.932  0.068  0.743-  11 1.42   9 1.42   1 1.43
  11  0.998  0.200  0.745-  10 1.42  12 1.42  19 1.43
  12  0.131  0.265  0.746-  22 1.42  11 1.42  13 1.42
  13  0.197  0.198  0.744-  14 1.41   2 1.41  12 1.42
  14  0.329  0.263  0.751-  46 1.37  13 1.41  15 1.45
  15  0.396  0.195  0.751-  45 1.37   4 1.41  14 1.45
  16  0.593  0.201  0.756-  45 1.37   6 1.44  17 1.44
  17  0.729  0.271  0.757-  24 1.44  16 1.44  18 1.45
  18  0.797  0.203  0.752-  19 1.43   8 1.43  17 1.45
  19  0.931  0.267  0.749-  20 1.42  11 1.43  18 1.43
  20  0.999  0.401  0.749-  19 1.42  25 1.43  21 1.43
  21  0.134  0.466  0.749-  28 1.42  22 1.43  20 1.43
  22  0.200  0.398  0.749-  12 1.42  21 1.43  23 1.44
  23  0.334  0.460  0.756-  46 1.37  22 1.44  30 1.44
  24  0.799  0.407  0.756-  47 1.37  25 1.44  17 1.44
  25  0.933  0.468  0.750-  26 1.42  20 1.43  24 1.44
  26  0.002  0.601  0.746-  25 1.42  27 1.42  34 1.42
  27  0.136  0.666  0.745-  37 1.42  26 1.42  28 1.43
  28  0.203  0.599  0.749-  21 1.42  29 1.43  27 1.43
  29  0.337  0.663  0.752-  28 1.43  39 1.43  30 1.45
  30  0.404  0.596  0.756-  31 1.44  23 1.44  29 1.45
  31  0.540  0.666  0.756-  48 1.37  41 1.44  30 1.44
  32  0.737  0.671  0.751-  48 1.37  43 1.41  33 1.45
  33  0.805  0.604  0.751-  47 1.37  34 1.41  32 1.45
  34  0.936  0.669  0.744-  33 1.41  35 1.41  26 1.42
  35  0.002  0.802  0.739-  36 1.41  34 1.41  44 1.42
  36  0.134  0.866  0.739-  35 1.41   3 1.41  37 1.43
  37  0.201  0.799  0.743-  27 1.42  38 1.42  36 1.43
  38  0.334  0.864  0.745-  37 1.42   5 1.42  39 1.43
  39  0.401  0.797  0.749-  40 1.42  29 1.43  38 1.43
  40  0.534  0.866  0.749-  39 1.42  41 1.43   7 1.43
  41  0.602  0.800  0.749-  42 1.42  40 1.43  31 1.44
  42  0.735  0.869  0.746-  41 1.42   9 1.42  43 1.42
  43  0.802  0.803  0.744-  32 1.41  44 1.41  42 1.42
  44  0.935  0.868  0.739-   1 1.41  43 1.41  35 1.42
  45  0.524  0.259  0.760-  15 1.37  16 1.37  49 2.28
  46  0.393  0.390  0.760-  14 1.37  23 1.37  49 2.28
  47  0.741  0.476  0.760-  33 1.37  24 1.37  49 2.28
  48  0.610  0.607  0.760-  32 1.37  31 1.37  49 2.28
  49  0.567  0.433  0.820-  47 2.28  45 2.28  48 2.28  46 2.28
 

IMPORTANT INFORMATION: All symmetrisations will be switched off!
NOSYMM: (Re-)initialisation of all symmetry stuff for point group C_1.

 
 
 KPOINTS: K-POINTS                                

Automatic generation of k-mesh.
Space group operators:
 irot       det(A)        alpha          n_x          n_y          n_z        tau_x        tau_y        tau_z
    1     1.000000     0.000000     1.000000     0.000000     0.000000     0.000000     0.000000     0.000000
 
 Subroutine IBZKPT returns following result:
 ===========================================
 
 Found      4 irreducible k-points:
 
 Following reciprocal coordinates:
            Coordinates               Weight
  0.000000  0.000000  0.000000      1.000000
  0.500000 -0.000000  0.000000      1.000000
  0.000000  0.500000  0.000000      1.000000
  0.500000  0.500000  0.000000      1.000000
 
 Following cartesian coordinates:
            Coordinates               Weight
  0.000000  0.000000  0.000000      1.000000
  0.040650  0.023470  0.000000      1.000000
  0.000000  0.046939  0.000000      1.000000
  0.040650  0.070409  0.000000      1.000000
 


--------------------------------------------------------------------------------------------------------




 Dimension of arrays:
   k-points           NKPTS =      4   k-points in BZ     NKDIM =      4   number of bands    NBANDS=    256
   number of dos      NEDOS =    301   number of ions     NIONS =     49
   non local maximal  LDIM  =      6   non local SUM 2l+1 LMDIM =     18
   total plane-waves  NPLWV = ******
   max r-space proj   IRMAX =   6161   max aug-charges    IRDMAX=  23756
   dimension x,y,z NGX =    96 NGY =   96 NGZ =  150
   dimension x,y,z NGXF=   192 NGYF=  192 NGZF=  300
   support grid    NGXF=   192 NGYF=  192 NGZF=  300
   ions per type =              44   4   1
   NGX,Y,Z   is equivalent  to a cutoff of  12.98, 12.98, 12.47 a.u.
   NGXF,Y,Z  is equivalent  to a cutoff of  25.95, 25.95, 24.94 a.u.

 SYSTEM =  Sn-N-C                                  
 POSCAR =  C  N  Sn                                

 Startparameter for this run:
   NWRITE =      2    write-flag & timer
   PREC   = accura    normal or accurate (medium, high low for compatibility)
   ISTART =      1    job   : 0-new  1-cont  2-samecut
   ICHARG =      1    charge: 1-file 2-atom 10-const
   ISPIN  =      2    spin polarized calculation?
   LNONCOLLINEAR =      F non collinear calculations
   LSORBIT =      F    spin-orbit coupling
   INIWAV =      1    electr: 0-lowe 1-rand  2-diag
   LASPH  =      T    aspherical Exc in radial PAW
   METAGGA=      F    non-selfconsistent MetaGGA calc.

 Electronic Relaxation 1
   ENCUT  =  520.0 eV  38.22 Ry    6.18 a.u.  22.87 22.87 37.19*2*pi/ulx,y,z
   ENINI  =  520.0     initial cutoff
   ENAUG  =  644.9 eV  augmentation charge cutoff
   NELM   =     80;   NELMIN=  2; NELMDL=  0     # of ELM steps 
   EDIFF  = 0.1E-04   stopping-criterion for ELM
   LREAL  =      T    real-space projection
   NLSPLINE    = F    spline interpolate recip. space projectors
   LCOMPAT=      F    compatible to vasp.4.4
   GGA_COMPAT  = T    GGA compatible to vasp.4.4-vasp.4.6
   LMAXPAW     = -100 max onsite density
   LMAXMIX     =    2 max onsite mixed and CHGCAR
   VOSKOWN=      0    Vosko Wilk Nusair interpolation
   ROPT   =   -0.00025  -0.00025  -0.00025
 Ionic relaxation
   EDIFFG = -.3E-01   stopping-criterion for IOM
   NSW    =    300    number of steps for IOM
   NBLOCK =      1;   KBLOCK =    300    inner block; outer block 
   IBRION =      1    ionic relax: 0-MD 1-quasi-New 2-CG
   NFREE  =      0    steps in history (QN), initial steepest desc. (CG)
   ISIF   =      2    stress and relaxation
   IWAVPR =     11    prediction:  0-non 1-charg 2-wave 3-comb
   ISYM   =      0    0-nonsym 1-usesym 2-fastsym
   LCORR  =      T    Harris-Foulkes like correction to forces

   POTIM  = 0.2000    time-step for ionic-motion
   TEIN   =    0.0    initial temperature
   TEBEG  =    0.0;   TEEND  =   0.0 temperature during run
   SMASS  =  -3.00    Nose mass-parameter (am)
   estimated Nose-frequenzy (Omega)   =  0.10E-29 period in steps =****** mass=  -0.346E-26a.u.
   SCALEE = 1.0000    scale energy and forces
   NPACO  =    256;   APACO  = 16.0  distance and # of slots for P.C.
   PSTRESS=    0.0 pullay stress

  Mass of Ions in am
   POMASS =  12.01 14.00118.71
  Ionic Valenz
   ZVAL   =   4.00  5.00 14.00
  Atomic Wigner-Seitz radii
   RWIGS  =  -1.00 -1.00 -1.00
  virtual crystal weights 
   VCA    =   1.00  1.00  1.00
   NELECT =     210.0000    total number of electrons
   NUPDOWN=      -1.0000    fix difference up-down

 DOS related values:
   EMIN   =  10.00;   EMAX   =-10.00  energy-range for DOS
   EFERMI =   0.00
   ISMEAR =     0;   SIGMA  =   0.10  broadening in eV -4-tet -1-fermi 0-gaus

 Electronic relaxation 2 (details)
   IALGO  =     38    algorithm
   LDIAG  =      T    sub-space diagonalisation (order eigenvalues)
   LSUBROT=      F    optimize rotation matrix (better conditioning)
   TURBO    =      0    0=normal 1=particle mesh
   IRESTART =      0    0=no restart 2=restart with 2 vectors
   NREBOOT  =      0    no. of reboots
   NMIN     =      0    reboot dimension
   EREF     =   0.00    reference energy to select bands
   IMIX   =      4    mixing-type and parameters
     AMIX     =   0.40;   BMIX     =  1.00
     AMIX_MAG =   1.60;   BMIX_MAG =  1.00
     AMIN     =   0.10
     WC   =   100.;   INIMIX=   1;  MIXPRE=   1;  MAXMIX= -45

 Intra band minimization:
   WEIMIN = 0.0010     energy-eigenvalue tresh-hold
   EBREAK =  0.98E-08  absolut break condition
   DEPER  =   0.30     relativ break condition  

   TIME   =   0.40     timestep for ELM

  volume/ion in A,a.u.               =      53.48       360.89
  Fermi-wavevector in a.u.,A,eV,Ry     =   0.705815  1.333797  6.778083  0.498175
  Thomas-Fermi vector in A             =   1.791428
 
 Write flags
   LWAVE        =      T    write WAVECAR
   LDOWNSAMPLE  =      F    k-point downsampling of WAVECAR
   LCHARG       =      T    write CHGCAR
   LVTOT        =      F    write LOCPOT, total local potential
   LVHAR        =      F    write LOCPOT, Hartree potential only
   LELF         =      F    write electronic localiz. function (ELF)
   LORBIT       =      0    0 simple, 1 ext, 2 COOP (PROOUT), +10 PAW based schemes


 Dipole corrections
   LMONO  =      F    monopole corrections only (constant potential shift)
   LDIPOL =      F    correct potential (dipole corrections)
   IDIPOL =      0    1-x, 2-y, 3-z, 4-all directions 
   EPSILON=  1.0000000 bulk dielectric constant

 Exchange correlation treatment:
   GGA     =    --    GGA type
   LEXCH   =     8    internal setting for exchange type
   VOSKOWN=      0    Vosko Wilk Nusair interpolation
   LHFCALC =     F    Hartree Fock is set to
   LHFONE  =     F    Hartree Fock one center treatment
   AEXX    =    0.0000 exact exchange contribution

 Linear response parameters
   LEPSILON=     F    determine dielectric tensor
   LRPA    =     F    only Hartree local field effects (RPA)
   LNABLA  =     F    use nabla operator in PAW spheres
   LVEL    =     F    velocity operator in full k-point grid
   LINTERFAST=   F  fast interpolation
   KINTER  =     0    interpolate to denser k-point grid
   CSHIFT  =0.1000    complex shift for real part using Kramers Kronig
   OMEGAMAX=  -1.0    maximum frequency
   DEG_THRESHOLD= 0.2000000E-02 threshold for treating states as degnerate
   RTIME   =   -0.100 relaxation time in fs
  (WPLASMAI=    0.000 imaginary part of plasma frequency in eV, 0.658/RTIME)
   DFIELD  = 0.0000000 0.0000000 0.0000000 field for delta impulse in time
 
 Orbital magnetization related:
   ORBITALMAG=     F  switch on orbital magnetization
   LCHIMAG   =     F  perturbation theory with respect to B field
   DQ        =  0.001000  dq finite difference perturbation B field
   LLRAUG    =     F  two centre corrections for induced B field



--------------------------------------------------------------------------------------------------------


 quasi-Newton-method for relaxation of ions
 charge density and potential will be updated during run
 spin polarized calculation
 Variant of blocked Davidson
 Davidson routine will perform the subspace rotation
 perform sub-space diagonalisation
    after iterative eigenvector-optimisation
 modified Broyden-mixing scheme, WC =      100.0
 initial mixing is a Kerker type mixing with AMIX =  0.4000 and BMIX =      1.0000
 Hartree-type preconditioning will be used
 using additional bands          151
 real space projection scheme for non local part
 use partial core corrections
 calculate Harris-corrections to forces 
   (improved forces if not selfconsistent)
 use gradient corrections 
 use of overlap-Matrix (Vanderbilt PP)
 Gauss-broadening in eV      SIGMA  =   0.10


--------------------------------------------------------------------------------------------------------


  energy-cutoff  :      520.00
  volume of cell :     2620.42
      direct lattice vectors                 reciprocal lattice vectors
    12.300000000  0.000000000  0.000000000     0.081300813  0.046939046  0.000000000
    -6.150000000 10.652112467  0.000000000     0.000000000  0.093878093  0.000000000
     0.000000000  0.000000000 20.000000000     0.000000000  0.000000000  0.050000000

  length of vectors
    12.300000000 12.300000000 20.000000000     0.093878093  0.093878093  0.050000000


 
 old parameters found on file WAVECAR:
  energy-cutoff  :      520.00
  volume of cell :     2620.42
      direct lattice vectors                 reciprocal lattice vectors
    12.300000000  0.000000000  0.000000000     0.081300813  0.046939046  0.000000000
    -6.150000000 10.652112467  0.000000000     0.000000000  0.093878093  0.000000000
     0.000000000  0.000000000 20.000000000     0.000000000  0.000000000  0.050000000

  length of vectors

 
 k-points in units of 2pi/SCALE and weight: K-POINTS                                
   0.00000000  0.00000000  0.00000000       0.250
   0.04065041  0.02346952  0.00000000       0.250
   0.00000000  0.04693905  0.00000000       0.250
   0.04065041  0.07040857  0.00000000       0.250
 
 k-points in reciprocal lattice and weights: K-POINTS                                
   0.00000000  0.00000000  0.00000000       0.250
   0.50000000 -0.00000000  0.00000000       0.250
   0.00000000  0.50000000  0.00000000       0.250
   0.50000000  0.50000000  0.00000000       0.250
 
 position of ions in fractional coordinates (direct lattice) 
   0.99926882  0.00073123  0.73920863
   0.13181445  0.06512815  0.73928132
   0.19845106  0.99847378  0.73932025
   0.33099566  0.06385034  0.74374179
   0.39868850  0.99788045  0.74585595
   0.53165761  0.06683982  0.74963660
   0.59927376  0.00058358  0.74894013
   0.73251641  0.06920032  0.74892430
   0.79957485  0.00219275  0.74522604
   0.93243500  0.06756504  0.74276942
   0.99780721  0.20042513  0.74522604
   0.13127352  0.26541489  0.74568403
   0.19722574  0.19769593  0.74365738
   0.32870234  0.26324701  0.75070779
   0.39644214  0.19529156  0.75078156
   0.59348941  0.20105494  0.75561422
   0.72894212  0.27105789  0.75651166
   0.79669077  0.20330924  0.75176180
   0.93079968  0.26748359  0.74892429
   0.99941643  0.40072624  0.74894013
   0.13393215  0.46597683  0.74890892
   0.20016552  0.39838375  0.74949074
   0.33438662  0.46020409  0.75552728
   0.79894508  0.40651059  0.75561422
   0.93316016  0.46834238  0.74963660
   0.00211952  0.60131150  0.74585594
   0.13557780  0.66620573  0.74540498
   0.20260738  0.59914374  0.74895891
   0.33661662  0.66338316  0.75167581
   0.40435055  0.59564997  0.75649575
   0.53979556  0.66561354  0.75552726
   0.73675298  0.67129792  0.75070779
   0.80470835  0.60355788  0.75078157
   0.93614958  0.66900431  0.74374179
   0.00152625  0.80154898  0.73932025
   0.13404375  0.86595627  0.73944845
   0.20090604  0.79909395  0.74306254
   0.33379430  0.86442216  0.74540498
   0.40085620  0.79739245  0.74895892
   0.53402316  0.86606792  0.74890891
   0.60161608  0.79983453  0.74949071
   0.73458503  0.86872642  0.74568403
   0.80230421  0.80277446  0.74365736
   0.93487196  0.86818565  0.73928132
   0.52355002  0.25932440  0.75969916
   0.39272269  0.39028879  0.75966268
   0.74067556  0.47644995  0.75969915
   0.60971114  0.60727688  0.75966280
   0.56667226  0.43332787  0.82001984
 
 position of ions in cartesian coordinates  (Angst):
  12.28650943  0.00778917 14.78417250
   1.22077962  0.69375239 14.78562644
  -3.69966568 10.63585495 14.78640505
   3.67856703  0.68014103 14.87483583
  -1.23309623 10.62953476 14.91711899
   6.12832374  0.71198531 14.99273204
   7.36747817  0.00621639 14.97880256
   8.58436983  0.73712959 14.97848593
   9.82128518  0.02335744 14.90452080
  11.05342546  0.71971038 14.85538848
  11.04041418  2.13495104 14.90452078
  -0.01763732  2.82722931 14.91368062
   1.21004661  2.10587930 14.87314761
   2.42406966  2.80413675 15.01415588
   3.67519520  2.08026762 15.01563124
   6.06343192  2.14165980 15.11228437
   7.29898207  2.88733914 15.13023316
   8.54894463  2.16567286 15.03523599
   9.80381196  2.84926531 14.97848589
   9.82835566  4.26858102 14.97880252
  -1.21839209  4.96363756 14.97817841
   0.01197578  4.24362856 14.98981477
   1.28270022  4.90214575 15.11054569
   7.32698433  4.33019656 15.11228432
   8.59756435  4.98883576 14.99273204
  -3.67199567  6.40523774 14.91711887
  -2.42955831  7.09649833 14.90809957
  -1.19266316  6.38214648 14.97917822
   0.06057803  7.06643202 15.03351626
   1.31026440  6.34493050 15.12991492
   2.54596211  7.09019028 15.11054525
   4.93357949  7.15074094 15.01415585
   6.18603171  6.42916647 15.01563134
   7.40026329  7.12630920 14.87483588
  -4.91075332  8.53818991 14.78640506
  -3.67689292  9.22426360 14.78896897
  -2.44328351  8.51203868 14.86125080
  -1.21052641  9.20792211 14.90809964
   0.02656775  8.49391401 14.97917833
   1.24216722  9.22545285 14.97817829
   2.48089540  8.51992741 14.98981427
   3.69272843  9.25377156 14.91368065
   4.93127880  8.55124382 14.87314713
   6.15958334  9.24801124 14.78562630
   4.84482020  2.76235269 15.19398327
   2.43021308  4.15740008 15.19325356
   6.18014212  5.07519850 15.19398302
   3.76469419  6.46878167 15.19325591
   4.30510242  4.61585718 16.40039672
 


--------------------------------------------------------------------------------------------------------


 k-point  1 :   0.0000 0.0000 0.0000  plane waves:   70503
 k-point  2 :   0.5000-0.0000 0.0000  plane waves:   70542
 k-point  3 :   0.0000 0.5000 0.0000  plane waves:   70542
 k-point  4 :   0.5000 0.5000 0.0000  plane waves:   70542

 maximum and minimum number of plane-waves per node :     70542    70503

 maximum number of plane-waves:     70542
 maximum index in each direction: 
   IXMAX=   22   IYMAX=   22   IZMAX=   37
   IXMIN=  -23   IYMIN=  -23   IZMIN=  -37


 serial   3D FFT for wavefunctions
 parallel 3D FFT for charge:
    minimum data exchange during FFTs selected (reduces bandwidth)


 total amount of memory used by VASP MPI-rank0   179383. kBytes
=======================================================================

   base      :      30000. kBytes
   nonlr-proj:      15220. kBytes
   fftplans  :       7547. kBytes
   grid      :     115983. kBytes
   one-center:       1524. kBytes
   wavefun   :       9109. kBytes
 
     INWAV:  cpu time   18.4244: real time   18.6089
 Broyden mixing: mesh for mixing (old mesh)
   NGX = 45   NGY = 45   NGZ = 75
  (NGX  =192   NGY  =192   NGZ  =300)
  gives a total of 151875 points

 initial charge density was supplied:
 charge density of overlapping atoms calculated
 number of electron     210.0000000 magnetization       2.0000000
 keeping initial charge density in first step


--------------------------------------------------------------------------------------------------------


 Maximum index for non-local projection operator         5939
 Maximum index for augmentation-charges          361 (set IRDMAX)


--------------------------------------------------------------------------------------------------------


 First call to EWALD:  gamma=   0.129
 Maximum number of real-space cells 3x 3x 2
 Maximum number of reciprocal cells 3x 3x 4

    FEWALD:  cpu time    0.0138: real time    0.0240


--------------------------------------- Iteration      1(   1)  ---------------------------------------


    POTLOK:  cpu time    2.5795: real time    2.7252
    SETDIJ:  cpu time    0.4730: real time    0.5082
     EDDAV:  cpu time   87.2865: real time   90.1668
       DOS:  cpu time    0.0653: real time    0.0939
    CHARGE:  cpu time    1.9256: real time    2.0406
    MIXING:  cpu time    0.0445: real time    0.0714
    --------------------------------------------
      LOOP:  cpu time   92.3744: real time   95.6062

 eigenvalue-minimisations  :  8192
 total energy-change (2. order) :-0.4716453E+03  (-0.1170172E+02)
 number of electron     210.0000002 magnetization       1.7500907
 augmentation part       13.2198395 magnetization       1.4442359

 Broyden mixing:
  rms(total) = 0.29231E+01    rms(broyden)= 0.29226E+01
  rms(prec ) = 0.31710E+01
  weight for this iteration     100.00

 Free energy of the ion-electron system (eV)
  ---------------------------------------------------
  alpha Z        PSCENC =        85.12044892
  Ewald energy   TEWEN  =     34332.05317561
  -Hartree energ DENC   =    -41522.23614240
  -exchange      EXHF   =         0.00000000
  -V(xc)+E(xc)   XCENC  =       743.87653626
  PAW double counting   =      3484.54782489    -3577.81411696
  entropy T*S    EENTRO =        -0.05714855
  eigenvalues    EBANDS =     -3442.90710163
  atomic energy  EATOM  =      9425.77121454
  Solvation  Ediel_sol  =         0.00000000
  ---------------------------------------------------
  free energy    TOTEN  =      -471.64530932 eV

  energy without entropy =     -471.58816077  energy(sigma->0) =     -471.61673504


--------------------------------------------------------------------------------------------------------




--------------------------------------- Iteration      1(   2)  ---------------------------------------


    POTLOK:  cpu time    2.4239: real time    2.5062
    SETDIJ:  cpu time    0.4272: real time    0.4532
     EDDAV:  cpu time   53.1420: real time   55.1310
       DOS:  cpu time    0.0605: real time    0.0605
    CHARGE:  cpu time    1.8828: real time    1.9436
    MIXING:  cpu time    0.0432: real time    0.0537
    --------------------------------------------
      LOOP:  cpu time   57.9796: real time   60.1483

 eigenvalue-minimisations  :  6144
 total energy-change (2. order) : 0.2338998E+02  (-0.3527883E+01)
 number of electron     210.0000002 magnetization       1.4492754
 augmentation part       12.7726818 magnetization       1.2278294

 Broyden mixing:
  rms(total) = 0.14516E+01    rms(broyden)= 0.14515E+01
  rms(prec ) = 0.15788E+01
  weight for this iteration     100.00

 eigenvalues of (default mixing * dielectric matrix)
  average eigenvalue GAMMA=   0.9824
  0.9824

 Free energy of the ion-electron system (eV)
  ---------------------------------------------------
  alpha Z        PSCENC =        85.12044892
  Ewald energy   TEWEN  =     34332.05317561
  -Hartree energ DENC   =    -41804.79385570
  -exchange      EXHF   =         0.00000000
  -V(xc)+E(xc)   XCENC  =       756.88453220
  PAW double counting   =      4171.50995131    -4267.28520826
  entropy T*S    EENTRO =        -0.02401745
  eigenvalues    EBANDS =     -3147.49157006
  atomic energy  EATOM  =      9425.77121454
  Solvation  Ediel_sol  =         0.00000000
  ---------------------------------------------------
  free energy    TOTEN  =      -448.25532888 eV

  energy without entropy =     -448.23131143  energy(sigma->0) =     -448.24332016


--------------------------------------------------------------------------------------------------------




--------------------------------------- Iteration      1(   3)  ---------------------------------------


    POTLOK:  cpu time    2.4346: real time    2.5418
    SETDIJ:  cpu time    0.4563: real time    0.4563
     EDDAV:  cpu time   71.6541: real time   73.8951
       DOS:  cpu time    0.0585: real time    0.0585
    CHARGE:  cpu time    1.8625: real time    1.9673
    MIXING:  cpu time    0.0536: real time    0.0536
    --------------------------------------------
      LOOP:  cpu time   76.5196: real time   78.9727

 eigenvalue-minimisations  :  7168
 total energy-change (2. order) : 0.7256906E+01  (-0.1293466E+01)
 number of electron     210.0000002 magnetization       1.1772283
 augmentation part       12.5832678 magnetization       1.1349442

 Broyden mixing:
  rms(total) = 0.63562E+00    rms(broyden)= 0.63555E+00
  rms(prec ) = 0.68320E+00
  weight for this iteration     100.00

 eigenvalues of (default mixing * dielectric matrix)
  average eigenvalue GAMMA=   1.3081
  0.7198  1.8965

 Free energy of the ion-electron system (eV)
  ---------------------------------------------------
  alpha Z        PSCENC =        85.12044892
  Ewald energy   TEWEN  =     34332.05317561
  -Hartree energ DENC   =    -42027.80955311
  -exchange      EXHF   =         0.00000000
  -V(xc)+E(xc)   XCENC  =       766.99010646
  PAW double counting   =      4743.93962725    -4843.35588985
  entropy T*S    EENTRO =        -0.01302952
  eigenvalues    EBANDS =     -2923.69452322
  atomic energy  EATOM  =      9425.77121454
  Solvation  Ediel_sol  =         0.00000000
  ---------------------------------------------------
  free energy    TOTEN  =      -440.99842292 eV

  energy without entropy =     -440.98539340  energy(sigma->0) =     -440.99190816


--------------------------------------------------------------------------------------------------------




--------------------------------------- Iteration      1(   4)  ---------------------------------------


    POTLOK:  cpu time    2.3878: real time    2.4641
    SETDIJ:  cpu time    0.4250: real time    0.4519
     EDDAV:  cpu time   77.6743: real time   80.2596
       DOS:  cpu time    0.0615: real time    0.0769
    CHARGE:  cpu time    1.8970: real time    1.9301
    MIXING:  cpu time    0.0493: real time    0.0493
    --------------------------------------------
      LOOP:  cpu time   82.4949: real time   85.2319

 eigenvalue-minimisations  :  7680
 total energy-change (2. order) : 0.5802666E+00  (-0.3002729E+00)
 number of electron     210.0000002 magnetization       0.9378570
 augmentation part       12.4934793 magnetization       0.9115140

 Broyden mixing:
  rms(total) = 0.21305E+00    rms(broyden)= 0.21299E+00
  rms(prec ) = 0.24302E+00
  weight for this iteration     100.00

 eigenvalues of (default mixing * dielectric matrix)
  average eigenvalue GAMMA=   1.2945
  2.0501  1.1248  0.7085

 Free energy of the ion-electron system (eV)
  ---------------------------------------------------
  alpha Z        PSCENC =        85.12044892
  Ewald energy   TEWEN  =     34332.05317561
  -Hartree energ DENC   =    -42154.38154444
  -exchange      EXHF   =         0.00000000
  -V(xc)+E(xc)   XCENC  =       771.50541751
  PAW double counting   =      5045.12863883    -5146.34335154
  entropy T*S    EENTRO =        -0.00992771
  eigenvalues    EBANDS =     -2799.26222805
  atomic energy  EATOM  =      9425.77121454
  Solvation  Ediel_sol  =         0.00000000
  ---------------------------------------------------
  free energy    TOTEN  =      -440.41815634 eV

  energy without entropy =     -440.40822863  energy(sigma->0) =     -440.41319248


--------------------------------------------------------------------------------------------------------




--------------------------------------- Iteration      1(   5)  ---------------------------------------


    POTLOK:  cpu time    2.4008: real time    2.4459
    SETDIJ:  cpu time    0.4394: real time    0.4548
     EDDAV:  cpu time   63.5497: real time   65.5930
       DOS:  cpu time    0.0585: real time    0.0585
    CHARGE:  cpu time    1.8310: real time    1.9321
    MIXING:  cpu time    0.0468: real time    0.0469
    --------------------------------------------
      LOOP:  cpu time   68.3263: real time   70.5312

 eigenvalue-minimisations  :  6656
 total energy-change (2. order) :-0.1942651E+00  (-0.2298476E-01)
 number of electron     210.0000002 magnetization       0.6837589
 augmentation part       12.4904476 magnetization       0.6645294

 Broyden mixing:
  rms(total) = 0.10515E+00    rms(broyden)= 0.10514E+00
  rms(prec ) = 0.13235E+00
  weight for this iteration     100.00

 eigenvalues of (default mixing * dielectric matrix)
  average eigenvalue GAMMA=   1.3871
  2.2320  1.8072  0.8124  0.6967

 Free energy of the ion-electron system (eV)
  ---------------------------------------------------
  alpha Z        PSCENC =        85.12044892
  Ewald energy   TEWEN  =     34332.05317561
  -Hartree energ DENC   =    -42200.48660431
  -exchange      EXHF   =         0.00000000
  -V(xc)+E(xc)   XCENC  =       772.08621194
  PAW double counting   =      5100.18960712    -5201.55284281
  entropy T*S    EENTRO =        -0.01027413
  eigenvalues    EBANDS =     -2753.78335829
  atomic energy  EATOM  =      9425.77121454
  Solvation  Ediel_sol  =         0.00000000
  ---------------------------------------------------
  free energy    TOTEN  =      -440.61242141 eV

  energy without entropy =     -440.60214728  energy(sigma->0) =     -440.60728434


--------------------------------------------------------------------------------------------------------




--------------------------------------- Iteration      1(   6)  ---------------------------------------


    POTLOK:  cpu time    2.3818: real time    2.4605
    SETDIJ:  cpu time    0.4255: real time    0.4501
     EDDAV:  cpu time   79.5022: real time   82.0736
       DOS:  cpu time    0.0612: real time    0.0612
    CHARGE:  cpu time    1.9092: real time    1.9865
    MIXING:  cpu time    0.0532: real time    0.0532
    --------------------------------------------
      LOOP:  cpu time   84.3332: real time   87.0851

 eigenvalue-minimisations  :  7936
 total energy-change (2. order) :-0.1386841E+00  (-0.7923733E-02)
 number of electron     210.0000002 magnetization       0.5429677
 augmentation part       12.4962924 magnetization       0.5296856

 Broyden mixing:
  rms(total) = 0.44086E-01    rms(broyden)= 0.44083E-01
  rms(prec ) = 0.70045E-01
  weight for this iteration     100.00

 eigenvalues of (default mixing * dielectric matrix)
  average eigenvalue GAMMA=   1.3747
  2.5035  1.9887  0.9744  0.7537  0.6533

 Free energy of the ion-electron system (eV)
  ---------------------------------------------------
  alpha Z        PSCENC =        85.12044892
  Ewald energy   TEWEN  =     34332.05317561
  -Hartree energ DENC   =    -42240.09126239
  -exchange      EXHF   =         0.00000000
  -V(xc)+E(xc)   XCENC  =       772.38126655
  PAW double counting   =      5116.84384578    -5217.99641455
  entropy T*S    EENTRO =        -0.01037479
  eigenvalues    EBANDS =     -2714.82300521
  atomic energy  EATOM  =      9425.77121454
  Solvation  Ediel_sol  =         0.00000000
  ---------------------------------------------------
  free energy    TOTEN  =      -440.75110554 eV

  energy without entropy =     -440.74073074  energy(sigma->0) =     -440.74591814


--------------------------------------------------------------------------------------------------------




--------------------------------------- Iteration      1(   7)  ---------------------------------------


    POTLOK:  cpu time    2.4265: real time    2.5134
    SETDIJ:  cpu time    0.4538: real time    0.4539
     EDDAV:  cpu time   69.2505: real time   71.3576
       DOS:  cpu time    0.0580: real time    0.0580
    CHARGE:  cpu time    1.8054: real time    1.9022
    MIXING:  cpu time    0.0531: real time    0.0531
    --------------------------------------------
      LOOP:  cpu time   74.0473: real time   76.3382

 eigenvalue-minimisations  :  7168
 total energy-change (2. order) :-0.1517607E+00  (-0.1080573E-02)
 number of electron     210.0000002 magnetization       0.2760793
 augmentation part       12.4971032 magnetization       0.2643953

 Broyden mixing:
  rms(total) = 0.29832E-01    rms(broyden)= 0.29831E-01
  rms(prec ) = 0.52649E-01
  weight for this iteration     100.00

 eigenvalues of (default mixing * dielectric matrix)
  average eigenvalue GAMMA=   1.4076
  2.6291  2.1245  1.4062  0.8987  0.7458  0.6415

 Free energy of the ion-electron system (eV)
  ---------------------------------------------------
  alpha Z        PSCENC =        85.12044892
  Ewald energy   TEWEN  =     34332.05317561
  -Hartree energ DENC   =    -42260.59004821
  -exchange      EXHF   =         0.00000000
  -V(xc)+E(xc)   XCENC  =       772.42843389
  PAW double counting   =      5114.20218215    -5215.16411377
  entropy T*S    EENTRO =        -0.01027186
  eigenvalues    EBANDS =     -2694.71388746
  atomic energy  EATOM  =      9425.77121454
  Solvation  Ediel_sol  =         0.00000000
  ---------------------------------------------------
  free energy    TOTEN  =      -440.90286619 eV

  energy without entropy =     -440.89259433  energy(sigma->0) =     -440.89773026


--------------------------------------------------------------------------------------------------------




--------------------------------------- Iteration      1(   8)  ---------------------------------------


    POTLOK:  cpu time    2.3994: real time    2.4537
    SETDIJ:  cpu time    0.4438: real time    0.4693
     EDDAV:  cpu time   83.2857: real time   85.3218
       DOS:  cpu time    0.0551: real time    0.0551
    CHARGE:  cpu time    1.9453: real time    1.9455
    MIXING:  cpu time    0.0539: real time    0.0539
    --------------------------------------------
      LOOP:  cpu time   88.1832: real time   90.2993

 eigenvalue-minimisations  :  8192
 total energy-change (2. order) :-0.8260137E-01  (-0.4752153E-02)
 number of electron     210.0000002 magnetization       0.0979869
 augmentation part       12.4955921 magnetization       0.0920441

 Broyden mixing:
  rms(total) = 0.16304E-01    rms(broyden)= 0.16302E-01
  rms(prec ) = 0.29439E-01
  weight for this iteration     100.00

 eigenvalues of (default mixing * dielectric matrix)
  average eigenvalue GAMMA=   1.5664
  3.4297  2.4469  1.8226  1.0623  0.8163  0.7494  0.6377

 Free energy of the ion-electron system (eV)
  ---------------------------------------------------
  alpha Z        PSCENC =        85.12044892
  Ewald energy   TEWEN  =     34332.05317561
  -Hartree energ DENC   =    -42298.36281539
  -exchange      EXHF   =         0.00000000
  -V(xc)+E(xc)   XCENC  =       772.68010518
  PAW double counting   =      5102.52768612    -5203.20270897
  entropy T*S    EENTRO =        -0.00993746
  eigenvalues    EBANDS =     -2657.56263612
  atomic energy  EATOM  =      9425.77121454
  Solvation  Ediel_sol  =         0.00000000
  ---------------------------------------------------
  free energy    TOTEN  =      -440.98546756 eV

  energy without entropy =     -440.97553010  energy(sigma->0) =     -440.98049883


--------------------------------------------------------------------------------------------------------




--------------------------------------- Iteration      1(   9)  ---------------------------------------


    POTLOK:  cpu time    2.5081: real time    2.5092
    SETDIJ:  cpu time    0.4654: real time    0.4654
     EDDAV:  cpu time   71.9598: real time   71.9680
       DOS:  cpu time    0.0565: real time    0.0565
    CHARGE:  cpu time    1.9000: real time    1.9003
    MIXING:  cpu time    0.0573: real time    0.0573
    --------------------------------------------
      LOOP:  cpu time   76.9470: real time   76.9566

 eigenvalue-minimisations  :  7168
 total energy-change (2. order) :-0.2363090E-01  (-0.2125049E-02)
 number of electron     210.0000002 magnetization       0.0234361
 augmentation part       12.4951927 magnetization       0.0208054

 Broyden mixing:
  rms(total) = 0.99021E-02    rms(broyden)= 0.99008E-02
  rms(prec ) = 0.16700E-01
  weight for this iteration     100.00

 eigenvalues of (default mixing * dielectric matrix)
  average eigenvalue GAMMA=   1.6814
  4.6989  2.5043  1.9134  1.2619  0.9363  0.7507  0.7507  0.6352

 Free energy of the ion-electron system (eV)
  ---------------------------------------------------
  alpha Z        PSCENC =        85.12044892
  Ewald energy   TEWEN  =     34332.05317561
  -Hartree energ DENC   =    -42323.60323935
  -exchange      EXHF   =         0.00000000
  -V(xc)+E(xc)   XCENC  =       772.84952080
  PAW double counting   =      5097.26021964    -5197.89201106
  entropy T*S    EENTRO =        -0.00964416
  eigenvalues    EBANDS =     -2632.55878341
  atomic energy  EATOM  =      9425.77121454
  Solvation  Ediel_sol  =         0.00000000
  ---------------------------------------------------
  free energy    TOTEN  =      -441.00909846 eV

  energy without entropy =     -440.99945430  energy(sigma->0) =     -441.00427638


--------------------------------------------------------------------------------------------------------




--------------------------------------- Iteration      1(  10)  ---------------------------------------


    POTLOK:  cpu time    2.5446: real time    2.5448
    SETDIJ:  cpu time    0.4746: real time    0.4747
     EDDAV:  cpu time   78.3877: real time   78.3957
       DOS:  cpu time    0.0562: real time    0.0562
    CHARGE:  cpu time    1.9269: real time    1.9271
    MIXING:  cpu time    0.0665: real time    0.0665
    --------------------------------------------
      LOOP:  cpu time   83.4565: real time   83.4650

 eigenvalue-minimisations  :  7680
 total energy-change (2. order) :-0.1702229E-01  (-0.5348681E-03)
 number of electron     210.0000002 magnetization      -0.0088606
 augmentation part       12.4948954 magnetization      -0.0093102

 Broyden mixing:
  rms(total) = 0.61241E-02    rms(broyden)= 0.61235E-02
  rms(prec ) = 0.10390E-01
  weight for this iteration     100.00

 eigenvalues of (default mixing * dielectric matrix)
  average eigenvalue GAMMA=   1.7667
  5.6253  2.5448  2.0353  1.6749  1.0658  0.8766  0.6338  0.7221  0.7221

 Free energy of the ion-electron system (eV)
  ---------------------------------------------------
  alpha Z        PSCENC =        85.12044892
  Ewald energy   TEWEN  =     34332.05317561
  -Hartree energ DENC   =    -42334.49110254
  -exchange      EXHF   =         0.00000000
  -V(xc)+E(xc)   XCENC  =       772.88498820
  PAW double counting   =      5097.76483086    -5198.45153750
  entropy T*S    EENTRO =        -0.00959165
  eigenvalues    EBANDS =     -2621.66854720
  atomic energy  EATOM  =      9425.77121454
  Solvation  Ediel_sol  =         0.00000000
  ---------------------------------------------------
  free energy    TOTEN  =      -441.02612075 eV

  energy without entropy =     -441.01652910  energy(sigma->0) =     -441.02132493


--------------------------------------------------------------------------------------------------------




--------------------------------------- Iteration      1(  11)  ---------------------------------------


    POTLOK:  cpu time    2.4412: real time    2.4420
    SETDIJ:  cpu time    0.4522: real time    0.4523
     EDDAV:  cpu time   67.6435: real time   67.6496
       DOS:  cpu time    0.0777: real time    0.0777
    CHARGE:  cpu time    2.0799: real time    2.0801
    MIXING:  cpu time    0.0595: real time    0.0595
    --------------------------------------------
      LOOP:  cpu time   72.7541: real time   72.7612

 eigenvalue-minimisations  :  6912
 total energy-change (2. order) :-0.1295039E-01  (-0.1710917E-03)
 number of electron     210.0000002 magnetization      -0.0176976
 augmentation part       12.4950361 magnetization      -0.0173364

 Broyden mixing:
  rms(total) = 0.36839E-02    rms(broyden)= 0.36837E-02
  rms(prec ) = 0.61115E-02
  weight for this iteration     100.00

 eigenvalues of (default mixing * dielectric matrix)
  average eigenvalue GAMMA=   1.8338
  6.4327  2.7435  2.3710  1.8632  1.1855  0.9370  0.7913  0.7287  0.6323  0.6530

 Free energy of the ion-electron system (eV)
  ---------------------------------------------------
  alpha Z        PSCENC =        85.12044892
  Ewald energy   TEWEN  =     34332.05317561
  -Hartree energ DENC   =    -42339.71134169
  -exchange      EXHF   =         0.00000000
  -V(xc)+E(xc)   XCENC  =       772.86554192
  PAW double counting   =      5099.12059928    -5199.83836981
  entropy T*S    EENTRO =        -0.00961934
  eigenvalues    EBANDS =     -2616.41072057
  atomic energy  EATOM  =      9425.77121454
  Solvation  Ediel_sol  =         0.00000000
  ---------------------------------------------------
  free energy    TOTEN  =      -441.03907114 eV

  energy without entropy =     -441.02945180  energy(sigma->0) =     -441.03426147


--------------------------------------------------------------------------------------------------------




--------------------------------------- Iteration      1(  12)  ---------------------------------------


    POTLOK:  cpu time    2.4418: real time    2.4420
    SETDIJ:  cpu time    0.4484: real time    0.4484
     EDDAV:  cpu time   70.4497: real time   70.4599
       DOS:  cpu time    0.0601: real time    0.0601
    CHARGE:  cpu time    1.9001: real time    1.9003
    MIXING:  cpu time    0.0623: real time    0.0623
    --------------------------------------------
      LOOP:  cpu time   75.3624: real time   75.3730

 eigenvalue-minimisations  :  7168
 total energy-change (2. order) :-0.6572101E-02  (-0.5313642E-04)
 number of electron     210.0000002 magnetization      -0.0171255
 augmentation part       12.4952848 magnetization      -0.0167450

 Broyden mixing:
  rms(total) = 0.22497E-02    rms(broyden)= 0.22497E-02
  rms(prec ) = 0.36556E-02
  weight for this iteration     100.00

 eigenvalues of (default mixing * dielectric matrix)
  average eigenvalue GAMMA=   1.8674
  6.8914  3.1596  2.4615  1.9101  1.4158  1.0606  0.8894  0.7627  0.7330  0.6322
  0.6250

 Free energy of the ion-electron system (eV)
  ---------------------------------------------------
  alpha Z        PSCENC =        85.12044892
  Ewald energy   TEWEN  =     34332.05317561
  -Hartree energ DENC   =    -42341.84531680
  -exchange      EXHF   =         0.00000000
  -V(xc)+E(xc)   XCENC  =       772.84441906
  PAW double counting   =      5099.66302921    -5200.37739805
  entropy T*S    EENTRO =        -0.00960403
  eigenvalues    EBANDS =     -2614.26561170
  atomic energy  EATOM  =      9425.77121454
  Solvation  Ediel_sol  =         0.00000000
  ---------------------------------------------------
  free energy    TOTEN  =      -441.04564324 eV

  energy without entropy =     -441.03603920  energy(sigma->0) =     -441.04084122


--------------------------------------------------------------------------------------------------------




--------------------------------------- Iteration      1(  13)  ---------------------------------------


    POTLOK:  cpu time    2.4340: real time    2.4342
    SETDIJ:  cpu time    0.4681: real time    0.4682
     EDDAV:  cpu time   84.7207: real time   84.7312
       DOS:  cpu time    0.0576: real time    0.0576
    CHARGE:  cpu time    1.8861: real time    1.8862
    MIXING:  cpu time    0.0586: real time    0.0586
    --------------------------------------------
      LOOP:  cpu time   89.6252: real time   89.6360

 eigenvalue-minimisations  :  8192
 total energy-change (2. order) :-0.4674910E-02  (-0.4238071E-04)
 number of electron     210.0000002 magnetization      -0.0128294
 augmentation part       12.4954021 magnetization      -0.0124174

 Broyden mixing:
  rms(total) = 0.13505E-02    rms(broyden)= 0.13505E-02
  rms(prec ) = 0.20896E-02
  weight for this iteration     100.00

 eigenvalues of (default mixing * dielectric matrix)
  average eigenvalue GAMMA=   1.9210
  7.2084  3.7368  2.5205  2.0461  1.8002  1.1972  0.9830  0.8339  0.7521  0.7234
  0.6304  0.6204

 Free energy of the ion-electron system (eV)
  ---------------------------------------------------
  alpha Z        PSCENC =        85.12044892
  Ewald energy   TEWEN  =     34332.05317561
  -Hartree energ DENC   =    -42343.03855833
  -exchange      EXHF   =         0.00000000
  -V(xc)+E(xc)   XCENC  =       772.83375409
  PAW double counting   =      5099.67781855    -5200.37854769
  entropy T*S    EENTRO =        -0.00956966
  eigenvalues    EBANDS =     -2613.08005419
  atomic energy  EATOM  =      9425.77121454
  Solvation  Ediel_sol  =         0.00000000
  ---------------------------------------------------
  free energy    TOTEN  =      -441.05031815 eV

  energy without entropy =     -441.04074849  energy(sigma->0) =     -441.04553332


--------------------------------------------------------------------------------------------------------




--------------------------------------- Iteration      1(  14)  ---------------------------------------


    POTLOK:  cpu time    2.4326: real time    2.4328
    SETDIJ:  cpu time    0.4558: real time    0.4559
     EDDAV:  cpu time   61.6341: real time   61.6417
       DOS:  cpu time    0.0548: real time    0.0548
    CHARGE:  cpu time    1.8940: real time    1.8942
    MIXING:  cpu time    0.0838: real time    0.0838
    --------------------------------------------
      LOOP:  cpu time   66.5551: real time   66.5631

 eigenvalue-minimisations  :  6400
 total energy-change (2. order) :-0.2510013E-02  (-0.2363693E-04)
 number of electron     210.0000002 magnetization      -0.0086354
 augmentation part       12.4953599 magnetization      -0.0083514

 Broyden mixing:
  rms(total) = 0.73195E-03    rms(broyden)= 0.73193E-03
  rms(prec ) = 0.11447E-02
  weight for this iteration     100.00

 eigenvalues of (default mixing * dielectric matrix)
  average eigenvalue GAMMA=   1.9563
  7.4592  4.3883  2.6189  2.3106  1.8653  1.3197  1.0548  0.9227  0.8021  0.7403
  0.7029  0.6299  0.6174

 Free energy of the ion-electron system (eV)
  ---------------------------------------------------
  alpha Z        PSCENC =        85.12044892
  Ewald energy   TEWEN  =     34332.05317561
  -Hartree energ DENC   =    -42343.75767294
  -exchange      EXHF   =         0.00000000
  -V(xc)+E(xc)   XCENC  =       772.83153295
  PAW double counting   =      5099.51422666    -5200.20842560
  entropy T*S    EENTRO =        -0.00955534
  eigenvalues    EBANDS =     -2612.36777297
  atomic energy  EATOM  =      9425.77121454
  Solvation  Ediel_sol  =         0.00000000
  ---------------------------------------------------
  free energy    TOTEN  =      -441.05282816 eV

  energy without entropy =     -441.04327282  energy(sigma->0) =     -441.04805049


--------------------------------------------------------------------------------------------------------




--------------------------------------- Iteration      1(  15)  ---------------------------------------


    POTLOK:  cpu time    2.4368: real time    2.4369
    SETDIJ:  cpu time    0.4496: real time    0.4496
     EDDAV:  cpu time   54.3600: real time   54.3646
       DOS:  cpu time    0.0594: real time    0.0594
    CHARGE:  cpu time    1.8961: real time    1.8963
    MIXING:  cpu time    0.0664: real time    0.0664
    --------------------------------------------
      LOOP:  cpu time   59.2682: real time   59.2731

 eigenvalue-minimisations  :  5888
 total energy-change (2. order) :-0.1259012E-02  (-0.7477784E-05)
 number of electron     210.0000002 magnetization      -0.0055861
 augmentation part       12.4953159 magnetization      -0.0053914

 Broyden mixing:
  rms(total) = 0.45203E-03    rms(broyden)= 0.45202E-03
  rms(prec ) = 0.72898E-03
  weight for this iteration     100.00

 eigenvalues of (default mixing * dielectric matrix)
  average eigenvalue GAMMA=   1.9628
  7.6244  4.7965  2.7412  2.4099  1.8573  1.5685  1.1793  0.9961  0.8625  0.7844
  0.7345  0.6794  0.6295  0.6161

 Free energy of the ion-electron system (eV)
  ---------------------------------------------------
  alpha Z        PSCENC =        85.12044892
  Ewald energy   TEWEN  =     34332.05317561
  -Hartree energ DENC   =    -42344.12841711
  -exchange      EXHF   =         0.00000000
  -V(xc)+E(xc)   XCENC  =       772.83191162
  PAW double counting   =      5099.38841352    -5200.08359563
  entropy T*S    EENTRO =        -0.00955473
  eigenvalues    EBANDS =     -2611.99768391
  atomic energy  EATOM  =      9425.77121454
  Solvation  Ediel_sol  =         0.00000000
  ---------------------------------------------------
  free energy    TOTEN  =      -441.05408717 eV

  energy without entropy =     -441.04453244  energy(sigma->0) =     -441.04930981


--------------------------------------------------------------------------------------------------------




--------------------------------------- Iteration      1(  16)  ---------------------------------------


    POTLOK:  cpu time    2.4399: real time    2.4401
    SETDIJ:  cpu time    0.4551: real time    0.4551
     EDDAV:  cpu time   41.4313: real time   41.4477
       DOS:  cpu time    0.0592: real time    0.0592
    CHARGE:  cpu time    1.9328: real time    1.9330
    MIXING:  cpu time    0.0676: real time    0.0676
    --------------------------------------------
      LOOP:  cpu time   46.3860: real time   46.4028

 eigenvalue-minimisations  :  4864
 total energy-change (2. order) :-0.5154667E-03  (-0.3172252E-05)
 number of electron     210.0000002 magnetization      -0.0026633
 augmentation part       12.4953217 magnetization      -0.0025345

 Broyden mixing:
  rms(total) = 0.28321E-03    rms(broyden)= 0.28321E-03
  rms(prec ) = 0.49125E-03
  weight for this iteration     100.00

 eigenvalues of (default mixing * dielectric matrix)
  average eigenvalue GAMMA=   1.9912
  7.7720  5.1746  2.9863  2.4891  1.9427  1.9427  1.2985  1.0571  0.9806  0.8282
  0.7568  0.7345  0.6176  0.6280  0.6596

 Free energy of the ion-electron system (eV)
  ---------------------------------------------------
  alpha Z        PSCENC =        85.12044892
  Ewald energy   TEWEN  =     34332.05317561
  -Hartree energ DENC   =    -42344.39062834
  -exchange      EXHF   =         0.00000000
  -V(xc)+E(xc)   XCENC  =       772.83282013
  PAW double counting   =      5099.33067760    -5200.02719906
  entropy T*S    EENTRO =        -0.00955289
  eigenvalues    EBANDS =     -2611.73555915
  atomic energy  EATOM  =      9425.77121454
  Solvation  Ediel_sol  =         0.00000000
  ---------------------------------------------------
  free energy    TOTEN  =      -441.05460264 eV

  energy without entropy =     -441.04504975  energy(sigma->0) =     -441.04982620


--------------------------------------------------------------------------------------------------------




--------------------------------------- Iteration      1(  17)  ---------------------------------------


    POTLOK:  cpu time    2.4569: real time    2.4602
    SETDIJ:  cpu time    0.4501: real time    0.4501
     EDDAV:  cpu time   55.3807: real time   55.3905
       DOS:  cpu time    0.0562: real time    0.0562
    CHARGE:  cpu time    1.9393: real time    1.9396
    MIXING:  cpu time    0.0686: real time    0.0686
    --------------------------------------------
      LOOP:  cpu time   60.3517: real time   60.3651

 eigenvalue-minimisations  :  5888
 total energy-change (2. order) :-0.2783633E-03  (-0.2720568E-05)
 number of electron     210.0000002 magnetization      -0.0011180
 augmentation part       12.4953375 magnetization      -0.0010622

 Broyden mixing:
  rms(total) = 0.16317E-03    rms(broyden)= 0.16317E-03
  rms(prec ) = 0.30427E-03
  weight for this iteration     100.00

 eigenvalues of (default mixing * dielectric matrix)
  average eigenvalue GAMMA=   2.0066
  7.8785  5.5464  3.3496  2.5631  2.2034  1.8969  1.4465  1.1456  1.0180  0.8943
  0.8068  0.7401  0.7236  0.6189  0.6263  0.6474

 Free energy of the ion-electron system (eV)
  ---------------------------------------------------
  alpha Z        PSCENC =        85.12044892
  Ewald energy   TEWEN  =     34332.05317561
  -Hartree energ DENC   =    -42344.64193420
  -exchange      EXHF   =         0.00000000
  -V(xc)+E(xc)   XCENC  =       772.83362551
  PAW double counting   =      5099.30648438    -5200.00310691
  entropy T*S    EENTRO =        -0.00955032
  eigenvalues    EBANDS =     -2611.48523853
  atomic energy  EATOM  =      9425.77121454
  Solvation  Ediel_sol  =         0.00000000
  ---------------------------------------------------
  free energy    TOTEN  =      -441.05488100 eV

  energy without entropy =     -441.04533068  energy(sigma->0) =     -441.05010584


--------------------------------------------------------------------------------------------------------




--------------------------------------- Iteration      1(  18)  ---------------------------------------


    POTLOK:  cpu time    2.4550: real time    2.4554
    SETDIJ:  cpu time    0.4628: real time    0.4629
     EDDAV:  cpu time   80.5566: real time   80.5791
       DOS:  cpu time    0.0786: real time    0.0786
    CHARGE:  cpu time    1.9136: real time    1.9138
    MIXING:  cpu time    0.0690: real time    0.0690
    --------------------------------------------
      LOOP:  cpu time   85.5356: real time   85.5588

 eigenvalue-minimisations  :  7936
 total energy-change (2. order) :-0.9337285E-04  (-0.5520394E-06)
 number of electron     210.0000002 magnetization       0.0000091
 augmentation part       12.4953435 magnetization       0.0000326

 Broyden mixing:
  rms(total) = 0.10943E-03    rms(broyden)= 0.10943E-03
  rms(prec ) = 0.20893E-03
  weight for this iteration     100.00

 eigenvalues of (default mixing * dielectric matrix)
  average eigenvalue GAMMA=   2.0280
  7.9394  5.9131  3.6960  2.6441  2.3115  1.9247  1.7388  1.2840  1.0502  1.0045
  0.8588  0.7835  0.7412  0.7012  0.6185  0.6403  0.6263

 Free energy of the ion-electron system (eV)
  ---------------------------------------------------
  alpha Z        PSCENC =        85.12044892
  Ewald energy   TEWEN  =     34332.05317561
  -Hartree energ DENC   =    -42344.76487517
  -exchange      EXHF   =         0.00000000
  -V(xc)+E(xc)   XCENC  =       772.83356612
  PAW double counting   =      5099.30459866    -5200.00056461
  entropy T*S    EENTRO =        -0.00954945
  eigenvalues    EBANDS =     -2611.36298901
  atomic energy  EATOM  =      9425.77121454
  Solvation  Ediel_sol  =         0.00000000
  ---------------------------------------------------
  free energy    TOTEN  =      -441.05497438 eV

  energy without entropy =     -441.04542493  energy(sigma->0) =     -441.05019965


--------------------------------------------------------------------------------------------------------




--------------------------------------- Iteration      1(  19)  ---------------------------------------


    POTLOK:  cpu time    2.4420: real time    2.4423
    SETDIJ:  cpu time    0.4494: real time    0.4494
     EDDAV:  cpu time   84.6752: real time   84.6924
       DOS:  cpu time    0.0595: real time    0.0595
    CHARGE:  cpu time    1.8972: real time    1.8975
    MIXING:  cpu time    0.0714: real time    0.0714
    --------------------------------------------
      LOOP:  cpu time   89.5949: real time   89.6126

 eigenvalue-minimisations  :  8192
 total energy-change (2. order) :-0.5591834E-04  (-0.2151589E-06)
 number of electron     210.0000002 magnetization       0.0004188
 augmentation part       12.4953446 magnetization       0.0004207

 Broyden mixing:
  rms(total) = 0.63584E-04    rms(broyden)= 0.63582E-04
  rms(prec ) = 0.11950E-03
  weight for this iteration     100.00

 eigenvalues of (default mixing * dielectric matrix)
  average eigenvalue GAMMA=   2.0601
  7.9787  6.3301  4.0856  2.8525  2.4574  2.0915  1.8663  1.3963  1.1529  1.0083
  0.9585  0.8319  0.7526  0.7526  0.6852  0.6165  0.6367  0.6285

 Free energy of the ion-electron system (eV)
  ---------------------------------------------------
  alpha Z        PSCENC =        85.12044892
  Ewald energy   TEWEN  =     34332.05317561
  -Hartree energ DENC   =    -42344.87252963
  -exchange      EXHF   =         0.00000000
  -V(xc)+E(xc)   XCENC  =       772.83338122
  PAW double counting   =      5099.31463685    -5200.01016500
  entropy T*S    EENTRO =        -0.00954865
  eigenvalues    EBANDS =     -2611.25564416
  atomic energy  EATOM  =      9425.77121454
  Solvation  Ediel_sol  =         0.00000000
  ---------------------------------------------------
  free energy    TOTEN  =      -441.05503029 eV

  energy without entropy =     -441.04548165  energy(sigma->0) =     -441.05025597


--------------------------------------------------------------------------------------------------------




--------------------------------------- Iteration      1(  20)  ---------------------------------------


    POTLOK:  cpu time    2.4629: real time    2.4631
    SETDIJ:  cpu time    0.4486: real time    0.4487
     EDDAV:  cpu time   71.6182: real time   71.6287
       DOS:  cpu time    0.0581: real time    0.0581
    CHARGE:  cpu time    1.9258: real time    1.9261
    MIXING:  cpu time    0.0718: real time    0.0718
    --------------------------------------------
      LOOP:  cpu time   76.5855: real time   76.5965

 eigenvalue-minimisations  :  7168
 total energy-change (2. order) :-0.3211248E-04  (-0.6955941E-07)
 number of electron     210.0000002 magnetization       0.0004833
 augmentation part       12.4953406 magnetization       0.0004716

 Broyden mixing:
  rms(total) = 0.42448E-04    rms(broyden)= 0.42448E-04
  rms(prec ) = 0.67808E-04
  weight for this iteration     100.00

 eigenvalues of (default mixing * dielectric matrix)
  average eigenvalue GAMMA=   2.0786
  8.0237  6.7328  4.4448  3.1174  2.5239  2.1938  1.8774  1.5470  1.2474  1.0283
  1.0283  0.8895  0.8047  0.7423  0.7423  0.6722  0.6161  0.6312  0.6312

 Free energy of the ion-electron system (eV)
  ---------------------------------------------------
  alpha Z        PSCENC =        85.12044892
  Ewald energy   TEWEN  =     34332.05317561
  -Hartree energ DENC   =    -42344.93876872
  -exchange      EXHF   =         0.00000000
  -V(xc)+E(xc)   XCENC  =       772.83342198
  PAW double counting   =      5099.32576288    -5200.02139484
  entropy T*S    EENTRO =        -0.00954856
  eigenvalues    EBANDS =     -2611.18937423
  atomic energy  EATOM  =      9425.77121454
  Solvation  Ediel_sol  =         0.00000000
  ---------------------------------------------------
  free energy    TOTEN  =      -441.05506241 eV

  energy without entropy =     -441.04551385  energy(sigma->0) =     -441.05028813


--------------------------------------------------------------------------------------------------------




--------------------------------------- Iteration      1(  21)  ---------------------------------------


    POTLOK:  cpu time    2.4440: real time    2.4442
    SETDIJ:  cpu time    0.4608: real time    0.4608
     EDDAV:  cpu time   72.3403: real time   72.3607
       DOS:  cpu time    0.0583: real time    0.0583
    CHARGE:  cpu time    1.8835: real time    1.8836
    MIXING:  cpu time    0.0720: real time    0.0720
    --------------------------------------------
      LOOP:  cpu time   77.2589: real time   77.2797

 eigenvalue-minimisations  :  7168
 total energy-change (2. order) :-0.1451356E-04  (-0.2707465E-07)
 number of electron     210.0000002 magnetization       0.0004052
 augmentation part       12.4953392 magnetization       0.0003938

 Broyden mixing:
  rms(total) = 0.29192E-04    rms(broyden)= 0.29191E-04
  rms(prec ) = 0.41006E-04
  weight for this iteration     100.00

 eigenvalues of (default mixing * dielectric matrix)
  average eigenvalue GAMMA=   2.0937
  8.1246  7.0740  4.7439  3.2995  2.5712  2.3021  1.8529  1.7699  1.3618  1.1498
  1.0058  0.9743  0.8513  0.7885  0.7341  0.7341  0.6620  0.6163  0.6291  0.6291

 Free energy of the ion-electron system (eV)
  ---------------------------------------------------
  alpha Z        PSCENC =        85.12044892
  Ewald energy   TEWEN  =     34332.05317561
  -Hartree energ DENC   =    -42344.96531150
  -exchange      EXHF   =         0.00000000
  -V(xc)+E(xc)   XCENC  =       772.83345183
  PAW double counting   =      5099.32541883    -5200.02109250
  entropy T*S    EENTRO =        -0.00954873
  eigenvalues    EBANDS =     -2611.16283393
  atomic energy  EATOM  =      9425.77121454
  Solvation  Ediel_sol  =         0.00000000
  ---------------------------------------------------
  free energy    TOTEN  =      -441.05507692 eV

  energy without entropy =     -441.04552819  energy(sigma->0) =     -441.05030256


--------------------------------------------------------------------------------------------------------




--------------------------------------- Iteration      1(  22)  ---------------------------------------


    POTLOK:  cpu time    2.4466: real time    2.4467
    SETDIJ:  cpu time    0.4470: real time    0.4502
     EDDAV:  cpu time   85.0655: real time   85.0789
       DOS:  cpu time    0.0562: real time    0.0562
    --------------------------------------------
      LOOP:  cpu time   88.0152: real time   88.0319

 eigenvalue-minimisations  :  8192
 total energy-change (2. order) :-0.7790144E-05  (-0.1359434E-07)
 number of electron     210.0000002 magnetization       0.0004052
 augmentation part       12.4953392 magnetization       0.0003938

 Free energy of the ion-electron system (eV)
  ---------------------------------------------------
  alpha Z        PSCENC =        85.12044892
  Ewald energy   TEWEN  =     34332.05317561
  -Hartree energ DENC   =    -42344.97769850
  -exchange      EXHF   =         0.00000000
  -V(xc)+E(xc)   XCENC  =       772.83347220
  PAW double counting   =      5099.32034213    -5200.01598138
  entropy T*S    EENTRO =        -0.00954875
  eigenvalues    EBANDS =     -2611.15050949
  atomic energy  EATOM  =      9425.77121454
  Solvation  Ediel_sol  =         0.00000000
  ---------------------------------------------------
  free energy    TOTEN  =      -441.05508471 eV

  energy without entropy =     -441.04553597  energy(sigma->0) =     -441.05031034


--------------------------------------------------------------------------------------------------------




 average (electrostatic) potential at core
  the test charge radii are     0.6991  0.7089  1.0894
  (the norm of the test charge is              1.0000)
       1 -58.0498       2 -58.0196       3 -58.0188       4 -58.1167       5 -58.1966
       6 -58.1947       7 -58.1097       8 -58.0794       9 -58.0584      10 -57.9729
      11 -58.0584      12 -58.1964      13 -58.1164      14 -58.7466      15 -58.7458
      16 -58.9578      17 -58.0032      18 -58.1738      19 -58.0794      20 -58.1097
      21 -58.1097      22 -58.1950      23 -58.9578      24 -58.9578      25 -58.1947
      26 -58.1966      27 -58.0579      28 -58.0793      29 -58.1729      30 -58.0019
      31 -58.9578      32 -58.7466      33 -58.7458      34 -58.1167      35 -58.0188
      36 -58.0494      37 -57.9729      38 -58.0579      39 -58.0793      40 -58.1097
      41 -58.1950      42 -58.1964      43 -58.1164      44 -58.0196      45 -72.6271
      46 -72.6286      47 -72.6271      48 -72.6285      49-109.6381
 
 
 
 E-fermi :  -2.1172     XC(G=0):  -2.2447     alpha+bet : -1.9565


 spin component 1

 k-point     1 :       0.0000    0.0000    0.0000
  band No.  band energies     occupation 
      1     -24.0669      1.00000
      2     -24.0337      1.00000
      3     -23.9935      1.00000
      4     -23.9374      1.00000
      5     -23.8391      1.00000
      6     -23.1939      1.00000
      7     -22.7762      1.00000
      8     -22.5146      1.00000
      9     -22.1740      1.00000
     10     -21.7167      1.00000
     11     -21.2942      1.00000
     12     -21.2228      1.00000
     13     -20.7861      1.00000
     14     -20.3045      1.00000
     15     -20.0756      1.00000
     16     -19.5876      1.00000
     17     -19.4710      1.00000
     18     -19.1930      1.00000
     19     -19.0831      1.00000
     20     -18.9001      1.00000
     21     -18.7339      1.00000
     22     -18.6875      1.00000
     23     -18.4882      1.00000
     24     -18.0216      1.00000
     25     -17.1720      1.00000
     26     -17.1241      1.00000
     27     -16.6960      1.00000
     28     -16.5157      1.00000
     29     -16.3527      1.00000
     30     -15.9156      1.00000
     31     -15.6306      1.00000
     32     -15.5881      1.00000
     33     -15.4612      1.00000
     34     -15.4521      1.00000
     35     -15.0628      1.00000
     36     -14.5710      1.00000
     37     -14.4184      1.00000
     38     -14.3667      1.00000
     39     -14.3395      1.00000
     40     -14.0989      1.00000
     41     -13.2843      1.00000
     42     -12.7496      1.00000
     43     -12.4595      1.00000
     44     -12.3430      1.00000
     45     -12.1159      1.00000
     46     -11.7811      1.00000
     47     -11.7491      1.00000
     48     -11.6271      1.00000
     49     -11.5977      1.00000
     50     -11.5653      1.00000
     51     -11.4725      1.00000
     52     -11.1199      1.00000
     53     -11.0757      1.00000
     54     -10.6242      1.00000
     55     -10.5457      1.00000
     56     -10.4643      1.00000
     57     -10.1229      1.00000
     58     -10.0871      1.00000
     59     -10.0653      1.00000
     60      -9.8199      1.00000
     61      -9.7355      1.00000
     62      -9.7265      1.00000
     63      -9.6230      1.00000
     64      -9.4706      1.00000
     65      -9.3165      1.00000
     66      -9.3164      1.00000
     67      -9.2570      1.00000
     68      -9.1447      1.00000
     69      -9.1196      1.00000
     70      -9.0945      1.00000
     71      -8.9942      1.00000
     72      -8.9356      1.00000
     73      -8.9008      1.00000
     74      -8.7896      1.00000
     75      -8.6422      1.00000
     76      -8.2626      1.00000
     77      -7.9625      1.00000
     78      -7.9148      1.00000
     79      -7.7483      1.00000
     80      -7.6969      1.00000
     81      -7.5772      1.00000
     82      -7.4523      1.00000
     83      -7.3581      1.00000
     84      -7.3023      1.00000
     85      -7.1480      1.00000
     86      -7.0422      1.00000
     87      -6.8499      1.00000
     88      -6.6959      1.00000
     89      -6.6330      1.00000
     90      -6.3976      1.00000
     91      -6.3229      1.00000
     92      -6.3076      1.00000
     93      -6.2313      1.00000
     94      -6.1464      1.00000
     95      -6.1115      1.00000
     96      -5.6906      1.00000
     97      -5.4204      1.00000
     98      -4.8257      1.00000
     99      -4.5134      1.00000
    100      -4.5041      1.00000
    101      -4.4523      1.00000
    102      -4.2277      1.00000
    103      -4.2024      1.00000
    104      -4.0911      1.00000
    105      -2.5928      1.00000
    106      -1.8825      0.00045
    107      -1.6414      0.00000
    108      -1.4379      0.00000
    109      -1.4026      0.00000
    110      -1.0398      0.00000
    111      -0.2791      0.00000
    112      -0.0887      0.00000
    113       0.2975      0.00000
    114       0.3217      0.00000
    115       0.4404      0.00000
    116       0.5842      0.00000
    117       0.6123      0.00000
    118       0.8770      0.00000
    119       1.2027      0.00000
    120       1.3407      0.00000
    121       1.5479      0.00000
    122       1.7207      0.00000
    123       1.8271      0.00000
    124       1.8364      0.00000
    125       1.8803      0.00000
    126       1.9012      0.00000
    127       1.9218      0.00000
    128       2.0634      0.00000
    129       2.0751      0.00000
    130       2.1046      0.00000
    131       2.2414      0.00000
    132       2.2562      0.00000
    133       2.2821      0.00000
    134       2.6192      0.00000
    135       2.6360      0.00000
    136       2.6387      0.00000
    137       2.6771      0.00000
    138       2.7645      0.00000
    139       2.7691      0.00000
    140       3.0191      0.00000
    141       3.0603      0.00000
    142       3.0703      0.00000
    143       3.0751      0.00000
    144       3.0753      0.00000
    145       3.0940      0.00000
    146       3.0977      0.00000
    147       3.3196      0.00000
    148       3.8412      0.00000
    149       3.9296      0.00000
    150       3.9535      0.00000
    151       3.9581      0.00000
    152       3.9755      0.00000
    153       4.0230      0.00000
    154       4.0912      0.00000
    155       4.0948      0.00000
    156       4.2319      0.00000
    157       4.2383      0.00000
    158       4.2603      0.00000
    159       4.2838      0.00000
    160       4.3197      0.00000
    161       4.3533      0.00000
    162       4.3684      0.00000
    163       4.3809      0.00000
    164       4.4025      0.00000
    165       4.4035      0.00000
    166       4.6177      0.00000
    167       4.6406      0.00000
    168       4.7093      0.00000
    169       4.7329      0.00000
    170       4.8299      0.00000
    171       4.8410      0.00000
    172       4.9831      0.00000
    173       5.0552      0.00000
    174       5.0634      0.00000
    175       5.1031      0.00000
    176       5.1373      0.00000
    177       5.1751      0.00000
    178       5.2760      0.00000
    179       5.2936      0.00000
    180       5.3094      0.00000
    181       5.3952      0.00000
    182       5.4138      0.00000
    183       5.4426      0.00000
    184       5.4717      0.00000
    185       5.4820      0.00000
    186       5.5481      0.00000
    187       5.5519      0.00000
    188       5.5617      0.00000
    189       5.6026      0.00000
    190       5.6457      0.00000
    191       5.6882      0.00000
    192       5.6928      0.00000
    193       5.6968      0.00000
    194       5.6991      0.00000
    195       5.7028      0.00000
    196       5.7063      0.00000
    197       5.7114      0.00000
    198       5.8100      0.00000
    199       5.8215      0.00000
    200       5.8805      0.00000
    201       5.9197      0.00000
    202       5.9590      0.00000
    203       6.0665      0.00000
    204       6.0679      0.00000
    205       6.0708      0.00000
    206       6.0892      0.00000
    207       6.1553      0.00000
    208       6.1580      0.00000
    209       6.3065      0.00000
    210       6.3268      0.00000
    211       6.3411      0.00000
    212       6.3874      0.00000
    213       6.4050      0.00000
    214       6.4185      0.00000
    215       6.4669      0.00000
    216       6.4941      0.00000
    217       6.5157      0.00000
    218       6.5165      0.00000
    219       6.5185      0.00000
    220       6.5227      0.00000
    221       6.5531      0.00000
    222       6.5586      0.00000
    223       6.6369      0.00000
    224       6.7154      0.00000
    225       6.7200      0.00000
    226       6.7406      0.00000
    227       6.8476      0.00000
    228       6.9134      0.00000
    229       6.9260      0.00000
    230       6.9440      0.00000
    231       6.9457      0.00000
    232       6.9625      0.00000
    233       7.0163      0.00000
    234       7.0178      0.00000
    235       7.0180      0.00000
    236       7.0181      0.00000
    237       7.0216      0.00000
    238       7.0249      0.00000
    239       7.1429      0.00000
    240       7.1828      0.00000
    241       7.2469      0.00000
    242       7.6460      0.00000
    243       7.6671      0.00000
    244       7.6876      0.00000
    245       7.6892      0.00000
    246       7.8043      0.00000
    247       7.8326      0.00000
    248       7.8403      0.00000
    249       7.8622      0.00000
    250       7.9277      0.00000
    251       7.9293      0.00000
    252       7.9338      0.00000
    253       7.9969      0.00000
    254       8.0670      0.00000
    255       8.0935      0.00000
    256       8.1966      0.00000

 k-point     2 :       0.5000   -0.0000    0.0000
  band No.  band energies     occupation 
      1     -24.0669      1.00000
      2     -24.0341      1.00000
      3     -23.9935      1.00000
      4     -23.9376      1.00000
      5     -23.8390      1.00000
      6     -23.1647      1.00000
      7     -22.8227      1.00000
      8     -22.5421      1.00000
      9     -22.1860      1.00000
     10     -21.5927      1.00000
     11     -21.3962      1.00000
     12     -21.0576      1.00000
     13     -20.6103      1.00000
     14     -20.4998      1.00000
     15     -20.2333      1.00000
     16     -19.7514      1.00000
     17     -19.7056      1.00000
     18     -19.2917      1.00000
     19     -19.2779      1.00000
     20     -18.6655      1.00000
     21     -18.4516      1.00000
     22     -18.1008      1.00000
     23     -17.8215      1.00000
     24     -17.8115      1.00000
     25     -17.6665      1.00000
     26     -17.4793      1.00000
     27     -17.2575      1.00000
     28     -16.8586      1.00000
     29     -16.4539      1.00000
     30     -16.0782      1.00000
     31     -15.9270      1.00000
     32     -15.3290      1.00000
     33     -15.3125      1.00000
     34     -15.1637      1.00000
     35     -15.0895      1.00000
     36     -14.5846      1.00000
     37     -14.2227      1.00000
     38     -13.9053      1.00000
     39     -13.8027      1.00000
     40     -13.4082      1.00000
     41     -13.3285      1.00000
     42     -12.9096      1.00000
     43     -12.8890      1.00000
     44     -12.8426      1.00000
     45     -12.7393      1.00000
     46     -12.2610      1.00000
     47     -12.1141      1.00000
     48     -11.6562      1.00000
     49     -11.4902      1.00000
     50     -11.4157      1.00000
     51     -11.4025      1.00000
     52     -10.9010      1.00000
     53     -10.8589      1.00000
     54     -10.6477      1.00000
     55     -10.5817      1.00000
     56     -10.2101      1.00000
     57     -10.1833      1.00000
     58     -10.1022      1.00000
     59      -9.9691      1.00000
     60      -9.7455      1.00000
     61      -9.7049      1.00000
     62      -9.6366      1.00000
     63      -9.6311      1.00000
     64      -9.6088      1.00000
     65      -9.4960      1.00000
     66      -9.3995      1.00000
     67      -9.1542      1.00000
     68      -9.1463      1.00000
     69      -9.0460      1.00000
     70      -8.8905      1.00000
     71      -8.7140      1.00000
     72      -8.7070      1.00000
     73      -8.5371      1.00000
     74      -8.5335      1.00000
     75      -8.4624      1.00000
     76      -8.4260      1.00000
     77      -8.3006      1.00000
     78      -8.2037      1.00000
     79      -8.0848      1.00000
     80      -7.9685      1.00000
     81      -7.8204      1.00000
     82      -7.6296      1.00000
     83      -7.4461      1.00000
     84      -7.1546      1.00000
     85      -7.0435      1.00000
     86      -6.9157      1.00000
     87      -6.8769      1.00000
     88      -6.8550      1.00000
     89      -6.7522      1.00000
     90      -6.5589      1.00000
     91      -6.1875      1.00000
     92      -6.0911      1.00000
     93      -5.8556      1.00000
     94      -5.5312      1.00000
     95      -5.3706      1.00000
     96      -5.3539      1.00000
     97      -5.2728      1.00000
     98      -5.2705      1.00000
     99      -5.1450      1.00000
    100      -5.1007      1.00000
    101      -4.9739      1.00000
    102      -4.7589      1.00000
    103      -4.0678      1.00000
    104      -3.6660      1.00000
    105      -2.7980      1.00000
    106      -1.9019      0.00117
    107      -1.2701      0.00000
    108      -1.2694      0.00000
    109      -0.7916      0.00000
    110      -0.7552      0.00000
    111      -0.5513      0.00000
    112      -0.2587      0.00000
    113      -0.1877      0.00000
    114      -0.0358      0.00000
    115       0.2683      0.00000
    116       0.5797      0.00000
    117       0.7953      0.00000
    118       0.8662      0.00000
    119       1.0202      0.00000
    120       1.2567      0.00000
    121       1.4049      0.00000
    122       1.6033      0.00000
    123       1.6218      0.00000
    124       1.6378      0.00000
    125       1.7659      0.00000
    126       1.7885      0.00000
    127       2.0616      0.00000
    128       2.0800      0.00000
    129       2.0920      0.00000
    130       2.1386      0.00000
    131       2.4981      0.00000
    132       2.5667      0.00000
    133       2.7119      0.00000
    134       2.7186      0.00000
    135       2.7294      0.00000
    136       2.8164      0.00000
    137       2.9146      0.00000
    138       2.9595      0.00000
    139       3.0314      0.00000
    140       3.1026      0.00000
    141       3.1365      0.00000
    142       3.3287      0.00000
    143       3.3527      0.00000
    144       3.4886      0.00000
    145       3.5056      0.00000
    146       3.5378      0.00000
    147       3.5742      0.00000
    148       3.5983      0.00000
    149       3.6058      0.00000
    150       3.7372      0.00000
    151       3.8233      0.00000
    152       3.9194      0.00000
    153       3.9463      0.00000
    154       4.0047      0.00000
    155       4.0453      0.00000
    156       4.0477      0.00000
    157       4.0495      0.00000
    158       4.0636      0.00000
    159       4.0853      0.00000
    160       4.0977      0.00000
    161       4.1164      0.00000
    162       4.2325      0.00000
    163       4.3069      0.00000
    164       4.4421      0.00000
    165       4.5176      0.00000
    166       4.6350      0.00000
    167       4.7008      0.00000
    168       4.7114      0.00000
    169       4.7316      0.00000
    170       4.7643      0.00000
    171       4.8783      0.00000
    172       4.9216      0.00000
    173       4.9610      0.00000
    174       4.9743      0.00000
    175       5.0448      0.00000
    176       5.1160      0.00000
    177       5.1527      0.00000
    178       5.1658      0.00000
    179       5.2658      0.00000
    180       5.2793      0.00000
    181       5.3172      0.00000
    182       5.3254      0.00000
    183       5.3412      0.00000
    184       5.4812      0.00000
    185       5.4872      0.00000
    186       5.5124      0.00000
    187       5.5209      0.00000
    188       5.5379      0.00000
    189       5.5585      0.00000
    190       5.5925      0.00000
    191       5.6079      0.00000
    192       5.6286      0.00000
    193       5.6911      0.00000
    194       5.6916      0.00000
    195       5.7704      0.00000
    196       5.7882      0.00000
    197       5.8505      0.00000
    198       5.8922      0.00000
    199       5.9423      0.00000
    200       5.9713      0.00000
    201       5.9948      0.00000
    202       6.0028      0.00000
    203       6.0285      0.00000
    204       6.0377      0.00000
    205       6.0490      0.00000
    206       6.0651      0.00000
    207       6.0664      0.00000
    208       6.1059      0.00000
    209       6.1282      0.00000
    210       6.1770      0.00000
    211       6.1813      0.00000
    212       6.2888      0.00000
    213       6.3050      0.00000
    214       6.3891      0.00000
    215       6.3935      0.00000
    216       6.4682      0.00000
    217       6.4909      0.00000
    218       6.5894      0.00000
    219       6.5901      0.00000
    220       6.6715      0.00000
    221       6.7077      0.00000
    222       6.7901      0.00000
    223       6.7955      0.00000
    224       6.8628      0.00000
    225       6.8997      0.00000
    226       6.9150      0.00000
    227       6.9447      0.00000
    228       6.9945      0.00000
    229       6.9998      0.00000
    230       7.0168      0.00000
    231       7.0333      0.00000
    232       7.1428      0.00000
    233       7.1669      0.00000
    234       7.2125      0.00000
    235       7.2129      0.00000
    236       7.2725      0.00000
    237       7.2888      0.00000
    238       7.2914      0.00000
    239       7.3055      0.00000
    240       7.3315      0.00000
    241       7.3717      0.00000
    242       7.4308      0.00000
    243       7.4380      0.00000
    244       7.5416      0.00000
    245       7.5420      0.00000
    246       7.5991      0.00000
    247       7.6281      0.00000
    248       7.6571      0.00000
    249       7.6813      0.00000
    250       7.7322      0.00000
    251       7.8612      0.00000
    252       7.8837      0.00000
    253       7.8919      0.00000
    254       7.8969      0.00000
    255       7.9451      0.00000
    256       7.9871      0.00000

 k-point     3 :       0.0000    0.5000    0.0000
  band No.  band energies     occupation 
      1     -24.0669      1.00000
      2     -24.0341      1.00000
      3     -23.9935      1.00000
      4     -23.9376      1.00000
      5     -23.8390      1.00000
      6     -23.1647      1.00000
      7     -22.8227      1.00000
      8     -22.5422      1.00000
      9     -22.1860      1.00000
     10     -21.5927      1.00000
     11     -21.3962      1.00000
     12     -21.0576      1.00000
     13     -20.6103      1.00000
     14     -20.4998      1.00000
     15     -20.2333      1.00000
     16     -19.7514      1.00000
     17     -19.7056      1.00000
     18     -19.2917      1.00000
     19     -19.2779      1.00000
     20     -18.6655      1.00000
     21     -18.4516      1.00000
     22     -18.1008      1.00000
     23     -17.8215      1.00000
     24     -17.8115      1.00000
     25     -17.6665      1.00000
     26     -17.4793      1.00000
     27     -17.2575      1.00000
     28     -16.8586      1.00000
     29     -16.4539      1.00000
     30     -16.0782      1.00000
     31     -15.9270      1.00000
     32     -15.3290      1.00000
     33     -15.3125      1.00000
     34     -15.1637      1.00000
     35     -15.0895      1.00000
     36     -14.5846      1.00000
     37     -14.2227      1.00000
     38     -13.9053      1.00000
     39     -13.8027      1.00000
     40     -13.4082      1.00000
     41     -13.3285      1.00000
     42     -12.9096      1.00000
     43     -12.8890      1.00000
     44     -12.8426      1.00000
     45     -12.7393      1.00000
     46     -12.2610      1.00000
     47     -12.1141      1.00000
     48     -11.6562      1.00000
     49     -11.4902      1.00000
     50     -11.4157      1.00000
     51     -11.4025      1.00000
     52     -10.9010      1.00000
     53     -10.8589      1.00000
     54     -10.6477      1.00000
     55     -10.5818      1.00000
     56     -10.2101      1.00000
     57     -10.1833      1.00000
     58     -10.1022      1.00000
     59      -9.9691      1.00000
     60      -9.7455      1.00000
     61      -9.7049      1.00000
     62      -9.6366      1.00000
     63      -9.6311      1.00000
     64      -9.6088      1.00000
     65      -9.4960      1.00000
     66      -9.3995      1.00000
     67      -9.1542      1.00000
     68      -9.1463      1.00000
     69      -9.0460      1.00000
     70      -8.8905      1.00000
     71      -8.7140      1.00000
     72      -8.7070      1.00000
     73      -8.5371      1.00000
     74      -8.5335      1.00000
     75      -8.4624      1.00000
     76      -8.4260      1.00000
     77      -8.3006      1.00000
     78      -8.2037      1.00000
     79      -8.0847      1.00000
     80      -7.9685      1.00000
     81      -7.8204      1.00000
     82      -7.6296      1.00000
     83      -7.4461      1.00000
     84      -7.1546      1.00000
     85      -7.0435      1.00000
     86      -6.9157      1.00000
     87      -6.8769      1.00000
     88      -6.8550      1.00000
     89      -6.7522      1.00000
     90      -6.5589      1.00000
     91      -6.1875      1.00000
     92      -6.0911      1.00000
     93      -5.8556      1.00000
     94      -5.5312      1.00000
     95      -5.3706      1.00000
     96      -5.3539      1.00000
     97      -5.2728      1.00000
     98      -5.2705      1.00000
     99      -5.1450      1.00000
    100      -5.1007      1.00000
    101      -4.9739      1.00000
    102      -4.7589      1.00000
    103      -4.0678      1.00000
    104      -3.6660      1.00000
    105      -2.7980      1.00000
    106      -1.9019      0.00117
    107      -1.2701      0.00000
    108      -1.2694      0.00000
    109      -0.7916      0.00000
    110      -0.7552      0.00000
    111      -0.5513      0.00000
    112      -0.2587      0.00000
    113      -0.1877      0.00000
    114      -0.0358      0.00000
    115       0.2683      0.00000
    116       0.5797      0.00000
    117       0.7953      0.00000
    118       0.8662      0.00000
    119       1.0202      0.00000
    120       1.2567      0.00000
    121       1.4049      0.00000
    122       1.6033      0.00000
    123       1.6218      0.00000
    124       1.6378      0.00000
    125       1.7659      0.00000
    126       1.7885      0.00000
    127       2.0616      0.00000
    128       2.0800      0.00000
    129       2.0920      0.00000
    130       2.1386      0.00000
    131       2.4981      0.00000
    132       2.5667      0.00000
    133       2.7119      0.00000
    134       2.7186      0.00000
    135       2.7294      0.00000
    136       2.8164      0.00000
    137       2.9146      0.00000
    138       2.9595      0.00000
    139       3.0314      0.00000
    140       3.1025      0.00000
    141       3.1365      0.00000
    142       3.3287      0.00000
    143       3.3527      0.00000
    144       3.4886      0.00000
    145       3.5056      0.00000
    146       3.5378      0.00000
    147       3.5742      0.00000
    148       3.5983      0.00000
    149       3.6058      0.00000
    150       3.7372      0.00000
    151       3.8233      0.00000
    152       3.9194      0.00000
    153       3.9463      0.00000
    154       4.0047      0.00000
    155       4.0453      0.00000
    156       4.0477      0.00000
    157       4.0495      0.00000
    158       4.0636      0.00000
    159       4.0853      0.00000
    160       4.0977      0.00000
    161       4.1164      0.00000
    162       4.2324      0.00000
    163       4.3069      0.00000
    164       4.4421      0.00000
    165       4.5176      0.00000
    166       4.6350      0.00000
    167       4.7008      0.00000
    168       4.7114      0.00000
    169       4.7316      0.00000
    170       4.7643      0.00000
    171       4.8783      0.00000
    172       4.9216      0.00000
    173       4.9610      0.00000
    174       4.9743      0.00000
    175       5.0448      0.00000
    176       5.1160      0.00000
    177       5.1527      0.00000
    178       5.1658      0.00000
    179       5.2658      0.00000
    180       5.2793      0.00000
    181       5.3172      0.00000
    182       5.3254      0.00000
    183       5.3412      0.00000
    184       5.4813      0.00000
    185       5.4872      0.00000
    186       5.5124      0.00000
    187       5.5209      0.00000
    188       5.5379      0.00000
    189       5.5585      0.00000
    190       5.5925      0.00000
    191       5.6079      0.00000
    192       5.6286      0.00000
    193       5.6911      0.00000
    194       5.6916      0.00000
    195       5.7704      0.00000
    196       5.7882      0.00000
    197       5.8505      0.00000
    198       5.8922      0.00000
    199       5.9423      0.00000
    200       5.9713      0.00000
    201       5.9948      0.00000
    202       6.0028      0.00000
    203       6.0285      0.00000
    204       6.0377      0.00000
    205       6.0490      0.00000
    206       6.0651      0.00000
    207       6.0664      0.00000
    208       6.1059      0.00000
    209       6.1282      0.00000
    210       6.1770      0.00000
    211       6.1813      0.00000
    212       6.2888      0.00000
    213       6.3050      0.00000
    214       6.3891      0.00000
    215       6.3935      0.00000
    216       6.4682      0.00000
    217       6.4909      0.00000
    218       6.5894      0.00000
    219       6.5901      0.00000
    220       6.6715      0.00000
    221       6.7077      0.00000
    222       6.7901      0.00000
    223       6.7955      0.00000
    224       6.8628      0.00000
    225       6.8997      0.00000
    226       6.9150      0.00000
    227       6.9447      0.00000
    228       6.9945      0.00000
    229       6.9998      0.00000
    230       7.0168      0.00000
    231       7.0333      0.00000
    232       7.1428      0.00000
    233       7.1669      0.00000
    234       7.2125      0.00000
    235       7.2129      0.00000
    236       7.2725      0.00000
    237       7.2888      0.00000
    238       7.2914      0.00000
    239       7.3055      0.00000
    240       7.3315      0.00000
    241       7.3717      0.00000
    242       7.4308      0.00000
    243       7.4380      0.00000
    244       7.5416      0.00000
    245       7.5420      0.00000
    246       7.5991      0.00000
    247       7.6281      0.00000
    248       7.6571      0.00000
    249       7.6813      0.00000
    250       7.7322      0.00000
    251       7.8612      0.00000
    252       7.8837      0.00000
    253       7.8919      0.00000
    254       7.8969      0.00000
    255       7.9451      0.00000
    256       7.9871      0.00000

 k-point     4 :       0.5000    0.5000    0.0000
  band No.  band energies     occupation 
      1     -24.0668      1.00000
      2     -24.0339      1.00000
      3     -23.9935      1.00000
      4     -23.9378      1.00000
      5     -23.8390      1.00000
      6     -23.1678      1.00000
      7     -22.7940      1.00000
      8     -22.6016      1.00000
      9     -22.1110      1.00000
     10     -21.6503      1.00000
     11     -21.4584      1.00000
     12     -20.9485      1.00000
     13     -20.6024      1.00000
     14     -20.3528      1.00000
     15     -20.1786      1.00000
     16     -20.1416      1.00000
     17     -19.8589      1.00000
     18     -19.1114      1.00000
     19     -19.0008      1.00000
     20     -18.7925      1.00000
     21     -18.3619      1.00000
     22     -18.1146      1.00000
     23     -17.8470      1.00000
     24     -17.8413      1.00000
     25     -17.5456      1.00000
     26     -17.4014      1.00000
     27     -17.2687      1.00000
     28     -17.1387      1.00000
     29     -16.7905      1.00000
     30     -16.1634      1.00000
     31     -15.4902      1.00000
     32     -15.3575      1.00000
     33     -15.1663      1.00000
     34     -15.1098      1.00000
     35     -14.9139      1.00000
     36     -14.3739      1.00000
     37     -14.3194      1.00000
     38     -14.0660      1.00000
     39     -13.8709      1.00000
     40     -13.6902      1.00000
     41     -13.3116      1.00000
     42     -13.0847      1.00000
     43     -12.9482      1.00000
     44     -12.8920      1.00000
     45     -12.7754      1.00000
     46     -12.2734      1.00000
     47     -12.0460      1.00000
     48     -11.5196      1.00000
     49     -11.3347      1.00000
     50     -11.2945      1.00000
     51     -11.0784      1.00000
     52     -10.9685      1.00000
     53     -10.9001      1.00000
     54     -10.8814      1.00000
     55     -10.3700      1.00000
     56     -10.2050      1.00000
     57     -10.0759      1.00000
     58     -10.0034      1.00000
     59      -9.9497      1.00000
     60      -9.9117      1.00000
     61      -9.8582      1.00000
     62      -9.7955      1.00000
     63      -9.7881      1.00000
     64      -9.6693      1.00000
     65      -9.6368      1.00000
     66      -9.3560      1.00000
     67      -9.3296      1.00000
     68      -8.9449      1.00000
     69      -8.8407      1.00000
     70      -8.8025      1.00000
     71      -8.7864      1.00000
     72      -8.6943      1.00000
     73      -8.6105      1.00000
     74      -8.4939      1.00000
     75      -8.4283      1.00000
     76      -8.4044      1.00000
     77      -8.2211      1.00000
     78      -8.1149      1.00000
     79      -8.0314      1.00000
     80      -8.0168      1.00000
     81      -7.7370      1.00000
     82      -7.7100      1.00000
     83      -7.4012      1.00000
     84      -7.3333      1.00000
     85      -7.0875      1.00000
     86      -7.0266      1.00000
     87      -6.9571      1.00000
     88      -6.7296      1.00000
     89      -6.7017      1.00000
     90      -6.5738      1.00000
     91      -6.3975      1.00000
     92      -6.1384      1.00000
     93      -5.5125      1.00000
     94      -5.4243      1.00000
     95      -5.3998      1.00000
     96      -5.3927      1.00000
     97      -5.3620      1.00000
     98      -5.1802      1.00000
     99      -5.1619      1.00000
    100      -5.0635      1.00000
    101      -4.8921      1.00000
    102      -4.8613      1.00000
    103      -4.0920      1.00000
    104      -3.9800      1.00000
    105      -2.2222      0.93125
    106      -2.0107      0.06598
    107      -1.5576      0.00000
    108      -1.2869      0.00000
    109      -0.8400      0.00000
    110      -0.6709      0.00000
    111      -0.4004      0.00000
    112      -0.3911      0.00000
    113      -0.1249      0.00000
    114      -0.0451      0.00000
    115       0.1565      0.00000
    116       0.6302      0.00000
    117       0.7437      0.00000
    118       0.9134      0.00000
    119       1.2151      0.00000
    120       1.2673      0.00000
    121       1.3151      0.00000
    122       1.5160      0.00000
    123       1.5268      0.00000
    124       1.6664      0.00000
    125       1.7664      0.00000
    126       1.8794      0.00000
    127       2.0436      0.00000
    128       2.0621      0.00000
    129       2.0820      0.00000
    130       2.4104      0.00000
    131       2.4808      0.00000
    132       2.5092      0.00000
    133       2.6151      0.00000
    134       2.7044      0.00000
    135       2.7234      0.00000
    136       2.7311      0.00000
    137       2.9026      0.00000
    138       2.9725      0.00000
    139       3.0778      0.00000
    140       3.0954      0.00000
    141       3.1552      0.00000
    142       3.3291      0.00000
    143       3.3526      0.00000
    144       3.4219      0.00000
    145       3.4472      0.00000
    146       3.5407      0.00000
    147       3.5859      0.00000
    148       3.5923      0.00000
    149       3.6081      0.00000
    150       3.7109      0.00000
    151       3.8538      0.00000
    152       3.8920      0.00000
    153       3.9589      0.00000
    154       4.0119      0.00000
    155       4.0385      0.00000
    156       4.0457      0.00000
    157       4.0622      0.00000
    158       4.0775      0.00000
    159       4.0797      0.00000
    160       4.0972      0.00000
    161       4.1335      0.00000
    162       4.2962      0.00000
    163       4.3357      0.00000
    164       4.5696      0.00000
    165       4.6252      0.00000
    166       4.7030      0.00000
    167       4.7070      0.00000
    168       4.7296      0.00000
    169       4.7910      0.00000
    170       4.8334      0.00000
    171       4.9156      0.00000
    172       4.9192      0.00000
    173       4.9473      0.00000
    174       4.9562      0.00000
    175       5.0747      0.00000
    176       5.1082      0.00000
    177       5.1214      0.00000
    178       5.1233      0.00000
    179       5.1949      0.00000
    180       5.2388      0.00000
    181       5.3163      0.00000
    182       5.3195      0.00000
    183       5.3217      0.00000
    184       5.3401      0.00000
    185       5.4805      0.00000
    186       5.4918      0.00000
    187       5.4955      0.00000
    188       5.5408      0.00000
    189       5.5641      0.00000
    190       5.6010      0.00000
    191       5.6067      0.00000
    192       5.6428      0.00000
    193       5.7101      0.00000
    194       5.7107      0.00000
    195       5.7275      0.00000
    196       5.7353      0.00000
    197       5.7525      0.00000
    198       5.8266      0.00000
    199       5.8287      0.00000
    200       5.9229      0.00000
    201       5.9724      0.00000
    202       5.9862      0.00000
    203       5.9969      0.00000
    204       6.0357      0.00000
    205       6.0363      0.00000
    206       6.0482      0.00000
    207       6.0640      0.00000
    208       6.0715      0.00000
    209       6.0981      0.00000
    210       6.1534      0.00000
    211       6.1772      0.00000
    212       6.3430      0.00000
    213       6.3542      0.00000
    214       6.3709      0.00000
    215       6.4280      0.00000
    216       6.4709      0.00000
    217       6.5061      0.00000
    218       6.5177      0.00000
    219       6.5970      0.00000
    220       6.7352      0.00000
    221       6.7393      0.00000
    222       6.8215      0.00000
    223       6.8668      0.00000
    224       6.8775      0.00000
    225       6.8906      0.00000
    226       6.9138      0.00000
    227       6.9235      0.00000
    228       6.9760      0.00000
    229       6.9893      0.00000
    230       6.9989      0.00000
    231       7.0228      0.00000
    232       7.0464      0.00000
    233       7.1371      0.00000
    234       7.1705      0.00000
    235       7.2651      0.00000
    236       7.2659      0.00000
    237       7.2771      0.00000
    238       7.2952      0.00000
    239       7.3228      0.00000
    240       7.3382      0.00000
    241       7.3553      0.00000
    242       7.3953      0.00000
    243       7.4420      0.00000
    244       7.4503      0.00000
    245       7.5398      0.00000
    246       7.5719      0.00000
    247       7.5725      0.00000
    248       7.6241      0.00000
    249       7.6257      0.00000
    250       7.6507      0.00000
    251       7.8002      0.00000
    252       7.8352      0.00000
    253       7.9131      0.00000
    254       7.9336      0.00000
    255       7.9876      0.00000
    256       7.9903      0.00000

 spin component 2

 k-point     1 :       0.0000    0.0000    0.0000
  band No.  band energies     occupation 
      1     -24.0669      1.00000
      2     -24.0337      1.00000
      3     -23.9935      1.00000
      4     -23.9375      1.00000
      5     -23.8391      1.00000
      6     -23.1939      1.00000
      7     -22.7761      1.00000
      8     -22.5146      1.00000
      9     -22.1740      1.00000
     10     -21.7167      1.00000
     11     -21.2942      1.00000
     12     -21.2228      1.00000
     13     -20.7861      1.00000
     14     -20.3045      1.00000
     15     -20.0756      1.00000
     16     -19.5876      1.00000
     17     -19.4710      1.00000
     18     -19.1930      1.00000
     19     -19.0831      1.00000
     20     -18.9001      1.00000
     21     -18.7339      1.00000
     22     -18.6875      1.00000
     23     -18.4882      1.00000
     24     -18.0216      1.00000
     25     -17.1720      1.00000
     26     -17.1241      1.00000
     27     -16.6960      1.00000
     28     -16.5157      1.00000
     29     -16.3527      1.00000
     30     -15.9156      1.00000
     31     -15.6306      1.00000
     32     -15.5881      1.00000
     33     -15.4612      1.00000
     34     -15.4521      1.00000
     35     -15.0628      1.00000
     36     -14.5710      1.00000
     37     -14.4184      1.00000
     38     -14.3667      1.00000
     39     -14.3395      1.00000
     40     -14.0989      1.00000
     41     -13.2843      1.00000
     42     -12.7496      1.00000
     43     -12.4595      1.00000
     44     -12.3430      1.00000
     45     -12.1159      1.00000
     46     -11.7811      1.00000
     47     -11.7491      1.00000
     48     -11.6271      1.00000
     49     -11.5977      1.00000
     50     -11.5653      1.00000
     51     -11.4725      1.00000
     52     -11.1199      1.00000
     53     -11.0757      1.00000
     54     -10.6242      1.00000
     55     -10.5457      1.00000
     56     -10.4643      1.00000
     57     -10.1229      1.00000
     58     -10.0871      1.00000
     59     -10.0653      1.00000
     60      -9.8199      1.00000
     61      -9.7355      1.00000
     62      -9.7265      1.00000
     63      -9.6230      1.00000
     64      -9.4706      1.00000
     65      -9.3165      1.00000
     66      -9.3164      1.00000
     67      -9.2570      1.00000
     68      -9.1447      1.00000
     69      -9.1196      1.00000
     70      -9.0945      1.00000
     71      -8.9942      1.00000
     72      -8.9356      1.00000
     73      -8.9008      1.00000
     74      -8.7896      1.00000
     75      -8.6422      1.00000
     76      -8.2626      1.00000
     77      -7.9625      1.00000
     78      -7.9148      1.00000
     79      -7.7483      1.00000
     80      -7.6969      1.00000
     81      -7.5772      1.00000
     82      -7.4523      1.00000
     83      -7.3581      1.00000
     84      -7.3023      1.00000
     85      -7.1480      1.00000
     86      -7.0421      1.00000
     87      -6.8499      1.00000
     88      -6.6959      1.00000
     89      -6.6330      1.00000
     90      -6.3976      1.00000
     91      -6.3229      1.00000
     92      -6.3076      1.00000
     93      -6.2313      1.00000
     94      -6.1464      1.00000
     95      -6.1114      1.00000
     96      -5.6906      1.00000
     97      -5.4204      1.00000
     98      -4.8257      1.00000
     99      -4.5134      1.00000
    100      -4.5040      1.00000
    101      -4.4523      1.00000
    102      -4.2277      1.00000
    103      -4.2024      1.00000
    104      -4.0911      1.00000
    105      -2.5928      1.00000
    106      -1.8824      0.00045
    107      -1.6414      0.00000
    108      -1.4379      0.00000
    109      -1.4026      0.00000
    110      -1.0398      0.00000
    111      -0.2790      0.00000
    112      -0.0887      0.00000
    113       0.2975      0.00000
    114       0.3218      0.00000
    115       0.4404      0.00000
    116       0.5846      0.00000
    117       0.6171      0.00000
    118       0.8778      0.00000
    119       1.2074      0.00000
    120       1.3415      0.00000
    121       1.5525      0.00000
    122       1.6731      0.00000
    123       1.8325      0.00000
    124       1.8418      0.00000
    125       1.8860      0.00000
    126       1.9023      0.00000
    127       1.9218      0.00000
    128       2.0635      0.00000
    129       2.0751      0.00000
    130       2.1047      0.00000
    131       2.2407      0.00000
    132       2.2561      0.00000
    133       2.2797      0.00000
    134       2.6008      0.00000
    135       2.6441      0.00000
    136       2.6495      0.00000
    137       2.6892      0.00000
    138       2.7766      0.00000
    139       2.7815      0.00000
    140       2.9915      0.00000
    141       3.0170      0.00000
    142       3.0177      0.00000
    143       3.0223      0.00000
    144       3.0448      0.00000
    145       3.0452      0.00000
    146       3.0565      0.00000
    147       3.3109      0.00000
    148       3.8343      0.00000
    149       3.9131      0.00000
    150       3.9363      0.00000
    151       3.9399      0.00000
    152       3.9545      0.00000
    153       4.0156      0.00000
    154       4.0826      0.00000
    155       4.0880      0.00000
    156       4.2259      0.00000
    157       4.2355      0.00000
    158       4.2559      0.00000
    159       4.2663      0.00000
    160       4.3080      0.00000
    161       4.3529      0.00000
    162       4.3634      0.00000
    163       4.3775      0.00000
    164       4.4019      0.00000
    165       4.4040      0.00000
    166       4.6138      0.00000
    167       4.6416      0.00000
    168       4.7094      0.00000
    169       4.7353      0.00000
    170       4.8240      0.00000
    171       4.8416      0.00000
    172       4.9829      0.00000
    173       5.0553      0.00000
    174       5.0647      0.00000
    175       5.1082      0.00000
    176       5.1405      0.00000
    177       5.1817      0.00000
    178       5.2834      0.00000
    179       5.2891      0.00000
    180       5.3230      0.00000
    181       5.3951      0.00000
    182       5.4065      0.00000
    183       5.4447      0.00000
    184       5.4724      0.00000
    185       5.4855      0.00000
    186       5.5557      0.00000
    187       5.5563      0.00000
    188       5.5607      0.00000
    189       5.6030      0.00000
    190       5.6464      0.00000
    191       5.6467      0.00000
    192       5.6496      0.00000
    193       5.6531      0.00000
    194       5.6545      0.00000
    195       5.6546      0.00000
    196       5.6595      0.00000
    197       5.7121      0.00000
    198       5.8023      0.00000
    199       5.8212      0.00000
    200       5.8692      0.00000
    201       5.9081      0.00000
    202       5.9562      0.00000
    203       6.0530      0.00000
    204       6.0532      0.00000
    205       6.0625      0.00000
    206       6.0839      0.00000
    207       6.1511      0.00000
    208       6.1532      0.00000
    209       6.3014      0.00000
    210       6.3272      0.00000
    211       6.3407      0.00000
    212       6.3836      0.00000
    213       6.4035      0.00000
    214       6.4188      0.00000
    215       6.4714      0.00000
    216       6.4891      0.00000
    217       6.5027      0.00000
    218       6.5039      0.00000
    219       6.5055      0.00000
    220       6.5098      0.00000
    221       6.5379      0.00000
    222       6.5458      0.00000
    223       6.6209      0.00000
    224       6.6988      0.00000
    225       6.7050      0.00000
    226       6.7223      0.00000
    227       6.8384      0.00000
    228       6.9016      0.00000
    229       6.9091      0.00000
    230       6.9268      0.00000
    231       6.9277      0.00000
    232       6.9487      0.00000
    233       6.9737      0.00000
    234       6.9812      0.00000
    235       6.9840      0.00000
    236       6.9872      0.00000
    237       6.9904      0.00000
    238       6.9915      0.00000
    239       7.1226      0.00000
    240       7.1685      0.00000
    241       7.2334      0.00000
    242       7.6389      0.00000
    243       7.6657      0.00000
    244       7.6794      0.00000
    245       7.6837      0.00000
    246       7.7895      0.00000
    247       7.8220      0.00000
    248       7.8231      0.00000
    249       7.8588      0.00000
    250       7.9141      0.00000
    251       7.9205      0.00000
    252       7.9234      0.00000
    253       7.9951      0.00000
    254       8.0623      0.00000
    255       8.0822      0.00000
    256       8.1953      0.00000

 k-point     2 :       0.5000   -0.0000    0.0000
  band No.  band energies     occupation 
      1     -24.0669      1.00000
      2     -24.0341      1.00000
      3     -23.9935      1.00000
      4     -23.9376      1.00000
      5     -23.8390      1.00000
      6     -23.1647      1.00000
      7     -22.8227      1.00000
      8     -22.5421      1.00000
      9     -22.1860      1.00000
     10     -21.5927      1.00000
     11     -21.3962      1.00000
     12     -21.0576      1.00000
     13     -20.6103      1.00000
     14     -20.4998      1.00000
     15     -20.2333      1.00000
     16     -19.7514      1.00000
     17     -19.7056      1.00000
     18     -19.2917      1.00000
     19     -19.2779      1.00000
     20     -18.6655      1.00000
     21     -18.4516      1.00000
     22     -18.1008      1.00000
     23     -17.8215      1.00000
     24     -17.8115      1.00000
     25     -17.6665      1.00000
     26     -17.4793      1.00000
     27     -17.2575      1.00000
     28     -16.8586      1.00000
     29     -16.4539      1.00000
     30     -16.0782      1.00000
     31     -15.9270      1.00000
     32     -15.3290      1.00000
     33     -15.3125      1.00000
     34     -15.1637      1.00000
     35     -15.0895      1.00000
     36     -14.5846      1.00000
     37     -14.2227      1.00000
     38     -13.9053      1.00000
     39     -13.8027      1.00000
     40     -13.4082      1.00000
     41     -13.3285      1.00000
     42     -12.9096      1.00000
     43     -12.8890      1.00000
     44     -12.8426      1.00000
     45     -12.7393      1.00000
     46     -12.2610      1.00000
     47     -12.1141      1.00000
     48     -11.6562      1.00000
     49     -11.4902      1.00000
     50     -11.4157      1.00000
     51     -11.4025      1.00000
     52     -10.9010      1.00000
     53     -10.8589      1.00000
     54     -10.6477      1.00000
     55     -10.5817      1.00000
     56     -10.2101      1.00000
     57     -10.1833      1.00000
     58     -10.1022      1.00000
     59      -9.9691      1.00000
     60      -9.7455      1.00000
     61      -9.7049      1.00000
     62      -9.6366      1.00000
     63      -9.6311      1.00000
     64      -9.6088      1.00000
     65      -9.4960      1.00000
     66      -9.3995      1.00000
     67      -9.1542      1.00000
     68      -9.1463      1.00000
     69      -9.0460      1.00000
     70      -8.8905      1.00000
     71      -8.7140      1.00000
     72      -8.7070      1.00000
     73      -8.5371      1.00000
     74      -8.5335      1.00000
     75      -8.4624      1.00000
     76      -8.4260      1.00000
     77      -8.3006      1.00000
     78      -8.2037      1.00000
     79      -8.0847      1.00000
     80      -7.9685      1.00000
     81      -7.8204      1.00000
     82      -7.6296      1.00000
     83      -7.4461      1.00000
     84      -7.1546      1.00000
     85      -7.0435      1.00000
     86      -6.9157      1.00000
     87      -6.8769      1.00000
     88      -6.8550      1.00000
     89      -6.7522      1.00000
     90      -6.5589      1.00000
     91      -6.1875      1.00000
     92      -6.0911      1.00000
     93      -5.8556      1.00000
     94      -5.5312      1.00000
     95      -5.3706      1.00000
     96      -5.3539      1.00000
     97      -5.2728      1.00000
     98      -5.2705      1.00000
     99      -5.1450      1.00000
    100      -5.1006      1.00000
    101      -4.9739      1.00000
    102      -4.7589      1.00000
    103      -4.0678      1.00000
    104      -3.6660      1.00000
    105      -2.7980      1.00000
    106      -1.9019      0.00117
    107      -1.2701      0.00000
    108      -1.2694      0.00000
    109      -0.7916      0.00000
    110      -0.7551      0.00000
    111      -0.5512      0.00000
    112      -0.2587      0.00000
    113      -0.1877      0.00000
    114      -0.0358      0.00000
    115       0.2686      0.00000
    116       0.5820      0.00000
    117       0.7965      0.00000
    118       0.8682      0.00000
    119       1.0232      0.00000
    120       1.2568      0.00000
    121       1.4071      0.00000
    122       1.6040      0.00000
    123       1.6225      0.00000
    124       1.6425      0.00000
    125       1.7700      0.00000
    126       1.8028      0.00000
    127       2.0152      0.00000
    128       2.0258      0.00000
    129       2.1001      0.00000
    130       2.1394      0.00000
    131       2.5126      0.00000
    132       2.5722      0.00000
    133       2.6652      0.00000
    134       2.6799      0.00000
    135       2.7198      0.00000
    136       2.8157      0.00000
    137       2.9043      0.00000
    138       2.9470      0.00000
    139       3.0265      0.00000
    140       3.1004      0.00000
    141       3.1337      0.00000
    142       3.3074      0.00000
    143       3.3431      0.00000
    144       3.4894      0.00000
    145       3.5072      0.00000
    146       3.5424      0.00000
    147       3.5794      0.00000
    148       3.5944      0.00000
    149       3.6024      0.00000
    150       3.7310      0.00000
    151       3.8238      0.00000
    152       3.9158      0.00000
    153       3.9407      0.00000
    154       3.9975      0.00000
    155       4.0044      0.00000
    156       4.0101      0.00000
    157       4.0147      0.00000
    158       4.0469      0.00000
    159       4.0500      0.00000
    160       4.0978      0.00000
    161       4.1104      0.00000
    162       4.2334      0.00000
    163       4.3086      0.00000
    164       4.4443      0.00000
    165       4.5146      0.00000
    166       4.6335      0.00000
    167       4.6748      0.00000
    168       4.6850      0.00000
    169       4.7034      0.00000
    170       4.7547      0.00000
    171       4.8665      0.00000
    172       4.9035      0.00000
    173       4.9449      0.00000
    174       4.9578      0.00000
    175       5.0377      0.00000
    176       5.1057      0.00000
    177       5.1503      0.00000
    178       5.1609      0.00000
    179       5.2617      0.00000
    180       5.2693      0.00000
    181       5.3110      0.00000
    182       5.3137      0.00000
    183       5.3341      0.00000
    184       5.4775      0.00000
    185       5.4864      0.00000
    186       5.5107      0.00000
    187       5.5248      0.00000
    188       5.5325      0.00000
    189       5.5649      0.00000
    190       5.5840      0.00000
    191       5.5866      0.00000
    192       5.6267      0.00000
    193       5.6850      0.00000
    194       5.6866      0.00000
    195       5.7578      0.00000
    196       5.7872      0.00000
    197       5.8476      0.00000
    198       5.8890      0.00000
    199       5.9313      0.00000
    200       5.9642      0.00000
    201       5.9709      0.00000
    202       5.9846      0.00000
    203       5.9908      0.00000
    204       5.9936      0.00000
    205       6.0308      0.00000
    206       6.0583      0.00000
    207       6.0618      0.00000
    208       6.1012      0.00000
    209       6.1028      0.00000
    210       6.1724      0.00000
    211       6.1788      0.00000
    212       6.2883      0.00000
    213       6.3069      0.00000
    214       6.3784      0.00000
    215       6.3826      0.00000
    216       6.4674      0.00000
    217       6.4854      0.00000
    218       6.5876      0.00000
    219       6.5898      0.00000
    220       6.6687      0.00000
    221       6.7085      0.00000
    222       6.7829      0.00000
    223       6.7883      0.00000
    224       6.8484      0.00000
    225       6.8840      0.00000
    226       6.9016      0.00000
    227       6.9366      0.00000
    228       6.9778      0.00000
    229       6.9902      0.00000
    230       7.0133      0.00000
    231       7.0243      0.00000
    232       7.1416      0.00000
    233       7.1609      0.00000
    234       7.2120      0.00000
    235       7.2139      0.00000
    236       7.2594      0.00000
    237       7.2835      0.00000
    238       7.2927      0.00000
    239       7.3073      0.00000
    240       7.3286      0.00000
    241       7.3675      0.00000
    242       7.4271      0.00000
    243       7.4283      0.00000
    244       7.5328      0.00000
    245       7.5377      0.00000
    246       7.5871      0.00000
    247       7.6159      0.00000
    248       7.6513      0.00000
    249       7.6669      0.00000
    250       7.7193      0.00000
    251       7.8628      0.00000
    252       7.8829      0.00000
    253       7.8912      0.00000
    254       7.9034      0.00000
    255       7.9312      0.00000
    256       7.9523      0.00000

 k-point     3 :       0.0000    0.5000    0.0000
  band No.  band energies     occupation 
      1     -24.0669      1.00000
      2     -24.0341      1.00000
      3     -23.9935      1.00000
      4     -23.9376      1.00000
      5     -23.8390      1.00000
      6     -23.1647      1.00000
      7     -22.8227      1.00000
      8     -22.5421      1.00000
      9     -22.1860      1.00000
     10     -21.5927      1.00000
     11     -21.3962      1.00000
     12     -21.0576      1.00000
     13     -20.6103      1.00000
     14     -20.4998      1.00000
     15     -20.2333      1.00000
     16     -19.7514      1.00000
     17     -19.7056      1.00000
     18     -19.2917      1.00000
     19     -19.2779      1.00000
     20     -18.6655      1.00000
     21     -18.4516      1.00000
     22     -18.1008      1.00000
     23     -17.8215      1.00000
     24     -17.8115      1.00000
     25     -17.6665      1.00000
     26     -17.4793      1.00000
     27     -17.2575      1.00000
     28     -16.8586      1.00000
     29     -16.4539      1.00000
     30     -16.0782      1.00000
     31     -15.9270      1.00000
     32     -15.3290      1.00000
     33     -15.3125      1.00000
     34     -15.1637      1.00000
     35     -15.0895      1.00000
     36     -14.5846      1.00000
     37     -14.2227      1.00000
     38     -13.9053      1.00000
     39     -13.8027      1.00000
     40     -13.4082      1.00000
     41     -13.3285      1.00000
     42     -12.9096      1.00000
     43     -12.8890      1.00000
     44     -12.8426      1.00000
     45     -12.7393      1.00000
     46     -12.2610      1.00000
     47     -12.1141      1.00000
     48     -11.6562      1.00000
     49     -11.4902      1.00000
     50     -11.4157      1.00000
     51     -11.4025      1.00000
     52     -10.9010      1.00000
     53     -10.8589      1.00000
     54     -10.6477      1.00000
     55     -10.5818      1.00000
     56     -10.2101      1.00000
     57     -10.1833      1.00000
     58     -10.1022      1.00000
     59      -9.9691      1.00000
     60      -9.7455      1.00000
     61      -9.7049      1.00000
     62      -9.6366      1.00000
     63      -9.6311      1.00000
     64      -9.6087      1.00000
     65      -9.4960      1.00000
     66      -9.3995      1.00000
     67      -9.1542      1.00000
     68      -9.1463      1.00000
     69      -9.0460      1.00000
     70      -8.8905      1.00000
     71      -8.7140      1.00000
     72      -8.7070      1.00000
     73      -8.5371      1.00000
     74      -8.5335      1.00000
     75      -8.4624      1.00000
     76      -8.4260      1.00000
     77      -8.3006      1.00000
     78      -8.2037      1.00000
     79      -8.0847      1.00000
     80      -7.9685      1.00000
     81      -7.8204      1.00000
     82      -7.6296      1.00000
     83      -7.4461      1.00000
     84      -7.1546      1.00000
     85      -7.0435      1.00000
     86      -6.9157      1.00000
     87      -6.8769      1.00000
     88      -6.8550      1.00000
     89      -6.7522      1.00000
     90      -6.5589      1.00000
     91      -6.1875      1.00000
     92      -6.0911      1.00000
     93      -5.8556      1.00000
     94      -5.5312      1.00000
     95      -5.3706      1.00000
     96      -5.3539      1.00000
     97      -5.2728      1.00000
     98      -5.2705      1.00000
     99      -5.1450      1.00000
    100      -5.1006      1.00000
    101      -4.9739      1.00000
    102      -4.7589      1.00000
    103      -4.0678      1.00000
    104      -3.6660      1.00000
    105      -2.7980      1.00000
    106      -1.9019      0.00117
    107      -1.2701      0.00000
    108      -1.2694      0.00000
    109      -0.7916      0.00000
    110      -0.7551      0.00000
    111      -0.5512      0.00000
    112      -0.2587      0.00000
    113      -0.1877      0.00000
    114      -0.0358      0.00000
    115       0.2686      0.00000
    116       0.5820      0.00000
    117       0.7965      0.00000
    118       0.8682      0.00000
    119       1.0232      0.00000
    120       1.2568      0.00000
    121       1.4071      0.00000
    122       1.6040      0.00000
    123       1.6225      0.00000
    124       1.6425      0.00000
    125       1.7700      0.00000
    126       1.8028      0.00000
    127       2.0152      0.00000
    128       2.0258      0.00000
    129       2.1001      0.00000
    130       2.1394      0.00000
    131       2.5126      0.00000
    132       2.5722      0.00000
    133       2.6652      0.00000
    134       2.6799      0.00000
    135       2.7198      0.00000
    136       2.8157      0.00000
    137       2.9043      0.00000
    138       2.9470      0.00000
    139       3.0265      0.00000
    140       3.1004      0.00000
    141       3.1337      0.00000
    142       3.3074      0.00000
    143       3.3431      0.00000
    144       3.4894      0.00000
    145       3.5072      0.00000
    146       3.5424      0.00000
    147       3.5794      0.00000
    148       3.5944      0.00000
    149       3.6024      0.00000
    150       3.7310      0.00000
    151       3.8238      0.00000
    152       3.9158      0.00000
    153       3.9407      0.00000
    154       3.9975      0.00000
    155       4.0044      0.00000
    156       4.0101      0.00000
    157       4.0147      0.00000
    158       4.0469      0.00000
    159       4.0500      0.00000
    160       4.0978      0.00000
    161       4.1104      0.00000
    162       4.2333      0.00000
    163       4.3086      0.00000
    164       4.4443      0.00000
    165       4.5146      0.00000
    166       4.6335      0.00000
    167       4.6748      0.00000
    168       4.6850      0.00000
    169       4.7034      0.00000
    170       4.7547      0.00000
    171       4.8665      0.00000
    172       4.9035      0.00000
    173       4.9449      0.00000
    174       4.9578      0.00000
    175       5.0377      0.00000
    176       5.1057      0.00000
    177       5.1503      0.00000
    178       5.1609      0.00000
    179       5.2617      0.00000
    180       5.2693      0.00000
    181       5.3110      0.00000
    182       5.3137      0.00000
    183       5.3341      0.00000
    184       5.4775      0.00000
    185       5.4864      0.00000
    186       5.5107      0.00000
    187       5.5248      0.00000
    188       5.5325      0.00000
    189       5.5649      0.00000
    190       5.5840      0.00000
    191       5.5866      0.00000
    192       5.6267      0.00000
    193       5.6850      0.00000
    194       5.6866      0.00000
    195       5.7578      0.00000
    196       5.7872      0.00000
    197       5.8476      0.00000
    198       5.8890      0.00000
    199       5.9313      0.00000
    200       5.9642      0.00000
    201       5.9709      0.00000
    202       5.9846      0.00000
    203       5.9908      0.00000
    204       5.9936      0.00000
    205       6.0307      0.00000
    206       6.0583      0.00000
    207       6.0618      0.00000
    208       6.1012      0.00000
    209       6.1028      0.00000
    210       6.1724      0.00000
    211       6.1788      0.00000
    212       6.2883      0.00000
    213       6.3069      0.00000
    214       6.3784      0.00000
    215       6.3826      0.00000
    216       6.4674      0.00000
    217       6.4854      0.00000
    218       6.5876      0.00000
    219       6.5898      0.00000
    220       6.6687      0.00000
    221       6.7085      0.00000
    222       6.7829      0.00000
    223       6.7883      0.00000
    224       6.8484      0.00000
    225       6.8840      0.00000
    226       6.9016      0.00000
    227       6.9366      0.00000
    228       6.9778      0.00000
    229       6.9902      0.00000
    230       7.0133      0.00000
    231       7.0243      0.00000
    232       7.1416      0.00000
    233       7.1609      0.00000
    234       7.2120      0.00000
    235       7.2139      0.00000
    236       7.2594      0.00000
    237       7.2835      0.00000
    238       7.2927      0.00000
    239       7.3073      0.00000
    240       7.3286      0.00000
    241       7.3675      0.00000
    242       7.4271      0.00000
    243       7.4283      0.00000
    244       7.5328      0.00000
    245       7.5377      0.00000
    246       7.5871      0.00000
    247       7.6159      0.00000
    248       7.6513      0.00000
    249       7.6669      0.00000
    250       7.7193      0.00000
    251       7.8628      0.00000
    252       7.8829      0.00000
    253       7.8912      0.00000
    254       7.9034      0.00000
    255       7.9312      0.00000
    256       7.9523      0.00000

 k-point     4 :       0.5000    0.5000    0.0000
  band No.  band energies     occupation 
      1     -24.0668      1.00000
      2     -24.0339      1.00000
      3     -23.9935      1.00000
      4     -23.9378      1.00000
      5     -23.8390      1.00000
      6     -23.1678      1.00000
      7     -22.7940      1.00000
      8     -22.6016      1.00000
      9     -22.1110      1.00000
     10     -21.6503      1.00000
     11     -21.4584      1.00000
     12     -20.9485      1.00000
     13     -20.6024      1.00000
     14     -20.3528      1.00000
     15     -20.1786      1.00000
     16     -20.1416      1.00000
     17     -19.8589      1.00000
     18     -19.1114      1.00000
     19     -19.0008      1.00000
     20     -18.7925      1.00000
     21     -18.3619      1.00000
     22     -18.1146      1.00000
     23     -17.8470      1.00000
     24     -17.8413      1.00000
     25     -17.5456      1.00000
     26     -17.4014      1.00000
     27     -17.2687      1.00000
     28     -17.1387      1.00000
     29     -16.7905      1.00000
     30     -16.1634      1.00000
     31     -15.4902      1.00000
     32     -15.3575      1.00000
     33     -15.1663      1.00000
     34     -15.1098      1.00000
     35     -14.9139      1.00000
     36     -14.3739      1.00000
     37     -14.3194      1.00000
     38     -14.0660      1.00000
     39     -13.8709      1.00000
     40     -13.6902      1.00000
     41     -13.3116      1.00000
     42     -13.0847      1.00000
     43     -12.9482      1.00000
     44     -12.8920      1.00000
     45     -12.7754      1.00000
     46     -12.2733      1.00000
     47     -12.0460      1.00000
     48     -11.5196      1.00000
     49     -11.3347      1.00000
     50     -11.2945      1.00000
     51     -11.0784      1.00000
     52     -10.9685      1.00000
     53     -10.9001      1.00000
     54     -10.8814      1.00000
     55     -10.3700      1.00000
     56     -10.2050      1.00000
     57     -10.0759      1.00000
     58     -10.0034      1.00000
     59      -9.9497      1.00000
     60      -9.9117      1.00000
     61      -9.8582      1.00000
     62      -9.7955      1.00000
     63      -9.7881      1.00000
     64      -9.6693      1.00000
     65      -9.6368      1.00000
     66      -9.3560      1.00000
     67      -9.3296      1.00000
     68      -8.9449      1.00000
     69      -8.8407      1.00000
     70      -8.8025      1.00000
     71      -8.7864      1.00000
     72      -8.6943      1.00000
     73      -8.6105      1.00000
     74      -8.4939      1.00000
     75      -8.4283      1.00000
     76      -8.4044      1.00000
     77      -8.2211      1.00000
     78      -8.1149      1.00000
     79      -8.0314      1.00000
     80      -8.0168      1.00000
     81      -7.7370      1.00000
     82      -7.7100      1.00000
     83      -7.4012      1.00000
     84      -7.3333      1.00000
     85      -7.0875      1.00000
     86      -7.0266      1.00000
     87      -6.9571      1.00000
     88      -6.7296      1.00000
     89      -6.7017      1.00000
     90      -6.5738      1.00000
     91      -6.3975      1.00000
     92      -6.1384      1.00000
     93      -5.5125      1.00000
     94      -5.4243      1.00000
     95      -5.3998      1.00000
     96      -5.3927      1.00000
     97      -5.3620      1.00000
     98      -5.1802      1.00000
     99      -5.1619      1.00000
    100      -5.0635      1.00000
    101      -4.8921      1.00000
    102      -4.8613      1.00000
    103      -4.0920      1.00000
    104      -3.9799      1.00000
    105      -2.2222      0.93123
    106      -2.0107      0.06597
    107      -1.5576      0.00000
    108      -1.2869      0.00000
    109      -0.8400      0.00000
    110      -0.6709      0.00000
    111      -0.4004      0.00000
    112      -0.3911      0.00000
    113      -0.1249      0.00000
    114      -0.0451      0.00000
    115       0.1566      0.00000
    116       0.6311      0.00000
    117       0.7476      0.00000
    118       0.9175      0.00000
    119       1.2151      0.00000
    120       1.2673      0.00000
    121       1.3163      0.00000
    122       1.5165      0.00000
    123       1.5281      0.00000
    124       1.6715      0.00000
    125       1.7822      0.00000
    126       1.8798      0.00000
    127       2.0059      0.00000
    128       2.0279      0.00000
    129       2.0617      0.00000
    130       2.4266      0.00000
    131       2.4830      0.00000
    132       2.5105      0.00000
    133       2.6177      0.00000
    134       2.6755      0.00000
    135       2.6796      0.00000
    136       2.7085      0.00000
    137       2.8920      0.00000
    138       2.9568      0.00000
    139       3.0752      0.00000
    140       3.0933      0.00000
    141       3.1524      0.00000
    142       3.3075      0.00000
    143       3.3460      0.00000
    144       3.4221      0.00000
    145       3.4488      0.00000
    146       3.5466      0.00000
    147       3.5811      0.00000
    148       3.5973      0.00000
    149       3.6042      0.00000
    150       3.7033      0.00000
    151       3.8533      0.00000
    152       3.9010      0.00000
    153       3.9560      0.00000
    154       3.9942      0.00000
    155       3.9974      0.00000
    156       4.0216      0.00000
    157       4.0231      0.00000
    158       4.0388      0.00000
    159       4.0491      0.00000
    160       4.0968      0.00000
    161       4.1331      0.00000
    162       4.2980      0.00000
    163       4.3386      0.00000
    164       4.5635      0.00000
    165       4.6293      0.00000
    166       4.6652      0.00000
    167       4.6829      0.00000
    168       4.7037      0.00000
    169       4.7852      0.00000
    170       4.8231      0.00000
    171       4.8973      0.00000
    172       4.9176      0.00000
    173       4.9354      0.00000
    174       4.9398      0.00000
    175       5.0655      0.00000
    176       5.1070      0.00000
    177       5.1101      0.00000
    178       5.1227      0.00000
    179       5.1875      0.00000
    180       5.2258      0.00000
    181       5.3092      0.00000
    182       5.3154      0.00000
    183       5.3162      0.00000
    184       5.3288      0.00000
    185       5.4801      0.00000
    186       5.4906      0.00000
    187       5.4910      0.00000
    188       5.5467      0.00000
    189       5.5506      0.00000
    190       5.6006      0.00000
    191       5.6175      0.00000
    192       5.6340      0.00000
    193       5.6931      0.00000
    194       5.7069      0.00000
    195       5.7251      0.00000
    196       5.7353      0.00000
    197       5.7447      0.00000
    198       5.8179      0.00000
    199       5.8289      0.00000
    200       5.9189      0.00000
    201       5.9632      0.00000
    202       5.9636      0.00000
    203       5.9873      0.00000
    204       5.9968      0.00000
    205       5.9988      0.00000
    206       6.0198      0.00000
    207       6.0233      0.00000
    208       6.0598      0.00000
    209       6.0969      0.00000
    210       6.1533      0.00000
    211       6.1733      0.00000
    212       6.3279      0.00000
    213       6.3376      0.00000
    214       6.3712      0.00000
    215       6.4314      0.00000
    216       6.4606      0.00000
    217       6.5055      0.00000
    218       6.5174      0.00000
    219       6.5971      0.00000
    220       6.7317      0.00000
    221       6.7392      0.00000
    222       6.8144      0.00000
    223       6.8527      0.00000
    224       6.8749      0.00000
    225       6.8822      0.00000
    226       6.9018      0.00000
    227       6.9105      0.00000
    228       6.9592      0.00000
    229       6.9734      0.00000
    230       6.9976      0.00000
    231       7.0149      0.00000
    232       7.0458      0.00000
    233       7.1349      0.00000
    234       7.1636      0.00000
    235       7.2489      0.00000
    236       7.2701      0.00000
    237       7.2752      0.00000
    238       7.2985      0.00000
    239       7.3194      0.00000
    240       7.3348      0.00000
    241       7.3588      0.00000
    242       7.3966      0.00000
    243       7.4347      0.00000
    244       7.4388      0.00000
    245       7.5353      0.00000
    246       7.5576      0.00000
    247       7.5619      0.00000
    248       7.6105      0.00000
    249       7.6110      0.00000
    250       7.6389      0.00000
    251       7.7950      0.00000
    252       7.8359      0.00000
    253       7.9064      0.00000
    254       7.9346      0.00000
    255       7.9545      0.00000
    256       7.9554      0.00000


--------------------------------------------------------------------------------------------------------


 soft charge-density along one line, spin component           1
         0         1         2         3         4         5         6         7         8         9
 total charge-density along one line
 
 soft charge-density along one line, spin component           2
         0         1         2         3         4         5         6         7         8         9
 total charge-density along one line
 
 pseudopotential strength for first ion, spin component:           1
 10.222   0.019   0.000  -0.000  -0.000   0.000  -0.000  -0.000
  0.019  -0.002  -0.000   0.000   0.000   0.000  -0.000  -0.000
  0.000  -0.000  -4.340  -0.000  -0.000  -0.019  -0.000  -0.000
 -0.000   0.000  -0.000  -4.319   0.001  -0.000  -0.014   0.000
 -0.000   0.000  -0.000   0.001  -4.340  -0.000   0.000  -0.019
  0.000   0.000  -0.019  -0.000  -0.000  -0.772  -0.000   0.000
 -0.000  -0.000  -0.000  -0.014   0.000  -0.000  -0.772   0.000
 -0.000  -0.000  -0.000   0.000  -0.019   0.000   0.000  -0.772
 pseudopotential strength for first ion, spin component:           2
 10.222   0.019   0.000  -0.000  -0.000   0.000  -0.000  -0.000
  0.019  -0.002  -0.000   0.000   0.000   0.000  -0.000  -0.000
  0.000  -0.000  -4.340  -0.000  -0.000  -0.019  -0.000  -0.000
 -0.000   0.000  -0.000  -4.319   0.001  -0.000  -0.014   0.000
 -0.000   0.000  -0.000   0.001  -4.340  -0.000   0.000  -0.019
  0.000   0.000  -0.019  -0.000  -0.000  -0.772  -0.000   0.000
 -0.000  -0.000  -0.000  -0.014   0.000  -0.000  -0.772   0.000
 -0.000  -0.000  -0.000   0.000  -0.019   0.000   0.000  -0.772
 total augmentation occupancy for first ion, spin component:           1
  1.473  -1.138  -0.003   0.005   0.005  -0.002   0.003   0.003
 -1.138   1.083   0.008  -0.013  -0.014   0.003  -0.004  -0.005
 -0.003   0.008   1.242   0.004   0.008   0.225   0.002  -0.000
  0.005  -0.013   0.004   0.928  -0.008   0.002   0.104  -0.003
  0.005  -0.014   0.008  -0.008   1.233  -0.000  -0.003   0.225
 -0.002   0.003   0.225   0.002  -0.000   0.047   0.001  -0.000
  0.003  -0.004   0.002   0.104  -0.003   0.001   0.013  -0.001
  0.003  -0.005  -0.000  -0.003   0.225  -0.000  -0.001   0.047
 total augmentation occupancy for first ion, spin component:           2
 -0.000   0.000  -0.000   0.000   0.000   0.000  -0.000  -0.000
  0.000  -0.000  -0.000   0.000   0.000  -0.000   0.000   0.000
 -0.000  -0.000  -0.000   0.000   0.000  -0.000   0.000  -0.000
  0.000   0.000   0.000  -0.000  -0.000   0.000   0.000  -0.000
  0.000   0.000   0.000  -0.000  -0.000  -0.000  -0.000  -0.000
  0.000  -0.000  -0.000   0.000  -0.000   0.000  -0.000  -0.000
 -0.000   0.000   0.000   0.000  -0.000  -0.000   0.000   0.000
 -0.000   0.000  -0.000  -0.000  -0.000  -0.000   0.000   0.000


------------------------ aborting loop because EDIFF is reached ----------------------------------------


    CHARGE:  cpu time    1.8977: real time    1.8989
    FORLOC:  cpu time    0.0262: real time    0.0262
    FORNL :  cpu time    2.1931: real time    2.1979
    STRESS:  cpu time    6.5845: real time    6.6010
    FORCOR:  cpu time    2.0058: real time    2.0088
    FORHAR:  cpu time    0.2723: real time    0.2802
    MIXING:  cpu time    0.0563: real time    0.0563
    OFIELD:  cpu time    0.0002: real time    0.0088

 ---------------------------------------------------------------------------------------------

         DFTD3 V3.0 Rev 1        
 IVDW         = 11
 DF pbe       
 parameters
 VDW_S6       =    1.0000
 VDW_S8       =    0.7220
 VDW_SR       =    1.2170
 rs18     =    1.0000
 alpha6   =   14.0000
 alpha8   =   16.0000
 k1-k3    =   16.0000    1.3333   -4.0000
 VDW_RADIUS   =   50.2022 A
 VDW_CNRADIUS =   21.1671 A
 Edisp (eV)   -1.74060

 E6    (eV) :    -0.9573
 E8    (eV) :    -0.7833
 % E8        : 45.00
    FORVDW:  cpu time    0.1141: real time    0.2599

  FORCE on cell =-STRESS in cart. coord.  units (eV):
  Direction    XX          YY          ZZ          XY          YZ          ZX
  --------------------------------------------------------------------------------------
  Alpha Z    85.12045    85.12045    85.12045
  Ewald   41627.62056 41501.44871-48797.03771  -109.26876    -0.25144     0.43421
  Hartree 41394.84948 41344.59836-40394.46426   -43.51919    -0.23911     0.41376
  E(xc)    -798.01732  -798.51804  -825.90921    -0.43364     0.00014    -0.00025
  Local  -85438.17870-85275.71279 86339.11526   140.70079     0.49236    -0.85121
  n-local  -137.41338  -142.33066  -125.99585    -4.25857     0.00860    -0.01499
  augment   166.41136   166.47101   168.33146     0.05166    -0.00039     0.00066
  Kinetic  3091.89632  3130.37313  3550.55087    33.32217    -0.00280     0.00505
  Fock        0.00000     0.00000     0.00000     0.00000     0.00000     0.00000
  vdW        -0.47534    -0.46506     0.03269     0.00890    -0.00005     0.00009
  -------------------------------------------------------------------------------------
  Total      -8.18656    10.98511    -0.25629    16.60336     0.00732    -0.01267
  in kB      -5.00543     6.71652    -0.15670    10.15163     0.00448    -0.00775
  external pressure =        0.52 kB  Pullay stress =        0.00 kB


 VOLUME and BASIS-vectors are now :
 -----------------------------------------------------------------------------
  energy-cutoff  :      520.00
  volume of cell :     2620.42
      direct lattice vectors                 reciprocal lattice vectors
    12.300000000  0.000000000  0.000000000     0.081300813  0.046939046  0.000000000
    -6.150000000 10.652112467  0.000000000     0.000000000  0.093878093  0.000000000
     0.000000000  0.000000000 20.000000000     0.000000000  0.000000000  0.050000000

  length of vectors
    12.300000000 12.300000000 20.000000000     0.093878093  0.093878093  0.050000000


 FORCES acting on ions
    electron-ion (+dipol)            ewald-force                    non-local-force                 convergence-correction
 -----------------------------------------------------------------------------------------------
   0.779E+01 -.450E+01 0.490E+02   -.793E+01 0.458E+01 -.491E+02   0.162E+00 -.937E-01 0.798E-01   -.365E-05 0.211E-05 0.179E-04
   0.525E+01 0.677E+01 0.544E+02   -.526E+01 -.709E+01 -.545E+02   -.287E-02 0.340E+00 0.913E-01   -.186E-04 -.112E-04 0.162E-04
   0.326E+01 0.792E+01 0.545E+02   -.354E+01 -.808E+01 -.547E+02   0.285E+00 0.167E+00 0.130E+00   -.431E-06 -.218E-04 0.164E-04
   0.141E+01 0.258E+02 0.474E+02   -.168E+01 -.263E+02 -.476E+02   0.250E+00 0.440E+00 0.191E+00   -.657E-05 -.341E-04 0.200E-04
   -.474E+01 0.183E+02 0.279E+02   0.481E+01 -.187E+02 -.278E+02   -.656E-01 0.366E+00 -.693E-01   -.307E-05 -.237E-04 0.176E-04
   -.173E+02 0.145E+02 0.168E+02   0.176E+02 -.147E+02 -.168E+02   -.319E+00 0.140E+00 0.312E-01   0.694E-05 -.288E-04 0.191E-04
   -.260E+01 0.514E+01 0.120E+02   0.291E+01 -.520E+01 -.121E+02   -.275E+00 0.644E-01 0.679E-01   0.615E-06 -.120E-04 0.193E-04
   -.494E+01 -.180E+01 0.762E+01   0.500E+01 0.192E+01 -.751E+01   -.953E-01 -.114E+00 -.885E-01   0.223E-04 0.996E-07 0.216E-04
   0.624E+01 -.670E+01 0.234E+02   -.624E+01 0.701E+01 -.234E+02   -.155E-01 -.307E+00 0.653E-01   0.728E-05 0.113E-04 0.215E-04
   0.290E+01 -.167E+01 0.312E+02   -.292E+01 0.169E+01 -.312E+02   0.247E-01 -.142E-01 -.450E-01   -.301E-05 0.174E-05 0.218E-04
   0.893E+01 -.205E+01 0.234E+02   -.920E+01 0.190E+01 -.234E+02   0.258E+00 0.167E+00 0.653E-01   -.618E-05 -.120E-04 0.215E-04
   0.183E+02 0.503E+01 0.287E+02   -.186E+02 -.517E+01 -.287E+02   0.333E+00 0.117E+00 -.669E-01   -.191E-04 -.145E-04 0.175E-04
   0.216E+02 0.142E+02 0.476E+02   -.218E+02 -.146E+02 -.478E+02   0.254E+00 0.441E+00 0.175E+00   -.261E-04 -.227E-04 0.199E-04
   0.191E+02 0.482E+02 0.443E+02   -.194E+02 -.517E+02 -.451E+02   0.347E+00 0.345E+01 0.744E+00   0.108E-04 -.317E-05 0.404E-04
   0.322E+02 0.406E+02 0.437E+02   -.350E+02 -.426E+02 -.444E+02   0.284E+01 0.205E+01 0.724E+00   -.819E-05 0.780E-05 0.404E-04
   -.518E+02 0.274E+02 0.492E+01   0.553E+02 -.289E+02 -.521E+01   -.354E+01 0.147E+01 0.289E+00   0.668E-05 -.647E-05 0.301E-04
   -.245E+02 0.141E+02 -.156E+02   0.245E+02 -.142E+02 0.157E+02   -.395E-01 0.228E-01 -.112E+00   0.126E-05 -.728E-06 0.258E-04
   -.430E+01 0.248E+01 -.280E+01   0.411E+01 -.238E+01 0.272E+01   0.223E+00 -.129E+00 0.460E-01   0.379E-04 -.219E-04 0.214E-04
   -.913E+00 0.518E+01 0.762E+01   0.836E+00 -.530E+01 -.751E+01   0.512E-01 0.140E+00 -.885E-01   0.111E-04 -.194E-04 0.216E-04
   -.575E+01 -.313E+00 0.120E+02   0.595E+01 0.820E-01 -.121E+02   -.193E+00 0.206E+00 0.679E-01   0.107E-04 0.549E-05 0.193E-04
   0.598E+01 0.534E+00 0.122E+02   -.620E+01 -.321E+00 -.122E+02   0.202E+00 -.201E+00 0.654E-01   -.108E-04 -.566E-05 0.192E-04
   0.211E+02 -.753E+01 0.176E+02   -.214E+02 0.776E+01 -.176E+02   0.307E+00 -.226E+00 0.415E-01   -.284E-04 -.849E-05 0.190E-04
   0.495E+02 -.309E+02 0.528E+01   -.526E+02 0.332E+02 -.557E+01   0.306E+01 -.233E+01 0.295E+00   -.881E-05 0.246E-05 0.300E-04
   -.496E+02 0.311E+02 0.492E+01   0.527E+02 -.334E+02 -.521E+01   -.305E+01 0.233E+01 0.289E+00   0.894E-05 -.255E-05 0.301E-04
   -.212E+02 0.768E+01 0.168E+02   0.215E+02 -.791E+01 -.168E+02   -.281E+00 0.206E+00 0.312E-01   0.284E-04 0.840E-05 0.191E-04
   -.183E+02 -.507E+01 0.279E+02   0.186E+02 0.519E+01 -.278E+02   -.350E+00 -.126E+00 -.693E-01   0.190E-04 0.145E-04 0.176E-04
   -.885E+01 0.202E+01 0.226E+02   0.912E+01 -.186E+01 -.227E+02   -.279E+00 -.154E+00 0.836E-01   0.593E-05 0.120E-04 0.216E-04
   0.115E+01 -.515E+01 0.756E+01   -.110E+01 0.527E+01 -.745E+01   -.826E-01 -.117E+00 -.105E+00   -.112E-04 0.192E-04 0.215E-04
   0.422E+01 -.244E+01 -.190E+01   -.401E+01 0.232E+01 0.181E+01   -.201E+00 0.116E+00 0.765E-01   -.378E-04 0.218E-04 0.213E-04
   0.244E+02 -.141E+02 -.160E+02   -.244E+02 0.141E+02 0.161E+02   0.634E-01 -.367E-01 -.160E+00   -.104E-05 0.597E-06 0.257E-04
   0.515E+02 -.274E+02 0.528E+01   -.550E+02 0.289E+02 -.557E+01   0.355E+01 -.148E+01 0.295E+00   -.654E-05 0.640E-05 0.300E-04
   -.322E+02 -.406E+02 0.443E+02   0.350E+02 0.427E+02 -.451E+02   -.282E+01 -.203E+01 0.744E+00   0.813E-05 -.773E-05 0.404E-04
   -.191E+02 -.482E+02 0.437E+02   0.194E+02 0.516E+02 -.444E+02   -.352E+00 -.349E+01 0.724E+00   -.109E-04 0.320E-05 0.404E-04
   -.217E+02 -.141E+02 0.474E+02   0.219E+02 0.146E+02 -.476E+02   -.256E+00 -.436E+00 0.191E+00   0.263E-04 0.227E-04 0.200E-04
   -.523E+01 -.678E+01 0.545E+02   0.523E+01 0.711E+01 -.547E+02   -.202E-02 -.330E+00 0.130E+00   0.187E-04 0.113E-04 0.164E-04
   -.793E+01 0.458E+01 0.474E+02   0.807E+01 -.466E+01 -.475E+02   -.131E+00 0.757E-01 0.379E-01   0.376E-05 -.217E-05 0.180E-04
   -.270E+01 0.156E+01 0.295E+02   0.272E+01 -.157E+01 -.295E+02   -.252E-01 0.145E-01 -.692E-01   0.266E-05 -.154E-05 0.218E-04
   -.617E+01 0.665E+01 0.226E+02   0.617E+01 -.697E+01 -.227E+02   -.602E-02 0.319E+00 0.836E-01   -.744E-05 -.111E-04 0.216E-04
   0.504E+01 0.158E+01 0.756E+01   -.512E+01 -.168E+01 -.745E+01   0.603E-01 0.130E+00 -.105E+00   -.222E-04 0.112E-06 0.215E-04
   0.253E+01 -.545E+01 0.122E+02   -.282E+01 0.553E+01 -.122E+02   0.275E+00 -.748E-01 0.654E-01   -.521E-06 0.122E-04 0.192E-04
   0.171E+02 -.145E+02 0.176E+02   -.174E+02 0.147E+02 -.176E+02   0.349E+00 -.153E+00 0.416E-01   -.684E-05 0.288E-04 0.190E-04
   0.477E+01 -.183E+02 0.287E+02   -.483E+01 0.187E+02 -.287E+02   0.655E-01 -.347E+00 -.669E-01   0.304E-05 0.238E-04 0.175E-04
   -.150E+01 -.258E+02 0.476E+02   0.177E+01 0.262E+02 -.478E+02   -.255E+00 -.440E+00 0.175E+00   0.662E-05 0.340E-04 0.199E-04
   -.323E+01 -.793E+01 0.544E+02   0.351E+01 0.810E+01 -.545E+02   -.296E+00 -.167E+00 0.913E-01   0.418E-06 0.217E-04 0.162E-04
   -.325E+02 -.586E+01 0.245E+02   0.327E+02 0.279E+02 -.226E+02   -.237E+00 -.220E+02 -.188E+01   -.266E-04 -.100E-04 0.659E-04
   0.112E+02 -.312E+02 0.245E+02   0.776E+01 0.424E+02 -.226E+02   -.190E+02 -.113E+02 -.194E+01   0.463E-05 -.280E-04 0.658E-04
   -.112E+02 0.311E+02 0.245E+02   -.780E+01 -.423E+02 -.226E+02   0.190E+02 0.112E+02 -.188E+01   -.463E-05 0.280E-04 0.659E-04
   0.326E+02 0.590E+01 0.245E+02   -.329E+02 -.279E+02 -.226E+02   0.269E+00 0.221E+02 -.194E+01   0.266E-04 0.100E-04 0.658E-04
   0.951E-01 -.543E-01 -.115E+04   -.990E-01 0.565E-01 0.117E+04   0.255E-02 -.143E-02 -.225E+02   -.218E-06 0.121E-06 -.129E-03
 -----------------------------------------------------------------------------------------------
   -.442E-01 0.254E-01 0.249E+02   0.142E-12 0.448E-12 0.682E-12   0.639E-01 -.368E-01 -.249E+02   -.214E-06 0.125E-06 0.113E-02
 
 
 POSITION                                       TOTAL-FORCE (eV/Angst)
 -----------------------------------------------------------------------------------
     12.28651      0.00779     14.78417         0.027824     -0.016044      0.011348
      1.22078      0.69375     14.78563        -0.008546      0.014069     -0.023429
     -3.69967     10.63585     14.78641         0.003055      0.001981      0.004123
      3.67857      0.68014     14.87484        -0.020181     -0.015574     -0.002012
     -1.23310     10.62953     14.91712         0.001897     -0.004794      0.013666
      6.12832      0.71199     14.99273         0.028029     -0.002859     -0.003374
      7.36748      0.00622     14.97880         0.026724      0.004509      0.004463
      8.58437      0.73713     14.97849        -0.035658      0.011952      0.019863
      9.82129      0.02336     14.90452        -0.019529      0.002987     -0.006206
     11.05343      0.71971     14.85539         0.000533     -0.000324     -0.005343
     11.04041      2.13495     14.90452        -0.012356      0.015412     -0.006206
     -0.01764      2.82723     14.91368        -0.016315     -0.014739      0.012866
      1.21005      2.10588     14.87315         0.000126     -0.012502     -0.015857
      2.42407      2.80414     15.01416         0.019277     -0.020105      0.009511
      3.67520      2.08027     15.01563         0.013555      0.049937      0.003141
      6.06343      2.14166     15.11228        -0.008451     -0.030072     -0.010335
      7.29898      2.88734     15.13023         0.007015     -0.004057      0.011344
      8.54894      2.16567     15.03524         0.032281     -0.018642     -0.032301
      9.80381      2.84927     14.97849        -0.028180      0.024913      0.019863
      9.82836      4.26858     14.97880         0.009474     -0.025402      0.004464
     -1.21839      4.96364     14.97818        -0.017363      0.012780      0.001880
      0.01198      4.24363     14.98981         0.020554     -0.002928      0.006338
      1.28270      4.90215     15.11055        -0.007327     -0.025533     -0.005239
      7.32698      4.33020     15.11228         0.021795      0.022361     -0.010333
      8.59756      4.98884     14.99273         0.016508     -0.022835     -0.003377
     -3.67200      6.40524     14.91712         0.005079      0.000756      0.013667
     -2.42956      7.09650     14.90810        -0.004271      0.006147      0.007786
     -1.19266      6.38215     14.97918        -0.032175      0.004558      0.008257
      0.06058      7.06643     15.03352         0.013272     -0.007589     -0.009251
      1.31026      6.34493     15.12991         0.019795     -0.011681     -0.015371
      2.54596      7.09019     15.11055         0.018805      0.019056     -0.005211
      4.93358      7.15074     15.01416         0.027088     -0.006796      0.009531
      6.18603      6.42917     15.01563        -0.036454     -0.036664      0.003131
      7.40026      7.12631     14.87484         0.003399      0.025281     -0.002012
     -4.91075      8.53819     14.78641        -0.000186     -0.003652      0.004124
     -3.67689      9.22426     14.78897         0.015335     -0.008859     -0.020218
     -2.44328      8.51204     14.86125        -0.003556      0.002064     -0.025710
     -1.21053      9.20792     14.90810        -0.007472      0.000615      0.007788
      0.02657      8.49391     14.97918        -0.020075      0.025618      0.008254
      1.24217      9.22545     14.97818        -0.019785      0.008617      0.001878
      2.48090      8.51993     14.98981         0.012912     -0.016336      0.006343
      3.69273      9.25377     14.91368         0.004588      0.021562      0.012859
      4.93128      8.55124     14.87315         0.010837      0.006090     -0.015849
      6.15958      9.24801     14.78563        -0.016457      0.000360     -0.023431
      4.84482      2.76235     15.19398        -0.011626     -0.000467      0.005704
      2.43021      4.15740     15.19325        -0.016051      0.002803     -0.001543
      6.18014      5.07520     15.19398        -0.005411      0.010318      0.005706
      3.76469      6.46878     15.19326        -0.010649      0.012749     -0.001599
      4.30510      4.61586     16.40040        -0.001683      0.000958      0.026311
 -----------------------------------------------------------------------------------
    total drift:                                0.019722     -0.011383     -0.003520


--------------------------------------------------------------------------------------------------------



  FREE ENERGIE OF THE ION-ELECTRON SYSTEM (eV)
  ---------------------------------------------------
  free  energy   TOTEN  =      -442.79568045 eV

  energy  without entropy=     -442.78613170  energy(sigma->0) =     -442.79090608
 


--------------------------------------------------------------------------------------------------------


    POTLOK:  cpu time    2.8931: real time    2.8971


--------------------------------------------------------------------------------------------------------


 stress matrix after NEB project (eV)
     -8.18656     16.60336     -0.01267
     16.60336     10.98511      0.00732
     -0.01267      0.00732     -0.25629
  FORCES: max atom, RMS     0.051840    0.027158
  FORCE total and by dimension    0.190107    0.049937
  Stress total and by dimension   27.186419   16.603356
 Quasi-Newton relaxation of ions (Broydens 2nd method)
  g(Force)  = 0.697E-03   g(Stress)= 0.000E+00

 Reset! Starting new Quasi-Newton update for ions 


--------------------------------------------------------------------------------------------------------


    WAVPRE:  cpu time   38.3625: real time   38.5588
    FEWALD:  cpu time    0.0148: real time    0.0148
    ORTHCH:  cpu time    2.6044: real time    2.6191
     LOOP+:  cpu time 1729.5248: real time 1750.1145


--------------------------------------- Iteration      2(   1)  ---------------------------------------


    POTLOK:  cpu time    2.4148: real time    2.4206
    SETDIJ:  cpu time    0.4470: real time    0.4478
     EDDAV:  cpu time   52.7792: real time   52.9467
       DOS:  cpu time    0.0559: real time    0.0559
    CHARGE:  cpu time    1.8888: real time    1.8977
    MIXING:  cpu time    0.0351: real time    0.0351
    --------------------------------------------
      LOOP:  cpu time   57.6208: real time   57.8038

 eigenvalue-minimisations  :  5632
 total energy-change (2. order) :-0.3183927E-03  (-0.3602512E-02)
 number of electron     210.0000002 magnetization       0.0002616
 augmentation part       12.4955510 magnetization       0.0002561

 Broyden mixing:
  rms(total) = 0.40366E-02    rms(broyden)= 0.40311E-02
  rms(prec ) = 0.43790E-02
  weight for this iteration     100.00

 Free energy of the ion-electron system (eV)
  ---------------------------------------------------
  alpha Z        PSCENC =        85.12044892
  Ewald energy   TEWEN  =     34331.48176400
  -Hartree energ DENC   =    -42344.40393743
  -exchange      EXHF   =         0.00000000
  -V(xc)+E(xc)   XCENC  =       772.83348825
  PAW double counting   =      5099.31859584    -5200.01424847
  entropy T*S    EENTRO =        -0.00983036
  eigenvalues    EBANDS =     -2611.15289061
  atomic energy  EATOM  =      9425.77121454
  Solvation  Ediel_sol  =         0.00000000
  ---------------------------------------------------
  free energy    TOTEN  =      -441.05539531 eV

  energy without entropy =     -441.04556495  energy(sigma->0) =     -441.05048013


--------------------------------------------------------------------------------------------------------




--------------------------------------- Iteration      2(   2)  ---------------------------------------


    POTLOK:  cpu time    2.4514: real time    2.4579
    SETDIJ:  cpu time    0.4480: real time    0.4488
     EDDAV:  cpu time   71.8283: real time   72.0426
       DOS:  cpu time    0.0568: real time    0.0568
    CHARGE:  cpu time    1.8702: real time    1.8775
    MIXING:  cpu time    0.0447: real time    0.0447
    --------------------------------------------
      LOOP:  cpu time   76.6992: real time   76.9282

 eigenvalue-minimisations  :  7168
 total energy-change (2. order) : 0.1206866E-04  (-0.4709031E-04)
 number of electron     210.0000002 magnetization       0.0002036
 augmentation part       12.4954459 magnetization       0.0001960

 Broyden mixing:
  rms(total) = 0.23226E-02    rms(broyden)= 0.23219E-02
  rms(prec ) = 0.24514E-02
  weight for this iteration     100.00

 eigenvalues of (default mixing * dielectric matrix)
  average eigenvalue GAMMA=   1.6501
  1.6501

 Free energy of the ion-electron system (eV)
  ---------------------------------------------------
  alpha Z        PSCENC =        85.12044892
  Ewald energy   TEWEN  =     34331.48176400
  -Hartree energ DENC   =    -42344.42391570
  -exchange      EXHF   =         0.00000000
  -V(xc)+E(xc)   XCENC  =       772.83413289
  PAW double counting   =      5099.31183679    -5200.00468604
  entropy T*S    EENTRO =        -0.00978206
  eigenvalues    EBANDS =     -2611.13639658
  atomic energy  EATOM  =      9425.77121454
  Solvation  Ediel_sol  =         0.00000000
  ---------------------------------------------------
  free energy    TOTEN  =      -441.05538324 eV

  energy without entropy =     -441.04560118  energy(sigma->0) =     -441.05049221


--------------------------------------------------------------------------------------------------------




--------------------------------------- Iteration      2(   3)  ---------------------------------------


    POTLOK:  cpu time    2.4677: real time    2.4746
    SETDIJ:  cpu time    0.4570: real time    0.4578
     EDDAV:  cpu time   64.9203: real time   65.1126
       DOS:  cpu time    0.0557: real time    0.0558
    --------------------------------------------
      LOOP:  cpu time   67.9007: real time   68.1009

 eigenvalue-minimisations  :  6656
 total energy-change (2. order) : 0.6488643E-05  (-0.4571685E-05)
 number of electron     210.0000002 magnetization       0.0002036
 augmentation part       12.4954459 magnetization       0.0001960

 Free energy of the ion-electron system (eV)
  ---------------------------------------------------
  alpha Z        PSCENC =        85.12044892
  Ewald energy   TEWEN  =     34331.48176400
  -Hartree energ DENC   =    -42344.43095509
  -exchange      EXHF   =         0.00000000
  -V(xc)+E(xc)   XCENC  =       772.83413742
  PAW double counting   =      5099.30065784    -5199.99226301
  entropy T*S    EENTRO =        -0.00975222
  eigenvalues    EBANDS =     -2611.13062916
  atomic energy  EATOM  =      9425.77121454
  Solvation  Ediel_sol  =         0.00000000
  ---------------------------------------------------
  free energy    TOTEN  =      -441.05537676 eV

  energy without entropy =     -441.04562453  energy(sigma->0) =     -441.05050064


--------------------------------------------------------------------------------------------------------




 average (electrostatic) potential at core
  the test charge radii are     0.6991  0.7089  1.0894
  (the norm of the test charge is              1.0000)
       1 -58.0496       2 -58.0187       3 -58.0184       4 -58.1167       5 -58.1968
       6 -58.1948       7 -58.1097       8 -58.0792       9 -58.0582      10 -57.9735
      11 -58.0582      12 -58.1963      13 -58.1169      14 -58.7452      15 -58.7464
      16 -58.9571      17 -58.0033      18 -58.1733      19 -58.0792      20 -58.1097
      21 -58.1102      22 -58.1946      23 -58.9562      24 -58.9571      25 -58.1948
      26 -58.1968      27 -58.0571      28 -58.0786      29 -58.1734      30 -58.0014
      31 -58.9562      32 -58.7453      33 -58.7464      34 -58.1167      35 -58.0184
      36 -58.0495      37 -57.9725      38 -58.0571      39 -58.0786      40 -58.1102
      41 -58.1946      42 -58.1963      43 -58.1169      44 -58.0187      45 -72.6281
      46 -72.6266      47 -72.6281      48 -72.6266      49-109.6400
 
 
 
 E-fermi :  -2.1186     XC(G=0):  -2.2377     alpha+bet : -1.9565


 spin component 1

 k-point     1 :       0.0000    0.0000    0.0000
  band No.  band energies     occupation 
      1     -24.0684      1.00000
      2     -24.0354      1.00000
      3     -23.9953      1.00000
      4     -23.9390      1.00000
      5     -23.8409      1.00000
      6     -23.1945      1.00000
      7     -22.7773      1.00000
      8     -22.5146      1.00000
      9     -22.1745      1.00000
     10     -21.7172      1.00000
     11     -21.2943      1.00000
     12     -21.2227      1.00000
     13     -20.7872      1.00000
     14     -20.3046      1.00000
     15     -20.0754      1.00000
     16     -19.5880      1.00000
     17     -19.4691      1.00000
     18     -19.1919      1.00000
     19     -19.0827      1.00000
     20     -18.8999      1.00000
     21     -18.7364      1.00000
     22     -18.6878      1.00000
     23     -18.4846      1.00000
     24     -18.0201      1.00000
     25     -17.1739      1.00000
     26     -17.1249      1.00000
     27     -16.6960      1.00000
     28     -16.5152      1.00000
     29     -16.3506      1.00000
     30     -15.9150      1.00000
     31     -15.6316      1.00000
     32     -15.5885      1.00000
     33     -15.4603      1.00000
     34     -15.4517      1.00000
     35     -15.0623      1.00000
     36     -14.5716      1.00000
     37     -14.4180      1.00000
     38     -14.3661      1.00000
     39     -14.3397      1.00000
     40     -14.0968      1.00000
     41     -13.2858      1.00000
     42     -12.7491      1.00000
     43     -12.4597      1.00000
     44     -12.3445      1.00000
     45     -12.1158      1.00000
     46     -11.7806      1.00000
     47     -11.7473      1.00000
     48     -11.6273      1.00000
     49     -11.5954      1.00000
     50     -11.5652      1.00000
     51     -11.4739      1.00000
     52     -11.1203      1.00000
     53     -11.0747      1.00000
     54     -10.6242      1.00000
     55     -10.5458      1.00000
     56     -10.4641      1.00000
     57     -10.1217      1.00000
     58     -10.0864      1.00000
     59     -10.0669      1.00000
     60      -9.8205      1.00000
     61      -9.7351      1.00000
     62      -9.7243      1.00000
     63      -9.6236      1.00000
     64      -9.4696      1.00000
     65      -9.3166      1.00000
     66      -9.3147      1.00000
     67      -9.2568      1.00000
     68      -9.1450      1.00000
     69      -9.1194      1.00000
     70      -9.0969      1.00000
     71      -8.9942      1.00000
     72      -8.9355      1.00000
     73      -8.9000      1.00000
     74      -8.7900      1.00000
     75      -8.6397      1.00000
     76      -8.2626      1.00000
     77      -7.9634      1.00000
     78      -7.9143      1.00000
     79      -7.7475      1.00000
     80      -7.6972      1.00000
     81      -7.5764      1.00000
     82      -7.4526      1.00000
     83      -7.3571      1.00000
     84      -7.3037      1.00000
     85      -7.1484      1.00000
     86      -7.0401      1.00000
     87      -6.8493      1.00000
     88      -6.6948      1.00000
     89      -6.6336      1.00000
     90      -6.3987      1.00000
     91      -6.3245      1.00000
     92      -6.3066      1.00000
     93      -6.2320      1.00000
     94      -6.1448      1.00000
     95      -6.1088      1.00000
     96      -5.6898      1.00000
     97      -5.4193      1.00000
     98      -4.8262      1.00000
     99      -4.5136      1.00000
    100      -4.5058      1.00000
    101      -4.4513      1.00000
    102      -4.2276      1.00000
    103      -4.2025      1.00000
    104      -4.0903      1.00000
    105      -2.5923      1.00000
    106      -1.8837      0.00045
    107      -1.6419      0.00000
    108      -1.4367      0.00000
    109      -1.4028      0.00000
    110      -1.0385      0.00000
    111      -0.2795      0.00000
    112      -0.0879      0.00000
    113       0.2997      0.00000
    114       0.3226      0.00000
    115       0.4378      0.00000
    116       0.5830      0.00000
    117       0.6133      0.00000
    118       0.8766      0.00000
    119       1.2032      0.00000
    120       1.3401      0.00000
    121       1.5504      0.00000
    122       1.7323      0.00000
    123       1.8283      0.00000
    124       1.8380      0.00000
    125       1.8822      0.00000
    126       1.9063      0.00000
    127       1.9247      0.00000
    128       2.0611      0.00000
    129       2.0748      0.00000
    130       2.1056      0.00000
    131       2.2412      0.00000
    132       2.2564      0.00000
    133       2.2822      0.00000
    134       2.6123      0.00000
    135       2.6384      0.00000
    136       2.6414      0.00000
    137       2.6818      0.00000
    138       2.7679      0.00000
    139       2.7714      0.00000
    140       3.0323      0.00000
    141       3.0803      0.00000
    142       3.0863      0.00000
    143       3.0899      0.00000
    144       3.0941      0.00000
    145       3.1087      0.00000
    146       3.1092      0.00000
    147       3.3249      0.00000
    148       3.8370      0.00000
    149       3.9196      0.00000
    150       3.9446      0.00000
    151       3.9474      0.00000
    152       3.9669      0.00000
    153       4.0256      0.00000
    154       4.0871      0.00000
    155       4.0989      0.00000
    156       4.2333      0.00000
    157       4.2442      0.00000
    158       4.2695      0.00000
    159       4.3036      0.00000
    160       4.3279      0.00000
    161       4.3578      0.00000
    162       4.3936      0.00000
    163       4.4023      0.00000
    164       4.4071      0.00000
    165       4.4307      0.00000
    166       4.6259      0.00000
    167       4.6432      0.00000
    168       4.7098      0.00000
    169       4.7343      0.00000
    170       4.8330      0.00000
    171       4.8424      0.00000
    172       4.9854      0.00000
    173       5.0575      0.00000
    174       5.0641      0.00000
    175       5.1043      0.00000
    176       5.1387      0.00000
    177       5.1759      0.00000
    178       5.2810      0.00000
    179       5.2960      0.00000
    180       5.3142      0.00000
    181       5.3963      0.00000
    182       5.4192      0.00000
    183       5.4454      0.00000
    184       5.4691      0.00000
    185       5.4848      0.00000
    186       5.5504      0.00000
    187       5.5524      0.00000
    188       5.5626      0.00000
    189       5.6056      0.00000
    190       5.6469      0.00000
    191       5.6991      0.00000
    192       5.7050      0.00000
    193       5.7092      0.00000
    194       5.7143      0.00000
    195       5.7148      0.00000
    196       5.7177      0.00000
    197       5.7216      0.00000
    198       5.8142      0.00000
    199       5.8211      0.00000
    200       5.8872      0.00000
    201       5.9218      0.00000
    202       5.9595      0.00000
    203       6.0730      0.00000
    204       6.0732      0.00000
    205       6.0786      0.00000
    206       6.0928      0.00000
    207       6.1539      0.00000
    208       6.1638      0.00000
    209       6.3093      0.00000
    210       6.3293      0.00000
    211       6.3425      0.00000
    212       6.3931      0.00000
    213       6.4045      0.00000
    214       6.4182      0.00000
    215       6.4689      0.00000
    216       6.4950      0.00000
    217       6.5096      0.00000
    218       6.5140      0.00000
    219       6.5143      0.00000
    220       6.5154      0.00000
    221       6.5469      0.00000
    222       6.5579      0.00000
    223       6.6433      0.00000
    224       6.7190      0.00000
    225       6.7246      0.00000
    226       6.7452      0.00000
    227       6.8559      0.00000
    228       6.9249      0.00000
    229       6.9418      0.00000
    230       6.9639      0.00000
    231       6.9661      0.00000
    232       6.9852      0.00000
    233       7.0340      0.00000
    234       7.0354      0.00000
    235       7.0363      0.00000
    236       7.0391      0.00000
    237       7.0417      0.00000
    238       7.0431      0.00000
    239       7.1529      0.00000
    240       7.1889      0.00000
    241       7.2547      0.00000
    242       7.6437      0.00000
    243       7.6715      0.00000
    244       7.6881      0.00000
    245       7.6934      0.00000
    246       7.7978      0.00000
    247       7.8267      0.00000
    248       7.8290      0.00000
    249       7.8612      0.00000
    250       7.9249      0.00000
    251       7.9293      0.00000
    252       7.9298      0.00000
    253       8.0008      0.00000
    254       8.0701      0.00000
    255       8.0943      0.00000
    256       8.1987      0.00000

 k-point     2 :       0.5000   -0.0000    0.0000
  band No.  band energies     occupation 
      1     -24.0684      1.00000
      2     -24.0357      1.00000
      3     -23.9953      1.00000
      4     -23.9391      1.00000
      5     -23.8408      1.00000
      6     -23.1653      1.00000
      7     -22.8237      1.00000
      8     -22.5421      1.00000
      9     -22.1865      1.00000
     10     -21.5932      1.00000
     11     -21.3969      1.00000
     12     -21.0583      1.00000
     13     -20.6103      1.00000
     14     -20.4992      1.00000
     15     -20.2330      1.00000
     16     -19.7510      1.00000
     17     -19.7058      1.00000
     18     -19.2907      1.00000
     19     -19.2786      1.00000
     20     -18.6641      1.00000
     21     -18.4505      1.00000
     22     -18.1014      1.00000
     23     -17.8201      1.00000
     24     -17.8110      1.00000
     25     -17.6673      1.00000
     26     -17.4792      1.00000
     27     -17.2567      1.00000
     28     -16.8587      1.00000
     29     -16.4543      1.00000
     30     -16.0785      1.00000
     31     -15.9267      1.00000
     32     -15.3283      1.00000
     33     -15.3122      1.00000
     34     -15.1643      1.00000
     35     -15.0880      1.00000
     36     -14.5850      1.00000
     37     -14.2222      1.00000
     38     -13.9044      1.00000
     39     -13.8028      1.00000
     40     -13.4085      1.00000
     41     -13.3285      1.00000
     42     -12.9104      1.00000
     43     -12.8888      1.00000
     44     -12.8423      1.00000
     45     -12.7378      1.00000
     46     -12.2607      1.00000
     47     -12.1140      1.00000
     48     -11.6572      1.00000
     49     -11.4891      1.00000
     50     -11.4155      1.00000
     51     -11.4017      1.00000
     52     -10.9012      1.00000
     53     -10.8585      1.00000
     54     -10.6474      1.00000
     55     -10.5828      1.00000
     56     -10.2102      1.00000
     57     -10.1832      1.00000
     58     -10.1009      1.00000
     59      -9.9673      1.00000
     60      -9.7456      1.00000
     61      -9.7043      1.00000
     62      -9.6370      1.00000
     63      -9.6303      1.00000
     64      -9.6098      1.00000
     65      -9.4970      1.00000
     66      -9.3997      1.00000
     67      -9.1527      1.00000
     68      -9.1467      1.00000
     69      -9.0454      1.00000
     70      -8.8910      1.00000
     71      -8.7145      1.00000
     72      -8.7061      1.00000
     73      -8.5367      1.00000
     74      -8.5328      1.00000
     75      -8.4621      1.00000
     76      -8.4243      1.00000
     77      -8.2997      1.00000
     78      -8.2036      1.00000
     79      -8.0847      1.00000
     80      -7.9681      1.00000
     81      -7.8202      1.00000
     82      -7.6295      1.00000
     83      -7.4467      1.00000
     84      -7.1545      1.00000
     85      -7.0434      1.00000
     86      -6.9153      1.00000
     87      -6.8762      1.00000
     88      -6.8556      1.00000
     89      -6.7531      1.00000
     90      -6.5576      1.00000
     91      -6.1879      1.00000
     92      -6.0895      1.00000
     93      -5.8548      1.00000
     94      -5.5303      1.00000
     95      -5.3706      1.00000
     96      -5.3524      1.00000
     97      -5.2731      1.00000
     98      -5.2715      1.00000
     99      -5.1442      1.00000
    100      -5.1001      1.00000
    101      -4.9734      1.00000
    102      -4.7600      1.00000
    103      -4.0678      1.00000
    104      -3.6664      1.00000
    105      -2.7976      1.00000
    106      -1.9027      0.00113
    107      -1.2698      0.00000
    108      -1.2687      0.00000
    109      -0.7915      0.00000
    110      -0.7541      0.00000
    111      -0.5511      0.00000
    112      -0.2586      0.00000
    113      -0.1873      0.00000
    114      -0.0371      0.00000
    115       0.2687      0.00000
    116       0.5792      0.00000
    117       0.7958      0.00000
    118       0.8658      0.00000
    119       1.0215      0.00000
    120       1.2564      0.00000
    121       1.4038      0.00000
    122       1.6051      0.00000
    123       1.6216      0.00000
    124       1.6396      0.00000
    125       1.7673      0.00000
    126       1.7921      0.00000
    127       2.0711      0.00000
    128       2.0936      0.00000
    129       2.1017      0.00000
    130       2.1396      0.00000
    131       2.5023      0.00000
    132       2.5672      0.00000
    133       2.7158      0.00000
    134       2.7281      0.00000
    135       2.7433      0.00000
    136       2.8160      0.00000
    137       2.9151      0.00000
    138       2.9541      0.00000
    139       3.0284      0.00000
    140       3.1023      0.00000
    141       3.1355      0.00000
    142       3.3410      0.00000
    143       3.3723      0.00000
    144       3.4912      0.00000
    145       3.5068      0.00000
    146       3.5399      0.00000
    147       3.5764      0.00000
    148       3.5977      0.00000
    149       3.6068      0.00000
    150       3.7351      0.00000
    151       3.8234      0.00000
    152       3.9269      0.00000
    153       3.9550      0.00000
    154       4.0094      0.00000
    155       4.0617      0.00000
    156       4.0688      0.00000
    157       4.0715      0.00000
    158       4.0762      0.00000
    159       4.0925      0.00000
    160       4.0976      0.00000
    161       4.1240      0.00000
    162       4.2384      0.00000
    163       4.3075      0.00000
    164       4.4444      0.00000
    165       4.5204      0.00000
    166       4.6372      0.00000
    167       4.7027      0.00000
    168       4.7207      0.00000
    169       4.7468      0.00000
    170       4.7717      0.00000
    171       4.8742      0.00000
    172       4.9098      0.00000
    173       4.9613      0.00000
    174       4.9678      0.00000
    175       5.0482      0.00000
    176       5.1209      0.00000
    177       5.1576      0.00000
    178       5.1662      0.00000
    179       5.2780      0.00000
    180       5.2832      0.00000
    181       5.3365      0.00000
    182       5.3423      0.00000
    183       5.3577      0.00000
    184       5.4859      0.00000
    185       5.4926      0.00000
    186       5.5134      0.00000
    187       5.5277      0.00000
    188       5.5360      0.00000
    189       5.5630      0.00000
    190       5.5941      0.00000
    191       5.6027      0.00000
    192       5.6318      0.00000
    193       5.6944      0.00000
    194       5.7003      0.00000
    195       5.7730      0.00000
    196       5.7923      0.00000
    197       5.8551      0.00000
    198       5.8930      0.00000
    199       5.9526      0.00000
    200       5.9863      0.00000
    201       6.0076      0.00000
    202       6.0214      0.00000
    203       6.0378      0.00000
    204       6.0524      0.00000
    205       6.0534      0.00000
    206       6.0714      0.00000
    207       6.0722      0.00000
    208       6.1067      0.00000
    209       6.1364      0.00000
    210       6.1808      0.00000
    211       6.1828      0.00000
    212       6.2863      0.00000
    213       6.3057      0.00000
    214       6.3939      0.00000
    215       6.3965      0.00000
    216       6.4679      0.00000
    217       6.4917      0.00000
    218       6.5901      0.00000
    219       6.5915      0.00000
    220       6.6714      0.00000
    221       6.7081      0.00000
    222       6.7883      0.00000
    223       6.7974      0.00000
    224       6.8577      0.00000
    225       6.8928      0.00000
    226       6.9147      0.00000
    227       6.9429      0.00000
    228       6.9981      0.00000
    229       7.0024      0.00000
    230       7.0175      0.00000
    231       7.0348      0.00000
    232       7.1440      0.00000
    233       7.1741      0.00000
    234       7.2154      0.00000
    235       7.2191      0.00000
    236       7.2896      0.00000
    237       7.2960      0.00000
    238       7.3053      0.00000
    239       7.3129      0.00000
    240       7.3519      0.00000
    241       7.3779      0.00000
    242       7.4386      0.00000
    243       7.4405      0.00000
    244       7.5468      0.00000
    245       7.5478      0.00000
    246       7.6056      0.00000
    247       7.6317      0.00000
    248       7.6624      0.00000
    249       7.6876      0.00000
    250       7.7362      0.00000
    251       7.8681      0.00000
    252       7.8847      0.00000
    253       7.8943      0.00000
    254       7.8984      0.00000
    255       7.9463      0.00000
    256       7.9950      0.00000

 k-point     3 :       0.0000    0.5000    0.0000
  band No.  band energies     occupation 
      1     -24.0684      1.00000
      2     -24.0357      1.00000
      3     -23.9953      1.00000
      4     -23.9391      1.00000
      5     -23.8408      1.00000
      6     -23.1653      1.00000
      7     -22.8237      1.00000
      8     -22.5421      1.00000
      9     -22.1865      1.00000
     10     -21.5932      1.00000
     11     -21.3969      1.00000
     12     -21.0583      1.00000
     13     -20.6103      1.00000
     14     -20.4992      1.00000
     15     -20.2330      1.00000
     16     -19.7510      1.00000
     17     -19.7058      1.00000
     18     -19.2907      1.00000
     19     -19.2786      1.00000
     20     -18.6641      1.00000
     21     -18.4505      1.00000
     22     -18.1014      1.00000
     23     -17.8201      1.00000
     24     -17.8110      1.00000
     25     -17.6673      1.00000
     26     -17.4792      1.00000
     27     -17.2567      1.00000
     28     -16.8587      1.00000
     29     -16.4543      1.00000
     30     -16.0785      1.00000
     31     -15.9267      1.00000
     32     -15.3283      1.00000
     33     -15.3122      1.00000
     34     -15.1643      1.00000
     35     -15.0880      1.00000
     36     -14.5850      1.00000
     37     -14.2222      1.00000
     38     -13.9044      1.00000
     39     -13.8028      1.00000
     40     -13.4085      1.00000
     41     -13.3285      1.00000
     42     -12.9104      1.00000
     43     -12.8888      1.00000
     44     -12.8423      1.00000
     45     -12.7378      1.00000
     46     -12.2607      1.00000
     47     -12.1140      1.00000
     48     -11.6572      1.00000
     49     -11.4891      1.00000
     50     -11.4155      1.00000
     51     -11.4017      1.00000
     52     -10.9012      1.00000
     53     -10.8585      1.00000
     54     -10.6474      1.00000
     55     -10.5828      1.00000
     56     -10.2102      1.00000
     57     -10.1832      1.00000
     58     -10.1009      1.00000
     59      -9.9673      1.00000
     60      -9.7456      1.00000
     61      -9.7042      1.00000
     62      -9.6370      1.00000
     63      -9.6303      1.00000
     64      -9.6098      1.00000
     65      -9.4970      1.00000
     66      -9.3997      1.00000
     67      -9.1527      1.00000
     68      -9.1467      1.00000
     69      -9.0454      1.00000
     70      -8.8910      1.00000
     71      -8.7145      1.00000
     72      -8.7061      1.00000
     73      -8.5367      1.00000
     74      -8.5328      1.00000
     75      -8.4621      1.00000
     76      -8.4243      1.00000
     77      -8.2997      1.00000
     78      -8.2036      1.00000
     79      -8.0847      1.00000
     80      -7.9681      1.00000
     81      -7.8201      1.00000
     82      -7.6295      1.00000
     83      -7.4467      1.00000
     84      -7.1545      1.00000
     85      -7.0434      1.00000
     86      -6.9153      1.00000
     87      -6.8762      1.00000
     88      -6.8556      1.00000
     89      -6.7531      1.00000
     90      -6.5576      1.00000
     91      -6.1879      1.00000
     92      -6.0895      1.00000
     93      -5.8548      1.00000
     94      -5.5303      1.00000
     95      -5.3706      1.00000
     96      -5.3524      1.00000
     97      -5.2731      1.00000
     98      -5.2715      1.00000
     99      -5.1442      1.00000
    100      -5.1001      1.00000
    101      -4.9734      1.00000
    102      -4.7600      1.00000
    103      -4.0678      1.00000
    104      -3.6664      1.00000
    105      -2.7976      1.00000
    106      -1.9027      0.00113
    107      -1.2698      0.00000
    108      -1.2687      0.00000
    109      -0.7915      0.00000
    110      -0.7541      0.00000
    111      -0.5511      0.00000
    112      -0.2586      0.00000
    113      -0.1873      0.00000
    114      -0.0371      0.00000
    115       0.2687      0.00000
    116       0.5792      0.00000
    117       0.7958      0.00000
    118       0.8658      0.00000
    119       1.0215      0.00000
    120       1.2564      0.00000
    121       1.4038      0.00000
    122       1.6051      0.00000
    123       1.6216      0.00000
    124       1.6396      0.00000
    125       1.7673      0.00000
    126       1.7921      0.00000
    127       2.0711      0.00000
    128       2.0936      0.00000
    129       2.1017      0.00000
    130       2.1396      0.00000
    131       2.5023      0.00000
    132       2.5672      0.00000
    133       2.7158      0.00000
    134       2.7281      0.00000
    135       2.7433      0.00000
    136       2.8160      0.00000
    137       2.9151      0.00000
    138       2.9541      0.00000
    139       3.0284      0.00000
    140       3.1023      0.00000
    141       3.1355      0.00000
    142       3.3410      0.00000
    143       3.3723      0.00000
    144       3.4912      0.00000
    145       3.5068      0.00000
    146       3.5399      0.00000
    147       3.5764      0.00000
    148       3.5977      0.00000
    149       3.6069      0.00000
    150       3.7351      0.00000
    151       3.8234      0.00000
    152       3.9269      0.00000
    153       3.9550      0.00000
    154       4.0094      0.00000
    155       4.0617      0.00000
    156       4.0688      0.00000
    157       4.0715      0.00000
    158       4.0762      0.00000
    159       4.0925      0.00000
    160       4.0976      0.00000
    161       4.1240      0.00000
    162       4.2384      0.00000
    163       4.3075      0.00000
    164       4.4444      0.00000
    165       4.5204      0.00000
    166       4.6372      0.00000
    167       4.7027      0.00000
    168       4.7207      0.00000
    169       4.7468      0.00000
    170       4.7717      0.00000
    171       4.8742      0.00000
    172       4.9098      0.00000
    173       4.9613      0.00000
    174       4.9678      0.00000
    175       5.0482      0.00000
    176       5.1209      0.00000
    177       5.1576      0.00000
    178       5.1662      0.00000
    179       5.2780      0.00000
    180       5.2832      0.00000
    181       5.3365      0.00000
    182       5.3423      0.00000
    183       5.3577      0.00000
    184       5.4859      0.00000
    185       5.4926      0.00000
    186       5.5134      0.00000
    187       5.5277      0.00000
    188       5.5360      0.00000
    189       5.5630      0.00000
    190       5.5941      0.00000
    191       5.6027      0.00000
    192       5.6318      0.00000
    193       5.6944      0.00000
    194       5.7003      0.00000
    195       5.7730      0.00000
    196       5.7923      0.00000
    197       5.8551      0.00000
    198       5.8929      0.00000
    199       5.9526      0.00000
    200       5.9863      0.00000
    201       6.0076      0.00000
    202       6.0214      0.00000
    203       6.0378      0.00000
    204       6.0524      0.00000
    205       6.0534      0.00000
    206       6.0714      0.00000
    207       6.0722      0.00000
    208       6.1067      0.00000
    209       6.1364      0.00000
    210       6.1808      0.00000
    211       6.1828      0.00000
    212       6.2863      0.00000
    213       6.3057      0.00000
    214       6.3939      0.00000
    215       6.3965      0.00000
    216       6.4679      0.00000
    217       6.4917      0.00000
    218       6.5901      0.00000
    219       6.5915      0.00000
    220       6.6714      0.00000
    221       6.7081      0.00000
    222       6.7883      0.00000
    223       6.7974      0.00000
    224       6.8576      0.00000
    225       6.8928      0.00000
    226       6.9147      0.00000
    227       6.9429      0.00000
    228       6.9981      0.00000
    229       7.0024      0.00000
    230       7.0175      0.00000
    231       7.0348      0.00000
    232       7.1440      0.00000
    233       7.1741      0.00000
    234       7.2154      0.00000
    235       7.2191      0.00000
    236       7.2896      0.00000
    237       7.2960      0.00000
    238       7.3053      0.00000
    239       7.3129      0.00000
    240       7.3519      0.00000
    241       7.3779      0.00000
    242       7.4386      0.00000
    243       7.4405      0.00000
    244       7.5468      0.00000
    245       7.5478      0.00000
    246       7.6056      0.00000
    247       7.6317      0.00000
    248       7.6625      0.00000
    249       7.6876      0.00000
    250       7.7362      0.00000
    251       7.8681      0.00000
    252       7.8847      0.00000
    253       7.8943      0.00000
    254       7.8984      0.00000
    255       7.9463      0.00000
    256       7.9950      0.00000

 k-point     4 :       0.5000    0.5000    0.0000
  band No.  band energies     occupation 
      1     -24.0683      1.00000
      2     -24.0355      1.00000
      3     -23.9953      1.00000
      4     -23.9393      1.00000
      5     -23.8408      1.00000
      6     -23.1684      1.00000
      7     -22.7951      1.00000
      8     -22.6015      1.00000
      9     -22.1115      1.00000
     10     -21.6502      1.00000
     11     -21.4590      1.00000
     12     -20.9496      1.00000
     13     -20.6025      1.00000
     14     -20.3524      1.00000
     15     -20.1782      1.00000
     16     -20.1419      1.00000
     17     -19.8588      1.00000
     18     -19.1090      1.00000
     19     -18.9980      1.00000
     20     -18.7940      1.00000
     21     -18.3615      1.00000
     22     -18.1170      1.00000
     23     -17.8471      1.00000
     24     -17.8416      1.00000
     25     -17.5465      1.00000
     26     -17.3985      1.00000
     27     -17.2695      1.00000
     28     -17.1359      1.00000
     29     -16.7895      1.00000
     30     -16.1634      1.00000
     31     -15.4913      1.00000
     32     -15.3560      1.00000
     33     -15.1663      1.00000
     34     -15.1125      1.00000
     35     -14.9138      1.00000
     36     -14.3720      1.00000
     37     -14.3199      1.00000
     38     -14.0663      1.00000
     39     -13.8700      1.00000
     40     -13.6901      1.00000
     41     -13.3111      1.00000
     42     -13.0853      1.00000
     43     -12.9453      1.00000
     44     -12.8913      1.00000
     45     -12.7749      1.00000
     46     -12.2723      1.00000
     47     -12.0482      1.00000
     48     -11.5200      1.00000
     49     -11.3346      1.00000
     50     -11.2957      1.00000
     51     -11.0798      1.00000
     52     -10.9688      1.00000
     53     -10.8993      1.00000
     54     -10.8810      1.00000
     55     -10.3701      1.00000
     56     -10.2038      1.00000
     57     -10.0756      1.00000
     58     -10.0004      1.00000
     59      -9.9494      1.00000
     60      -9.9127      1.00000
     61      -9.8585      1.00000
     62      -9.7938      1.00000
     63      -9.7863      1.00000
     64      -9.6709      1.00000
     65      -9.6354      1.00000
     66      -9.3558      1.00000
     67      -9.3281      1.00000
     68      -8.9452      1.00000
     69      -8.8404      1.00000
     70      -8.8037      1.00000
     71      -8.7859      1.00000
     72      -8.6945      1.00000
     73      -8.6115      1.00000
     74      -8.4942      1.00000
     75      -8.4278      1.00000
     76      -8.4059      1.00000
     77      -8.2209      1.00000
     78      -8.1150      1.00000
     79      -8.0290      1.00000
     80      -8.0169      1.00000
     81      -7.7371      1.00000
     82      -7.7090      1.00000
     83      -7.4015      1.00000
     84      -7.3343      1.00000
     85      -7.0862      1.00000
     86      -7.0271      1.00000
     87      -6.9555      1.00000
     88      -6.7272      1.00000
     89      -6.7002      1.00000
     90      -6.5750      1.00000
     91      -6.3948      1.00000
     92      -6.1386      1.00000
     93      -5.5136      1.00000
     94      -5.4253      1.00000
     95      -5.3997      1.00000
     96      -5.3928      1.00000
     97      -5.3623      1.00000
     98      -5.1795      1.00000
     99      -5.1622      1.00000
    100      -5.0632      1.00000
    101      -4.8914      1.00000
    102      -4.8618      1.00000
    103      -4.0921      1.00000
    104      -3.9777      1.00000
    105      -2.2226      0.92927
    106      -2.0132      0.06802
    107      -1.5563      0.00000
    108      -1.2863      0.00000
    109      -0.8396      0.00000
    110      -0.6695      0.00000
    111      -0.4009      0.00000
    112      -0.3909      0.00000
    113      -0.1258      0.00000
    114      -0.0431      0.00000
    115       0.1559      0.00000
    116       0.6287      0.00000
    117       0.7442      0.00000
    118       0.9139      0.00000
    119       1.2183      0.00000
    120       1.2661      0.00000
    121       1.3140      0.00000
    122       1.5129      0.00000
    123       1.5291      0.00000
    124       1.6686      0.00000
    125       1.7707      0.00000
    126       1.8792      0.00000
    127       2.0459      0.00000
    128       2.0773      0.00000
    129       2.0972      0.00000
    130       2.4141      0.00000
    131       2.4826      0.00000
    132       2.5098      0.00000
    133       2.6158      0.00000
    134       2.7052      0.00000
    135       2.7380      0.00000
    136       2.7438      0.00000
    137       2.9022      0.00000
    138       2.9649      0.00000
    139       3.0776      0.00000
    140       3.0938      0.00000
    141       3.1542      0.00000
    142       3.3421      0.00000
    143       3.3661      0.00000
    144       3.4321      0.00000
    145       3.4499      0.00000
    146       3.5415      0.00000
    147       3.5823      0.00000
    148       3.5955      0.00000
    149       3.6092      0.00000
    150       3.7063      0.00000
    151       3.8546      0.00000
    152       3.9016      0.00000
    153       3.9694      0.00000
    154       4.0311      0.00000
    155       4.0580      0.00000
    156       4.0598      0.00000
    157       4.0781      0.00000
    158       4.0864      0.00000
    159       4.0910      0.00000
    160       4.0976      0.00000
    161       4.1343      0.00000
    162       4.2967      0.00000
    163       4.3413      0.00000
    164       4.5748      0.00000
    165       4.6267      0.00000
    166       4.7079      0.00000
    167       4.7194      0.00000
    168       4.7446      0.00000
    169       4.7951      0.00000
    170       4.8284      0.00000
    171       4.9031      0.00000
    172       4.9231      0.00000
    173       4.9456      0.00000
    174       4.9550      0.00000
    175       5.0803      0.00000
    176       5.1128      0.00000
    177       5.1197      0.00000
    178       5.1233      0.00000
    179       5.1953      0.00000
    180       5.2408      0.00000
    181       5.3298      0.00000
    182       5.3318      0.00000
    183       5.3406      0.00000
    184       5.3575      0.00000
    185       5.4832      0.00000
    186       5.4942      0.00000
    187       5.4985      0.00000
    188       5.5459      0.00000
    189       5.5573      0.00000
    190       5.6076      0.00000
    191       5.6134      0.00000
    192       5.6518      0.00000
    193       5.7119      0.00000
    194       5.7123      0.00000
    195       5.7282      0.00000
    196       5.7362      0.00000
    197       5.7522      0.00000
    198       5.8297      0.00000
    199       5.8359      0.00000
    200       5.9275      0.00000
    201       5.9916      0.00000
    202       5.9962      0.00000
    203       6.0093      0.00000
    204       6.0449      0.00000
    205       6.0461      0.00000
    206       6.0646      0.00000
    207       6.0779      0.00000
    208       6.0788      0.00000
    209       6.1026      0.00000
    210       6.1555      0.00000
    211       6.1790      0.00000
    212       6.3446      0.00000
    213       6.3589      0.00000
    214       6.3736      0.00000
    215       6.4283      0.00000
    216       6.4706      0.00000
    217       6.5075      0.00000
    218       6.5202      0.00000
    219       6.5986      0.00000
    220       6.7337      0.00000
    221       6.7409      0.00000
    222       6.8207      0.00000
    223       6.8604      0.00000
    224       6.8788      0.00000
    225       6.8923      0.00000
    226       6.9117      0.00000
    227       6.9219      0.00000
    228       6.9799      0.00000
    229       6.9921      0.00000
    230       6.9988      0.00000
    231       7.0248      0.00000
    232       7.0460      0.00000
    233       7.1400      0.00000
    234       7.1782      0.00000
    235       7.2673      0.00000
    236       7.2836      0.00000
    237       7.2849      0.00000
    238       7.2985      0.00000
    239       7.3445      0.00000
    240       7.3595      0.00000
    241       7.3641      0.00000
    242       7.3938      0.00000
    243       7.4501      0.00000
    244       7.4533      0.00000
    245       7.5408      0.00000
    246       7.5776      0.00000
    247       7.5807      0.00000
    248       7.6276      0.00000
    249       7.6325      0.00000
    250       7.6528      0.00000
    251       7.8020      0.00000
    252       7.8403      0.00000
    253       7.9159      0.00000
    254       7.9289      0.00000
    255       7.9838      0.00000
    256       7.9886      0.00000

 spin component 2

 k-point     1 :       0.0000    0.0000    0.0000
  band No.  band energies     occupation 
      1     -24.0684      1.00000
      2     -24.0354      1.00000
      3     -23.9953      1.00000
      4     -23.9390      1.00000
      5     -23.8409      1.00000
      6     -23.1945      1.00000
      7     -22.7772      1.00000
      8     -22.5146      1.00000
      9     -22.1745      1.00000
     10     -21.7172      1.00000
     11     -21.2943      1.00000
     12     -21.2227      1.00000
     13     -20.7872      1.00000
     14     -20.3046      1.00000
     15     -20.0754      1.00000
     16     -19.5880      1.00000
     17     -19.4691      1.00000
     18     -19.1919      1.00000
     19     -19.0827      1.00000
     20     -18.8999      1.00000
     21     -18.7363      1.00000
     22     -18.6878      1.00000
     23     -18.4846      1.00000
     24     -18.0201      1.00000
     25     -17.1739      1.00000
     26     -17.1249      1.00000
     27     -16.6960      1.00000
     28     -16.5152      1.00000
     29     -16.3506      1.00000
     30     -15.9150      1.00000
     31     -15.6316      1.00000
     32     -15.5885      1.00000
     33     -15.4603      1.00000
     34     -15.4517      1.00000
     35     -15.0623      1.00000
     36     -14.5716      1.00000
     37     -14.4180      1.00000
     38     -14.3661      1.00000
     39     -14.3397      1.00000
     40     -14.0968      1.00000
     41     -13.2858      1.00000
     42     -12.7491      1.00000
     43     -12.4597      1.00000
     44     -12.3445      1.00000
     45     -12.1158      1.00000
     46     -11.7806      1.00000
     47     -11.7473      1.00000
     48     -11.6273      1.00000
     49     -11.5954      1.00000
     50     -11.5652      1.00000
     51     -11.4739      1.00000
     52     -11.1203      1.00000
     53     -11.0747      1.00000
     54     -10.6242      1.00000
     55     -10.5457      1.00000
     56     -10.4641      1.00000
     57     -10.1217      1.00000
     58     -10.0864      1.00000
     59     -10.0669      1.00000
     60      -9.8205      1.00000
     61      -9.7351      1.00000
     62      -9.7243      1.00000
     63      -9.6236      1.00000
     64      -9.4696      1.00000
     65      -9.3166      1.00000
     66      -9.3147      1.00000
     67      -9.2568      1.00000
     68      -9.1450      1.00000
     69      -9.1194      1.00000
     70      -9.0969      1.00000
     71      -8.9942      1.00000
     72      -8.9355      1.00000
     73      -8.9000      1.00000
     74      -8.7900      1.00000
     75      -8.6397      1.00000
     76      -8.2626      1.00000
     77      -7.9634      1.00000
     78      -7.9143      1.00000
     79      -7.7475      1.00000
     80      -7.6972      1.00000
     81      -7.5764      1.00000
     82      -7.4526      1.00000
     83      -7.3571      1.00000
     84      -7.3037      1.00000
     85      -7.1484      1.00000
     86      -7.0401      1.00000
     87      -6.8493      1.00000
     88      -6.6948      1.00000
     89      -6.6336      1.00000
     90      -6.3987      1.00000
     91      -6.3245      1.00000
     92      -6.3066      1.00000
     93      -6.2320      1.00000
     94      -6.1448      1.00000
     95      -6.1088      1.00000
     96      -5.6898      1.00000
     97      -5.4193      1.00000
     98      -4.8262      1.00000
     99      -4.5136      1.00000
    100      -4.5058      1.00000
    101      -4.4513      1.00000
    102      -4.2276      1.00000
    103      -4.2025      1.00000
    104      -4.0903      1.00000
    105      -2.5923      1.00000
    106      -1.8837      0.00045
    107      -1.6419      0.00000
    108      -1.4367      0.00000
    109      -1.4028      0.00000
    110      -1.0385      0.00000
    111      -0.2795      0.00000
    112      -0.0878      0.00000
    113       0.2997      0.00000
    114       0.3226      0.00000
    115       0.4378      0.00000
    116       0.5831      0.00000
    117       0.6161      0.00000
    118       0.8770      0.00000
    119       1.2060      0.00000
    120       1.3405      0.00000
    121       1.5533      0.00000
    122       1.6942      0.00000
    123       1.8313      0.00000
    124       1.8411      0.00000
    125       1.8857      0.00000
    126       1.9051      0.00000
    127       1.9248      0.00000
    128       2.0611      0.00000
    129       2.0748      0.00000
    130       2.1056      0.00000
    131       2.2406      0.00000
    132       2.2561      0.00000
    133       2.2817      0.00000
    134       2.5972      0.00000
    135       2.6437      0.00000
    136       2.6476      0.00000
    137       2.6899      0.00000
    138       2.7745      0.00000
    139       2.7786      0.00000
    140       3.0071      0.00000
    141       3.0440      0.00000
    142       3.0447      0.00000
    143       3.0526      0.00000
    144       3.0619      0.00000
    145       3.0626      0.00000
    146       3.0760      0.00000
    147       3.3148      0.00000
    148       3.8287      0.00000
    149       3.9062      0.00000
    150       3.9358      0.00000
    151       3.9369      0.00000
    152       3.9587      0.00000
    153       4.0163      0.00000
    154       4.0793      0.00000
    155       4.0910      0.00000
    156       4.2352      0.00000
    157       4.2374      0.00000
    158       4.2596      0.00000
    159       4.2841      0.00000
    160       4.3176      0.00000
    161       4.3572      0.00000
    162       4.3820      0.00000
    163       4.3942      0.00000
    164       4.4037      0.00000
    165       4.4265      0.00000
    166       4.6196      0.00000
    167       4.6434      0.00000
    168       4.7092      0.00000
    169       4.7350      0.00000
    170       4.8286      0.00000
    171       4.8422      0.00000
    172       4.9853      0.00000
    173       5.0575      0.00000
    174       5.0647      0.00000
    175       5.1070      0.00000
    176       5.1405      0.00000
    177       5.1795      0.00000
    178       5.2861      0.00000
    179       5.2892      0.00000
    180       5.3225      0.00000
    181       5.3960      0.00000
    182       5.4104      0.00000
    183       5.4468      0.00000
    184       5.4695      0.00000
    185       5.4868      0.00000
    186       5.5550      0.00000
    187       5.5550      0.00000
    188       5.5616      0.00000
    189       5.6040      0.00000
    190       5.6486      0.00000
    191       5.6674      0.00000
    192       5.6710      0.00000
    193       5.6727      0.00000
    194       5.6749      0.00000
    195       5.6757      0.00000
    196       5.6853      0.00000
    197       5.7126      0.00000
    198       5.8070      0.00000
    199       5.8207      0.00000
    200       5.8771      0.00000
    201       5.9126      0.00000
    202       5.9578      0.00000
    203       6.0613      0.00000
    204       6.0630      0.00000
    205       6.0729      0.00000
    206       6.0874      0.00000
    207       6.1515      0.00000
    208       6.1569      0.00000
    209       6.3049      0.00000
    210       6.3299      0.00000
    211       6.3424      0.00000
    212       6.3844      0.00000
    213       6.4034      0.00000
    214       6.4186      0.00000
    215       6.4698      0.00000
    216       6.4872      0.00000
    217       6.4973      0.00000
    218       6.5044      0.00000
    219       6.5044      0.00000
    220       6.5065      0.00000
    221       6.5323      0.00000
    222       6.5463      0.00000
    223       6.6278      0.00000
    224       6.7050      0.00000
    225       6.7113      0.00000
    226       6.7335      0.00000
    227       6.8427      0.00000
    228       6.9116      0.00000
    229       6.9267      0.00000
    230       6.9454      0.00000
    231       6.9465      0.00000
    232       6.9671      0.00000
    233       6.9935      0.00000
    234       7.0025      0.00000
    235       7.0053      0.00000
    236       7.0100      0.00000
    237       7.0133      0.00000
    238       7.0141      0.00000
    239       7.1354      0.00000
    240       7.1767      0.00000
    241       7.2434      0.00000
    242       7.6380      0.00000
    243       7.6704      0.00000
    244       7.6845      0.00000
    245       7.6860      0.00000
    246       7.7850      0.00000
    247       7.8149      0.00000
    248       7.8190      0.00000
    249       7.8578      0.00000
    250       7.9138      0.00000
    251       7.9222      0.00000
    252       7.9223      0.00000
    253       7.9988      0.00000
    254       8.0664      0.00000
    255       8.0864      0.00000
    256       8.1974      0.00000

 k-point     2 :       0.5000   -0.0000    0.0000
  band No.  band energies     occupation 
      1     -24.0684      1.00000
      2     -24.0357      1.00000
      3     -23.9953      1.00000
      4     -23.9391      1.00000
      5     -23.8408      1.00000
      6     -23.1653      1.00000
      7     -22.8237      1.00000
      8     -22.5421      1.00000
      9     -22.1864      1.00000
     10     -21.5932      1.00000
     11     -21.3969      1.00000
     12     -21.0583      1.00000
     13     -20.6103      1.00000
     14     -20.4992      1.00000
     15     -20.2330      1.00000
     16     -19.7510      1.00000
     17     -19.7058      1.00000
     18     -19.2907      1.00000
     19     -19.2786      1.00000
     20     -18.6641      1.00000
     21     -18.4505      1.00000
     22     -18.1014      1.00000
     23     -17.8201      1.00000
     24     -17.8110      1.00000
     25     -17.6673      1.00000
     26     -17.4792      1.00000
     27     -17.2567      1.00000
     28     -16.8587      1.00000
     29     -16.4543      1.00000
     30     -16.0785      1.00000
     31     -15.9267      1.00000
     32     -15.3283      1.00000
     33     -15.3122      1.00000
     34     -15.1643      1.00000
     35     -15.0880      1.00000
     36     -14.5850      1.00000
     37     -14.2222      1.00000
     38     -13.9044      1.00000
     39     -13.8028      1.00000
     40     -13.4085      1.00000
     41     -13.3285      1.00000
     42     -12.9104      1.00000
     43     -12.8888      1.00000
     44     -12.8423      1.00000
     45     -12.7378      1.00000
     46     -12.2607      1.00000
     47     -12.1140      1.00000
     48     -11.6572      1.00000
     49     -11.4891      1.00000
     50     -11.4155      1.00000
     51     -11.4017      1.00000
     52     -10.9012      1.00000
     53     -10.8585      1.00000
     54     -10.6474      1.00000
     55     -10.5828      1.00000
     56     -10.2102      1.00000
     57     -10.1832      1.00000
     58     -10.1009      1.00000
     59      -9.9673      1.00000
     60      -9.7456      1.00000
     61      -9.7042      1.00000
     62      -9.6370      1.00000
     63      -9.6303      1.00000
     64      -9.6098      1.00000
     65      -9.4970      1.00000
     66      -9.3997      1.00000
     67      -9.1527      1.00000
     68      -9.1467      1.00000
     69      -9.0454      1.00000
     70      -8.8910      1.00000
     71      -8.7145      1.00000
     72      -8.7061      1.00000
     73      -8.5367      1.00000
     74      -8.5328      1.00000
     75      -8.4621      1.00000
     76      -8.4243      1.00000
     77      -8.2997      1.00000
     78      -8.2036      1.00000
     79      -8.0847      1.00000
     80      -7.9681      1.00000
     81      -7.8201      1.00000
     82      -7.6295      1.00000
     83      -7.4467      1.00000
     84      -7.1545      1.00000
     85      -7.0434      1.00000
     86      -6.9153      1.00000
     87      -6.8762      1.00000
     88      -6.8556      1.00000
     89      -6.7531      1.00000
     90      -6.5576      1.00000
     91      -6.1879      1.00000
     92      -6.0895      1.00000
     93      -5.8548      1.00000
     94      -5.5303      1.00000
     95      -5.3706      1.00000
     96      -5.3524      1.00000
     97      -5.2731      1.00000
     98      -5.2715      1.00000
     99      -5.1442      1.00000
    100      -5.1001      1.00000
    101      -4.9734      1.00000
    102      -4.7600      1.00000
    103      -4.0678      1.00000
    104      -3.6664      1.00000
    105      -2.7976      1.00000
    106      -1.9027      0.00113
    107      -1.2698      0.00000
    108      -1.2687      0.00000
    109      -0.7915      0.00000
    110      -0.7541      0.00000
    111      -0.5510      0.00000
    112      -0.2586      0.00000
    113      -0.1873      0.00000
    114      -0.0371      0.00000
    115       0.2688      0.00000
    116       0.5805      0.00000
    117       0.7965      0.00000
    118       0.8669      0.00000
    119       1.0232      0.00000
    120       1.2564      0.00000
    121       1.4052      0.00000
    122       1.6055      0.00000
    123       1.6220      0.00000
    124       1.6426      0.00000
    125       1.7695      0.00000
    126       1.8013      0.00000
    127       2.0337      0.00000
    128       2.0537      0.00000
    129       2.1011      0.00000
    130       2.1396      0.00000
    131       2.5110      0.00000
    132       2.5689      0.00000
    133       2.6900      0.00000
    134       2.7011      0.00000
    135       2.7192      0.00000
    136       2.8150      0.00000
    137       2.9015      0.00000
    138       2.9470      0.00000
    139       3.0261      0.00000
    140       3.1003      0.00000
    141       3.1328      0.00000
    142       3.3227      0.00000
    143       3.3606      0.00000
    144       3.4909      0.00000
    145       3.5077      0.00000
    146       3.5421      0.00000
    147       3.5766      0.00000
    148       3.5926      0.00000
    149       3.6023      0.00000
    150       3.7328      0.00000
    151       3.8237      0.00000
    152       3.9233      0.00000
    153       3.9499      0.00000
    154       4.0065      0.00000
    155       4.0213      0.00000
    156       4.0330      0.00000
    157       4.0385      0.00000
    158       4.0632      0.00000
    159       4.0641      0.00000
    160       4.0974      0.00000
    161       4.1175      0.00000
    162       4.2364      0.00000
    163       4.3081      0.00000
    164       4.4449      0.00000
    165       4.5174      0.00000
    166       4.6353      0.00000
    167       4.6951      0.00000
    168       4.7021      0.00000
    169       4.7086      0.00000
    170       4.7573      0.00000
    171       4.8645      0.00000
    172       4.8962      0.00000
    173       4.9480      0.00000
    174       4.9567      0.00000
    175       5.0429      0.00000
    176       5.1126      0.00000
    177       5.1547      0.00000
    178       5.1621      0.00000
    179       5.2716      0.00000
    180       5.2759      0.00000
    181       5.3267      0.00000
    182       5.3299      0.00000
    183       5.3467      0.00000
    184       5.4815      0.00000
    185       5.4903      0.00000
    186       5.5103      0.00000
    187       5.5279      0.00000
    188       5.5329      0.00000
    189       5.5658      0.00000
    190       5.5886      0.00000
    191       5.5905      0.00000
    192       5.6293      0.00000
    193       5.6869      0.00000
    194       5.6892      0.00000
    195       5.7625      0.00000
    196       5.7907      0.00000
    197       5.8520      0.00000
    198       5.8906      0.00000
    199       5.9432      0.00000
    200       5.9778      0.00000
    201       5.9862      0.00000
    202       6.0019      0.00000
    203       6.0164      0.00000
    204       6.0173      0.00000
    205       6.0360      0.00000
    206       6.0628      0.00000
    207       6.0632      0.00000
    208       6.1024      0.00000
    209       6.1087      0.00000
    210       6.1756      0.00000
    211       6.1807      0.00000
    212       6.2856      0.00000
    213       6.3068      0.00000
    214       6.3835      0.00000
    215       6.3855      0.00000
    216       6.4670      0.00000
    217       6.4864      0.00000
    218       6.5882      0.00000
    219       6.5898      0.00000
    220       6.6684      0.00000
    221       6.7079      0.00000
    222       6.7809      0.00000
    223       6.7916      0.00000
    224       6.8479      0.00000
    225       6.8839      0.00000
    226       6.9008      0.00000
    227       6.9361      0.00000
    228       6.9849      0.00000
    229       6.9950      0.00000
    230       7.0147      0.00000
    231       7.0282      0.00000
    232       7.1425      0.00000
    233       7.1685      0.00000
    234       7.2159      0.00000
    235       7.2161      0.00000
    236       7.2753      0.00000
    237       7.2944      0.00000
    238       7.2988      0.00000
    239       7.3127      0.00000
    240       7.3434      0.00000
    241       7.3729      0.00000
    242       7.4324      0.00000
    243       7.4339      0.00000
    244       7.5388      0.00000
    245       7.5428      0.00000
    246       7.5942      0.00000
    247       7.6180      0.00000
    248       7.6540      0.00000
    249       7.6750      0.00000
    250       7.7231      0.00000
    251       7.8681      0.00000
    252       7.8840      0.00000
    253       7.8937      0.00000
    254       7.8951      0.00000
    255       7.9415      0.00000
    256       7.9696      0.00000

 k-point     3 :       0.0000    0.5000    0.0000
  band No.  band energies     occupation 
      1     -24.0684      1.00000
      2     -24.0357      1.00000
      3     -23.9953      1.00000
      4     -23.9391      1.00000
      5     -23.8408      1.00000
      6     -23.1653      1.00000
      7     -22.8237      1.00000
      8     -22.5421      1.00000
      9     -22.1864      1.00000
     10     -21.5932      1.00000
     11     -21.3969      1.00000
     12     -21.0583      1.00000
     13     -20.6103      1.00000
     14     -20.4992      1.00000
     15     -20.2330      1.00000
     16     -19.7510      1.00000
     17     -19.7058      1.00000
     18     -19.2907      1.00000
     19     -19.2786      1.00000
     20     -18.6641      1.00000
     21     -18.4505      1.00000
     22     -18.1014      1.00000
     23     -17.8201      1.00000
     24     -17.8110      1.00000
     25     -17.6673      1.00000
     26     -17.4792      1.00000
     27     -17.2567      1.00000
     28     -16.8587      1.00000
     29     -16.4543      1.00000
     30     -16.0785      1.00000
     31     -15.9267      1.00000
     32     -15.3283      1.00000
     33     -15.3122      1.00000
     34     -15.1643      1.00000
     35     -15.0880      1.00000
     36     -14.5850      1.00000
     37     -14.2222      1.00000
     38     -13.9044      1.00000
     39     -13.8028      1.00000
     40     -13.4085      1.00000
     41     -13.3285      1.00000
     42     -12.9104      1.00000
     43     -12.8888      1.00000
     44     -12.8423      1.00000
     45     -12.7378      1.00000
     46     -12.2607      1.00000
     47     -12.1140      1.00000
     48     -11.6572      1.00000
     49     -11.4891      1.00000
     50     -11.4155      1.00000
     51     -11.4017      1.00000
     52     -10.9012      1.00000
     53     -10.8585      1.00000
     54     -10.6474      1.00000
     55     -10.5828      1.00000
     56     -10.2102      1.00000
     57     -10.1832      1.00000
     58     -10.1009      1.00000
     59      -9.9673      1.00000
     60      -9.7456      1.00000
     61      -9.7042      1.00000
     62      -9.6370      1.00000
     63      -9.6303      1.00000
     64      -9.6098      1.00000
     65      -9.4970      1.00000
     66      -9.3997      1.00000
     67      -9.1527      1.00000
     68      -9.1467      1.00000
     69      -9.0454      1.00000
     70      -8.8910      1.00000
     71      -8.7145      1.00000
     72      -8.7061      1.00000
     73      -8.5367      1.00000
     74      -8.5328      1.00000
     75      -8.4621      1.00000
     76      -8.4243      1.00000
     77      -8.2997      1.00000
     78      -8.2036      1.00000
     79      -8.0847      1.00000
     80      -7.9681      1.00000
     81      -7.8201      1.00000
     82      -7.6295      1.00000
     83      -7.4467      1.00000
     84      -7.1545      1.00000
     85      -7.0434      1.00000
     86      -6.9153      1.00000
     87      -6.8762      1.00000
     88      -6.8556      1.00000
     89      -6.7531      1.00000
     90      -6.5576      1.00000
     91      -6.1879      1.00000
     92      -6.0895      1.00000
     93      -5.8548      1.00000
     94      -5.5303      1.00000
     95      -5.3706      1.00000
     96      -5.3524      1.00000
     97      -5.2731      1.00000
     98      -5.2715      1.00000
     99      -5.1442      1.00000
    100      -5.1001      1.00000
    101      -4.9734      1.00000
    102      -4.7600      1.00000
    103      -4.0678      1.00000
    104      -3.6664      1.00000
    105      -2.7976      1.00000
    106      -1.9027      0.00113
    107      -1.2698      0.00000
    108      -1.2687      0.00000
    109      -0.7915      0.00000
    110      -0.7541      0.00000
    111      -0.5510      0.00000
    112      -0.2586      0.00000
    113      -0.1873      0.00000
    114      -0.0371      0.00000
    115       0.2688      0.00000
    116       0.5805      0.00000
    117       0.7965      0.00000
    118       0.8669      0.00000
    119       1.0232      0.00000
    120       1.2564      0.00000
    121       1.4052      0.00000
    122       1.6055      0.00000
    123       1.6220      0.00000
    124       1.6426      0.00000
    125       1.7695      0.00000
    126       1.8013      0.00000
    127       2.0337      0.00000
    128       2.0537      0.00000
    129       2.1011      0.00000
    130       2.1396      0.00000
    131       2.5110      0.00000
    132       2.5689      0.00000
    133       2.6900      0.00000
    134       2.7011      0.00000
    135       2.7192      0.00000
    136       2.8150      0.00000
    137       2.9015      0.00000
    138       2.9470      0.00000
    139       3.0261      0.00000
    140       3.1003      0.00000
    141       3.1328      0.00000
    142       3.3227      0.00000
    143       3.3606      0.00000
    144       3.4909      0.00000
    145       3.5077      0.00000
    146       3.5421      0.00000
    147       3.5766      0.00000
    148       3.5926      0.00000
    149       3.6023      0.00000
    150       3.7328      0.00000
    151       3.8237      0.00000
    152       3.9233      0.00000
    153       3.9499      0.00000
    154       4.0065      0.00000
    155       4.0213      0.00000
    156       4.0330      0.00000
    157       4.0385      0.00000
    158       4.0632      0.00000
    159       4.0641      0.00000
    160       4.0974      0.00000
    161       4.1175      0.00000
    162       4.2364      0.00000
    163       4.3081      0.00000
    164       4.4449      0.00000
    165       4.5174      0.00000
    166       4.6353      0.00000
    167       4.6951      0.00000
    168       4.7021      0.00000
    169       4.7086      0.00000
    170       4.7573      0.00000
    171       4.8645      0.00000
    172       4.8962      0.00000
    173       4.9480      0.00000
    174       4.9567      0.00000
    175       5.0429      0.00000
    176       5.1126      0.00000
    177       5.1547      0.00000
    178       5.1621      0.00000
    179       5.2716      0.00000
    180       5.2759      0.00000
    181       5.3267      0.00000
    182       5.3299      0.00000
    183       5.3467      0.00000
    184       5.4815      0.00000
    185       5.4903      0.00000
    186       5.5103      0.00000
    187       5.5279      0.00000
    188       5.5329      0.00000
    189       5.5658      0.00000
    190       5.5886      0.00000
    191       5.5905      0.00000
    192       5.6293      0.00000
    193       5.6869      0.00000
    194       5.6892      0.00000
    195       5.7625      0.00000
    196       5.7907      0.00000
    197       5.8520      0.00000
    198       5.8905      0.00000
    199       5.9432      0.00000
    200       5.9778      0.00000
    201       5.9862      0.00000
    202       6.0019      0.00000
    203       6.0164      0.00000
    204       6.0173      0.00000
    205       6.0360      0.00000
    206       6.0628      0.00000
    207       6.0632      0.00000
    208       6.1024      0.00000
    209       6.1087      0.00000
    210       6.1756      0.00000
    211       6.1807      0.00000
    212       6.2856      0.00000
    213       6.3068      0.00000
    214       6.3835      0.00000
    215       6.3855      0.00000
    216       6.4670      0.00000
    217       6.4864      0.00000
    218       6.5882      0.00000
    219       6.5898      0.00000
    220       6.6684      0.00000
    221       6.7079      0.00000
    222       6.7809      0.00000
    223       6.7916      0.00000
    224       6.8479      0.00000
    225       6.8839      0.00000
    226       6.9008      0.00000
    227       6.9361      0.00000
    228       6.9849      0.00000
    229       6.9950      0.00000
    230       7.0147      0.00000
    231       7.0282      0.00000
    232       7.1425      0.00000
    233       7.1685      0.00000
    234       7.2159      0.00000
    235       7.2161      0.00000
    236       7.2753      0.00000
    237       7.2944      0.00000
    238       7.2988      0.00000
    239       7.3127      0.00000
    240       7.3434      0.00000
    241       7.3729      0.00000
    242       7.4324      0.00000
    243       7.4339      0.00000
    244       7.5388      0.00000
    245       7.5428      0.00000
    246       7.5942      0.00000
    247       7.6180      0.00000
    248       7.6540      0.00000
    249       7.6750      0.00000
    250       7.7231      0.00000
    251       7.8681      0.00000
    252       7.8840      0.00000
    253       7.8937      0.00000
    254       7.8951      0.00000
    255       7.9415      0.00000
    256       7.9696      0.00000

 k-point     4 :       0.5000    0.5000    0.0000
  band No.  band energies     occupation 
      1     -24.0683      1.00000
      2     -24.0355      1.00000
      3     -23.9953      1.00000
      4     -23.9393      1.00000
      5     -23.8408      1.00000
      6     -23.1684      1.00000
      7     -22.7951      1.00000
      8     -22.6015      1.00000
      9     -22.1115      1.00000
     10     -21.6502      1.00000
     11     -21.4590      1.00000
     12     -20.9496      1.00000
     13     -20.6025      1.00000
     14     -20.3524      1.00000
     15     -20.1782      1.00000
     16     -20.1419      1.00000
     17     -19.8588      1.00000
     18     -19.1090      1.00000
     19     -18.9980      1.00000
     20     -18.7940      1.00000
     21     -18.3615      1.00000
     22     -18.1170      1.00000
     23     -17.8471      1.00000
     24     -17.8416      1.00000
     25     -17.5465      1.00000
     26     -17.3985      1.00000
     27     -17.2695      1.00000
     28     -17.1359      1.00000
     29     -16.7895      1.00000
     30     -16.1634      1.00000
     31     -15.4913      1.00000
     32     -15.3560      1.00000
     33     -15.1663      1.00000
     34     -15.1125      1.00000
     35     -14.9138      1.00000
     36     -14.3720      1.00000
     37     -14.3198      1.00000
     38     -14.0663      1.00000
     39     -13.8700      1.00000
     40     -13.6901      1.00000
     41     -13.3111      1.00000
     42     -13.0853      1.00000
     43     -12.9453      1.00000
     44     -12.8913      1.00000
     45     -12.7749      1.00000
     46     -12.2723      1.00000
     47     -12.0482      1.00000
     48     -11.5200      1.00000
     49     -11.3346      1.00000
     50     -11.2957      1.00000
     51     -11.0798      1.00000
     52     -10.9688      1.00000
     53     -10.8992      1.00000
     54     -10.8810      1.00000
     55     -10.3701      1.00000
     56     -10.2038      1.00000
     57     -10.0756      1.00000
     58     -10.0004      1.00000
     59      -9.9494      1.00000
     60      -9.9127      1.00000
     61      -9.8585      1.00000
     62      -9.7938      1.00000
     63      -9.7864      1.00000
     64      -9.6709      1.00000
     65      -9.6354      1.00000
     66      -9.3558      1.00000
     67      -9.3281      1.00000
     68      -8.9452      1.00000
     69      -8.8404      1.00000
     70      -8.8037      1.00000
     71      -8.7859      1.00000
     72      -8.6945      1.00000
     73      -8.6115      1.00000
     74      -8.4942      1.00000
     75      -8.4278      1.00000
     76      -8.4059      1.00000
     77      -8.2209      1.00000
     78      -8.1150      1.00000
     79      -8.0290      1.00000
     80      -8.0169      1.00000
     81      -7.7371      1.00000
     82      -7.7090      1.00000
     83      -7.4015      1.00000
     84      -7.3343      1.00000
     85      -7.0862      1.00000
     86      -7.0271      1.00000
     87      -6.9555      1.00000
     88      -6.7271      1.00000
     89      -6.7002      1.00000
     90      -6.5750      1.00000
     91      -6.3948      1.00000
     92      -6.1386      1.00000
     93      -5.5136      1.00000
     94      -5.4253      1.00000
     95      -5.3997      1.00000
     96      -5.3928      1.00000
     97      -5.3623      1.00000
     98      -5.1795      1.00000
     99      -5.1622      1.00000
    100      -5.0632      1.00000
    101      -4.8914      1.00000
    102      -4.8618      1.00000
    103      -4.0921      1.00000
    104      -3.9777      1.00000
    105      -2.2225      0.92926
    106      -2.0132      0.06802
    107      -1.5563      0.00000
    108      -1.2863      0.00000
    109      -0.8396      0.00000
    110      -0.6695      0.00000
    111      -0.4009      0.00000
    112      -0.3909      0.00000
    113      -0.1258      0.00000
    114      -0.0431      0.00000
    115       0.1560      0.00000
    116       0.6292      0.00000
    117       0.7464      0.00000
    118       0.9163      0.00000
    119       1.2183      0.00000
    120       1.2661      0.00000
    121       1.3147      0.00000
    122       1.5132      0.00000
    123       1.5299      0.00000
    124       1.6717      0.00000
    125       1.7803      0.00000
    126       1.8793      0.00000
    127       2.0244      0.00000
    128       2.0545      0.00000
    129       2.0645      0.00000
    130       2.4236      0.00000
    131       2.4824      0.00000
    132       2.5107      0.00000
    133       2.6164      0.00000
    134       2.7009      0.00000
    135       2.7014      0.00000
    136       2.7075      0.00000
    137       2.8882      0.00000
    138       2.9556      0.00000
    139       3.0750      0.00000
    140       3.0925      0.00000
    141       3.1522      0.00000
    142       3.3243      0.00000
    143       3.3584      0.00000
    144       3.4283      0.00000
    145       3.4503      0.00000
    146       3.5448      0.00000
    147       3.5750      0.00000
    148       3.5981      0.00000
    149       3.6050      0.00000
    150       3.7034      0.00000
    151       3.8543      0.00000
    152       3.9064      0.00000
    153       3.9661      0.00000
    154       4.0114      0.00000
    155       4.0185      0.00000
    156       4.0430      0.00000
    157       4.0469      0.00000
    158       4.0571      0.00000
    159       4.0590      0.00000
    160       4.0966      0.00000
    161       4.1339      0.00000
    162       4.2971      0.00000
    163       4.3399      0.00000
    164       4.5692      0.00000
    165       4.6288      0.00000
    166       4.6870      0.00000
    167       4.7009      0.00000
    168       4.7113      0.00000
    169       4.7863      0.00000
    170       4.8222      0.00000
    171       4.8891      0.00000
    172       4.9187      0.00000
    173       4.9371      0.00000
    174       4.9417      0.00000
    175       5.0714      0.00000
    176       5.1109      0.00000
    177       5.1119      0.00000
    178       5.1224      0.00000
    179       5.1912      0.00000
    180       5.2337      0.00000
    181       5.3203      0.00000
    182       5.3256      0.00000
    183       5.3316      0.00000
    184       5.3437      0.00000
    185       5.4815      0.00000
    186       5.4897      0.00000
    187       5.4935      0.00000
    188       5.5449      0.00000
    189       5.5509      0.00000
    190       5.6053      0.00000
    191       5.6187      0.00000
    192       5.6422      0.00000
    193       5.6989      0.00000
    194       5.7086      0.00000
    195       5.7261      0.00000
    196       5.7361      0.00000
    197       5.7442      0.00000
    198       5.8212      0.00000
    199       5.8349      0.00000
    200       5.9243      0.00000
    201       5.9803      0.00000
    202       5.9805      0.00000
    203       5.9959      0.00000
    204       6.0204      0.00000
    205       6.0247      0.00000
    206       6.0316      0.00000
    207       6.0376      0.00000
    208       6.0623      0.00000
    209       6.0993      0.00000
    210       6.1554      0.00000
    211       6.1755      0.00000
    212       6.3312      0.00000
    213       6.3451      0.00000
    214       6.3735      0.00000
    215       6.4304      0.00000
    216       6.4604      0.00000
    217       6.5070      0.00000
    218       6.5199      0.00000
    219       6.5973      0.00000
    220       6.7284      0.00000
    221       6.7401      0.00000
    222       6.8169      0.00000
    223       6.8525      0.00000
    224       6.8783      0.00000
    225       6.8833      0.00000
    226       6.9027      0.00000
    227       6.9078      0.00000
    228       6.9650      0.00000
    229       6.9800      0.00000
    230       6.9972      0.00000
    231       7.0194      0.00000
    232       7.0456      0.00000
    233       7.1385      0.00000
    234       7.1724      0.00000
    235       7.2680      0.00000
    236       7.2695      0.00000
    237       7.2808      0.00000
    238       7.3003      0.00000
    239       7.3367      0.00000
    240       7.3538      0.00000
    241       7.3604      0.00000
    242       7.3945      0.00000
    243       7.4416      0.00000
    244       7.4443      0.00000
    245       7.5375      0.00000
    246       7.5618      0.00000
    247       7.5678      0.00000
    248       7.6115      0.00000
    249       7.6179      0.00000
    250       7.6432      0.00000
    251       7.7971      0.00000
    252       7.8399      0.00000
    253       7.9112      0.00000
    254       7.9396      0.00000
    255       7.9722      0.00000
    256       7.9758      0.00000


--------------------------------------------------------------------------------------------------------


 soft charge-density along one line, spin component           1
         0         1         2         3         4         5         6         7         8         9
 total charge-density along one line
 
 soft charge-density along one line, spin component           2
         0         1         2         3         4         5         6         7         8         9
 total charge-density along one line
 
 pseudopotential strength for first ion, spin component:           1
 10.222   0.019   0.000  -0.000  -0.000   0.000  -0.000  -0.000
  0.019  -0.002  -0.000   0.000   0.000   0.000  -0.000  -0.000
  0.000  -0.000  -4.340  -0.000  -0.000  -0.019  -0.000  -0.000
 -0.000   0.000  -0.000  -4.319   0.001  -0.000  -0.014   0.000
 -0.000   0.000  -0.000   0.001  -4.340  -0.000   0.000  -0.019
  0.000   0.000  -0.019  -0.000  -0.000  -0.772  -0.000   0.000
 -0.000  -0.000  -0.000  -0.014   0.000  -0.000  -0.772   0.000
 -0.000  -0.000  -0.000   0.000  -0.019   0.000   0.000  -0.772
 pseudopotential strength for first ion, spin component:           2
 10.222   0.019   0.000  -0.000  -0.000   0.000  -0.000  -0.000
  0.019  -0.002  -0.000   0.000   0.000   0.000  -0.000  -0.000
  0.000  -0.000  -4.340  -0.000  -0.000  -0.019  -0.000  -0.000
 -0.000   0.000  -0.000  -4.319   0.001  -0.000  -0.014   0.000
 -0.000   0.000  -0.000   0.001  -4.340  -0.000   0.000  -0.019
  0.000   0.000  -0.019  -0.000  -0.000  -0.772  -0.000   0.000
 -0.000  -0.000  -0.000  -0.014   0.000  -0.000  -0.772   0.000
 -0.000  -0.000  -0.000   0.000  -0.019   0.000   0.000  -0.772
 total augmentation occupancy for first ion, spin component:           1
  1.473  -1.138  -0.003   0.005   0.006  -0.002   0.003   0.003
 -1.138   1.083   0.008  -0.013  -0.015   0.003  -0.004  -0.005
 -0.003   0.008   1.242   0.004   0.008   0.225   0.002  -0.000
  0.005  -0.013   0.004   0.928  -0.008   0.002   0.104  -0.003
  0.006  -0.015   0.008  -0.008   1.233  -0.000  -0.003   0.225
 -0.002   0.003   0.225   0.002  -0.000   0.047   0.001  -0.000
  0.003  -0.004   0.002   0.104  -0.003   0.001   0.013  -0.001
  0.003  -0.005  -0.000  -0.003   0.225  -0.000  -0.001   0.047
 total augmentation occupancy for first ion, spin component:           2
 -0.000   0.000  -0.000  -0.000   0.000   0.000  -0.000  -0.000
  0.000  -0.000  -0.000   0.000   0.000  -0.000   0.000   0.000
 -0.000  -0.000  -0.000  -0.000   0.000   0.000  -0.000   0.000
 -0.000   0.000  -0.000  -0.000   0.000   0.000   0.000  -0.000
  0.000   0.000   0.000   0.000  -0.000   0.000   0.000   0.000
  0.000  -0.000   0.000   0.000   0.000   0.000  -0.000  -0.000
 -0.000   0.000  -0.000   0.000   0.000  -0.000   0.000   0.000
 -0.000   0.000   0.000  -0.000   0.000  -0.000   0.000   0.000


------------------------ aborting loop because EDIFF is reached ----------------------------------------


    CHARGE:  cpu time    2.0564: real time    2.0646
    FORLOC:  cpu time    0.0250: real time    0.0250
    FORNL :  cpu time    2.1789: real time    2.1938
    STRESS:  cpu time    6.5138: real time    6.5598
    FORCOR:  cpu time    1.9928: real time    1.9977
    FORHAR:  cpu time    0.2752: real time    0.2758
    MIXING:  cpu time    0.0299: real time    0.0302
    OFIELD:  cpu time    0.0001: real time    0.0001

 ---------------------------------------------------------------------------------------------

         DFTD3 V3.0 Rev 1        
 Edisp (eV)   -1.74060

 E6    (eV) :    -0.9573
 E8    (eV) :    -0.7833
 % E8        : 45.00
    FORVDW:  cpu time    0.1370: real time    0.1374

  FORCE on cell =-STRESS in cart. coord.  units (eV):
  Direction    XX          YY          ZZ          XY          YZ          ZX
  --------------------------------------------------------------------------------------
  Alpha Z    85.12045    85.12045    85.12045
  Ewald   41626.62191 41500.78055-48795.94229  -108.98297    -0.29074     0.50355
  Hartree 41394.17782 41343.93975-40393.64997   -43.50777    -0.23882     0.41375
  E(xc)    -798.01911  -798.51846  -825.90982    -0.43245    -0.00007     0.00012
  Local  -85436.54021-85274.35067 86337.22121   140.46157     0.52141    -0.90320
  n-local  -137.42978  -142.34246  -126.00051    -4.25449     0.00922    -0.01596
  augment   166.41113   166.47048   168.33118     0.05140    -0.00056     0.00097
  Kinetic  3091.93872  3130.36492  3550.54029    33.27810     0.00287    -0.00496
  Fock        0.00000     0.00000     0.00000     0.00000     0.00000     0.00000
  vdW        -0.47549    -0.46521     0.03276     0.00891    -0.00003     0.00005
  -------------------------------------------------------------------------------------
  Total      -8.19456    10.99936    -0.25672    16.62231     0.00329    -0.00569
  in kB      -5.01032     6.72523    -0.15696    10.16321     0.00201    -0.00348
  external pressure =        0.52 kB  Pullay stress =        0.00 kB


 VOLUME and BASIS-vectors are now :
 -----------------------------------------------------------------------------
  energy-cutoff  :      520.00
  volume of cell :     2620.42
      direct lattice vectors                 reciprocal lattice vectors
    12.300000000  0.000000000  0.000000000     0.081300813  0.046939046  0.000000000
    -6.150000000 10.652112467  0.000000000     0.000000000  0.093878093  0.000000000
     0.000000000  0.000000000 20.000000000     0.000000000  0.000000000  0.050000000

  length of vectors
    12.300000000 12.300000000 20.000000000     0.093878093  0.093878093  0.050000000


 FORCES acting on ions
    electron-ion (+dipol)            ewald-force                    non-local-force                 convergence-correction
 -----------------------------------------------------------------------------------------------
   0.788E+01 -.455E+01 0.488E+02   -.803E+01 0.464E+01 -.489E+02   0.140E+00 -.808E-01 0.691E-01   0.180E-02 -.104E-02 -.445E-03
   0.519E+01 0.681E+01 0.546E+02   -.519E+01 -.715E+01 -.547E+02   0.476E-02 0.324E+00 0.102E+00   0.933E-03 -.877E-03 0.238E-03
   0.338E+01 0.795E+01 0.544E+02   -.367E+01 -.812E+01 -.546E+02   0.289E+00 0.165E+00 0.121E+00   -.261E-02 -.935E-03 -.338E-03
   0.131E+01 0.256E+02 0.474E+02   -.156E+01 -.260E+02 -.476E+02   0.266E+00 0.450E+00 0.195E+00   -.470E-03 0.192E-02 0.289E-03
   -.475E+01 0.182E+02 0.278E+02   0.482E+01 -.186E+02 -.277E+02   -.673E-01 0.365E+00 -.733E-01   0.175E-02 -.188E-02 -.676E-04
   -.172E+02 0.146E+02 0.168E+02   0.175E+02 -.148E+02 -.169E+02   -.341E+00 0.141E+00 0.332E-01   0.326E-02 -.148E-02 0.317E-03
   -.253E+01 0.526E+01 0.120E+02   0.281E+01 -.534E+01 -.121E+02   -.292E+00 0.695E-01 0.698E-01   0.769E-03 0.277E-02 0.917E-04
   -.510E+01 -.175E+01 0.742E+01   0.519E+01 0.187E+01 -.731E+01   -.686E-01 -.121E+00 -.103E+00   -.156E-02 0.843E-03 -.182E-03
   0.622E+01 -.679E+01 0.235E+02   -.622E+01 0.712E+01 -.235E+02   -.386E-02 -.310E+00 0.725E-01   -.428E-02 0.131E-02 0.400E-03
   0.285E+01 -.165E+01 0.313E+02   -.287E+01 0.166E+01 -.312E+02   0.188E-01 -.108E-01 -.441E-01   0.393E-03 -.229E-03 0.116E-03
   0.899E+01 -.199E+01 0.235E+02   -.927E+01 0.183E+01 -.235E+02   0.267E+00 0.158E+00 0.725E-01   -.327E-02 0.305E-02 0.401E-03
   0.182E+02 0.501E+01 0.286E+02   -.185E+02 -.514E+01 -.285E+02   0.345E+00 0.127E+00 -.756E-01   0.650E-03 0.189E-03 -.544E-04
   0.216E+02 0.140E+02 0.478E+02   -.218E+02 -.145E+02 -.480E+02   0.254E+00 0.444E+00 0.182E+00   0.569E-03 -.937E-04 0.421E-03
   0.192E+02 0.481E+02 0.442E+02   -.196E+02 -.516E+02 -.450E+02   0.331E+00 0.346E+01 0.738E+00   0.333E-04 0.179E-03 0.133E-03
   0.322E+02 0.409E+02 0.438E+02   -.350E+02 -.430E+02 -.445E+02   0.283E+01 0.202E+01 0.725E+00   0.201E-03 0.330E-03 0.413E-03
   -.517E+02 0.273E+02 0.501E+01   0.553E+02 -.287E+02 -.531E+01   -.353E+01 0.149E+01 0.297E+00   -.135E-02 -.900E-03 0.449E-03
   -.244E+02 0.141E+02 -.158E+02   0.245E+02 -.141E+02 0.159E+02   -.428E-01 0.247E-01 -.127E+00   0.299E-02 -.173E-02 -.408E-03
   -.417E+01 0.241E+01 -.247E+01   0.395E+01 -.228E+01 0.239E+01   0.201E+00 -.116E+00 0.696E-01   0.208E-02 -.120E-02 0.285E-03
   -.103E+01 0.529E+01 0.742E+01   0.978E+00 -.543E+01 -.731E+01   0.708E-01 0.120E+00 -.103E+00   -.151E-02 0.929E-03 -.182E-03
   -.582E+01 -.444E+00 0.120E+02   0.603E+01 0.237E+00 -.121E+02   -.206E+00 0.218E+00 0.698E-01   -.201E-02 -.205E-02 0.915E-04
   0.582E+01 0.561E+00 0.122E+02   -.602E+01 -.354E+00 -.122E+02   0.208E+00 -.216E+00 0.669E-01   -.249E-02 -.196E-02 0.269E-03
   0.213E+02 -.755E+01 0.176E+02   -.216E+02 0.777E+01 -.176E+02   0.291E+00 -.225E+00 0.413E-01   0.183E-03 -.670E-03 0.313E-03
   0.495E+02 -.311E+02 0.531E+01   -.526E+02 0.334E+02 -.561E+01   0.306E+01 -.232E+01 0.296E+00   0.884E-03 0.961E-04 0.652E-03
   -.495E+02 0.312E+02 0.501E+01   0.525E+02 -.335E+02 -.531E+01   -.306E+01 0.231E+01 0.297E+00   0.109E-03 0.161E-02 0.448E-03
   -.212E+02 0.755E+01 0.168E+02   0.215E+02 -.776E+01 -.169E+02   -.292E+00 0.225E+00 0.332E-01   0.292E-02 -.209E-02 0.316E-03
   -.181E+02 -.499E+01 0.278E+02   0.185E+02 0.511E+01 -.277E+02   -.350E+00 -.124E+00 -.733E-01   0.250E-02 -.578E-03 -.687E-04
   -.883E+01 0.199E+01 0.226E+02   0.909E+01 -.183E+01 -.226E+02   -.278E+00 -.156E+00 0.812E-01   -.361E-03 0.152E-02 -.263E-03
   0.968E+00 -.520E+01 0.747E+01   -.894E+00 0.532E+01 -.735E+01   -.675E-01 -.122E+00 -.108E+00   -.323E-02 0.456E-03 -.107E-03
   0.423E+01 -.244E+01 -.180E+01   -.402E+01 0.232E+01 0.171E+01   -.213E+00 0.123E+00 0.796E-01   -.171E-02 0.982E-03 0.362E-03
   0.244E+02 -.141E+02 -.158E+02   -.244E+02 0.141E+02 0.160E+02   0.456E-01 -.263E-01 -.158E+00   0.394E-02 -.227E-02 0.850E-03
   0.517E+02 -.274E+02 0.531E+01   -.552E+02 0.289E+02 -.561E+01   0.354E+01 -.149E+01 0.296E+00   0.358E-03 -.826E-03 0.654E-03
   -.321E+02 -.407E+02 0.442E+02   0.349E+02 0.427E+02 -.450E+02   -.283E+01 -.202E+01 0.738E+00   -.159E-03 -.127E-03 0.133E-03
   -.194E+02 -.484E+02 0.438E+02   0.197E+02 0.518E+02 -.445E+02   -.333E+00 -.346E+01 0.725E+00   -.182E-03 -.332E-03 0.409E-03
   -.215E+02 -.139E+02 0.474E+02   0.218E+02 0.144E+02 -.476E+02   -.257E+00 -.455E+00 0.195E+00   -.189E-02 -.551E-03 0.287E-03
   -.520E+01 -.690E+01 0.544E+02   0.520E+01 0.724E+01 -.546E+02   0.134E-02 -.332E+00 0.121E+00   -.490E-03 0.273E-02 -.338E-03
   -.783E+01 0.452E+01 0.476E+02   0.796E+01 -.460E+01 -.477E+02   -.141E+00 0.816E-01 0.456E-01   0.412E-03 -.237E-03 0.246E-03
   -.276E+01 0.159E+01 0.297E+02   0.278E+01 -.161E+01 -.297E+02   -.248E-01 0.143E-01 -.621E-01   0.775E-03 -.445E-03 0.496E-03
   -.613E+01 0.665E+01 0.226E+02   0.613E+01 -.696E+01 -.226E+02   -.378E-02 0.319E+00 0.812E-01   -.149E-02 -.445E-03 -.263E-03
   0.498E+01 0.176E+01 0.747E+01   -.506E+01 -.189E+01 -.735E+01   0.722E-01 0.120E+00 -.108E+00   -.202E-02 0.257E-02 -.107E-03
   0.242E+01 -.532E+01 0.122E+02   -.270E+01 0.539E+01 -.122E+02   0.291E+00 -.724E-01 0.669E-01   0.449E-03 0.314E-02 0.269E-03
   0.172E+02 -.147E+02 0.176E+02   -.175E+02 0.148E+02 -.176E+02   0.340E+00 -.139E+00 0.413E-01   0.685E-03 0.182E-03 0.312E-03
   0.476E+01 -.183E+02 0.286E+02   -.482E+01 0.186E+02 -.285E+02   0.626E-01 -.362E+00 -.756E-01   0.158E-03 -.654E-03 -.541E-04
   -.137E+01 -.257E+02 0.478E+02   0.163E+01 0.261E+02 -.480E+02   -.257E+00 -.442E+00 0.182E+00   0.355E-03 -.448E-03 0.421E-03
   -.330E+01 -.790E+01 0.546E+02   0.359E+01 0.806E+01 -.547E+02   -.278E+00 -.166E+00 0.102E+00   0.123E-02 -.364E-03 0.237E-03
   -.327E+02 -.594E+01 0.245E+02   0.330E+02 0.280E+02 -.226E+02   -.273E+00 -.220E+02 -.189E+01   -.722E-03 0.185E-02 0.673E-03
   0.111E+02 -.311E+02 0.245E+02   0.788E+01 0.424E+02 -.226E+02   -.190E+02 -.113E+02 -.193E+01   0.821E-03 -.758E-03 0.890E-03
   -.112E+02 0.313E+02 0.245E+02   -.771E+01 -.426E+02 -.226E+02   0.190E+02 0.113E+02 -.189E+01   -.197E-02 -.304E-03 0.671E-03
   0.325E+02 0.597E+01 0.245E+02   -.327E+02 -.280E+02 -.226E+02   0.267E+00 0.221E+02 -.193E+01   0.109E-02 -.357E-03 0.893E-03
   0.128E+00 -.739E-01 -.115E+04   -.138E+00 0.797E-01 0.117E+04   0.264E-02 -.151E-02 -.225E+02   0.170E-02 -.999E-03 0.548E-02
 -----------------------------------------------------------------------------------------------
   0.340E-01 -.195E-01 0.249E+02   0.149E-12 -.128E-12 0.000E+00   -.273E-01 0.157E-01 -.249E+02   0.253E-03 -.181E-03 0.160E-01
 
 
 POSITION                                       TOTAL-FORCE (eV/Angst)
 -----------------------------------------------------------------------------------
     12.28705      0.00748     14.78439        -0.011882      0.006849      0.004261
      1.22061      0.69402     14.78517         0.010162     -0.009570     -0.017533
     -3.69961     10.63589     14.78648        -0.005635     -0.003832     -0.002435
      3.67818      0.67984     14.87480         0.011269      0.025180      0.003948
     -1.23306     10.62944     14.91738        -0.000875      0.003545      0.009874
      6.12886      0.71193     14.99267        -0.003688     -0.014334     -0.002690
      7.36799      0.00630     14.97889        -0.007208     -0.003826      0.005400
      8.58368      0.73736     14.97887         0.020561     -0.003445      0.008724
      9.82091      0.02342     14.90440        -0.006520      0.015246     -0.001912
     11.05344      0.71970     14.85529        -0.001202      0.000693     -0.005218
     11.04018      2.13525     14.90440        -0.016423     -0.001951     -0.001911
     -0.01795      2.82694     14.91393         0.002557      0.002425      0.007113
      1.21005      2.10564     14.87284         0.000618      0.004847     -0.009364
      2.42444      2.80375     15.01434        -0.008931      0.008768      0.007872
      3.67546      2.08123     15.01569        -0.004592     -0.025083     -0.005292
      6.06327      2.14108     15.11208         0.010550      0.003035     -0.003933
      7.29912      2.88726     15.13045         0.004493     -0.002587      0.002148
      8.54957      2.16531     15.03461        -0.020210      0.011674     -0.013092
      9.80327      2.84975     14.97887         0.013262     -0.016095      0.008725
      9.82854      4.26809     14.97889        -0.000309      0.008151      0.005401
     -1.21873      4.96388     14.97821         0.010791     -0.010960      0.002723
      0.01237      4.24357     14.98994        -0.023512     -0.003462      0.003550
      1.28256      4.90165     15.11044         0.004764     -0.000812     -0.003706
      7.32740      4.33063     15.11208         0.002655     -0.010658     -0.003935
      8.59788      4.98840     14.99267         0.010559      0.010350     -0.002689
     -3.67190      6.40525     14.91738        -0.003494     -0.001010      0.009874
     -2.42964      7.09662     14.90825        -0.012721      0.006013      0.005552
     -1.19328      6.38223     14.97934         0.004583      0.005017      0.006942
      0.06083      7.06629     15.03334        -0.000521      0.000263     -0.007964
      1.31065      6.34471     15.12962         0.000613     -0.000261     -0.015739
      2.54632      7.09056     15.11044         0.002920     -0.003740     -0.003705
      4.93410      7.15061     15.01434        -0.012058      0.003413      0.007868
      6.18533      6.42846     15.01569         0.019424      0.016466     -0.005286
      7.40033      7.12680     14.87480        -0.016168     -0.022333      0.003946
     -4.91076      8.53812     14.78648         0.000494      0.006798     -0.002435
     -3.67660      9.22409     14.78858        -0.004953      0.002864     -0.015289
     -2.44335      8.51208     14.86075         0.000459     -0.000278     -0.020410
     -1.21067      9.20793     14.90825        -0.011582      0.008011      0.005552
      0.02618      8.49441     14.97934        -0.002036     -0.006440      0.006942
      1.24179      9.22562     14.97821         0.014924     -0.003875      0.002723
      2.48114      8.51961     14.98994        -0.008775      0.022082      0.003552
      3.69282      9.25419     14.91393        -0.000795     -0.003448      0.007109
      4.93149      8.55136     14.87284        -0.003865     -0.002999     -0.009357
      6.15927      9.24802     14.78517         0.013324     -0.004035     -0.017531
      4.84460      2.76234     15.19409         0.015760      0.006437      0.007305
      2.42990      4.15745     15.19322         0.001109     -0.017248      0.001674
      6.18004      5.07540     15.19409         0.002305     -0.016842      0.007302
      3.76449      6.46903     15.19323         0.015596      0.007663      0.001661
      4.30507      4.61588     16.40090        -0.005796      0.003332      0.023686
 -----------------------------------------------------------------------------------
    total drift:                                0.006975     -0.004029      0.006241


--------------------------------------------------------------------------------------------------------



  FREE ENERGIE OF THE ION-ELECTRON SYSTEM (eV)
  ---------------------------------------------------
  free  energy   TOTEN  =      -442.79597817 eV

  energy  without entropy=     -442.78622595  energy(sigma->0) =     -442.79110206
 
 d Force = 0.2888947E-03[-0.120E-03, 0.697E-03]  d Energy = 0.2977211E-03-0.883E-05
 d Force = 0.5714118E+00[ 0.570E+00, 0.572E+00]  d Ewald  = 0.5714116E+00 0.222E-06


--------------------------------------------------------------------------------------------------------


    POTLOK:  cpu time    2.8853: real time    2.8922


--------------------------------------------------------------------------------------------------------


 stress matrix after NEB project (eV)
     -8.19456     16.62231     -0.00569
     16.62231     10.99936      0.00329
     -0.00569      0.00329     -0.25672
  FORCES: max atom, RMS     0.027868    0.016755
  FORCE total and by dimension    0.117284    0.025180
  Stress total and by dimension   27.217731   16.622306
 Quasi-Newton relaxation of ions (Broydens 2nd method)
  g(Force)  = 0.265E-03   g(Stress)= 0.000E+00

 retain information from N=  1 steps
 eigenvalues of (default step * inverse Hessian matrix)
  average eigenvalue of G=   0.6462
 eigenvalue spectrum of G is  0.6462


--------------------------------------------------------------------------------------------------------


  
 reached required accuracy - stopping structural energy minimisation
 writing wavefunctions
     LOOP+:  cpu time  308.0056: real time  328.6960
    4ORBIT:  cpu time    0.0000: real time    0.0000

 total amount of memory used by VASP MPI-rank0   179383. kBytes
=======================================================================

   base      :      30000. kBytes
   nonlr-proj:      15220. kBytes
   fftplans  :       7547. kBytes
   grid      :     115983. kBytes
   one-center:       1524. kBytes
   wavefun   :       9109. kBytes
 
  
  
 General timing and accounting informations for this job:
 ========================================================
  
                  Total CPU time used (sec):     2116.538
                            User time (sec):     2049.383
                          System time (sec):       67.155
                         Elapsed time (sec):     2161.706
  
                   Maximum memory used (kb):      453976.
                   Average memory used (kb):           0.
  
                          Minor page faults:       827399
                          Major page faults:            3
                 Voluntary context switches:         5192
