C  N  Sn                                
   1.00000000000000     
    12.3000000000000007    0.0000000000000000    0.0000000000000000
    -6.1499999999999977   10.6521124665485960    0.0000000000000000
     0.0000000000000000    0.0000000000000000   20.0000000000000000
   C    N    Sn
    44     4     1
Direct
  0.9992688214478362  0.0007312320522834  0.7392086251911301
  0.1318144508996162  0.0651281508314954  0.7392813221736003
  0.1984510603865247  0.9984737757759504  0.7393202523681445
  0.3309956614952218  0.0638503423754158  0.7437417916205430
  0.3986884979153819  0.9978804475279472  0.7458559492819044
  0.5316576137257371  0.0668398225757144  0.7496366021993540
  0.5992737568169151  0.0005835831445832  0.7489401279798616
  0.7325164060017868  0.0692003194086051  0.7489242966796036
  0.7995748458380301  0.0021927522970772  0.7452260400729208
  0.9324349951376812  0.0675650372652924  0.7427694239976006
  0.9978072143451883  0.2004251309881628  0.7452260387636847
  0.1312735187177740  0.2654148949162942  0.7456840311899092
  0.1972257388109981  0.1976959317445421  0.7436573806966331
  0.3287023384376422  0.2632470093536413  0.7507077937725244
  0.3964421358966184  0.1952915563005714  0.7507815622388271
  0.5934894134715142  0.2010549373073760  0.7556142186751676
  0.7289421217141306  0.2710578908551614  0.7565116580363982
  0.7966907672981763  0.2033092375678595  0.7517617996656676
  0.9307996787564257  0.2674835921476079  0.7489242943613886
  0.9994164278750375  0.4007262443468434  0.7489401258904923
  0.1339321456111077  0.4659768264304240  0.7489089205315443
  0.2001655177955504  0.3983837545803158  0.7494907386464805
  0.3343866168739534  0.4602040922640422  0.7555272843091040
  0.7989450799575127  0.4065105933768210  0.7556142158701353
  0.9331601638395542  0.4683423849752333  0.7496366022478858
  0.0021195174899702  0.6013115016768749  0.7458559436365951
  0.1355777972958966  0.6662057266792731  0.7454049782939207
  0.2026073840419152  0.5991437377992174  0.7489589111101883
  0.3366166226637038  0.6633831588602012  0.7516758131110385
  0.4043505471718161  0.5956499730118843  0.7564957457762672
  0.5397955590966839  0.6656135392709854  0.7555272623738200
  0.7367529837295581  0.6712979195347992  0.7507077922633255
  0.8047083501010409  0.6035578848479285  0.7507815672252242
  0.9361495796166440  0.6690043148080277  0.7437417938104990
  0.0015262540611746  0.8015489829398460  0.7393202528335420
  0.1340437525910995  0.8659562720826295  0.7394484487305855
  0.2009060419393996  0.7990939548163060  0.7430625402019845
  0.3337943010800133  0.8644221639559871  0.7454049818401289
  0.4008562027448797  0.7973924458789141  0.7489589163328925
  0.5340231628935125  0.8660679164697765  0.7489089146893704
  0.6016160798132419  0.7998345335960007  0.7494907133670889
  0.7345850349217282  0.8687264226547566  0.7456840325530301
  0.8023042053046350  0.8027744586048490  0.7436573563397763
  0.9348719606461514  0.8681856547577921  0.7392813151438530
  0.5235500219070728  0.2593244013628300  0.7596991635282504
  0.3927226937015821  0.3902887897721721  0.7596626780363595
  0.7406755562985738  0.4764499542163653  0.7596991508642438
  0.6097111407720317  0.6072768841073307  0.7596627955018997
  0.5666722610517845  0.4333278678859677  0.8200198359756600
 
  0.00000000E+00  0.00000000E+00  0.00000000E+00
  0.00000000E+00  0.00000000E+00  0.00000000E+00
  0.00000000E+00  0.00000000E+00  0.00000000E+00
  0.00000000E+00  0.00000000E+00  0.00000000E+00
  0.00000000E+00  0.00000000E+00  0.00000000E+00
  0.00000000E+00  0.00000000E+00  0.00000000E+00
  0.00000000E+00  0.00000000E+00  0.00000000E+00
  0.00000000E+00  0.00000000E+00  0.00000000E+00
  0.00000000E+00  0.00000000E+00  0.00000000E+00
  0.00000000E+00  0.00000000E+00  0.00000000E+00
  0.00000000E+00  0.00000000E+00  0.00000000E+00
  0.00000000E+00  0.00000000E+00  0.00000000E+00
  0.00000000E+00  0.00000000E+00  0.00000000E+00
  0.00000000E+00  0.00000000E+00  0.00000000E+00
  0.00000000E+00  0.00000000E+00  0.00000000E+00
  0.00000000E+00  0.00000000E+00  0.00000000E+00
  0.00000000E+00  0.00000000E+00  0.00000000E+00
  0.00000000E+00  0.00000000E+00  0.00000000E+00
  0.00000000E+00  0.00000000E+00  0.00000000E+00
  0.00000000E+00  0.00000000E+00  0.00000000E+00
  0.00000000E+00  0.00000000E+00  0.00000000E+00
  0.00000000E+00  0.00000000E+00  0.00000000E+00
  0.00000000E+00  0.00000000E+00  0.00000000E+00
  0.00000000E+00  0.00000000E+00  0.00000000E+00
  0.00000000E+00  0.00000000E+00  0.00000000E+00
  0.00000000E+00  0.00000000E+00  0.00000000E+00
  0.00000000E+00  0.00000000E+00  0.00000000E+00
  0.00000000E+00  0.00000000E+00  0.00000000E+00
  0.00000000E+00  0.00000000E+00  0.00000000E+00
  0.00000000E+00  0.00000000E+00  0.00000000E+00
  0.00000000E+00  0.00000000E+00  0.00000000E+00
  0.00000000E+00  0.00000000E+00  0.00000000E+00
  0.00000000E+00  0.00000000E+00  0.00000000E+00
  0.00000000E+00  0.00000000E+00  0.00000000E+00
  0.00000000E+00  0.00000000E+00  0.00000000E+00
  0.00000000E+00  0.00000000E+00  0.00000000E+00
  0.00000000E+00  0.00000000E+00  0.00000000E+00
  0.00000000E+00  0.00000000E+00  0.00000000E+00
  0.00000000E+00  0.00000000E+00  0.00000000E+00
  0.00000000E+00  0.00000000E+00  0.00000000E+00
  0.00000000E+00  0.00000000E+00  0.00000000E+00
  0.00000000E+00  0.00000000E+00  0.00000000E+00
  0.00000000E+00  0.00000000E+00  0.00000000E+00
  0.00000000E+00  0.00000000E+00  0.00000000E+00
  0.00000000E+00  0.00000000E+00  0.00000000E+00
  0.00000000E+00  0.00000000E+00  0.00000000E+00
  0.00000000E+00  0.00000000E+00  0.00000000E+00
  0.00000000E+00  0.00000000E+00  0.00000000E+00
  0.00000000E+00  0.00000000E+00  0.00000000E+00
