       N       E                     dE             d eps       ncg     rms          ort
SDA:   1    -0.335837390350E+03   -0.33584E+03    0.00000E+00  3328   0.139E+03 0.000E+00
CGA:   2    -0.393290045155E+03   -0.57453E+02   -0.70476E+02  3328   0.340E+03-0.203E+02
CGA:   3    -0.417667389949E+03   -0.24377E+02   -0.27312E+02  3328   0.721E+02-0.151E+02
CGA:   4    -0.429495980178E+03   -0.11829E+02   -0.12047E+02  3328   0.513E+02 0.218E+01
CGA:   5    -0.436598984129E+03   -0.71030E+01   -0.71083E+01  3328   0.218E+02-0.996E-01
CGA:   6    -0.440981245039E+03   -0.43823E+01   -0.43819E+01  3328   0.134E+02-0.168E+00
CGA:   7    -0.442669112954E+03   -0.16879E+01   -0.17011E+01  3328   0.588E+01-0.346E-01
CGA:   8    -0.443810869117E+03   -0.11418E+01   -0.11412E+01  3328   0.236E+01-0.414E-01
CGA:   9    -0.444253534955E+03   -0.44267E+00   -0.44151E+00  3328   0.169E+01-0.488E-01
CGA:  10    -0.444464400138E+03   -0.21087E+00   -0.21653E+00  3328   0.586E+00 0.755E-02
CGA:  11    -0.444596743390E+03   -0.13234E+00   -0.13226E+00  3328   0.275E+00 0.224E-02
CGA:  12    -0.444640705816E+03   -0.43962E-01   -0.44101E-01  3328   0.196E+00 0.979E-03
CGA:  13    -0.444677152852E+03   -0.36447E-01   -0.36445E-01  3328   0.661E-01-0.107E-03
CGA:  14    -0.444695641590E+03   -0.18489E-01   -0.18492E-01  3328   0.450E-01-0.366E-04
CGA:  15    -0.444702010372E+03   -0.63688E-02   -0.63998E-02  3328   0.233E-01 0.914E-04
CGA:  16    -0.444707468182E+03   -0.54578E-02   -0.54608E-02  3328   0.728E-02-0.711E-04
CGA:  17    -0.444709454020E+03   -0.19858E-02   -0.19889E-02  3328   0.492E-02-0.377E-04
CGA:  18    -0.444710124917E+03   -0.67090E-03   -0.67382E-03  3328   0.207E-02 0.203E-04
CGA:  19    -0.444710693503E+03   -0.56859E-03   -0.56934E-03  3328   0.746E-03-0.968E-05
CGA:  20    -0.444710922550E+03   -0.22905E-03   -0.23013E-03  3328   0.651E-03-0.101E-04
CGA:  21    -0.444711013980E+03   -0.91430E-04   -0.92001E-04  3328   0.284E-03 0.746E-05
CGA:  22    -0.444711100445E+03   -0.86465E-04   -0.86787E-04  3328   0.106E-03-0.323E-05
CGA:  23    -0.444711129341E+03   -0.28897E-04   -0.29127E-04  3328   0.985E-04-0.339E-05
CGA:  24    -0.444711141627E+03   -0.12285E-04   -0.12534E-04  3328   0.282E-04 0.303E-05
CGA:  25    -0.444711150527E+03   -0.89008E-05   -0.88592E-05  3328   0.161E-04 0.437E-06
   1 F= -.44651128E+03 E0= -.44650228E+03  d E =-.180134E-01  mag=    -1.6264
