C  N  Ru                                
   1.00000000000000     
    12.3000000000000007    0.0000000000000000    0.0000000000000000
    -6.1499999999999977   10.6521124665485960    0.0000000000000000
     0.0000000000000000    0.0000000000000000   20.0000000000000000
   C    N    Ru
    44     4     1
Direct
  0.9989827800375656  0.0010165053887830  0.7463336794290799
  0.1305669884390774  0.0638716636290618  0.7466064422565107
  0.1972374883003583  0.9972579211095718  0.7465998445365555
  0.3292340255960775  0.0613543736055094  0.7488378516523784
  0.3982289928333519  0.9965976805290567  0.7491094959633261
  0.5310133311043532  0.0663741774151295  0.7504385400859120
  0.5990475171475144  0.0004428773051389  0.7497069253809394
  0.7319416311522530  0.0698234894876407  0.7497442350629614
  0.7993453163524269  0.0031002053349708  0.7485131561562121
  0.9320178689830226  0.0679826702002871  0.7476227690644232
  0.9968994904753444  0.2006537768743110  0.7485103951645816
  0.1299023465030471  0.2648722322698094  0.7491282359937798
  0.1946792427647538  0.1958888658154038  0.7488408890202114
  0.3248453142325983  0.2591949990838968  0.7529772564750226
  0.3925155005651868  0.1915355084300278  0.7529860124149946
  0.5926991102211304  0.2002741858878271  0.7540627799710951
  0.7281706959725702  0.2718300470367929  0.7538341216538753
  0.7959616885454702  0.2040376841150140  0.7509301849462671
  0.9301767089349783  0.2680581176668037  0.7497428206141505
  0.9995574774790105  0.4009514944764538  0.7497063247299011
  0.1337588400214959  0.4657248836184561  0.7497080804065814
  0.1996820813429086  0.3976600200790593  0.7504495893642255
  0.3336168439146734  0.4593533697302485  0.7540430544199513
  0.7997266418152964  0.4073006789746654  0.7540629128725226
  0.9336276896838127  0.4689857063837123  0.7504399596299688
  0.0034022405387721  0.6017704741601245  0.7491099315766153
  0.1364057834561742  0.6660077791146509  0.7484698892498837
  0.2031446270357161  0.5986231971210738  0.7497204995242197
  0.3373516686194736  0.6626474630466980  0.7509397353534201
  0.4051758844881582  0.5948242980890566  0.7538393229537131
  0.5406463028222416  0.6663831243522371  0.7540442852679862
  0.7408064116887871  0.6751570797636141  0.7529778684434500
  0.8084638646494724  0.6074839607680796  0.7529857856370716
  0.9386462481250657  0.6707660659209266  0.7488377896927180
  0.0027416876140470  0.8027615865926254  0.7466001976875405
  0.1343645664209686  0.8656351803413700  0.7463270840085241
  0.2013203749465565  0.7986792727870240  0.7475982892669738
  0.3339916106247610  0.8635941551397729  0.7484696110740797
  0.4013767814310348  0.7968552225061357  0.7497204597248056
  0.5342748485097658  0.8662420225146440  0.7497091807040365
  0.6023385650958186  0.8003176624624252  0.7504524248468524
  0.7351219453089854  0.8700973487814800  0.7491242349651328
  0.8041162073171555  0.8053271305176521  0.7488412386470045
  0.9361300717056115  0.8694314933587256  0.7466039780365675
  0.5208725772351509  0.2573661071436438  0.7582614083669198
  0.3906979131429053  0.3875425763999754  0.7582529796862747
  0.7426343366115346  0.4791265959366706  0.7582610533218289
  0.6124564527075207  0.6093015670815397  0.7582534291355720
  0.5666734174860569  0.4333255016522313  0.7706577655632724
 
  0.00000000E+00  0.00000000E+00  0.00000000E+00
  0.00000000E+00  0.00000000E+00  0.00000000E+00
  0.00000000E+00  0.00000000E+00  0.00000000E+00
  0.00000000E+00  0.00000000E+00  0.00000000E+00
  0.00000000E+00  0.00000000E+00  0.00000000E+00
  0.00000000E+00  0.00000000E+00  0.00000000E+00
  0.00000000E+00  0.00000000E+00  0.00000000E+00
  0.00000000E+00  0.00000000E+00  0.00000000E+00
  0.00000000E+00  0.00000000E+00  0.00000000E+00
  0.00000000E+00  0.00000000E+00  0.00000000E+00
  0.00000000E+00  0.00000000E+00  0.00000000E+00
  0.00000000E+00  0.00000000E+00  0.00000000E+00
  0.00000000E+00  0.00000000E+00  0.00000000E+00
  0.00000000E+00  0.00000000E+00  0.00000000E+00
  0.00000000E+00  0.00000000E+00  0.00000000E+00
  0.00000000E+00  0.00000000E+00  0.00000000E+00
  0.00000000E+00  0.00000000E+00  0.00000000E+00
  0.00000000E+00  0.00000000E+00  0.00000000E+00
  0.00000000E+00  0.00000000E+00  0.00000000E+00
  0.00000000E+00  0.00000000E+00  0.00000000E+00
  0.00000000E+00  0.00000000E+00  0.00000000E+00
  0.00000000E+00  0.00000000E+00  0.00000000E+00
  0.00000000E+00  0.00000000E+00  0.00000000E+00
  0.00000000E+00  0.00000000E+00  0.00000000E+00
  0.00000000E+00  0.00000000E+00  0.00000000E+00
  0.00000000E+00  0.00000000E+00  0.00000000E+00
  0.00000000E+00  0.00000000E+00  0.00000000E+00
  0.00000000E+00  0.00000000E+00  0.00000000E+00
  0.00000000E+00  0.00000000E+00  0.00000000E+00
  0.00000000E+00  0.00000000E+00  0.00000000E+00
  0.00000000E+00  0.00000000E+00  0.00000000E+00
  0.00000000E+00  0.00000000E+00  0.00000000E+00
  0.00000000E+00  0.00000000E+00  0.00000000E+00
  0.00000000E+00  0.00000000E+00  0.00000000E+00
  0.00000000E+00  0.00000000E+00  0.00000000E+00
  0.00000000E+00  0.00000000E+00  0.00000000E+00
  0.00000000E+00  0.00000000E+00  0.00000000E+00
  0.00000000E+00  0.00000000E+00  0.00000000E+00
  0.00000000E+00  0.00000000E+00  0.00000000E+00
  0.00000000E+00  0.00000000E+00  0.00000000E+00
  0.00000000E+00  0.00000000E+00  0.00000000E+00
  0.00000000E+00  0.00000000E+00  0.00000000E+00
  0.00000000E+00  0.00000000E+00  0.00000000E+00
  0.00000000E+00  0.00000000E+00  0.00000000E+00
  0.00000000E+00  0.00000000E+00  0.00000000E+00
  0.00000000E+00  0.00000000E+00  0.00000000E+00
  0.00000000E+00  0.00000000E+00  0.00000000E+00
  0.00000000E+00  0.00000000E+00  0.00000000E+00
  0.00000000E+00  0.00000000E+00  0.00000000E+00
