C  N  Hf                                
   1.00000000000000     
    12.3000000000000007    0.0000000000000000    0.0000000000000000
    -6.1499999999999977   10.6521124665485960    0.0000000000000000
     0.0000000000000000    0.0000000000000000   20.0000000000000000
   C    N    Hf
    44     4     1
Direct
  0.9993277218889735  0.0006722816427625  0.7450711183021151
  0.1319092182917653  0.0653331401679396  0.7454099480622665
  0.1986760125804179  0.9985658936311002  0.7453156351892155
  0.3307123373898132  0.0637124527270480  0.7476955346707053
  0.3985588111911350  0.9978871297084396  0.7477842546375923
  0.5322646388370730  0.0671601248060661  0.7488896630377877
  0.5997224530039318  0.0007004086674816  0.7478890650336170
  0.7323973456874628  0.0687024959141816  0.7481328532165790
  0.7996134598782771  0.0013899806290255  0.7471805699502592
  0.9326895390656427  0.0673104629337739  0.7463517125635888
  0.9986100179984708  0.2003865415843688  0.7471805708313543
  0.1312175584392699  0.2652087647326588  0.7478792754642095
  0.1970533646762215  0.1973584576547481  0.7477018627370846
  0.3292086539458204  0.2629544752757604  0.7511211950616391
  0.3962714719543019  0.1958663146674682  0.7512412091121390
  0.5952118458173270  0.2003922578881703  0.7521819145493336
  0.7296699405885986  0.2703300589690993  0.7516647610253119
  0.7974697420208869  0.2025302575688153  0.7491632665737424
  0.9312975034251412  0.2676026562429071  0.7481328539507338
  0.9992995899961077  0.4002775488879624  0.7478890648370722
  0.1340188040292693  0.4663809888022321  0.7477451996482029
  0.2004624076959600  0.3989059567777845  0.7487236659172234
  0.3337095415955845  0.4618816038476167  0.7518044512844578
  0.7996077408254177  0.4047881538604338  0.7521819146507226
  0.9328398736254717  0.4677353622258864  0.7488896629069939
  0.0021128690463410  0.6014411897643261  0.7477842524897559
  0.1347206344421118  0.6662496380481403  0.7468512515792094
  0.2020315554675612  0.5990428016976176  0.7477622165453560
  0.3358707582301014  0.6641292415795372  0.7487228441749019
  0.4036544583518750  0.5963455406209905  0.7511819293287090
  0.5381183948862781  0.6662904563845882  0.7518044509199259
  0.7370455227415879  0.6707913438269201  0.7511211934243139
  0.8041336829422895  0.6037285260687044  0.7512412079186963
  0.9362875461285998  0.6692876636075455  0.7476955340211873
  0.0014341092794101  0.8013239902013634  0.7453156341404596
  0.1340214950673577  0.8659785090118252  0.7448279919640315
  0.2006552519287598  0.7993447512646957  0.7459629532285502
  0.3337503647237194  0.8652793654214103  0.7468512536071834
  0.4009572009349111  0.7979684442504474  0.7477622178507356
  0.5336190134312401  0.8659811947902120  0.7477452002220839
  0.6010940437433743  0.7995375899854198  0.7487236657191216
  0.7347912355802381  0.8687824394138877  0.7478792752359543
  0.8026415430353058  0.8029466339066390  0.7477018611846675
  0.9346668624666415  0.8680907846408934  0.7454099479524501
  0.5259634879172328  0.2611926885693331  0.7567036215284958
  0.3945176879921804  0.3926716023460102  0.7563679908252144
  0.7388073087893058  0.4740365101953604  0.7567036210698803
  0.6073283956948656  0.6054823094816920  0.7563679902310171
  0.5665459827303947  0.4334540151087066  0.7992926716241375
 
  0.00000000E+00  0.00000000E+00  0.00000000E+00
  0.00000000E+00  0.00000000E+00  0.00000000E+00
  0.00000000E+00  0.00000000E+00  0.00000000E+00
  0.00000000E+00  0.00000000E+00  0.00000000E+00
  0.00000000E+00  0.00000000E+00  0.00000000E+00
  0.00000000E+00  0.00000000E+00  0.00000000E+00
  0.00000000E+00  0.00000000E+00  0.00000000E+00
  0.00000000E+00  0.00000000E+00  0.00000000E+00
  0.00000000E+00  0.00000000E+00  0.00000000E+00
  0.00000000E+00  0.00000000E+00  0.00000000E+00
  0.00000000E+00  0.00000000E+00  0.00000000E+00
  0.00000000E+00  0.00000000E+00  0.00000000E+00
  0.00000000E+00  0.00000000E+00  0.00000000E+00
  0.00000000E+00  0.00000000E+00  0.00000000E+00
  0.00000000E+00  0.00000000E+00  0.00000000E+00
  0.00000000E+00  0.00000000E+00  0.00000000E+00
  0.00000000E+00  0.00000000E+00  0.00000000E+00
  0.00000000E+00  0.00000000E+00  0.00000000E+00
  0.00000000E+00  0.00000000E+00  0.00000000E+00
  0.00000000E+00  0.00000000E+00  0.00000000E+00
  0.00000000E+00  0.00000000E+00  0.00000000E+00
  0.00000000E+00  0.00000000E+00  0.00000000E+00
  0.00000000E+00  0.00000000E+00  0.00000000E+00
  0.00000000E+00  0.00000000E+00  0.00000000E+00
  0.00000000E+00  0.00000000E+00  0.00000000E+00
  0.00000000E+00  0.00000000E+00  0.00000000E+00
  0.00000000E+00  0.00000000E+00  0.00000000E+00
  0.00000000E+00  0.00000000E+00  0.00000000E+00
  0.00000000E+00  0.00000000E+00  0.00000000E+00
  0.00000000E+00  0.00000000E+00  0.00000000E+00
  0.00000000E+00  0.00000000E+00  0.00000000E+00
  0.00000000E+00  0.00000000E+00  0.00000000E+00
  0.00000000E+00  0.00000000E+00  0.00000000E+00
  0.00000000E+00  0.00000000E+00  0.00000000E+00
  0.00000000E+00  0.00000000E+00  0.00000000E+00
  0.00000000E+00  0.00000000E+00  0.00000000E+00
  0.00000000E+00  0.00000000E+00  0.00000000E+00
  0.00000000E+00  0.00000000E+00  0.00000000E+00
  0.00000000E+00  0.00000000E+00  0.00000000E+00
  0.00000000E+00  0.00000000E+00  0.00000000E+00
  0.00000000E+00  0.00000000E+00  0.00000000E+00
  0.00000000E+00  0.00000000E+00  0.00000000E+00
  0.00000000E+00  0.00000000E+00  0.00000000E+00
  0.00000000E+00  0.00000000E+00  0.00000000E+00
  0.00000000E+00  0.00000000E+00  0.00000000E+00
  0.00000000E+00  0.00000000E+00  0.00000000E+00
  0.00000000E+00  0.00000000E+00  0.00000000E+00
  0.00000000E+00  0.00000000E+00  0.00000000E+00
  0.00000000E+00  0.00000000E+00  0.00000000E+00
