       N       E                     dE             d eps       ncg     rms          rms(c)
DAV:   1    -0.484564887746E+03   -0.48456E+03   -0.16906E+02  5632   0.126E+01    0.296E+01
DAV:   2    -0.455882999470E+03    0.28682E+02   -0.47460E+01  6656   0.753E+00    0.144E+01
DAV:   3    -0.448288821834E+03    0.75942E+01   -0.28412E+01  6144   0.537E+00    0.743E+00
DAV:   4    -0.447733242015E+03    0.55558E+00   -0.17882E+01  7424   0.217E+00    0.382E+00
DAV:   5    -0.447188750068E+03    0.54449E+00   -0.31896E+00  7680   0.129E+00    0.247E+00
DAV:   6    -0.447460378275E+03   -0.27163E+00   -0.11436E+00  7424   0.494E-01    0.147E+00
DAV:   7    -0.445787945426E+03    0.16724E+01   -0.44195E+00  4096   0.120E+00    0.811E-01
DAV:   8    -0.446299695980E+03   -0.51175E+00   -0.10562E-01  7168   0.275E-01    0.517E-01
DAV:   9    -0.447073618097E+03   -0.77392E+00   -0.35336E-01  4096   0.398E-01    0.288E-01
DAV:  10    -0.447214657904E+03   -0.14104E+00   -0.84203E-02  7680   0.230E-01    0.177E-01
DAV:  11    -0.447499528825E+03   -0.28487E+00   -0.13492E-01  5632   0.294E-01    0.137E-01
DAV:  12    -0.447661057940E+03   -0.16153E+00   -0.12398E-01  4608   0.226E-01    0.153E-01
DAV:  13    -0.447683661448E+03   -0.22604E-01   -0.11418E-02  7168   0.731E-02    0.125E-01
DAV:  14    -0.447694352831E+03   -0.10691E-01   -0.31624E-03  4608   0.416E-02    0.886E-02
DAV:  15    -0.447701827439E+03   -0.74746E-02   -0.74038E-04  5632   0.217E-02    0.510E-02
DAV:  16    -0.447705348999E+03   -0.35216E-02   -0.46994E-04  4608   0.169E-02    0.232E-02
DAV:  17    -0.447709039406E+03   -0.36904E-02   -0.27218E-04  7424   0.104E-02    0.147E-02
DAV:  18    -0.447711327514E+03   -0.22881E-02   -0.19855E-04  4864   0.778E-03    0.875E-03
DAV:  19    -0.447712683504E+03   -0.13560E-02   -0.12190E-04  4864   0.565E-03    0.395E-03
DAV:  20    -0.447713409747E+03   -0.72624E-03   -0.42733E-05  4864   0.351E-03    0.251E-03
DAV:  21    -0.447713826913E+03   -0.41717E-03   -0.16497E-05  7936   0.188E-03    0.183E-03
DAV:  22    -0.447714014734E+03   -0.18782E-03   -0.10941E-05  7936   0.129E-03    0.108E-03
DAV:  23    -0.447714100570E+03   -0.85835E-04   -0.38471E-06  7168   0.765E-04    0.708E-04
DAV:  24    -0.447714140835E+03   -0.40265E-04   -0.26029E-06  7680   0.517E-04    0.488E-04
DAV:  25    -0.447714157631E+03   -0.16797E-04   -0.60393E-07  5120   0.237E-04    0.367E-04
DAV:  26    -0.447714168068E+03   -0.10437E-04   -0.13566E-07  7424   0.181E-04    0.155E-04
DAV:  27    -0.447714172289E+03   -0.42205E-05   -0.82115E-08  6144   0.123E-04
   1 F= -.44946330E+03 E0= -.44943825E+03  d E =-.449463E+03  mag=     1.0754
       N       E                     dE             d eps       ncg     rms          rms(c)
DAV:   1    -0.447714338933E+03   -0.17086E-03   -0.43444E-02  7168   0.319E-01    0.490E-02
DAV:   2    -0.447714273911E+03    0.65022E-04   -0.42509E-04  6656   0.349E-02    0.271E-02
DAV:   3    -0.447714260453E+03    0.13458E-04   -0.58377E-05  7168   0.116E-02    0.748E-03
DAV:   4    -0.447714273151E+03   -0.12698E-04   -0.72308E-06  6400   0.399E-03    0.267E-03
DAV:   5    -0.447714277090E+03   -0.39392E-05   -0.28227E-07  7168   0.900E-04
   2 F= -.44946340E+03 E0= -.44943824E+03  d E =-.996014E-04  mag=     1.0755
       N       E                     dE             d eps       ncg     rms          rms(c)
DAV:   1    -0.447714468666E+03   -0.19551E-03   -0.10157E-02  6912   0.153E-01    0.242E-02
DAV:   2    -0.447714458368E+03    0.10298E-04   -0.10545E-04  7936   0.171E-02    0.133E-02
DAV:   3    -0.447714456534E+03    0.18338E-05   -0.11756E-05  5888   0.541E-03
   3 F= -.44946357E+03 E0= -.44943841E+03  d E =-.173401E-03  mag=     1.0758
