C  N  Hf                                
   1.00000000000000     
    12.3000000000000007    0.0000000000000000    0.0000000000000000
    -6.1499999999999977   10.6521124665485960    0.0000000000000000
     0.0000000000000000    0.0000000000000000   20.0000000000000000
   C    N    Hf
    44     4     1
Direct
  0.9993090739938101  0.0006909306201685  0.7450768750657871
  0.1319452220428989  0.0653534541944602  0.7454290437897361
  0.1986529328586689  0.9985368321287007  0.7453218828829157
  0.3307365273465395  0.0637572409064604  0.7476988754560754
  0.3985659462638864  0.9978844284685896  0.7477678232513846
  0.5322573283242330  0.0671704848795442  0.7488895276366565
  0.5997263560575221  0.0007027489264024  0.7478738475361217
  0.7323824230909078  0.0686863511739826  0.7481319889694792
  0.7995955655706938  0.0013837746530980  0.7471755856891533
  0.9327159575499169  0.0672840445587436  0.7463572989203495
  0.9986162240466663  0.2004044342619719  0.7471755866834986
  0.1312444562168059  0.2652137332679200  0.7478839921529037
  0.1970577252536829  0.1973514307009094  0.7477043008996596
  0.3292304874070147  0.2629901813888868  0.7511341780532635
  0.3962663808258585  0.1958343217522624  0.7512517597624125
  0.5952130039531021  0.2004021585389419  0.7521721547616720
  0.7296621001939584  0.2703379031206644  0.7516771936333070
  0.7974313840947581  0.2025686157184965  0.7491702008787429
  0.9313136484405378  0.2676175789489254  0.7481319892233316
  0.9992972503119109  0.4002736472485658  0.7478738465888833
  0.1340164130594208  0.4663779644241504  0.7477402865667773
  0.2004644849921857  0.3988965456649897  0.7487141302982928
  0.3337337843500597  0.4619217505679214  0.7518047936399977
  0.7995978415026792  0.4047869970554262  0.7521721552321777
  0.9328295118437158  0.4677426707080463  0.7488895278634528
  0.0021155698081012  0.6014340541881763  0.7477678207207020
  0.1347062546965663  0.6662412188018996  0.7468584256576154
  0.2020308507485393  0.5990373465386432  0.7477557965367433
  0.3358832691141372  0.6641167327833699  0.7487363755874901
  0.4036771978955361  0.5963228029103361  0.7511927545094680
  0.5380782494249661  0.6662662148348737  0.7518047938488291
  0.7370098165405152  0.6707695093516355  0.7511341768706230
  0.8041656753906439  0.6037336178496282  0.7512517585075507
  0.9362427583331637  0.6692634730862738  0.7476988754451014
  0.0014631711252352  0.8013470710099478  0.7453218807010298
  0.1340058555396039  0.8659941506803277  0.7448215491170581
  0.2006782173016187  0.7993217851860005  0.7459610396905167
  0.3337587838996391  0.8652937460045647  0.7468584275474769
  0.4009626561755548  0.7979691493437446  0.7477557972022656
  0.5336220382805735  0.8659835860002785  0.7477402867465786
  0.6011034540248402  0.7995355120799141  0.7487141295913802
  0.7347862662234593  0.8687555409026649  0.7478839926310006
  0.8026485689592552  0.8029422733886940  0.7477042985420975
  0.9346465504868756  0.8680547824396017  0.7454290439676214
  0.5259828943363135  0.2612170206212295  0.7566903267807527
  0.3945149522400556  0.3926644148307016  0.7563458095317912
  0.7387829726424837  0.4740170995937394  0.7566903266161079
  0.6073355798195718  0.6054850417644446  0.7563458090826611
  0.5665253674013266  0.4334746319310707  0.7993196591315062
 
  0.00000000E+00  0.00000000E+00  0.00000000E+00
  0.00000000E+00  0.00000000E+00  0.00000000E+00
  0.00000000E+00  0.00000000E+00  0.00000000E+00
  0.00000000E+00  0.00000000E+00  0.00000000E+00
  0.00000000E+00  0.00000000E+00  0.00000000E+00
  0.00000000E+00  0.00000000E+00  0.00000000E+00
  0.00000000E+00  0.00000000E+00  0.00000000E+00
  0.00000000E+00  0.00000000E+00  0.00000000E+00
  0.00000000E+00  0.00000000E+00  0.00000000E+00
  0.00000000E+00  0.00000000E+00  0.00000000E+00
  0.00000000E+00  0.00000000E+00  0.00000000E+00
  0.00000000E+00  0.00000000E+00  0.00000000E+00
  0.00000000E+00  0.00000000E+00  0.00000000E+00
  0.00000000E+00  0.00000000E+00  0.00000000E+00
  0.00000000E+00  0.00000000E+00  0.00000000E+00
  0.00000000E+00  0.00000000E+00  0.00000000E+00
  0.00000000E+00  0.00000000E+00  0.00000000E+00
  0.00000000E+00  0.00000000E+00  0.00000000E+00
  0.00000000E+00  0.00000000E+00  0.00000000E+00
  0.00000000E+00  0.00000000E+00  0.00000000E+00
  0.00000000E+00  0.00000000E+00  0.00000000E+00
  0.00000000E+00  0.00000000E+00  0.00000000E+00
  0.00000000E+00  0.00000000E+00  0.00000000E+00
  0.00000000E+00  0.00000000E+00  0.00000000E+00
  0.00000000E+00  0.00000000E+00  0.00000000E+00
  0.00000000E+00  0.00000000E+00  0.00000000E+00
  0.00000000E+00  0.00000000E+00  0.00000000E+00
  0.00000000E+00  0.00000000E+00  0.00000000E+00
  0.00000000E+00  0.00000000E+00  0.00000000E+00
  0.00000000E+00  0.00000000E+00  0.00000000E+00
  0.00000000E+00  0.00000000E+00  0.00000000E+00
  0.00000000E+00  0.00000000E+00  0.00000000E+00
  0.00000000E+00  0.00000000E+00  0.00000000E+00
  0.00000000E+00  0.00000000E+00  0.00000000E+00
  0.00000000E+00  0.00000000E+00  0.00000000E+00
  0.00000000E+00  0.00000000E+00  0.00000000E+00
  0.00000000E+00  0.00000000E+00  0.00000000E+00
  0.00000000E+00  0.00000000E+00  0.00000000E+00
  0.00000000E+00  0.00000000E+00  0.00000000E+00
  0.00000000E+00  0.00000000E+00  0.00000000E+00
  0.00000000E+00  0.00000000E+00  0.00000000E+00
  0.00000000E+00  0.00000000E+00  0.00000000E+00
  0.00000000E+00  0.00000000E+00  0.00000000E+00
  0.00000000E+00  0.00000000E+00  0.00000000E+00
  0.00000000E+00  0.00000000E+00  0.00000000E+00
  0.00000000E+00  0.00000000E+00  0.00000000E+00
  0.00000000E+00  0.00000000E+00  0.00000000E+00
  0.00000000E+00  0.00000000E+00  0.00000000E+00
  0.00000000E+00  0.00000000E+00  0.00000000E+00
