C  N  Ag                                
   1.00000000000000     
    12.3000000000000007    0.0000000000000000    0.0000000000000000
    -6.1499999999999977   10.6521124665485960    0.0000000000000000
     0.0000000000000000    0.0000000000000000   20.0000000000000000
   C    N    Ag
    44     4     1
Direct
  0.9994557028196823  0.0005443002155380  0.7437245124684400
  0.1318387242427974  0.0652556534853907  0.7436272434628003
  0.1985627991325484  0.9985154392365476  0.7436523306522449
  0.3312516798068100  0.0639433729492404  0.7464755845466676
  0.3987575174167784  0.9976887989083636  0.7479500137059560
  0.5313428526076243  0.0659508821394492  0.7503464695787139
  0.5992726670423945  0.0002850121429371  0.7496727491175937
  0.7321467016351110  0.0692225623758886  0.7495573254446908
  0.7995929237847740  0.0026049524650445  0.7474536621389160
  0.9322772693233029  0.0677227293149105  0.7459398525539375
  0.9973950433046166  0.2004070739555610  0.7474536658391159
  0.1309863535974580  0.2654288370584013  0.7478613906381711
  0.1972699903779037  0.1979138073818268  0.7464119800420236
  0.3293190002587890  0.2654687481632489  0.7518067748362720
  0.3987974748405502  0.1960031118105537  0.7518105524956872
  0.5929116861983621  0.2000493539952024  0.7544801625757112
  0.7288889199748264  0.2711110779723264  0.7541801590658347
  0.7962984398343269  0.2037015591261048  0.7510249050905280
  0.9307774363067010  0.2678532982202567  0.7495573288558717
  0.9997149885802206  0.4007273334392594  0.7496727522090598
  0.1336083391649113  0.4659541136012897  0.7496714800056923
  0.1992751956912546  0.3979971914253839  0.7502882846113454
  0.3334040848083614  0.4595588957225732  0.7544317979234656
  0.7999506451888969  0.4070883116153822  0.7544801610522016
  0.9340491173575808  0.4686571464022138  0.7503464706697990
  0.0023111990068246  0.6012424824240916  0.7479500135896415
  0.1359099307871597  0.6662640500128418  0.7474941531293477
  0.2025433924181242  0.5988235595044799  0.7495991239059950
  0.3370292367788958  0.6629707618778788  0.7510504233663653
  0.4044653317425699  0.5955346643366851  0.7541988710034937
  0.5404410999370470  0.6665959119041588  0.7544317961492845
  0.7345312513281969  0.6706809986622957  0.7518067784647005
  0.8039968901318442  0.6012025265589011  0.7518105539716445
  0.9360566295061619  0.6687483251378366  0.7464755899337165
  0.0014845665884964  0.8014372079071165  0.7436523384874595
  0.1338816408299427  0.8661183659076523  0.7437723770022153
  0.2010558648488534  0.7989441361418406  0.7460275440838119
  0.3337359499209145  0.8640900669721308  0.7474941553537724
  0.4011764410924953  0.7974566064452085  0.7495991254155968
  0.5340458872203313  0.8663916612417987  0.7496714766190600
  0.6020028057615138  0.8007248013506243  0.7502882794382941
  0.7345711602328666  0.8690136417577679  0.7478613890411602
  0.8020861930649643  0.8027300081651184  0.7464119858122630
  0.9347443485793777  0.8681612789436596  0.7436272519433965
  0.5242455963748119  0.2583743652137417  0.7581912070405794
  0.3917111111233195  0.3909046818643713  0.7581855559946490
  0.7416256362349037  0.4757544036476836  0.7581912016999751
  0.6090953170462826  0.6082888893684228  0.7581855590818196
  0.5666999661475481  0.4333000415310880  0.8221466398910428
 
  0.00000000E+00  0.00000000E+00  0.00000000E+00
  0.00000000E+00  0.00000000E+00  0.00000000E+00
  0.00000000E+00  0.00000000E+00  0.00000000E+00
  0.00000000E+00  0.00000000E+00  0.00000000E+00
  0.00000000E+00  0.00000000E+00  0.00000000E+00
  0.00000000E+00  0.00000000E+00  0.00000000E+00
  0.00000000E+00  0.00000000E+00  0.00000000E+00
  0.00000000E+00  0.00000000E+00  0.00000000E+00
  0.00000000E+00  0.00000000E+00  0.00000000E+00
  0.00000000E+00  0.00000000E+00  0.00000000E+00
  0.00000000E+00  0.00000000E+00  0.00000000E+00
  0.00000000E+00  0.00000000E+00  0.00000000E+00
  0.00000000E+00  0.00000000E+00  0.00000000E+00
  0.00000000E+00  0.00000000E+00  0.00000000E+00
  0.00000000E+00  0.00000000E+00  0.00000000E+00
  0.00000000E+00  0.00000000E+00  0.00000000E+00
  0.00000000E+00  0.00000000E+00  0.00000000E+00
  0.00000000E+00  0.00000000E+00  0.00000000E+00
  0.00000000E+00  0.00000000E+00  0.00000000E+00
  0.00000000E+00  0.00000000E+00  0.00000000E+00
  0.00000000E+00  0.00000000E+00  0.00000000E+00
  0.00000000E+00  0.00000000E+00  0.00000000E+00
  0.00000000E+00  0.00000000E+00  0.00000000E+00
  0.00000000E+00  0.00000000E+00  0.00000000E+00
  0.00000000E+00  0.00000000E+00  0.00000000E+00
  0.00000000E+00  0.00000000E+00  0.00000000E+00
  0.00000000E+00  0.00000000E+00  0.00000000E+00
  0.00000000E+00  0.00000000E+00  0.00000000E+00
  0.00000000E+00  0.00000000E+00  0.00000000E+00
  0.00000000E+00  0.00000000E+00  0.00000000E+00
  0.00000000E+00  0.00000000E+00  0.00000000E+00
  0.00000000E+00  0.00000000E+00  0.00000000E+00
  0.00000000E+00  0.00000000E+00  0.00000000E+00
  0.00000000E+00  0.00000000E+00  0.00000000E+00
  0.00000000E+00  0.00000000E+00  0.00000000E+00
  0.00000000E+00  0.00000000E+00  0.00000000E+00
  0.00000000E+00  0.00000000E+00  0.00000000E+00
  0.00000000E+00  0.00000000E+00  0.00000000E+00
  0.00000000E+00  0.00000000E+00  0.00000000E+00
  0.00000000E+00  0.00000000E+00  0.00000000E+00
  0.00000000E+00  0.00000000E+00  0.00000000E+00
  0.00000000E+00  0.00000000E+00  0.00000000E+00
  0.00000000E+00  0.00000000E+00  0.00000000E+00
  0.00000000E+00  0.00000000E+00  0.00000000E+00
  0.00000000E+00  0.00000000E+00  0.00000000E+00
  0.00000000E+00  0.00000000E+00  0.00000000E+00
  0.00000000E+00  0.00000000E+00  0.00000000E+00
  0.00000000E+00  0.00000000E+00  0.00000000E+00
  0.00000000E+00  0.00000000E+00  0.00000000E+00
