       N       E                     dE             d eps       ncg     rms          rms(c)
DAV:   1     0.121156848016E+04    0.12116E+04   -0.85409E+04  4096   0.594E+02
DAV:   2    -0.395197128287E+03   -0.16068E+04   -0.16055E+04  6144   0.118E+02
DAV:   3    -0.470283899265E+03   -0.75087E+02   -0.74867E+02  7424   0.376E+01
DAV:   4    -0.470480966475E+03   -0.19707E+00   -0.19680E+00  5632   0.186E+00
DAV:   5    -0.470481173130E+03   -0.20666E-03   -0.20666E-03  7168   0.716E-02    0.332E+01
DAV:   6    -0.452024456591E+03    0.18457E+02   -0.38524E+02  6912   0.163E+01    0.239E+01
DAV:   7    -0.443156053129E+03    0.88684E+01   -0.17508E+01  8192   0.101E+01    0.115E+01
DAV:   8    -0.437774444598E+03    0.53816E+01   -0.17928E+01  6144   0.128E+01    0.451E+00
DAV:   9    -0.437500256672E+03    0.27419E+00   -0.16559E+00  8192   0.178E+00    0.277E+00
DAV:  10    -0.437584514125E+03   -0.84257E-01   -0.12284E+00  7168   0.217E+00    0.965E-01
DAV:  11    -0.437569766454E+03    0.14748E-01   -0.62785E-02  5632   0.330E-01    0.681E-01
DAV:  12    -0.437566149205E+03    0.36172E-02   -0.15658E-01  7936   0.895E-01    0.354E-01
DAV:  13    -0.437576564533E+03   -0.10415E-01   -0.12890E-02  8192   0.140E-01    0.262E-01
DAV:  14    -0.437583391236E+03   -0.68267E-02   -0.20382E-02  7680   0.275E-01    0.147E-01
DAV:  15    -0.437589291003E+03   -0.58998E-02   -0.67990E-03  7424   0.895E-02    0.100E-01
DAV:  16    -0.437599363235E+03   -0.10072E-01   -0.26369E-03  7680   0.455E-02    0.527E-02
DAV:  17    -0.437609094351E+03   -0.97311E-02   -0.89737E-04  7680   0.274E-02    0.302E-02
DAV:  18    -0.437614897942E+03   -0.58036E-02   -0.49596E-04  7936   0.234E-02    0.170E-02
DAV:  19    -0.437617998894E+03   -0.31010E-02   -0.24592E-04  7680   0.133E-02    0.112E-02
DAV:  20    -0.437619602929E+03   -0.16040E-02   -0.14282E-04  5120   0.869E-03    0.555E-03
DAV:  21    -0.437620300772E+03   -0.69784E-03   -0.43836E-05  5120   0.488E-03    0.333E-03
DAV:  22    -0.437620526232E+03   -0.22546E-03   -0.13100E-05  5120   0.370E-03    0.207E-03
DAV:  23    -0.437620662508E+03   -0.13628E-03   -0.90626E-06  6912   0.190E-03    0.182E-03
DAV:  24    -0.437620738187E+03   -0.75680E-04   -0.46142E-06  7168   0.252E-03    0.882E-04
DAV:  25    -0.437620772013E+03   -0.33826E-04   -0.89023E-07  7168   0.685E-04    0.635E-04
DAV:  26    -0.437620792556E+03   -0.20543E-04   -0.28581E-07  5120   0.727E-04    0.344E-04
DAV:  27    -0.437620805180E+03   -0.12624E-04   -0.25470E-07  7168   0.404E-04    0.203E-04
DAV:  28    -0.437620808259E+03   -0.30792E-05   -0.73099E-08  7424   0.238E-04
   1 F= -.43942953E+03 E0= -.43942365E+03  d E =-.439430E+03  mag=     0.0002
       N       E                     dE             d eps       ncg     rms          rms(c)
DAV:   1    -0.437620982780E+03   -0.17760E-03   -0.15269E-02  5376   0.177E-01    0.218E-02
DAV:   2    -0.437620978428E+03    0.43518E-05   -0.11256E-04  7424   0.187E-02    0.121E-02
DAV:   3    -0.437620978360E+03    0.68394E-07   -0.12240E-05  6144   0.501E-03
   2 F= -.43942972E+03 E0= -.43942385E+03  d E =-.187067E-03  mag=     0.0001
       N       E                     dE             d eps       ncg     rms          rms(c)
DAV:   1    -0.437621097097E+03   -0.11867E-03   -0.53903E-03  6400   0.103E-01    0.129E-02
DAV:   2    -0.437621094747E+03    0.23507E-05   -0.27863E-05  6144   0.922E-03
   3 F= -.43942984E+03 E0= -.43942396E+03  d E =-.115295E-03  mag=     0.0001
       N       E                     dE             d eps       ncg     rms          rms(c)
DAV:   1    -0.437621101869E+03   -0.47718E-05   -0.13553E-05  7680   0.552E-03    0.194E-03
DAV:   2    -0.437621102086E+03   -0.21733E-06   -0.19428E-07  4608   0.756E-04
   4 F= -.43942984E+03 E0= -.43942397E+03  d E =-.759910E-05  mag=     0.0001
       N       E                     dE             d eps       ncg     rms          rms(c)
DAV:   1    -0.437621390349E+03   -0.28848E-03   -0.58721E-02  4096   0.325E-01    0.374E-02
DAV:   2    -0.437621378729E+03    0.11620E-04   -0.30847E-04  6912   0.303E-02    0.210E-02
DAV:   3    -0.437621377665E+03    0.10634E-05   -0.44892E-05  6656   0.917E-03
   5 F= -.43943015E+03 E0= -.43942429E+03  d E =-.305932E-03  mag=     0.0000
       N       E                     dE             d eps       ncg     rms          rms(c)
DAV:   1    -0.437621691700E+03   -0.31297E-03   -0.58766E-02  4096   0.321E-01    0.368E-02
DAV:   2    -0.437621681027E+03    0.10673E-04   -0.26651E-04  7936   0.281E-02    0.204E-02
DAV:   3    -0.437621682314E+03   -0.12862E-05   -0.38182E-05  7680   0.822E-03
   6 F= -.43943049E+03 E0= -.43942463E+03  d E =-.338585E-03  mag=     0.0000
       N       E                     dE             d eps       ncg     rms          rms(c)
DAV:   1    -0.437621929506E+03   -0.24848E-03   -0.37967E-02  4096   0.257E-01    0.293E-02
DAV:   2    -0.437621923199E+03    0.63067E-05   -0.16810E-04  7168   0.223E-02    0.163E-02
DAV:   3    -0.437621924934E+03   -0.17342E-05   -0.24097E-05  7680   0.656E-03
   7 F= -.43943076E+03 E0= -.43942490E+03  d E =-.267550E-03  mag=     0.0000
       N       E                     dE             d eps       ncg     rms          rms(c)
DAV:   1    -0.437622347152E+03   -0.42395E-03   -0.10370E-01  4096   0.428E-01    0.490E-02
DAV:   2    -0.437622327274E+03    0.19878E-04   -0.45722E-04  7680   0.368E-02    0.269E-02
DAV:   3    -0.437622327627E+03   -0.35267E-06   -0.69334E-05  7168   0.111E-02
   8 F= -.43943120E+03 E0= -.43942535E+03  d E =-.441500E-03  mag=     0.0000
       N       E                     dE             d eps       ncg     rms          rms(c)
DAV:   1    -0.437622697259E+03   -0.36998E-03   -0.81415E-02  4096   0.380E-01    0.441E-02
DAV:   2    -0.437622682673E+03    0.14586E-04   -0.36188E-04  7680   0.328E-02    0.243E-02
DAV:   3    -0.437622684455E+03   -0.17828E-05   -0.54520E-05  7680   0.983E-03
   9 F= -.43943159E+03 E0= -.43942574E+03  d E =-.390177E-03  mag=     0.0000
       N       E                     dE             d eps       ncg     rms          rms(c)
DAV:   1    -0.437622933478E+03   -0.25081E-03   -0.37465E-02  4096   0.260E-01    0.304E-02
DAV:   2    -0.437622926582E+03    0.68963E-05   -0.17235E-04  7680   0.227E-02    0.169E-02
DAV:   3    -0.437622928735E+03   -0.21532E-05   -0.25582E-05  7680   0.675E-03
  10 F= -.43943185E+03 E0= -.43942601E+03  d E =-.265144E-03  mag=     0.0000
       N       E                     dE             d eps       ncg     rms          rms(c)
DAV:   1    -0.437623089097E+03   -0.16251E-03   -0.14409E-02  5120   0.163E-01    0.194E-02
DAV:   2    -0.437623084789E+03    0.43076E-05   -0.60477E-05  7680   0.135E-02
  11 F= -.43943202E+03 E0= -.43942618E+03  d E =-.166514E-03  mag=     0.0000
       N       E                     dE             d eps       ncg     rms          rms(c)
DAV:   1    -0.437621373837E+03    0.17153E-02   -0.63408E+00  4096   0.341E+00    0.399E-01
DAV:   2    -0.437620003727E+03    0.13701E-02   -0.27758E-02  7680   0.287E-01    0.213E-01
DAV:   3    -0.437619554513E+03    0.44921E-03   -0.46208E-03  6656   0.909E-02    0.397E-02
DAV:   4    -0.437619588657E+03   -0.34143E-04   -0.27989E-04  7680   0.281E-02    0.205E-02
DAV:   5    -0.437619605306E+03   -0.16649E-04   -0.33226E-05  7936   0.741E-03    0.490E-03
DAV:   6    -0.437619607934E+03   -0.26281E-05   -0.21890E-06  7168   0.308E-03
  12 F= -.43942831E+03 E0= -.43942243E+03  d E =0.370832E-02  mag=     0.0000
       N       E                     dE             d eps       ncg     rms          rms(c)
DAV:   1    -0.437619991053E+03   -0.38575E-03   -0.70104E-02  4096   0.345E-01    0.385E-02
DAV:   2    -0.437619981017E+03    0.10036E-04   -0.32746E-04  8192   0.310E-02    0.213E-02
DAV:   3    -0.437619980352E+03    0.66546E-06   -0.45711E-05  6400   0.903E-03
  13 F= -.43942873E+03 E0= -.43942285E+03  d E =-.416634E-03  mag=     0.0000
       N       E                     dE             d eps       ncg     rms          rms(c)
DAV:   1    -0.437619113549E+03    0.86747E-03   -0.38335E-01  4096   0.854E-01    0.102E-01
DAV:   2    -0.437619004346E+03    0.10920E-03   -0.17972E-03  7936   0.736E-02    0.542E-02
DAV:   3    -0.437618987244E+03    0.17102E-04   -0.31522E-04  7936   0.233E-02    0.986E-03
DAV:   4    -0.437618989884E+03   -0.26400E-05   -0.17833E-05  6144   0.712E-03
  14 F= -.43942770E+03 E0= -.43942182E+03  d E =0.102327E-02  mag=     0.0000
       N       E                     dE             d eps       ncg     rms          rms(c)
DAV:   1    -0.437620001546E+03   -0.10143E-02   -0.32096E-01  4096   0.784E-01    0.931E-02
DAV:   2    -0.437619916371E+03    0.85175E-04   -0.15615E-03  8192   0.685E-02    0.501E-02
DAV:   3    -0.437619903444E+03    0.12927E-04   -0.26445E-04  5120   0.214E-02    0.911E-03
DAV:   4    -0.437619905834E+03   -0.23902E-05   -0.22132E-05  7680   0.810E-03
  15 F= -.43942865E+03 E0= -.43942276E+03  d E =-.940357E-03  mag=     0.0000
       N       E                     dE             d eps       ncg     rms          rms(c)
DAV:   1    -0.437627068537E+03   -0.71651E-02   -0.87590E+00  4096   0.410E+00    0.494E-01
DAV:   2    -0.437624820953E+03    0.22476E-02   -0.39877E-02  8192   0.344E-01    0.263E-01
DAV:   3    -0.437624150120E+03    0.67083E-03   -0.69938E-03  5632   0.109E-01    0.490E-02
DAV:   4    -0.437624190074E+03   -0.39954E-04   -0.50468E-04  7680   0.365E-02    0.251E-02
DAV:   5    -0.437624218453E+03   -0.28379E-04   -0.59259E-05  7680   0.124E-02    0.712E-03
DAV:   6    -0.437624220121E+03   -0.16679E-05   -0.21007E-05  6912   0.965E-03
  16 F= -.43943310E+03 E0= -.43942724E+03  d E =-.445016E-02  mag=     0.0000
