C  N  Ag
 1.0000000000000000
    12.3000000000000007    0.0000000000000000    0.0000000000000000
    -6.1499999999999977   10.6521124665485960    0.0000000000000000
     0.0000000000000000    0.0000000000000000   20.0000000000000000
 C   N   Ag 
  44   4   1
Direct
  0.9994170000000000  0.0005830000000000  0.7441750000000003
  0.1317880000000000  0.0652230000000000  0.7440730000000002
  0.1985280000000000  0.9984900000000000  0.7441400000000000
  0.3312140000000001  0.0638950000000000  0.7466840000000001
  0.3987370000000000  0.9976480000000000  0.7480810000000000
  0.5313340000000000  0.0659300000000000  0.7502780000000000
  0.5992700000000000  0.0002770000000000  0.7496550000000000
  0.7321380000000000  0.0692300000000000  0.7495600000000000
  0.7995770000000001  0.0026080000000000  0.7476460000000000
  0.9322500000000000  0.0677500000000000  0.7462560000000000
  0.9973919999999999  0.2004230000000000  0.7476460000000000
  0.1309790000000000  0.2654050000000000  0.7479789999999999
  0.1972350000000000  0.1978780000000000  0.7466050000000000
  0.3293250000000000  0.2654640000000000  0.7516520000000000
  0.3987940000000000  0.1960030000000000  0.7516720000000001
  0.5929060000000000  0.2000590000000000  0.7541580000000000
  0.7288720000000000  0.2711280000000000  0.7538710000000002
  0.7962860000000002  0.2037140000000000  0.7509090000000000
  0.9307700000000000  0.2678620000000000  0.7495600000000000
  0.9997230000000000  0.4007300000000000  0.7496550000000000
  0.1336080000000001  0.4659420000000001  0.7496520000000002
  0.1992609999999999  0.3979770000000000  0.7502040000000001
  0.3334059999999999  0.4595460000000000  0.7541070000000000
  0.7999410000000001  0.4070940000000001  0.7541580000000000
  0.9340700000000000  0.4686660000000000  0.7502780000000000
  0.0023520000000000  0.6012630000000000  0.7480810000000000
  0.1359340000000000  0.6662680000000000  0.7476920000000000
  0.2025570000000000  0.5988120000000000  0.7495960000000000
  0.3370460000000001  0.6629540000000000  0.7509310000000000
  0.4044830000000000  0.5955170000000000  0.7538760000000000
  0.5404540000000000  0.6665940000000000  0.7541070000000000
  0.7345360000000000  0.6706750000000000  0.7516520000000000
  0.8039970000000000  0.6012060000000000  0.7516720000000001
  0.9361050000000001  0.6687860000000000  0.7466840000000001
  0.0015099999999999  0.8014719999999999  0.7441400000000000
  0.1338840000000001  0.8661160000000001  0.7443130000000000
  0.2010540000000001  0.7989460000000002  0.7463490000000000
  0.3337320000000000  0.8640660000000000  0.7476920000000000
  0.4011880000000000  0.7974430000000001  0.7495960000000000
  0.5340579999999999  0.8663919999999999  0.7496520000000002
  0.6020230000000000  0.8007390000000000  0.7502040000000001
  0.7345950000000000  0.8690210000000002  0.7479789999999999
  0.8021220000000001  0.8027650000000000  0.7466050000000000
  0.9347770000000001  0.8682120000000001  0.7440730000000002
  0.5242670000000000  0.2583860000000000  0.7577370000000001
  0.3917250000000000  0.3909250000000000  0.7577400000000001
  0.7416140000000001  0.4757330000000000  0.7577370000000001
  0.6090750000000000  0.6082750000000000  0.7577400000000001
  0.5666840000000001  0.4333160000000000  0.8214990000000001
