C  N  Os                                
   1.00000000000000     
    12.3000000000000007    0.0000000000000000    0.0000000000000000
    -6.1499999999999977   10.6521124665485960    0.0000000000000000
     0.0000000000000000    0.0000000000000000   20.0000000000000000
   C    N    Os
    44     4     1
Direct
  0.9989251996691806  0.0010749656666533  0.7433325036924359
  0.1304381569340549  0.0637019102351033  0.7438340914934543
  0.1970300181509046  0.9970817856486747  0.7437547820447463
  0.3290232164430194  0.0610606700088994  0.7477981443396899
  0.3982205636703995  0.9964279365732693  0.7486752120208635
  0.5309598884897184  0.0666143079000534  0.7513053790352515
  0.5990146836872938  0.0004715340265733  0.7503323299041469
  0.7318585535860436  0.0699680162266532  0.7498894694377825
  0.7992679509044365  0.0031322257064801  0.7476591848154328
  0.9319386106609713  0.0680622059825993  0.7457450603230455
  0.9968672426639245  0.2007306803209659  0.7476597619296399
  0.1297623552410201  0.2648828868551334  0.7488857631450756
  0.1944128796243376  0.1956824662711227  0.7479481675845818
  0.3237868183844768  0.2578023950580075  0.7537520620344083
  0.3910664321067472  0.1904160627363325  0.7537174750927633
  0.5926892174278038  0.2003416910104363  0.7556549033312265
  0.7279569641870225  0.2720425600565193  0.7550978489639917
  0.7958692397565130  0.2041311434627175  0.7513519396507746
  0.9300324064260721  0.2681416955000486  0.7498894323433234
  0.9995282393979963  0.4009849486292509  0.7503312572383081
  0.1337818078356250  0.4656886577150203  0.7503253002293633
  0.1999303251410822  0.3976303051023464  0.7514051215676076
  0.3336845796275867  0.4593795465199406  0.7557363474585799
  0.7996577223431842  0.4073103127566355  0.7556548131747647
  0.9333856022856892  0.4690399776405840  0.7513042151406992
  0.0035703936050595  0.6017785528012922  0.7486745673332322
  0.1364517340214491  0.6659358182375996  0.7473841924668676
  0.2032837470228799  0.5985373359826696  0.7497461091775435
  0.3374356021083571  0.6625639811936779  0.7512857858677222
  0.4053577977122842  0.5946424756622335  0.7551630158095577
  0.5406208889132316  0.6663158692869686  0.7557365861895846
  0.7421980855859189  0.6762138130653170  0.7537527096298646
  0.8095839680246684  0.6089336654341864  0.7537181503284671
  0.9389398536389919  0.6709773008234237  0.7477985807667054
  0.0029182591842769  0.8029699636639833  0.7437550692312627
  0.1344322447591111  0.8655681412580165  0.7431574884851173
  0.2014106494752141  0.7985882221624792  0.7454604456934817
  0.3340634358602941  0.8635474290067009  0.7473849910461752
  0.4014622674373882  0.7967156601639473  0.7497468553442772
  0.5343115670806071  0.8662186107131546  0.7503264521692117
  0.6023700768431510  0.8000702531773385  0.7514062627172962
  0.7351173607931401  0.8702381553261844  0.7488866935724587
  0.8043180128977312  0.8055873636834647  0.7479489405375830
  0.9362985311897489  0.8695622132239222  0.7438340984616900
  0.5202091048792710  0.2578118842062693  0.7608692798465597
  0.3911002409461872  0.3868980390188526  0.7609209358231723
  0.7421884611769585  0.4797912722365965  0.7608696413747325
  0.6131024501542512  0.6089002235527019  0.7609213235069987
  0.5667565920447259  0.4332438685090025  0.7712112586285045
 
  0.00000000E+00  0.00000000E+00  0.00000000E+00
  0.00000000E+00  0.00000000E+00  0.00000000E+00
  0.00000000E+00  0.00000000E+00  0.00000000E+00
  0.00000000E+00  0.00000000E+00  0.00000000E+00
  0.00000000E+00  0.00000000E+00  0.00000000E+00
  0.00000000E+00  0.00000000E+00  0.00000000E+00
  0.00000000E+00  0.00000000E+00  0.00000000E+00
  0.00000000E+00  0.00000000E+00  0.00000000E+00
  0.00000000E+00  0.00000000E+00  0.00000000E+00
  0.00000000E+00  0.00000000E+00  0.00000000E+00
  0.00000000E+00  0.00000000E+00  0.00000000E+00
  0.00000000E+00  0.00000000E+00  0.00000000E+00
  0.00000000E+00  0.00000000E+00  0.00000000E+00
  0.00000000E+00  0.00000000E+00  0.00000000E+00
  0.00000000E+00  0.00000000E+00  0.00000000E+00
  0.00000000E+00  0.00000000E+00  0.00000000E+00
  0.00000000E+00  0.00000000E+00  0.00000000E+00
  0.00000000E+00  0.00000000E+00  0.00000000E+00
  0.00000000E+00  0.00000000E+00  0.00000000E+00
  0.00000000E+00  0.00000000E+00  0.00000000E+00
  0.00000000E+00  0.00000000E+00  0.00000000E+00
  0.00000000E+00  0.00000000E+00  0.00000000E+00
  0.00000000E+00  0.00000000E+00  0.00000000E+00
  0.00000000E+00  0.00000000E+00  0.00000000E+00
  0.00000000E+00  0.00000000E+00  0.00000000E+00
  0.00000000E+00  0.00000000E+00  0.00000000E+00
  0.00000000E+00  0.00000000E+00  0.00000000E+00
  0.00000000E+00  0.00000000E+00  0.00000000E+00
  0.00000000E+00  0.00000000E+00  0.00000000E+00
  0.00000000E+00  0.00000000E+00  0.00000000E+00
  0.00000000E+00  0.00000000E+00  0.00000000E+00
  0.00000000E+00  0.00000000E+00  0.00000000E+00
  0.00000000E+00  0.00000000E+00  0.00000000E+00
  0.00000000E+00  0.00000000E+00  0.00000000E+00
  0.00000000E+00  0.00000000E+00  0.00000000E+00
  0.00000000E+00  0.00000000E+00  0.00000000E+00
  0.00000000E+00  0.00000000E+00  0.00000000E+00
  0.00000000E+00  0.00000000E+00  0.00000000E+00
  0.00000000E+00  0.00000000E+00  0.00000000E+00
  0.00000000E+00  0.00000000E+00  0.00000000E+00
  0.00000000E+00  0.00000000E+00  0.00000000E+00
  0.00000000E+00  0.00000000E+00  0.00000000E+00
  0.00000000E+00  0.00000000E+00  0.00000000E+00
  0.00000000E+00  0.00000000E+00  0.00000000E+00
  0.00000000E+00  0.00000000E+00  0.00000000E+00
  0.00000000E+00  0.00000000E+00  0.00000000E+00
  0.00000000E+00  0.00000000E+00  0.00000000E+00
  0.00000000E+00  0.00000000E+00  0.00000000E+00
  0.00000000E+00  0.00000000E+00  0.00000000E+00
