       N       E                     dE             d eps       ncg     rms          ort
SDA:   1    -0.337489159533E+03   -0.33749E+03    0.00000E+00  3328   0.137E+03 0.000E+00
CGA:   2    -0.400070258066E+03   -0.62581E+02   -0.73431E+02  3328   0.267E+03-0.126E+02
CGA:   3    -0.423524324208E+03   -0.23454E+02   -0.26935E+02  3328   0.470E+02-0.861E+01
CGA:   4    -0.434182636035E+03   -0.10658E+02   -0.10651E+02  3328   0.400E+02 0.361E+00
CGA:   5    -0.440799053366E+03   -0.66164E+01   -0.65843E+01  3328   0.115E+02-0.185E+00
CGA:   6    -0.443716828359E+03   -0.29178E+01   -0.29198E+01  3328   0.785E+01-0.861E-01
CGA:   7    -0.444774906741E+03   -0.10581E+01   -0.11090E+01  3328   0.253E+01 0.459E-01
CGA:   8    -0.445467171774E+03   -0.69227E+00   -0.69400E+00  3328   0.100E+01-0.158E-01
CGA:   9    -0.445646000081E+03   -0.17883E+00   -0.17945E+00  3328   0.544E+00 0.516E-02
CGA:  10    -0.445770164197E+03   -0.12416E+00   -0.12407E+00  3328   0.159E+00 0.321E-02
CGA:  11    -0.445814703194E+03   -0.44539E-01   -0.44527E-01  3328   0.120E+00 0.233E-03
CGA:  12    -0.445836380464E+03   -0.21677E-01   -0.21715E-01  3328   0.404E-01 0.322E-03
CGA:  13    -0.445850352219E+03   -0.13972E-01   -0.13984E-01  3328   0.198E-01-0.108E-03
CGA:  14    -0.445854299718E+03   -0.39475E-02   -0.39440E-02  3328   0.117E-01-0.886E-04
CGA:  15    -0.445857295014E+03   -0.29953E-02   -0.29938E-02  3328   0.329E-02 0.260E-04
CGA:  16    -0.445858386049E+03   -0.10910E-02   -0.10890E-02  3328   0.288E-02 0.155E-04
CGA:  17    -0.445858940798E+03   -0.55475E-03   -0.55378E-03  3328   0.115E-02-0.158E-04
CGA:  18    -0.445859466800E+03   -0.52600E-03   -0.52618E-03  3328   0.805E-03-0.115E-05
CGA:  19    -0.445859701357E+03   -0.23456E-03   -0.23387E-03  3328   0.901E-03 0.935E-05
CGA:  20    -0.445859974584E+03   -0.27323E-03   -0.27418E-03  3328   0.425E-03-0.116E-04
CGA:  21    -0.445860232621E+03   -0.25804E-03   -0.25782E-03  3328   0.468E-03 0.117E-05
CGA:  22    -0.445860406876E+03   -0.17426E-03   -0.17286E-03  3328   0.789E-03 0.119E-04
CGA:  23    -0.445860778149E+03   -0.37127E-03   -0.37236E-03  3328   0.913E-03-0.321E-05
CGA:  24    -0.444473675661E+03    0.13871E+01   -0.11891E-02  3328   0.497E+00-0.595E-01
CGA:  25    -0.445106397241E+03   -0.63272E+00    0.85962E-01  3328   0.137E+01-0.497E+00
CGA:  26    -0.445704494548E+03   -0.59810E+00   -0.32187E+00  3328   0.146E+01-0.132E+01
CGA:  27    -0.445861590700E+03   -0.15710E+00   -0.14117E+00  3328   0.134E-01 0.135E+00
CGA:  28    -0.445863129155E+03   -0.15385E-02   -0.15247E-02  3328   0.131E-02 0.731E-04
CGA:  29    -0.445863726507E+03   -0.59735E-03   -0.59599E-03  3328   0.483E-03 0.857E-05
CGA:  30    -0.445863874423E+03   -0.14792E-03   -0.14793E-03  3328   0.611E-03 0.298E-05
CGA:  31    -0.445864070696E+03   -0.19627E-03   -0.19632E-03  3328   0.256E-03-0.464E-05
CGA:  32    -0.445864226432E+03   -0.15574E-03   -0.15645E-03  3328   0.274E-03-0.225E-05
CGA:  33    -0.445864303721E+03   -0.77288E-04   -0.77345E-04  3328   0.321E-03 0.252E-05
CGA:  34    -0.445864441143E+03   -0.13742E-03   -0.13728E-03  3328   0.154E-03 0.158E-05
CGA:  35    -0.445864524157E+03   -0.83014E-04   -0.83023E-04  3328   0.148E-03-0.414E-07
CGA:  36    -0.445864547981E+03   -0.23824E-04   -0.24049E-04  3328   0.419E-04 0.155E-05
CGA:  37    -0.445864566831E+03   -0.18850E-04   -0.18786E-04  3328   0.147E-04 0.557E-06
CGA:  38    -0.445864570832E+03   -0.40013E-05   -0.39821E-05  3328   0.146E-04-0.282E-06
   1 F= -.44772611E+03 E0= -.44771957E+03  d E =-.130681E-01  mag=     0.0178
