       N       E                     dE             d eps       ncg     rms          ort
DAV:   1     0.993738120234E+03    0.99374E+03   -0.89195E+04  3328   0.679E+02
DAV:   2    -0.361852521493E+03   -0.13556E+04   -0.13551E+04  3328   0.980E+01
DAV:   3    -0.437825522727E+03   -0.75973E+02   -0.75972E+02  3328   0.361E+01
DAV:   4    -0.438793013975E+03   -0.96749E+00   -0.96747E+00  3328   0.469E+00
DAV:   5    -0.438793143422E+03   -0.12945E-03   -0.12945E-03  3328   0.657E-02
SDA:   6    -0.438793143422E+03    0.72760E-11   -0.12945E-03  3328   0.239E-05 0.000E+00
   1 F= -.44062560E+03 E0= -.44062340E+03  d E =-.440395E-02  mag=     0.0000
