       N       E                     dE             d eps       ncg     rms          ort
SDA:   1    -0.335353355589E+03   -0.33535E+03    0.00000E+00  3328   0.126E+03 0.000E+00
CGA:   2    -0.409599423650E+03   -0.74246E+02   -0.91051E+02  3328   0.795E+02-0.292E+02
CGA:   3    -0.425546494355E+03   -0.15947E+02   -0.16086E+02  3328   0.361E+02-0.232E+01
CGA:   4    -0.433288304857E+03   -0.77418E+01   -0.77413E+01  3328   0.250E+02-0.147E+00
CGA:   5    -0.437269949704E+03   -0.39816E+01   -0.40631E+01  3328   0.834E+01-0.213E+00
CGA:   6    -0.439275638471E+03   -0.20057E+01   -0.20000E+01  3328   0.330E+01 0.198E+00
CGA:   7    -0.440008057433E+03   -0.73242E+00   -0.73290E+00  3328   0.148E+01 0.284E-01
CGA:   8    -0.440326095914E+03   -0.31804E+00   -0.31874E+00  3328   0.486E+00 0.314E-01
CGA:   9    -0.440477616721E+03   -0.15152E+00   -0.15157E+00  3328   0.161E+00-0.409E-03
CGA:  10    -0.440535674221E+03   -0.58057E-01   -0.58101E-01  3328   0.588E-01-0.270E-03
CGA:  11    -0.440557876793E+03   -0.22203E-01   -0.22200E-01  3328   0.205E-01 0.428E-05
CGA:  12    -0.440565204145E+03   -0.73274E-02   -0.73336E-02  3328   0.635E-02-0.505E-04
CGA:  13    -0.440567344242E+03   -0.21401E-02   -0.21411E-02  3328   0.239E-02-0.910E-05
CGA:  14    -0.440567953530E+03   -0.60929E-03   -0.60931E-03  3328   0.115E-02-0.758E-05
CGA:  15    -0.440568262966E+03   -0.30944E-03   -0.30947E-03  3328   0.376E-03-0.205E-05
CGA:  16    -0.440568410936E+03   -0.14797E-03   -0.14858E-03  3328   0.143E-03-0.431E-05
CGA:  17    -0.440568467888E+03   -0.56952E-04   -0.57132E-04  3328   0.500E-04-0.123E-05
CGA:  18    -0.440568486282E+03   -0.18393E-04   -0.18495E-04  3328   0.205E-04-0.946E-06
CGA:  19    -0.440568491363E+03   -0.50816E-05   -0.50837E-05  3328   0.956E-05 0.987E-07
   1 F= -.44233565E+03 E0= -.44233081E+03  d E =-.967671E-02  mag=    -1.0214
