       N       E                     dE             d eps       ncg     rms          ort
DAV:   1     0.969472551529E+03    0.96947E+03   -0.86909E+04  3328   0.666E+02
DAV:   2    -0.361811830444E+03   -0.13313E+04   -0.13308E+04  3328   0.946E+01
DAV:   3    -0.437493139013E+03   -0.75681E+02   -0.75680E+02  3328   0.357E+01
DAV:   4    -0.438454943190E+03   -0.96180E+00   -0.96179E+00  3328   0.455E+00
DAV:   5    -0.438455092959E+03   -0.14977E-03   -0.14977E-03  3328   0.661E-02
SDA:   6    -0.438455092959E+03    0.00000E+00   -0.14977E-03  3328   0.303E-05 0.000E+00
   1 F= -.44023536E+03 E0= -.44023317E+03  d E =-.438138E-02  mag=     0.0000
