C  N  Rb                                
   1.00000000000000     
    12.3000000000000007    0.0000000000000000    0.0000000000000000
    -6.1499999999999977   10.6521124665485960    0.0000000000000000
     0.0000000000000000    0.0000000000000000   20.0000000000000000
   C    N    Rb
    44     4     1
Direct
  0.9995485447832735  0.0004514844281687  0.7419712046942877
  0.1322038248055435  0.0656126215135444  0.7421859807865872
  0.1988984890544288  0.9988949752344780  0.7421620637243791
  0.3318507817767085  0.0648911561486685  0.7448463736585182
  0.3988630407487790  0.9981404907376756  0.7455855657252783
  0.5315352930001325  0.0662360648701394  0.7476943250475969
  0.5993378344703615  0.0002815954961974  0.7470382061485594
  0.7322572825905311  0.0689346468933039  0.7472531804828364
  0.7996634513914032  0.0022601565518485  0.7452026063547521
  0.9324141473810528  0.0675858637273308  0.7439087367985948
  0.9977398299338489  0.2003365557820587  0.7452026119843040
  0.1315051726125276  0.2655736900389556  0.7456157096458895
  0.1982010718566087  0.1985170632822744  0.7449737241429091
  0.3309631600271814  0.2671381900373220  0.7504854308809499
  0.4004818819437546  0.1976194689921797  0.7504274092819472
  0.5929485522731781  0.2004012099880157  0.7523907697163850
  0.7291618982991750  0.2708380970602065  0.7527166791112663
  0.7965058694562472  0.2034941194410820  0.7490688594908050
  0.9310653368446182  0.2677427216316488  0.7472531823386390
  0.9997183790671542  0.4006621716848713  0.7470382037540020
  0.1336504061764074  0.4660333214421470  0.7469966627498579
  0.1995767815772496  0.3982159146075119  0.7476398652649792
  0.3337532739038593  0.4595933159686609  0.7524085837767132
  0.7995987753080200  0.4070514473979685  0.7523907679558661
  0.9337639183532431  0.4684647199711449  0.7476943221166366
  0.0018594996891110  0.6011369766907819  0.7455855475073676
  0.1356047410182910  0.6663249333332786  0.7451922731619902
  0.2022993144382568  0.5989499633521760  0.7471520227004476
  0.3368500185518215  0.6631499678348476  0.7490189004875134
  0.4041859067697899  0.5958140830110494  0.7526934683951509
  0.5404066784199060  0.6662467035639210  0.7524085795888737
  0.7328618081171783  0.6690368293286539  0.7504854182736693
  0.8023805258603431  0.5995181182189171  0.7504273997849893
  0.9351088450760017  0.6681492416363781  0.7448463602907722
  0.0011050538950883  0.8011015441339850  0.7421620516948622
  0.1337552070573480  0.8662448266144551  0.7420492443496514
  0.2009069624497428  0.7990930526507114  0.7439847132117308
  0.3336750785284792  0.8643952517762159  0.7451922918314082
  0.4010500391254368  0.7977006685795089  0.7471520308292128
  0.5339666818359134  0.8663495667706442  0.7469966655361446
  0.6017840916489305  0.8004231950816632  0.7476398615541271
  0.7344263202513019  0.8684948113794349  0.7456157012214391
  0.8014829541524051  0.8017989237106349  0.7449737084987547
  0.9343874086957555  0.8677962043341267  0.7421859722896471
  0.5258995446309314  0.2602904959564967  0.7566368208632994
  0.3936049996623581  0.3925432312378234  0.7566605740394365
  0.7397094869241627  0.4741004510254001  0.7566368120006430
  0.6074567626723777  0.6063949775096376  0.7566605617411213
  0.5666170728938269  0.4333829193418310  0.8584929945152311
 
  0.00000000E+00  0.00000000E+00  0.00000000E+00
  0.00000000E+00  0.00000000E+00  0.00000000E+00
  0.00000000E+00  0.00000000E+00  0.00000000E+00
  0.00000000E+00  0.00000000E+00  0.00000000E+00
  0.00000000E+00  0.00000000E+00  0.00000000E+00
  0.00000000E+00  0.00000000E+00  0.00000000E+00
  0.00000000E+00  0.00000000E+00  0.00000000E+00
  0.00000000E+00  0.00000000E+00  0.00000000E+00
  0.00000000E+00  0.00000000E+00  0.00000000E+00
  0.00000000E+00  0.00000000E+00  0.00000000E+00
  0.00000000E+00  0.00000000E+00  0.00000000E+00
  0.00000000E+00  0.00000000E+00  0.00000000E+00
  0.00000000E+00  0.00000000E+00  0.00000000E+00
  0.00000000E+00  0.00000000E+00  0.00000000E+00
  0.00000000E+00  0.00000000E+00  0.00000000E+00
  0.00000000E+00  0.00000000E+00  0.00000000E+00
  0.00000000E+00  0.00000000E+00  0.00000000E+00
  0.00000000E+00  0.00000000E+00  0.00000000E+00
  0.00000000E+00  0.00000000E+00  0.00000000E+00
  0.00000000E+00  0.00000000E+00  0.00000000E+00
  0.00000000E+00  0.00000000E+00  0.00000000E+00
  0.00000000E+00  0.00000000E+00  0.00000000E+00
  0.00000000E+00  0.00000000E+00  0.00000000E+00
  0.00000000E+00  0.00000000E+00  0.00000000E+00
  0.00000000E+00  0.00000000E+00  0.00000000E+00
  0.00000000E+00  0.00000000E+00  0.00000000E+00
  0.00000000E+00  0.00000000E+00  0.00000000E+00
  0.00000000E+00  0.00000000E+00  0.00000000E+00
  0.00000000E+00  0.00000000E+00  0.00000000E+00
  0.00000000E+00  0.00000000E+00  0.00000000E+00
  0.00000000E+00  0.00000000E+00  0.00000000E+00
  0.00000000E+00  0.00000000E+00  0.00000000E+00
  0.00000000E+00  0.00000000E+00  0.00000000E+00
  0.00000000E+00  0.00000000E+00  0.00000000E+00
  0.00000000E+00  0.00000000E+00  0.00000000E+00
  0.00000000E+00  0.00000000E+00  0.00000000E+00
  0.00000000E+00  0.00000000E+00  0.00000000E+00
  0.00000000E+00  0.00000000E+00  0.00000000E+00
  0.00000000E+00  0.00000000E+00  0.00000000E+00
  0.00000000E+00  0.00000000E+00  0.00000000E+00
  0.00000000E+00  0.00000000E+00  0.00000000E+00
  0.00000000E+00  0.00000000E+00  0.00000000E+00
  0.00000000E+00  0.00000000E+00  0.00000000E+00
  0.00000000E+00  0.00000000E+00  0.00000000E+00
  0.00000000E+00  0.00000000E+00  0.00000000E+00
  0.00000000E+00  0.00000000E+00  0.00000000E+00
  0.00000000E+00  0.00000000E+00  0.00000000E+00
  0.00000000E+00  0.00000000E+00  0.00000000E+00
  0.00000000E+00  0.00000000E+00  0.00000000E+00
