C  N  Pr                                
   1.00000000000000     
    12.3000000000000007    0.0000000000000000    0.0000000000000000
    -6.1499999999999977   10.6521124665485960    0.0000000000000000
     0.0000000000000000    0.0000000000000000   20.0000000000000000
   C    N    Pr
    44     4     1
Direct
  0.9993849733009483  0.0005825940500941  0.7459016723888467
  0.1320736950960182  0.0655402990015546  0.7466343013280294
  0.1988629855858193  0.9987598163048261  0.7465526515570176
  0.3309082451574596  0.0641604810598793  0.7486553681544805
  0.3985703266878744  0.9980225006779477  0.7473534289773340
  0.5322095992221492  0.0665722913787477  0.7476198191782188
  0.5997092707678320  0.0005174060690791  0.7461273661289241
  0.7325217675399571  0.0684620447974424  0.7465053582306140
  0.7996917675469106  0.0012822766073128  0.7461530543775297
  0.9327549325694307  0.0671631403368522  0.7459864842740487
  0.9986487780117059  0.2002280160103709  0.7461369372094708
  0.1313248448709956  0.2652448198798893  0.7474139160141888
  0.1974581110390119  0.1975795340935136  0.7486944504368864
  0.3301324597810549  0.2644392117785017  0.7532525353448065
  0.3977344354850629  0.1968378441321832  0.7533242564720695
  0.5951235483482620  0.1998312918452569  0.7516038411468600
  0.7299860529648896  0.2698867035186083  0.7505467378863457
  0.7976210993096302  0.2022933649134586  0.7476011405564122
  0.9314784812680514  0.2673907532114370  0.7463636826404567
  0.9994669850273823  0.4001932465637523  0.7459774336465586
  0.1338837828282138  0.4663956443436987  0.7459717183530117
  0.1999029725825707  0.3988608939727811  0.7474601862882153
  0.3331562109015991  0.4617873143935540  0.7512709648951557
  0.8001347997613095  0.4047104146331364  0.7506990697977329
  0.9334140633176204  0.4676668637993018  0.7471774130963595
  0.0019525239391882  0.6013400899374091  0.7470936017704446
  0.1346362197974003  0.6663559451393013  0.7459599268050070
  0.2018053787164646  0.5991901179131318  0.7461887677286043
  0.3356215693942772  0.6642945775975804  0.7471702516323191
  0.4031968482915573  0.5966330289529509  0.7500783252962009
  0.5380218638844667  0.6667128957921662  0.7502830010193264
  0.7354564320814845  0.6697156920995795  0.7516116814687663
  0.8030812600111261  0.6021369245224406  0.7517805917897888
  0.9359020406731204  0.6690518188315906  0.7482324918195573
  0.0012378553230121  0.8010888002878715  0.7465460621935094
  0.1339356373499925  0.8660489843459658  0.7457024361055389
  0.2005045326938983  0.7994245915447422  0.7457249349806077
  0.3335782389076272  0.8653243368328418  0.7459246170430376
  0.4007210656654152  0.7981324924517352  0.7460707666022159
  0.5335182576542863  0.8660856625623694  0.7458724044162111
  0.6010113392538941  0.8000264927459355  0.7469713635948096
  0.7346688212036128  0.8685933124295886  0.7470570279451181
  0.8023938773435759  0.8025461641413614  0.7481439689933040
  0.9344315766761255  0.8679005003584805  0.7465976307038744
  0.5267778848087445  0.2599404672342018  0.7582420848056870
  0.3932649597201490  0.3934784007437315  0.7579600812998564
  0.7398406276116773  0.4730128860490126  0.7560306335721876
  0.6063218770522028  0.6064186120934210  0.7556210716170071
  0.5685551229749350  0.4355494380194145  0.8191564884174625
 
  0.00000000E+00  0.00000000E+00  0.00000000E+00
  0.00000000E+00  0.00000000E+00  0.00000000E+00
  0.00000000E+00  0.00000000E+00  0.00000000E+00
  0.00000000E+00  0.00000000E+00  0.00000000E+00
  0.00000000E+00  0.00000000E+00  0.00000000E+00
  0.00000000E+00  0.00000000E+00  0.00000000E+00
  0.00000000E+00  0.00000000E+00  0.00000000E+00
  0.00000000E+00  0.00000000E+00  0.00000000E+00
  0.00000000E+00  0.00000000E+00  0.00000000E+00
  0.00000000E+00  0.00000000E+00  0.00000000E+00
  0.00000000E+00  0.00000000E+00  0.00000000E+00
  0.00000000E+00  0.00000000E+00  0.00000000E+00
  0.00000000E+00  0.00000000E+00  0.00000000E+00
  0.00000000E+00  0.00000000E+00  0.00000000E+00
  0.00000000E+00  0.00000000E+00  0.00000000E+00
  0.00000000E+00  0.00000000E+00  0.00000000E+00
  0.00000000E+00  0.00000000E+00  0.00000000E+00
  0.00000000E+00  0.00000000E+00  0.00000000E+00
  0.00000000E+00  0.00000000E+00  0.00000000E+00
  0.00000000E+00  0.00000000E+00  0.00000000E+00
  0.00000000E+00  0.00000000E+00  0.00000000E+00
  0.00000000E+00  0.00000000E+00  0.00000000E+00
  0.00000000E+00  0.00000000E+00  0.00000000E+00
  0.00000000E+00  0.00000000E+00  0.00000000E+00
  0.00000000E+00  0.00000000E+00  0.00000000E+00
  0.00000000E+00  0.00000000E+00  0.00000000E+00
  0.00000000E+00  0.00000000E+00  0.00000000E+00
  0.00000000E+00  0.00000000E+00  0.00000000E+00
  0.00000000E+00  0.00000000E+00  0.00000000E+00
  0.00000000E+00  0.00000000E+00  0.00000000E+00
  0.00000000E+00  0.00000000E+00  0.00000000E+00
  0.00000000E+00  0.00000000E+00  0.00000000E+00
  0.00000000E+00  0.00000000E+00  0.00000000E+00
  0.00000000E+00  0.00000000E+00  0.00000000E+00
  0.00000000E+00  0.00000000E+00  0.00000000E+00
  0.00000000E+00  0.00000000E+00  0.00000000E+00
  0.00000000E+00  0.00000000E+00  0.00000000E+00
  0.00000000E+00  0.00000000E+00  0.00000000E+00
  0.00000000E+00  0.00000000E+00  0.00000000E+00
  0.00000000E+00  0.00000000E+00  0.00000000E+00
  0.00000000E+00  0.00000000E+00  0.00000000E+00
  0.00000000E+00  0.00000000E+00  0.00000000E+00
  0.00000000E+00  0.00000000E+00  0.00000000E+00
  0.00000000E+00  0.00000000E+00  0.00000000E+00
  0.00000000E+00  0.00000000E+00  0.00000000E+00
  0.00000000E+00  0.00000000E+00  0.00000000E+00
  0.00000000E+00  0.00000000E+00  0.00000000E+00
  0.00000000E+00  0.00000000E+00  0.00000000E+00
  0.00000000E+00  0.00000000E+00  0.00000000E+00
