       N       E                     dE             d eps       ncg     rms          ort
SDA:   1    -0.337223841252E+03   -0.33722E+03    0.00000E+00  3328   0.136E+03 0.000E+00
CGA:   2    -0.414811443095E+03   -0.77588E+02   -0.74766E+02  3328   0.586E+02 0.448E+01
CGA:   3    -0.433753918660E+03   -0.18942E+02   -0.18799E+02  3328   0.244E+02 0.953E+00
CGA:   4    -0.440898470432E+03   -0.71446E+01   -0.71304E+01  3328   0.126E+02 0.444E-01
CGA:   5    -0.443333503020E+03   -0.24350E+01   -0.24402E+01  3328   0.496E+01 0.196E-01
CGA:   6    -0.444440809647E+03   -0.11073E+01   -0.11073E+01  3328   0.164E+01-0.120E-02
CGA:   7    -0.444853391739E+03   -0.41258E+00   -0.41277E+00  3328   0.620E+00-0.553E-02
CGA:   8    -0.444999270825E+03   -0.14588E+00   -0.14590E+00  3328   0.206E+00-0.118E-02
CGA:   9    -0.445054845477E+03   -0.55575E-01   -0.55582E-01  3328   0.700E-01-0.157E-03
CGA:  10    -0.445075902611E+03   -0.21057E-01   -0.21057E-01  3328   0.291E-01-0.967E-05
CGA:  11    -0.445085402730E+03   -0.95001E-02   -0.95024E-02  3328   0.123E-01-0.310E-04
CGA:  12    -0.445089708049E+03   -0.43053E-02   -0.43105E-02  3328   0.502E-02-0.427E-04
CGA:  13    -0.445091468775E+03   -0.17607E-02   -0.17630E-02  3328   0.195E-02-0.173E-04
CGA:  14    -0.445092211740E+03   -0.74297E-03   -0.74360E-03  3328   0.935E-03-0.337E-05
CGA:  15    -0.445092638098E+03   -0.42636E-03   -0.42681E-03  3328   0.621E-03-0.190E-05
CGA:  16    -0.445092962852E+03   -0.32475E-03   -0.32539E-03  3328   0.460E-03-0.249E-05
CGA:  17    -0.445093189012E+03   -0.22616E-03   -0.22648E-03  3328   0.267E-03-0.147E-05
CGA:  18    -0.445093311421E+03   -0.12241E-03   -0.12256E-03  3328   0.132E-03-0.809E-06
CGA:  19    -0.445093373227E+03   -0.61806E-04   -0.61850E-04  3328   0.658E-04-0.240E-06
CGA:  20    -0.445093404862E+03   -0.31636E-04   -0.31530E-04  3328   0.331E-04 0.598E-06
CGA:  21    -0.445093421260E+03   -0.16398E-04   -0.16282E-04  3328   0.172E-04 0.685E-06
CGA:  22    -0.445093430405E+03   -0.91447E-05   -0.90436E-05  3328   0.104E-04 0.531E-06
   1 F= -.44685024E+03 E0= -.44683965E+03  d E =-.211951E-01  mag=    -2.0476
