C  N  Pr                                
   1.00000000000000     
    12.3000000000000007    0.0000000000000000    0.0000000000000000
    -6.1499999999999977   10.6521124665485960    0.0000000000000000
     0.0000000000000000    0.0000000000000000   20.0000000000000000
   C    N    Pr
    44     4     1
Direct
  0.9993849733009474  0.0005825940500944  0.7459016723888480
  0.1320736950960208  0.0655402990015561  0.7466343013280277
  0.1988629855858184  0.9987598163048240  0.7465526515570199
  0.3309082451574604  0.0641604810598802  0.7486553681544839
  0.3985703266878723  0.9980225006779454  0.7473534289773339
  0.5322095992221523  0.0665722913787465  0.7476198191782163
  0.5997092707678313  0.0005174060690805  0.7461273661289272
  0.7325217675399542  0.0684620447974406  0.7465053582306129
  0.7996917675469088  0.0012822766073123  0.7461530543775317
  0.9327549325694299  0.0671631403368544  0.7459864842740460
  0.9986487780117048  0.2002280160103690  0.7461369372094691
  0.1313248448709945  0.2652448198798886  0.7474139160141915
  0.1974581110390114  0.1975795340935116  0.7486944504368852
  0.3301324597810540  0.2644392117785029  0.7532525353448082
  0.3977344354850659  0.1968378441321829  0.7533242564720698
  0.5951235483482601  0.1998312918452591  0.7516038411468591
  0.7299860529648912  0.2698867035186066  0.7505467378863435
  0.7976210993096295  0.2022933649134603  0.7476011405564097
  0.9314784812680491  0.2673907532114401  0.7463636826404583
  0.9994669850273817  0.4001932465637513  0.7459774336465574
  0.1338837828282148  0.4663956443437006  0.7459717183530099
  0.1999029725825689  0.3988608939727831  0.7474601862882143
  0.3331562109015981  0.4617873143935560  0.7512709648951555
  0.8001347997613066  0.4047104146331347  0.7506990697977310
  0.9334140633176227  0.4676668637992999  0.7471774130963567
  0.0019525239391863  0.6013400899374093  0.7470936017704440
  0.1346362197973972  0.6663559451393024  0.7459599268050043
  0.2018053787164625  0.5991901179131339  0.7461887677286047
  0.3356215693942767  0.6642945775975769  0.7471702516323169
  0.4031968482915546  0.5966330289529506  0.7500783252961992
  0.5380218638844654  0.6667128957921644  0.7502830010193272
  0.7354564320814815  0.6697156920995823  0.7516116814687641
  0.8030812600111285  0.6021369245224386  0.7517805917897861
  0.9359020406731227  0.6690518188315883  0.7482324918195552
  0.0012378553230088  0.8010888002878748  0.7465460621935072
  0.1339356373499956  0.8660489843459646  0.7457024361055399
  0.2005045326938976  0.7994245915447398  0.7457249349806088
  0.3335782389076252  0.8653243368328430  0.7459246170430358
  0.4007210656654129  0.7981324924517338  0.7460707666022173
  0.5335182576542865  0.8660856625623711  0.7458724044162145
  0.6010113392538931  0.8000264927459321  0.7469713635948108
  0.7346688212036097  0.8685933124295868  0.7470570279451192
  0.8023938773435764  0.8025461641413578  0.7481439689933014
  0.9344315766761232  0.8679005003584838  0.7465976307038740
  0.5267778848087455  0.2599404672342033  0.7582420848056892
  0.3932649597201477  0.3934784007437322  0.7579600812998564
  0.7398406276116750  0.4730128860490136  0.7560306335721907
  0.6063218770522029  0.6064186120934194  0.7556210716170100
  0.5685551229749342  0.4355494380194162  0.8191564884174631
 
  0.00000000E+00  0.00000000E+00  0.00000000E+00
  0.00000000E+00  0.00000000E+00  0.00000000E+00
  0.00000000E+00  0.00000000E+00  0.00000000E+00
  0.00000000E+00  0.00000000E+00  0.00000000E+00
  0.00000000E+00  0.00000000E+00  0.00000000E+00
  0.00000000E+00  0.00000000E+00  0.00000000E+00
  0.00000000E+00  0.00000000E+00  0.00000000E+00
  0.00000000E+00  0.00000000E+00  0.00000000E+00
  0.00000000E+00  0.00000000E+00  0.00000000E+00
  0.00000000E+00  0.00000000E+00  0.00000000E+00
  0.00000000E+00  0.00000000E+00  0.00000000E+00
  0.00000000E+00  0.00000000E+00  0.00000000E+00
  0.00000000E+00  0.00000000E+00  0.00000000E+00
  0.00000000E+00  0.00000000E+00  0.00000000E+00
  0.00000000E+00  0.00000000E+00  0.00000000E+00
  0.00000000E+00  0.00000000E+00  0.00000000E+00
  0.00000000E+00  0.00000000E+00  0.00000000E+00
  0.00000000E+00  0.00000000E+00  0.00000000E+00
  0.00000000E+00  0.00000000E+00  0.00000000E+00
  0.00000000E+00  0.00000000E+00  0.00000000E+00
  0.00000000E+00  0.00000000E+00  0.00000000E+00
  0.00000000E+00  0.00000000E+00  0.00000000E+00
  0.00000000E+00  0.00000000E+00  0.00000000E+00
  0.00000000E+00  0.00000000E+00  0.00000000E+00
  0.00000000E+00  0.00000000E+00  0.00000000E+00
  0.00000000E+00  0.00000000E+00  0.00000000E+00
  0.00000000E+00  0.00000000E+00  0.00000000E+00
  0.00000000E+00  0.00000000E+00  0.00000000E+00
  0.00000000E+00  0.00000000E+00  0.00000000E+00
  0.00000000E+00  0.00000000E+00  0.00000000E+00
  0.00000000E+00  0.00000000E+00  0.00000000E+00
  0.00000000E+00  0.00000000E+00  0.00000000E+00
  0.00000000E+00  0.00000000E+00  0.00000000E+00
  0.00000000E+00  0.00000000E+00  0.00000000E+00
  0.00000000E+00  0.00000000E+00  0.00000000E+00
  0.00000000E+00  0.00000000E+00  0.00000000E+00
  0.00000000E+00  0.00000000E+00  0.00000000E+00
  0.00000000E+00  0.00000000E+00  0.00000000E+00
  0.00000000E+00  0.00000000E+00  0.00000000E+00
  0.00000000E+00  0.00000000E+00  0.00000000E+00
  0.00000000E+00  0.00000000E+00  0.00000000E+00
  0.00000000E+00  0.00000000E+00  0.00000000E+00
  0.00000000E+00  0.00000000E+00  0.00000000E+00
  0.00000000E+00  0.00000000E+00  0.00000000E+00
  0.00000000E+00  0.00000000E+00  0.00000000E+00
  0.00000000E+00  0.00000000E+00  0.00000000E+00
  0.00000000E+00  0.00000000E+00  0.00000000E+00
  0.00000000E+00  0.00000000E+00  0.00000000E+00
  0.00000000E+00  0.00000000E+00  0.00000000E+00
