C  N  Hg                                
   1.00000000000000     
    12.3000000000000007    0.0000000000000000    0.0000000000000000
    -6.1499999999999977   10.6521124665485960    0.0000000000000000
     0.0000000000000000    0.0000000000000000   20.0000000000000000
   C    N    Hg
    44     4     1
Direct
  0.9989400160142807  0.0010599839385748  0.7500000000296154
  0.1298838466124295  0.0632456605718019  0.7499999999804885
  0.1965780404283919  0.9965479903675245  0.7499999999902940
  0.3277616023489358  0.0595504724523366  0.7500000000372182
  0.3978375216451866  0.9958391724644713  0.7499999999119282
  0.5310981767759770  0.0637032126008279  0.7500000000538023
  0.5994510340312686  0.9999049040743984  0.7500000000944240
  0.7323887361152117  0.0695331078353334  0.7499999999299831
  0.7997994864845595  0.0032637986537551  0.7500000000186517
  0.9321213042046352  0.0678786953192088  0.7500000000853504
  0.9967362014792371  0.2002005135333249  0.7500000000222187
  0.1291628092399719  0.2645089378715113  0.7499999998752784
  0.1928664614377809  0.1944341483162404  0.7500000001048477
  0.3228408703859103  0.2585618431563859  0.7500000000289120
  0.3918664343800060  0.1895210705610708  0.7499999999449543
  0.5932204847161415  0.1966309769682510  0.7499999997998117
  0.7290837553993725  0.2709162447776166  0.7499999999920348
  0.7966376911343005  0.2033623089030883  0.7500000000023448
  0.9304668921348167  0.2676112639991430  0.7500000000568647
  0.0000950954896766  0.4005489658278023  0.7499999998944915
  0.1332538729076589  0.4661180487681023  0.7500000001589413
  0.1970501116864156  0.3977595878093609  0.7499999999788542
  0.3299805431398681  0.4599092201127064  0.7499999998446967
  0.8033690229330901  0.4067795154155220  0.7500000002049347
  0.9362967873708428  0.4689018231165676  0.7499999999405489
  0.0041608273781506  0.6021624782722128  0.7500000000913758
  0.1366004912395908  0.6664753524775904  0.7500000001775717
  0.2028608047837892  0.5990631944217029  0.7500000000318110
  0.3366864276710331  0.6633135722501322  0.7499999999938822
  0.4042399340390688  0.5957600658818762  0.7499999999898961
  0.5400907798142711  0.6700194568172080  0.7500000001444747
  0.7414381569157555  0.6771591295863928  0.7499999999713580
  0.8104789292761225  0.6081335653612854  0.7500000000715161
  0.9404495279144882  0.6722383978502009  0.7499999999119851
  0.0034520096049278  0.8034219594705760  0.7499999999623412
  0.1344079808867846  0.8655920189541106  0.7500000000464411
  0.2012063240474617  0.7987936755540588  0.7500000000204281
  0.3335246476287210  0.8633995088364230  0.7499999997935234
  0.4009368055247293  0.7971391952074924  0.7499999999849720
  0.5338819515058191  0.8667461275533270  0.7499999998557669
  0.6022404121622955  0.8029498883360660  0.7500000000302052
  0.7354910622306008  0.8708371910136066  0.7500000001205152
  0.8055658518102717  0.8071335384153286  0.7499999998815525
  0.9367543394775737  0.8701161531369053  0.7500000000495533
  0.5183115636412055  0.2469133257221117  0.7499999999550795
  0.3802609373684476  0.3849978693008822  0.7500000000730864
  0.7530866751850240  0.4816884367943501  0.7499999998756621
  0.6150021304149789  0.6197390623240011  0.7499999999926814
  0.5666716309829027  0.4333283690472101  0.7499999999928164
 
  0.00000000E+00  0.00000000E+00  0.00000000E+00
  0.00000000E+00  0.00000000E+00  0.00000000E+00
  0.00000000E+00  0.00000000E+00  0.00000000E+00
  0.00000000E+00  0.00000000E+00  0.00000000E+00
  0.00000000E+00  0.00000000E+00  0.00000000E+00
  0.00000000E+00  0.00000000E+00  0.00000000E+00
  0.00000000E+00  0.00000000E+00  0.00000000E+00
  0.00000000E+00  0.00000000E+00  0.00000000E+00
  0.00000000E+00  0.00000000E+00  0.00000000E+00
  0.00000000E+00  0.00000000E+00  0.00000000E+00
  0.00000000E+00  0.00000000E+00  0.00000000E+00
  0.00000000E+00  0.00000000E+00  0.00000000E+00
  0.00000000E+00  0.00000000E+00  0.00000000E+00
  0.00000000E+00  0.00000000E+00  0.00000000E+00
  0.00000000E+00  0.00000000E+00  0.00000000E+00
  0.00000000E+00  0.00000000E+00  0.00000000E+00
  0.00000000E+00  0.00000000E+00  0.00000000E+00
  0.00000000E+00  0.00000000E+00  0.00000000E+00
  0.00000000E+00  0.00000000E+00  0.00000000E+00
  0.00000000E+00  0.00000000E+00  0.00000000E+00
  0.00000000E+00  0.00000000E+00  0.00000000E+00
  0.00000000E+00  0.00000000E+00  0.00000000E+00
  0.00000000E+00  0.00000000E+00  0.00000000E+00
  0.00000000E+00  0.00000000E+00  0.00000000E+00
  0.00000000E+00  0.00000000E+00  0.00000000E+00
  0.00000000E+00  0.00000000E+00  0.00000000E+00
  0.00000000E+00  0.00000000E+00  0.00000000E+00
  0.00000000E+00  0.00000000E+00  0.00000000E+00
  0.00000000E+00  0.00000000E+00  0.00000000E+00
  0.00000000E+00  0.00000000E+00  0.00000000E+00
  0.00000000E+00  0.00000000E+00  0.00000000E+00
  0.00000000E+00  0.00000000E+00  0.00000000E+00
  0.00000000E+00  0.00000000E+00  0.00000000E+00
  0.00000000E+00  0.00000000E+00  0.00000000E+00
  0.00000000E+00  0.00000000E+00  0.00000000E+00
  0.00000000E+00  0.00000000E+00  0.00000000E+00
  0.00000000E+00  0.00000000E+00  0.00000000E+00
  0.00000000E+00  0.00000000E+00  0.00000000E+00
  0.00000000E+00  0.00000000E+00  0.00000000E+00
  0.00000000E+00  0.00000000E+00  0.00000000E+00
  0.00000000E+00  0.00000000E+00  0.00000000E+00
  0.00000000E+00  0.00000000E+00  0.00000000E+00
  0.00000000E+00  0.00000000E+00  0.00000000E+00
  0.00000000E+00  0.00000000E+00  0.00000000E+00
  0.00000000E+00  0.00000000E+00  0.00000000E+00
  0.00000000E+00  0.00000000E+00  0.00000000E+00
  0.00000000E+00  0.00000000E+00  0.00000000E+00
  0.00000000E+00  0.00000000E+00  0.00000000E+00
  0.00000000E+00  0.00000000E+00  0.00000000E+00
