       N       E                     dE             d eps       ncg     rms          ort
SDA:   1    -0.322785845110E+03   -0.32279E+03    0.00000E+00  3328   0.137E+03 0.000E+00
CGA:   2    -0.403113167003E+03   -0.80327E+02   -0.87500E+02  3328   0.720E+02-0.136E+02
CGA:   3    -0.420295803724E+03   -0.17183E+02   -0.17029E+02  3328   0.246E+02 0.196E+01
CGA:   4    -0.428888774101E+03   -0.85930E+01   -0.86223E+01  3328   0.933E+01-0.310E+00
CGA:   5    -0.431648681313E+03   -0.27599E+01   -0.27732E+01  3328   0.331E+01-0.139E+00
CGA:   6    -0.432527022132E+03   -0.87834E+00   -0.87883E+00  3328   0.107E+01-0.527E-02
CGA:   7    -0.432841201968E+03   -0.31418E+00   -0.31398E+00  3328   0.292E+00 0.177E-02
CGA:   8    -0.432938838567E+03   -0.97637E-01   -0.97454E-01  3328   0.101E+00 0.155E-02
CGA:   9    -0.432974782443E+03   -0.35944E-01   -0.36110E-01  3328   0.388E-01-0.134E-02
CGA:  10    -0.432988348938E+03   -0.13566E-01   -0.13692E-01  3328   0.140E-01-0.960E-03
CGA:  11    -0.432993009259E+03   -0.46603E-02   -0.46528E-02  3328   0.443E-02 0.549E-04
CGA:  12    -0.432994568876E+03   -0.15596E-02   -0.15606E-02  3328   0.134E-02-0.879E-05
CGA:  13    -0.432995072958E+03   -0.50408E-03   -0.50467E-03  3328   0.425E-03-0.464E-05
CGA:  14    -0.432995243405E+03   -0.17045E-03   -0.17077E-03  3328   0.156E-03-0.243E-05
CGA:  15    -0.432995304224E+03   -0.60819E-04   -0.60779E-04  3328   0.599E-04 0.443E-06
CGA:  16    -0.432995327311E+03   -0.23087E-04   -0.23279E-04  3328   0.214E-04-0.180E-05
CGA:  17    -0.432995334986E+03   -0.76743E-05   -0.76337E-05  3328   0.647E-05 0.518E-06
   1 F= -.43484616E+03 E0= -.43483354E+03  d E =-.252523E-01  mag=     0.0000
