C  N  Hg                                
   1.00000000000000     
    12.3000000000000007    0.0000000000000000    0.0000000000000000
    -6.1499999999999977   10.6521124665485960    0.0000000000000000
     0.0000000000000000    0.0000000000000000   20.0000000000000000
   C    N    Hg
    44     4     1
Direct
  0.9989400160142802  0.0010599839385770  0.7500000000296130
  0.1298838466124269  0.0632456605718043  0.7499999999804917
  0.1965780404283951  0.9965479903675264  0.7499999999902924
  0.3277616023489368  0.0595504724523356  0.7500000000372169
  0.3978375216451882  0.9958391724644745  0.7499999999119269
  0.5310981767759764  0.0637032126008286  0.7500000000538002
  0.5994510340312652  0.9999049040743982  0.7500000000944267
  0.7323887361152134  0.0695331078353348  0.7499999999299853
  0.7997994864845606  0.0032637986537562  0.7500000000186493
  0.9321213042046387  0.0678786953192102  0.7500000000853523
  0.9967362014792406  0.2002005135333228  0.7500000000222213
  0.1291628092399741  0.2645089378715105  0.7499999998752761
  0.1928664614377842  0.1944341483162378  0.7500000001048472
  0.3228408703859090  0.2585618431563831  0.7500000000289151
  0.3918664343800081  0.1895210705610718  0.7499999999449553
  0.5932204847161417  0.1966309769682510  0.7499999997998139
  0.7290837553993733  0.2709162447776176  0.7499999999920367
  0.7966376911343022  0.2033623089030872  0.7500000000023480
  0.9304668921348198  0.2676112639991423  0.7500000000568641
  0.0000950954896797  0.4005489658278000  0.7499999998944923
  0.1332538729076592  0.4661180487681040  0.7500000001589425
  0.1970501116864176  0.3977595878093642  0.7499999999788557
  0.3299805431398695  0.4599092201127090  0.7499999998446989
  0.8033690229330889  0.4067795154155213  0.7500000002049337
  0.9362967873708438  0.4689018231165700  0.7499999999405494
  0.0041608273781472  0.6021624782722138  0.7500000000913777
  0.1366004912395888  0.6664753524775914  0.7500000001775745
  0.2028608047837893  0.5990631944217034  0.7500000000318082
  0.3366864276710314  0.6633135722501335  0.7499999999938851
  0.4042399340390719  0.5957600658818784  0.7499999999898959
  0.5400907798142739  0.6700194568172051  0.7500000001444771
  0.7414381569157561  0.6771591295863899  0.7499999999713557
  0.8104789292761202  0.6081335653612870  0.7500000000715167
  0.9404495279144911  0.6722383978502012  0.7499999999119825
  0.0034520096049289  0.8034219594705775  0.7499999999623380
  0.1344079808867862  0.8655920189541102  0.7500000000464397
  0.2012063240474601  0.7987936755540559  0.7500000000204257
  0.3335246476287208  0.8633995088364231  0.7499999997935242
  0.4009368055247289  0.7971391952074950  0.7499999999849725
  0.5338819515058181  0.8667461275533246  0.7499999998557696
  0.6022404121622956  0.8029498883360676  0.7500000000302079
  0.7354910622306040  0.8708371910136063  0.7500000001205117
  0.8055658518102691  0.8071335384153313  0.7499999998815561
  0.9367543394775762  0.8701161531369027  0.7500000000495523
  0.5183115636412021  0.2469133257221149  0.7499999999550768
  0.3802609373684446  0.3849978693008793  0.7500000000730853
  0.7530866751850219  0.4816884367943490  0.7499999998756601
  0.6150021304149803  0.6197390623240012  0.7499999999926826
  0.5666716309829016  0.4333283690472108  0.7499999999928192
 
  0.00000000E+00  0.00000000E+00  0.00000000E+00
  0.00000000E+00  0.00000000E+00  0.00000000E+00
  0.00000000E+00  0.00000000E+00  0.00000000E+00
  0.00000000E+00  0.00000000E+00  0.00000000E+00
  0.00000000E+00  0.00000000E+00  0.00000000E+00
  0.00000000E+00  0.00000000E+00  0.00000000E+00
  0.00000000E+00  0.00000000E+00  0.00000000E+00
  0.00000000E+00  0.00000000E+00  0.00000000E+00
  0.00000000E+00  0.00000000E+00  0.00000000E+00
  0.00000000E+00  0.00000000E+00  0.00000000E+00
  0.00000000E+00  0.00000000E+00  0.00000000E+00
  0.00000000E+00  0.00000000E+00  0.00000000E+00
  0.00000000E+00  0.00000000E+00  0.00000000E+00
  0.00000000E+00  0.00000000E+00  0.00000000E+00
  0.00000000E+00  0.00000000E+00  0.00000000E+00
  0.00000000E+00  0.00000000E+00  0.00000000E+00
  0.00000000E+00  0.00000000E+00  0.00000000E+00
  0.00000000E+00  0.00000000E+00  0.00000000E+00
  0.00000000E+00  0.00000000E+00  0.00000000E+00
  0.00000000E+00  0.00000000E+00  0.00000000E+00
  0.00000000E+00  0.00000000E+00  0.00000000E+00
  0.00000000E+00  0.00000000E+00  0.00000000E+00
  0.00000000E+00  0.00000000E+00  0.00000000E+00
  0.00000000E+00  0.00000000E+00  0.00000000E+00
  0.00000000E+00  0.00000000E+00  0.00000000E+00
  0.00000000E+00  0.00000000E+00  0.00000000E+00
  0.00000000E+00  0.00000000E+00  0.00000000E+00
  0.00000000E+00  0.00000000E+00  0.00000000E+00
  0.00000000E+00  0.00000000E+00  0.00000000E+00
  0.00000000E+00  0.00000000E+00  0.00000000E+00
  0.00000000E+00  0.00000000E+00  0.00000000E+00
  0.00000000E+00  0.00000000E+00  0.00000000E+00
  0.00000000E+00  0.00000000E+00  0.00000000E+00
  0.00000000E+00  0.00000000E+00  0.00000000E+00
  0.00000000E+00  0.00000000E+00  0.00000000E+00
  0.00000000E+00  0.00000000E+00  0.00000000E+00
  0.00000000E+00  0.00000000E+00  0.00000000E+00
  0.00000000E+00  0.00000000E+00  0.00000000E+00
  0.00000000E+00  0.00000000E+00  0.00000000E+00
  0.00000000E+00  0.00000000E+00  0.00000000E+00
  0.00000000E+00  0.00000000E+00  0.00000000E+00
  0.00000000E+00  0.00000000E+00  0.00000000E+00
  0.00000000E+00  0.00000000E+00  0.00000000E+00
  0.00000000E+00  0.00000000E+00  0.00000000E+00
  0.00000000E+00  0.00000000E+00  0.00000000E+00
  0.00000000E+00  0.00000000E+00  0.00000000E+00
  0.00000000E+00  0.00000000E+00  0.00000000E+00
  0.00000000E+00  0.00000000E+00  0.00000000E+00
  0.00000000E+00  0.00000000E+00  0.00000000E+00
