       N       E                     dE             d eps       ncg     rms          ort
SDA:   1    -0.340695263488E+03   -0.34070E+03    0.00000E+00  3328   0.131E+03 0.000E+00
CGA:   2    -0.411461607264E+03   -0.70766E+02   -0.83612E+02  3328   0.126E+03-0.248E+02
CGA:   3    -0.428330443709E+03   -0.16869E+02   -0.17218E+02  3328   0.487E+02 0.239E+01
CGA:   4    -0.438780527825E+03   -0.10450E+02   -0.10469E+02  3328   0.280E+02 0.130E+01
CGA:   5    -0.443581566770E+03   -0.48010E+01   -0.48569E+01  3328   0.184E+02 0.478E+00
CGA:   6    -0.446154466209E+03   -0.25729E+01   -0.26169E+01  3328   0.732E+01 0.363E+00
CGA:   7    -0.447605337922E+03   -0.14509E+01   -0.14520E+01  3328   0.341E+01 0.260E-01
CGA:   8    -0.448270280977E+03   -0.66494E+00   -0.66577E+00  3328   0.169E+01 0.233E-01
CGA:   9    -0.448616690080E+03   -0.34641E+00   -0.34645E+00  3328   0.781E+00 0.370E-02
CGA:  10    -0.448784796844E+03   -0.16811E+00   -0.16810E+00  3328   0.385E+00 0.154E-02
CGA:  11    -0.448869970532E+03   -0.85174E-01   -0.85160E-01  3328   0.181E+00 0.115E-02
CGA:  12    -0.448916571002E+03   -0.46600E-01   -0.46571E-01  3328   0.830E-01 0.580E-03
CGA:  13    -0.448938867133E+03   -0.22296E-01   -0.22284E-01  3328   0.397E-01 0.220E-03
CGA:  14    -0.448949964872E+03   -0.11098E-01   -0.11093E-01  3328   0.171E-01 0.647E-04
CGA:  15    -0.448955417448E+03   -0.54526E-02   -0.54525E-02  3328   0.775E-02-0.255E-05
CGA:  16    -0.448957924094E+03   -0.25066E-02   -0.25078E-02  3328   0.359E-02-0.105E-04
CGA:  17    -0.448959227454E+03   -0.13034E-02   -0.13048E-02  3328   0.178E-02-0.107E-04
CGA:  18    -0.448959872777E+03   -0.64532E-03   -0.64613E-03  3328   0.864E-03-0.556E-05
CGA:  19    -0.448960218972E+03   -0.34620E-03   -0.34655E-03  3328   0.408E-03-0.189E-05
CGA:  20    -0.448960370633E+03   -0.15166E-03   -0.15178E-03  3328   0.204E-03-0.567E-06
CGA:  21    -0.448960452038E+03   -0.81404E-04   -0.81325E-04  3328   0.109E-03 0.891E-06
CGA:  22    -0.448960495889E+03   -0.43851E-04   -0.43714E-04  3328   0.645E-04 0.118E-05
CGA:  23    -0.448960523586E+03   -0.27697E-04   -0.27516E-04  3328   0.385E-04 0.124E-05
CGA:  24    -0.448960540642E+03   -0.17056E-04   -0.16940E-04  3328   0.219E-04 0.753E-06
CGA:  25    -0.448960550564E+03   -0.99220E-05   -0.98730E-05  3328   0.129E-04 0.300E-06
   1 F= -.45072356E+03 E0= -.45071870E+03  d E =-.972122E-02  mag=     7.0065
