C  N  Eu                                
   1.00000000000000     
    12.3000000000000007    0.0000000000000000    0.0000000000000000
    -6.1499999999999977   10.6521124665485960    0.0000000000000000
     0.0000000000000000    0.0000000000000000   20.0000000000000000
   C    N    Eu
    44     4     1
Direct
  0.9994019091072349  0.0005915168904359  0.7421619655518495
  0.1319956127897105  0.0653004270672747  0.7428454137043305
  0.1985714202155629  0.9987197368694104  0.7429246792702314
  0.3312534450842729  0.0644343547886902  0.7461095159402924
  0.3987326203599946  0.9981441219848101  0.7461700781051883
  0.5318823789636390  0.0663643325436621  0.7478723021380841
  0.5994089148722768  0.0003863397331920  0.7465213072268387
  0.7326317119131898  0.0688095755631734  0.7467070270482397
  0.7997115696699670  0.0019049636759769  0.7447983141987065
  0.9325976975755883  0.0673926589678210  0.7435878083870664
  0.9980849212183880  0.2002842216629558  0.7447983252082252
  0.1314663285887782  0.2654347296021666  0.7459643314849215
  0.1978024377154487  0.1979954463926361  0.7460139136004282
  0.3298915667351044  0.2647655686906471  0.7521403106745485
  0.3980723871051987  0.1965430764365584  0.7521997976153176
  0.5939382136625867  0.2002360751748097  0.7535420213443369
  0.7295864180590294  0.2704172337284225  0.7533136376478781
  0.7971201658210968  0.2028682165487068  0.7488517543932983
  0.9311807992324787  0.2673635118859463  0.7467035486490327
  0.9996204265084478  0.4005853582530584  0.7465134310891349
  0.1337793963335920  0.4661419723009910  0.7464850428940861
  0.1997423958388931  0.3985670133279306  0.7477069297152248
  0.3336280973261028  0.4605727331300731  0.7533821588090189
  0.7997761325782071  0.4060495233129368  0.7535441737260917
  0.9336453527787931  0.4681094909383882  0.7478644222771428
  0.0018493872064106  0.6012673250772753  0.7461690790109217
  0.1352388468770111  0.6664076219321029  0.7450335096199879
  0.2021830000126132  0.5993389602929931  0.7467736873099939
  0.3362197076883972  0.6637647134702662  0.7488342066495213
  0.4037712449762495  0.5962208395656635  0.7531446004464269
  0.5394061804704166  0.6663844875380620  0.7533739595166988
  0.7352227041751543  0.6701009662120044  0.7521413834069682
  0.8034572026968000  0.6019281760331865  0.7522134162926222
  0.9355626877585907  0.6687403312544751  0.7461111980985873
  0.0012777463721323  0.8014266399418988  0.7429228972008871
  0.1338732644762630  0.8661140116678531  0.7423200128911606
  0.2006895032253826  0.7993057161634268  0.7438249442372218
  0.3335774742858001  0.8647439830931150  0.7450345107653431
  0.4006616740702714  0.7978119067941541  0.7467755771341705
  0.5338523774899777  0.8662270728803225  0.7464890219417766
  0.6014268372079781  0.8002689860974843  0.7477044096384518
  0.7345586572027221  0.8685228132682590  0.7459617050855325
  0.8019976532997571  0.8021845752799196  0.7460137927551674
  0.9346862741709013  0.8679934987906291  0.7428444389643420
  0.5257089684975859  0.2593562494228904  0.7598137385076817
  0.3927728603825214  0.3924069969831189  0.7597079658534811
  0.7406851137127386  0.4742993939094182  0.7598397402456939
  0.6075787321768953  0.6072483999876128  0.7596942621701004
  0.5668075815138387  0.4333641348731936  0.8295357315577672
 
  0.00000000E+00  0.00000000E+00  0.00000000E+00
  0.00000000E+00  0.00000000E+00  0.00000000E+00
  0.00000000E+00  0.00000000E+00  0.00000000E+00
  0.00000000E+00  0.00000000E+00  0.00000000E+00
  0.00000000E+00  0.00000000E+00  0.00000000E+00
  0.00000000E+00  0.00000000E+00  0.00000000E+00
  0.00000000E+00  0.00000000E+00  0.00000000E+00
  0.00000000E+00  0.00000000E+00  0.00000000E+00
  0.00000000E+00  0.00000000E+00  0.00000000E+00
  0.00000000E+00  0.00000000E+00  0.00000000E+00
  0.00000000E+00  0.00000000E+00  0.00000000E+00
  0.00000000E+00  0.00000000E+00  0.00000000E+00
  0.00000000E+00  0.00000000E+00  0.00000000E+00
  0.00000000E+00  0.00000000E+00  0.00000000E+00
  0.00000000E+00  0.00000000E+00  0.00000000E+00
  0.00000000E+00  0.00000000E+00  0.00000000E+00
  0.00000000E+00  0.00000000E+00  0.00000000E+00
  0.00000000E+00  0.00000000E+00  0.00000000E+00
  0.00000000E+00  0.00000000E+00  0.00000000E+00
  0.00000000E+00  0.00000000E+00  0.00000000E+00
  0.00000000E+00  0.00000000E+00  0.00000000E+00
  0.00000000E+00  0.00000000E+00  0.00000000E+00
  0.00000000E+00  0.00000000E+00  0.00000000E+00
  0.00000000E+00  0.00000000E+00  0.00000000E+00
  0.00000000E+00  0.00000000E+00  0.00000000E+00
  0.00000000E+00  0.00000000E+00  0.00000000E+00
  0.00000000E+00  0.00000000E+00  0.00000000E+00
  0.00000000E+00  0.00000000E+00  0.00000000E+00
  0.00000000E+00  0.00000000E+00  0.00000000E+00
  0.00000000E+00  0.00000000E+00  0.00000000E+00
  0.00000000E+00  0.00000000E+00  0.00000000E+00
  0.00000000E+00  0.00000000E+00  0.00000000E+00
  0.00000000E+00  0.00000000E+00  0.00000000E+00
  0.00000000E+00  0.00000000E+00  0.00000000E+00
  0.00000000E+00  0.00000000E+00  0.00000000E+00
  0.00000000E+00  0.00000000E+00  0.00000000E+00
  0.00000000E+00  0.00000000E+00  0.00000000E+00
  0.00000000E+00  0.00000000E+00  0.00000000E+00
  0.00000000E+00  0.00000000E+00  0.00000000E+00
  0.00000000E+00  0.00000000E+00  0.00000000E+00
  0.00000000E+00  0.00000000E+00  0.00000000E+00
  0.00000000E+00  0.00000000E+00  0.00000000E+00
  0.00000000E+00  0.00000000E+00  0.00000000E+00
  0.00000000E+00  0.00000000E+00  0.00000000E+00
  0.00000000E+00  0.00000000E+00  0.00000000E+00
  0.00000000E+00  0.00000000E+00  0.00000000E+00
  0.00000000E+00  0.00000000E+00  0.00000000E+00
  0.00000000E+00  0.00000000E+00  0.00000000E+00
  0.00000000E+00  0.00000000E+00  0.00000000E+00
