       N       E                     dE             d eps       ncg     rms          ort
DAV:   1     0.103967194303E+04    0.10397E+04   -0.88569E+04  3328   0.676E+02
DAV:   2    -0.357132841280E+03   -0.13968E+04   -0.13965E+04  3328   0.101E+02
DAV:   3    -0.432161244654E+03   -0.75028E+02   -0.75012E+02  3328   0.365E+01
DAV:   4    -0.432987098470E+03   -0.82585E+00   -0.82581E+00  3328   0.416E+00
DAV:   5    -0.432987230224E+03   -0.13175E-03   -0.13175E-03  3328   0.644E-02
SDA:   6    -0.432987230224E+03    0.00000E+00   -0.13175E-03  3328   0.186E-05 0.000E+00
   1 F= -.43483806E+03 E0= -.43483446E+03  d E =-.720181E-02  mag=     0.0000
