C  N  Pb                                
   1.00000000000000     
    12.3000000000000007    0.0000000000000000    0.0000000000000000
    -6.1499999999999977   10.6521124665485960    0.0000000000000000
     0.0000000000000000    0.0000000000000000   20.0000000000000000
   C    N    Pb
    44     4     1
Direct
  0.9993041805273631  0.0006957837427814  0.7386746815789433
  0.1318755161657157  0.0651899021880814  0.7389945328324107
  0.1985005726906778  0.9985338359223944  0.7389853144061733
  0.3310381548411996  0.0639718021809803  0.7437234229448657
  0.3987098626270398  0.9978921605673399  0.7453375664541871
  0.5317408451557001  0.0665953649510412  0.7490911240224472
  0.5993675608393997  0.0005355920960897  0.7479670272923548
  0.7325485998359181  0.0691772010143610  0.7480613260242518
  0.7995856443878752  0.0021806092606822  0.7444121803222010
  0.9324617985880702  0.0675382398515029  0.7419656658237235
  0.9978193700875013  0.2004142982902866  0.7444121804507550
  0.1312571171289886  0.2653940394378930  0.7452807550361437
  0.1973483836558231  0.1977348215883008  0.7437173513882001
  0.3287807303785794  0.2634332867620071  0.7517540537274036
  0.3967512844911332  0.1954329005681702  0.7517940377219874
  0.5934828914347201  0.2005412589536124  0.7559920623157562
  0.7291236603071678  0.2708764395979792  0.7565224107025346
  0.7968119193146825  0.2031881063789262  0.7510519603053881
  0.9308228874702599  0.2674514259863676  0.7480613292096466
  0.9994645481018198  0.4006324821078845  0.7479670319973286
  0.1338589265763769  0.4660428924199095  0.7479911791193645
  0.1999390062625934  0.3984168757972691  0.7490358347736147
  0.3339056989601880  0.4601831596451371  0.7559228675287260
  0.7994588318690918  0.4065171611790239  0.7559920646712285
  0.9334046547321542  0.4682591708593978  0.7490911333005903
  0.0021078258063443  0.6012901559754659  0.7453375607966657
  0.1355373866178791  0.6662704290252150  0.7444043495525410
  0.2024889847939598  0.5992167760645438  0.7480233295365798
  0.3365314332373583  0.6634686330787660  0.7509628648424056
  0.4041808429112739  0.5958192438597076  0.7564981117243328
  0.5398168313733401  0.6660943500355776  0.7559228692463837
  0.7365666976434639  0.6712192525073535  0.7517540483500748
  0.8045671100888097  0.6032486550691571  0.7517940348574328
  0.9360282421669516  0.6689618402025619  0.7437234220854010
  0.0014661449670132  0.8014993686931867  0.7389853162329827
  0.1340237405598186  0.8659763099994586  0.7387732597323581
  0.2008692128925629  0.7991307720406354  0.7420245612296430
  0.3337295662399214  0.8644626873702985  0.7444043522460072
  0.4007832722860522  0.7975110678838011  0.7480233325192021
  0.5339570656728574  0.8661410710079833  0.7479911823386776
  0.6015831263077360  0.8000610056590390  0.7490358392656041
  0.7346059567581470  0.8687429534897623  0.7452807533295035
  0.8022651335460361  0.8026516354381796  0.7437173485734234
  0.9348101403019572  0.8681245076365542  0.7389945325146997
  0.5236098584167866  0.2583686739339484  0.7612163570727624
  0.3917513137384891  0.3903403377522380  0.7611706124972937
  0.7416314218354021  0.4763901295393863  0.7612163469275373
  0.6096596193464878  0.6082487526823802  0.7611705971987158
  0.5666564260613345  0.4333435797073557  0.8287769233795769
 
  0.00000000E+00  0.00000000E+00  0.00000000E+00
  0.00000000E+00  0.00000000E+00  0.00000000E+00
  0.00000000E+00  0.00000000E+00  0.00000000E+00
  0.00000000E+00  0.00000000E+00  0.00000000E+00
  0.00000000E+00  0.00000000E+00  0.00000000E+00
  0.00000000E+00  0.00000000E+00  0.00000000E+00
  0.00000000E+00  0.00000000E+00  0.00000000E+00
  0.00000000E+00  0.00000000E+00  0.00000000E+00
  0.00000000E+00  0.00000000E+00  0.00000000E+00
  0.00000000E+00  0.00000000E+00  0.00000000E+00
  0.00000000E+00  0.00000000E+00  0.00000000E+00
  0.00000000E+00  0.00000000E+00  0.00000000E+00
  0.00000000E+00  0.00000000E+00  0.00000000E+00
  0.00000000E+00  0.00000000E+00  0.00000000E+00
  0.00000000E+00  0.00000000E+00  0.00000000E+00
  0.00000000E+00  0.00000000E+00  0.00000000E+00
  0.00000000E+00  0.00000000E+00  0.00000000E+00
  0.00000000E+00  0.00000000E+00  0.00000000E+00
  0.00000000E+00  0.00000000E+00  0.00000000E+00
  0.00000000E+00  0.00000000E+00  0.00000000E+00
  0.00000000E+00  0.00000000E+00  0.00000000E+00
  0.00000000E+00  0.00000000E+00  0.00000000E+00
  0.00000000E+00  0.00000000E+00  0.00000000E+00
  0.00000000E+00  0.00000000E+00  0.00000000E+00
  0.00000000E+00  0.00000000E+00  0.00000000E+00
  0.00000000E+00  0.00000000E+00  0.00000000E+00
  0.00000000E+00  0.00000000E+00  0.00000000E+00
  0.00000000E+00  0.00000000E+00  0.00000000E+00
  0.00000000E+00  0.00000000E+00  0.00000000E+00
  0.00000000E+00  0.00000000E+00  0.00000000E+00
  0.00000000E+00  0.00000000E+00  0.00000000E+00
  0.00000000E+00  0.00000000E+00  0.00000000E+00
  0.00000000E+00  0.00000000E+00  0.00000000E+00
  0.00000000E+00  0.00000000E+00  0.00000000E+00
  0.00000000E+00  0.00000000E+00  0.00000000E+00
  0.00000000E+00  0.00000000E+00  0.00000000E+00
  0.00000000E+00  0.00000000E+00  0.00000000E+00
  0.00000000E+00  0.00000000E+00  0.00000000E+00
  0.00000000E+00  0.00000000E+00  0.00000000E+00
  0.00000000E+00  0.00000000E+00  0.00000000E+00
  0.00000000E+00  0.00000000E+00  0.00000000E+00
  0.00000000E+00  0.00000000E+00  0.00000000E+00
  0.00000000E+00  0.00000000E+00  0.00000000E+00
  0.00000000E+00  0.00000000E+00  0.00000000E+00
  0.00000000E+00  0.00000000E+00  0.00000000E+00
  0.00000000E+00  0.00000000E+00  0.00000000E+00
  0.00000000E+00  0.00000000E+00  0.00000000E+00
  0.00000000E+00  0.00000000E+00  0.00000000E+00
  0.00000000E+00  0.00000000E+00  0.00000000E+00
