       N       E                     dE             d eps       ncg     rms          rms(c)
DAV:   1    -0.471730728743E+03   -0.47173E+03   -0.12088E+02  8192   0.172E+01    0.288E+01
DAV:   2    -0.447755518914E+03    0.23975E+02   -0.33544E+01  5120   0.100E+01    0.143E+01
DAV:   3    -0.440221650149E+03    0.75339E+01   -0.17339E+01  8192   0.694E+00    0.534E+00
DAV:   4    -0.439841627317E+03    0.38002E+00   -0.23821E+00  8192   0.215E+00    0.212E+00
DAV:   5    -0.440028477898E+03   -0.18685E+00   -0.13160E-01  6912   0.559E-01    0.105E+00
DAV:   6    -0.440158660052E+03   -0.13018E+00   -0.56112E-02  8192   0.403E-01    0.400E-01
DAV:   7    -0.440289579847E+03   -0.13092E+00   -0.11281E-02  7680   0.206E-01    0.297E-01
DAV:   8    -0.440350294067E+03   -0.60714E-01   -0.43772E-02  7680   0.282E-01    0.159E-01
DAV:   9    -0.440360655490E+03   -0.10361E-01   -0.11741E-02  8192   0.149E-01    0.100E-01
DAV:  10    -0.440377283818E+03   -0.16628E-01   -0.40375E-03  5888   0.852E-02    0.661E-02
DAV:  11    -0.440388074266E+03   -0.10790E-01   -0.10746E-03  7936   0.443E-02    0.389E-02
DAV:  12    -0.440397245341E+03   -0.91711E-02   -0.86453E-04  7424   0.301E-02    0.211E-02
DAV:  13    -0.440402012543E+03   -0.47672E-02   -0.41865E-04  7168   0.207E-02    0.130E-02
DAV:  14    -0.440404225430E+03   -0.22129E-02   -0.19372E-04  5888   0.105E-02    0.727E-03
DAV:  15    -0.440405607078E+03   -0.13816E-02   -0.10703E-04  4864   0.768E-03    0.435E-03
DAV:  16    -0.440406042573E+03   -0.43550E-03   -0.26508E-05  4864   0.347E-03    0.289E-03
DAV:  17    -0.440406308550E+03   -0.26598E-03   -0.26917E-05  5376   0.286E-03    0.156E-03
DAV:  18    -0.440406405770E+03   -0.97220E-04   -0.64054E-06  7680   0.157E-03    0.106E-03
DAV:  19    -0.440406455977E+03   -0.50208E-04   -0.16464E-06  7936   0.965E-04    0.659E-04
DAV:  20    -0.440406489338E+03   -0.33361E-04   -0.75667E-07  7168   0.723E-04    0.432E-04
DAV:  21    -0.440406501804E+03   -0.12466E-04   -0.19671E-07  7936   0.407E-04    0.299E-04
DAV:  22    -0.440406509194E+03   -0.73900E-05   -0.12798E-07  6912   0.318E-04
   1 F= -.44217550E+03 E0= -.44217262E+03  d E =-.442176E+03  mag=     0.0003
       N       E                     dE             d eps       ncg     rms          rms(c)
DAV:   1    -0.440406869575E+03   -0.36777E-03   -0.36060E-02  7680   0.295E-01    0.367E-02
DAV:   2    -0.440406849845E+03    0.19730E-04   -0.31200E-04  6656   0.326E-02    0.192E-02
DAV:   3    -0.440406846775E+03    0.30706E-05   -0.26947E-05  8192   0.963E-03
   2 F= -.44217585E+03 E0= -.44217293E+03  d E =-.346771E-03  mag=     0.0002
