C  N  Pb                                
   1.00000000000000     
    12.3000000000000007    0.0000000000000000    0.0000000000000000
    -6.1499999999999977   10.6521124665485960    0.0000000000000000
     0.0000000000000000    0.0000000000000000   20.0000000000000000
   C    N    Pb
    44     4     1
Direct
  0.9993071501750430  0.0006928948265037  0.7386603566645664
  0.1318807733058238  0.0651690838387854  0.7390290192341671
  0.1985079050791302  0.9985403054970203  0.7389786651187287
  0.3310334393998913  0.0639504919521801  0.7437225259215793
  0.3986952346804653  0.9978818212444215  0.7453437789914191
  0.5317097273483027  0.0665631295814851  0.7490821447894649
  0.5993714414504049  0.0005316770970403  0.7479368608477285
  0.7325701282990960  0.0691766246151549  0.7480501465205242
  0.7995868764248270  0.0021742867677155  0.7444236449122622
  0.9324351472317283  0.0675647292056362  0.7419619840969208
  0.9978258408565726  0.2004130997742985  0.7444236433094326
  0.1312825559459570  0.2654173128151536  0.7452649287417171
  0.1973602474316361  0.1977256177635305  0.7437366027600459
  0.3287791291476858  0.2634496398038127  0.7517531888955358
  0.3966884855399948  0.1953513606793990  0.7517949445768386
  0.5935272108574083  0.2005825114672188  0.7560112073334784
  0.7291418226026203  0.2708583120857430  0.7564865095776301
  0.7967708784225150  0.2032293466390475  0.7510717583904927
  0.9308234711826209  0.2674299138065691  0.7480501506549967
  0.9994680030140448  0.4006285446654494  0.7479368691063988
  0.1338313032773565  0.4660238292366753  0.7479918477519135
  0.1999193891982783  0.3984193185197315  0.7490278907361035
  0.3339267776719002  0.4602086915510751  0.7559187394578007
  0.7994177172329689  0.4064727992422144  0.7560112022182568
  0.9334369021803505  0.4682902875282944  0.7490821596828884
  0.0021182541441766  0.6013046654756264  0.7453437727187622
  0.1355450816894634  0.6662678547914770  0.7443999984522396
  0.2025005317660843  0.5992220289625450  0.7480174868080901
  0.3365111237957703  0.6634890495509679  0.7509596631343671
  0.4041669451663182  0.5958329995006340  0.7565067157403577
  0.5397913234910583  0.6660733643406231  0.7559187358780382
  0.7365503422572275  0.6712208614083155  0.7517531837973501
  0.8046486136008176  0.6033115306653373  0.7517949422607451
  0.9360494849189798  0.6689664762426736  0.7437225291808202
  0.0014597474613549  0.8014921313355167  0.7389786625357725
  0.1340042350716385  0.8659957764649876  0.7388083523180963
  0.2008648975430253  0.7991351173104564  0.7420163905223209
  0.3337321585408964  0.8644548344369752  0.7444000030698158
  0.4007780438024950  0.7974996156932130  0.7480174864387670
  0.5339761842575298  0.8661687460148586  0.7479918525272600
  0.6015806193132089  0.8000807998413125  0.7490278912855490
  0.7345825990679755  0.8687174235038165  0.7452649302068898
  0.8022744118080706  0.8026397365583345  0.7437365966229224
  0.9348309204786116  0.8681192429431449  0.7390290202992488
  0.5236367872939454  0.2584246755509822  0.7612254308287425
  0.3917969097761536  0.3903442587515276  0.7611868419328571
  0.7415754595731410  0.4763631547988821  0.7612254115268650
  0.6096557265445618  0.6082030795272985  0.7611868325469802
  0.5666620406808810  0.4333379461263195  0.8287374990763106
 
  0.00000000E+00  0.00000000E+00  0.00000000E+00
  0.00000000E+00  0.00000000E+00  0.00000000E+00
  0.00000000E+00  0.00000000E+00  0.00000000E+00
  0.00000000E+00  0.00000000E+00  0.00000000E+00
  0.00000000E+00  0.00000000E+00  0.00000000E+00
  0.00000000E+00  0.00000000E+00  0.00000000E+00
  0.00000000E+00  0.00000000E+00  0.00000000E+00
  0.00000000E+00  0.00000000E+00  0.00000000E+00
  0.00000000E+00  0.00000000E+00  0.00000000E+00
  0.00000000E+00  0.00000000E+00  0.00000000E+00
  0.00000000E+00  0.00000000E+00  0.00000000E+00
  0.00000000E+00  0.00000000E+00  0.00000000E+00
  0.00000000E+00  0.00000000E+00  0.00000000E+00
  0.00000000E+00  0.00000000E+00  0.00000000E+00
  0.00000000E+00  0.00000000E+00  0.00000000E+00
  0.00000000E+00  0.00000000E+00  0.00000000E+00
  0.00000000E+00  0.00000000E+00  0.00000000E+00
  0.00000000E+00  0.00000000E+00  0.00000000E+00
  0.00000000E+00  0.00000000E+00  0.00000000E+00
  0.00000000E+00  0.00000000E+00  0.00000000E+00
  0.00000000E+00  0.00000000E+00  0.00000000E+00
  0.00000000E+00  0.00000000E+00  0.00000000E+00
  0.00000000E+00  0.00000000E+00  0.00000000E+00
  0.00000000E+00  0.00000000E+00  0.00000000E+00
  0.00000000E+00  0.00000000E+00  0.00000000E+00
  0.00000000E+00  0.00000000E+00  0.00000000E+00
  0.00000000E+00  0.00000000E+00  0.00000000E+00
  0.00000000E+00  0.00000000E+00  0.00000000E+00
  0.00000000E+00  0.00000000E+00  0.00000000E+00
  0.00000000E+00  0.00000000E+00  0.00000000E+00
  0.00000000E+00  0.00000000E+00  0.00000000E+00
  0.00000000E+00  0.00000000E+00  0.00000000E+00
  0.00000000E+00  0.00000000E+00  0.00000000E+00
  0.00000000E+00  0.00000000E+00  0.00000000E+00
  0.00000000E+00  0.00000000E+00  0.00000000E+00
  0.00000000E+00  0.00000000E+00  0.00000000E+00
  0.00000000E+00  0.00000000E+00  0.00000000E+00
  0.00000000E+00  0.00000000E+00  0.00000000E+00
  0.00000000E+00  0.00000000E+00  0.00000000E+00
  0.00000000E+00  0.00000000E+00  0.00000000E+00
  0.00000000E+00  0.00000000E+00  0.00000000E+00
  0.00000000E+00  0.00000000E+00  0.00000000E+00
  0.00000000E+00  0.00000000E+00  0.00000000E+00
  0.00000000E+00  0.00000000E+00  0.00000000E+00
  0.00000000E+00  0.00000000E+00  0.00000000E+00
  0.00000000E+00  0.00000000E+00  0.00000000E+00
  0.00000000E+00  0.00000000E+00  0.00000000E+00
  0.00000000E+00  0.00000000E+00  0.00000000E+00
  0.00000000E+00  0.00000000E+00  0.00000000E+00
