C  N  Nb                                
   1.00000000000000     
    12.3000000000000007    0.0000000000000000    0.0000000000000000
    -6.1499999999999977   10.6521124665485960    0.0000000000000000
     0.0000000000000000    0.0000000000000000   20.0000000000000000
   C    N    Nb
    44     4     1
Direct
  0.9992272864701957  0.0007727354767991  0.7395783512111498
  0.1317811757143546  0.0651609491103650  0.7397951029801419
  0.1984839480481275  0.9984471580679861  0.7397813256220173
  0.3306740755721048  0.0635945106546329  0.7444003854158283
  0.3985180519840161  0.9977864103231344  0.7464366784854365
  0.5320184069673397  0.0674449593484226  0.7498692615796503
  0.5995588834817079  0.0007597479989314  0.7488474998584846
  0.7323299620033137  0.0690230289345513  0.7486557845742623
  0.7994920287302091  0.0017133406551086  0.7455351498934567
  0.9325350015121135  0.0674650047446088  0.7430291084540236
  0.9982866519510932  0.2005079750725955  0.7455351508824122
  0.1310995577059056  0.2651813706911169  0.7464822209903893
  0.1969038703877623  0.1973357163644703  0.7444601386223373
  0.3282454225861814  0.2618260746138089  0.7512624621135022
  0.3951255716724268  0.1949350288839914  0.7512483527561786
  0.5943236507091173  0.2008266081436577  0.7555580413215061
  0.7291234501151101  0.2708765452834828  0.7551855569327766
  0.7970042263676610  0.2029957641832400  0.7507127548217634
  0.9309769590728311  0.2676700362087227  0.7486557833620341
  0.9992402353410926  0.4004411153646489  0.7488474980801693
  0.1340752581311422  0.4662069890915616  0.7488423367666516
  0.2007620632482924  0.3986625591043774  0.7498854539065998
  0.3341631584881936  0.4610051789083733  0.7555729077341656
  0.7991733831306899  0.4056763472747028  0.7555580408449964
  0.9325550301334617  0.4679815973004868  0.7498692583816742
  0.0022135826544991  0.6014819555409737  0.7464366731662444
  0.1350384240568533  0.6661372364498144  0.7455555391597962
  0.2023513042954545  0.5989758193723130  0.7486217995241909
  0.3363331057203943  0.6636668830599204  0.7506773372054842
  0.4042039644876069  0.5957960281464172  0.7551953993279478
  0.5389948161305284  0.6658368302627107  0.7555729060782482
  0.7381739255175804  0.6717545759627617  0.7512624566721909
  0.8050649695312964  0.6048744299782540  0.7512483514095734
  0.9364054920400692  0.6693259404958275  0.7444003860714847
  0.0015528625626733  0.8015160741855735  0.7397813264537616
  0.1341252801005021  0.8658747419928251  0.7396021903723746
  0.2008094516068928  0.7991905559078470  0.7430914107421700
  0.3338627685701856  0.8649615696614978  0.7455555434113570
  0.4010241777680227  0.7976486825654416  0.7486218002369555
  0.5337930087056526  0.8659247246135936  0.7488423353580463
  0.6013374425190018  0.7992379242161092  0.7498854510423958
  0.7348186346181589  0.8689004341004387  0.7464822188416526
  0.8026642982798272  0.8030961326726279  0.7444601357825201
  0.9348390724739513  0.8682188457813202  0.7397951035917304
  0.5236149986713172  0.2601097600968285  0.7624225553072612
  0.3934569669763586  0.3903218575630366  0.7624317865879758
  0.7398902326653217  0.4763849993506129  0.7624225535365183
  0.6096781394391186  0.6065430250498063  0.7624317826178377
  0.5666647710842785  0.4333352211696894  0.8025943519106893
 
  0.00000000E+00  0.00000000E+00  0.00000000E+00
  0.00000000E+00  0.00000000E+00  0.00000000E+00
  0.00000000E+00  0.00000000E+00  0.00000000E+00
  0.00000000E+00  0.00000000E+00  0.00000000E+00
  0.00000000E+00  0.00000000E+00  0.00000000E+00
  0.00000000E+00  0.00000000E+00  0.00000000E+00
  0.00000000E+00  0.00000000E+00  0.00000000E+00
  0.00000000E+00  0.00000000E+00  0.00000000E+00
  0.00000000E+00  0.00000000E+00  0.00000000E+00
  0.00000000E+00  0.00000000E+00  0.00000000E+00
  0.00000000E+00  0.00000000E+00  0.00000000E+00
  0.00000000E+00  0.00000000E+00  0.00000000E+00
  0.00000000E+00  0.00000000E+00  0.00000000E+00
  0.00000000E+00  0.00000000E+00  0.00000000E+00
  0.00000000E+00  0.00000000E+00  0.00000000E+00
  0.00000000E+00  0.00000000E+00  0.00000000E+00
  0.00000000E+00  0.00000000E+00  0.00000000E+00
  0.00000000E+00  0.00000000E+00  0.00000000E+00
  0.00000000E+00  0.00000000E+00  0.00000000E+00
  0.00000000E+00  0.00000000E+00  0.00000000E+00
  0.00000000E+00  0.00000000E+00  0.00000000E+00
  0.00000000E+00  0.00000000E+00  0.00000000E+00
  0.00000000E+00  0.00000000E+00  0.00000000E+00
  0.00000000E+00  0.00000000E+00  0.00000000E+00
  0.00000000E+00  0.00000000E+00  0.00000000E+00
  0.00000000E+00  0.00000000E+00  0.00000000E+00
  0.00000000E+00  0.00000000E+00  0.00000000E+00
  0.00000000E+00  0.00000000E+00  0.00000000E+00
  0.00000000E+00  0.00000000E+00  0.00000000E+00
  0.00000000E+00  0.00000000E+00  0.00000000E+00
  0.00000000E+00  0.00000000E+00  0.00000000E+00
  0.00000000E+00  0.00000000E+00  0.00000000E+00
  0.00000000E+00  0.00000000E+00  0.00000000E+00
  0.00000000E+00  0.00000000E+00  0.00000000E+00
  0.00000000E+00  0.00000000E+00  0.00000000E+00
  0.00000000E+00  0.00000000E+00  0.00000000E+00
  0.00000000E+00  0.00000000E+00  0.00000000E+00
  0.00000000E+00  0.00000000E+00  0.00000000E+00
  0.00000000E+00  0.00000000E+00  0.00000000E+00
  0.00000000E+00  0.00000000E+00  0.00000000E+00
  0.00000000E+00  0.00000000E+00  0.00000000E+00
  0.00000000E+00  0.00000000E+00  0.00000000E+00
  0.00000000E+00  0.00000000E+00  0.00000000E+00
  0.00000000E+00  0.00000000E+00  0.00000000E+00
  0.00000000E+00  0.00000000E+00  0.00000000E+00
  0.00000000E+00  0.00000000E+00  0.00000000E+00
  0.00000000E+00  0.00000000E+00  0.00000000E+00
  0.00000000E+00  0.00000000E+00  0.00000000E+00
  0.00000000E+00  0.00000000E+00  0.00000000E+00
