       N       E                     dE             d eps       ncg     rms          rms(c)
DAV:   1    -0.482107043741E+03   -0.48211E+03   -0.17630E+02  8192   0.140E+01    0.362E+01
DAV:   2    -0.449232753008E+03    0.32874E+02   -0.14531E+02  6144   0.116E+01    0.198E+01
DAV:   3    -0.448083365276E+03    0.11494E+01   -0.10243E+02  8192   0.107E+01    0.127E+01
DAV:   4    -0.443770823954E+03    0.43125E+01   -0.58680E+01  6144   0.586E+00    0.851E+00
DAV:   5    -0.443358112892E+03    0.41271E+00   -0.10181E+01  8192   0.319E+00    0.396E+00
DAV:   6    -0.444335745210E+03   -0.97763E+00   -0.20918E+00  5376   0.898E-01    0.317E+00
DAV:   7    -0.445326474928E+03   -0.99073E+00   -0.67705E-01  7168   0.785E-01    0.126E+00
DAV:   8    -0.445705111583E+03   -0.37864E+00   -0.17835E-01  7936   0.391E-01    0.728E-01
DAV:   9    -0.446006859814E+03   -0.30175E+00   -0.92494E-02  7936   0.298E-01    0.413E-01
DAV:  10    -0.446082492553E+03   -0.75633E-01   -0.75012E-02  4864   0.209E-01    0.254E-01
DAV:  11    -0.446126341939E+03   -0.43849E-01   -0.39347E-02  7168   0.173E-01    0.144E-01
DAV:  12    -0.446223028456E+03   -0.96687E-01   -0.90499E-02  5376   0.210E-01    0.970E-02
DAV:  13    -0.446266264729E+03   -0.43236E-01   -0.22817E-02  5632   0.995E-02    0.621E-02
DAV:  14    -0.446284033669E+03   -0.17769E-01   -0.30953E-03  7168   0.377E-02    0.400E-02
DAV:  15    -0.446292378614E+03   -0.83449E-02   -0.40985E-04  5120   0.156E-02    0.217E-02
DAV:  16    -0.446297012396E+03   -0.46338E-02   -0.26632E-04  7424   0.110E-02    0.147E-02
DAV:  17    -0.446300281918E+03   -0.32695E-02   -0.34598E-04  5120   0.111E-02    0.757E-03
DAV:  18    -0.446302243055E+03   -0.19611E-02   -0.14374E-04  5632   0.711E-03    0.472E-03
DAV:  19    -0.446302875517E+03   -0.63246E-03   -0.28967E-05  6656   0.312E-03    0.371E-03
DAV:  20    -0.446303151640E+03   -0.27612E-03   -0.12569E-05  5632   0.199E-03    0.257E-03
DAV:  21    -0.446303334897E+03   -0.18326E-03   -0.10306E-05  7936   0.172E-03    0.128E-03
DAV:  22    -0.446303417751E+03   -0.82854E-04   -0.52106E-06  7424   0.949E-04    0.142E-03
DAV:  23    -0.446303468683E+03   -0.50932E-04   -0.19570E-06  6400   0.617E-04    0.575E-04
DAV:  24    -0.446303508835E+03   -0.40152E-04   -0.13210E-06  7424   0.443E-04    0.308E-04
DAV:  25    -0.446303521670E+03   -0.12835E-04   -0.14006E-07  6912   0.197E-04    0.179E-04
DAV:  26    -0.446303526569E+03   -0.48991E-05   -0.74911E-08  7424   0.144E-04
   1 F= -.44803815E+03 E0= -.44802310E+03  d E =-.448038E+03  mag=     2.7041
       N       E                     dE             d eps       ncg     rms          rms(c)
DAV:   1    -0.446303725149E+03   -0.20348E-03   -0.28346E-02  5376   0.265E-01    0.357E-02
DAV:   2    -0.446303716964E+03    0.81853E-05   -0.32867E-04  7424   0.307E-02    0.214E-02
DAV:   3    -0.446303701340E+03    0.15624E-04   -0.28879E-05  6656   0.852E-03    0.665E-03
DAV:   4    -0.446303696327E+03    0.50122E-05   -0.53162E-06  5888   0.347E-03
   2 F= -.44803832E+03 E0= -.44802320E+03  d E =-.173538E-03  mag=     2.7034
       N       E                     dE             d eps       ncg     rms          rms(c)
DAV:   1    -0.446303838637E+03   -0.13730E-03   -0.74808E-03  7168   0.134E-01    0.199E-02
DAV:   2    -0.446303835492E+03    0.31450E-05   -0.86059E-05  6912   0.153E-02
   3 F= -.44803844E+03 E0= -.44802337E+03  d E =-.125932E-03  mag=     2.7034
