C  N  Nb                                
   1.00000000000000     
    12.3000000000000007    0.0000000000000000    0.0000000000000000
    -6.1499999999999977   10.6521124665485960    0.0000000000000000
     0.0000000000000000    0.0000000000000000   20.0000000000000000
   C    N    Nb
    44     4     1
Direct
  0.9992061175012292  0.0007939175324890  0.7395620722249320
  0.1317652131154257  0.0651724167724388  0.7398061088892751
  0.1984818536236649  0.9984227099314790  0.7397797810934486
  0.3306877585301609  0.0636192779499003  0.7443950892686648
  0.3985228105549421  0.9977863419793651  0.7464177091731207
  0.5320170134922678  0.0674622782964791  0.7498781101157721
  0.5995653010869353  0.0007728958162387  0.7488431384113228
  0.7323584452744512  0.0690133574876401  0.7486427858827459
  0.7994980201446934  0.0017216829019428  0.7455426207384214
  0.9325248742693630  0.0674751351746390  0.7430428086225280
  0.9982783078283559  0.2005019821668464  0.7455426216009664
  0.1311021152381973  0.2651805152283369  0.7464665746383518
  0.1969253496735806  0.1973553323811786  0.7444749688474200
  0.3282786799297430  0.2618841173644418  0.7512454547098167
  0.3951283341269866  0.1949260912192631  0.7512307429719280
  0.5943101364850994  0.2008944322737579  0.7555536907777169
  0.7291205208605090  0.2708794842838613  0.7551880731500973
  0.7969961975554177  0.2030037969881082  0.7507400089973161
  0.9309866303907384  0.2676415521699778  0.7486427837468879
  0.9992270815055496  0.4004346951136163  0.7488431361618860
  0.1340725555136681  0.4661863696410837  0.7488515046224744
  0.2007922751139998  0.3986694191889455  0.7498882565549361
  0.3342252048773732  0.4609866510075624  0.7555763431328604
  0.7991055623727220  0.4056898643368962  0.7555536905582838
  0.9325377064216200  0.4679829864141702  0.7498781079006792
  0.0022136481976268  0.6014771927963583  0.7464177029478911
  0.1350348576589525  0.6661244283588678  0.7455472257354286
  0.2023413157262109  0.5989827711177338  0.7486208886435670
  0.3363172883726650  0.6636827037024933  0.7506805697667024
  0.4042164720199080  0.5957835299084823  0.7551999161313496
  0.5390133471786500  0.6657747869980633  0.7555763417843386
  0.7381158745334919  0.6717213111068555  0.7512454494969184
  0.8050738992772144  0.6048716597751026  0.7512307427606245
  0.9363807247926811  0.6693122578004628  0.7443950904319996
  0.0015773211944246  0.8015181779629144  0.7397797801289113
  0.1341358182682952  0.8658642172551425  0.7396045226632013
  0.2008232414819115  0.7991767692668715  0.7431204887274594
  0.3338755763986284  0.8649651346881787  0.7455472294408459
  0.4010172248285195  0.7976586701885247  0.7486208887404274
  0.5338136248456904  0.8659274200299891  0.7488515021994325
  0.6013305777607509  0.7992077070247842  0.7498882542225314
  0.7348194849535056  0.8688978725752040  0.7464665736322667
  0.8026446821987407  0.8030746534440673  0.7444749647499495
  0.9348276150183605  0.8682348202035850  0.7398061091878815
  0.5236067499432654  0.2601308877073960  0.7624304788634481
  0.3934879618549794  0.3903319863207083  0.7624379595959424
  0.7398691010364747  0.4763932404852115  0.7624304773575641
  0.6096680043864217  0.6065120279774717  0.7624379556890287
  0.5666705225859260  0.4333294696848835  0.8025987043104380
 
  0.00000000E+00  0.00000000E+00  0.00000000E+00
  0.00000000E+00  0.00000000E+00  0.00000000E+00
  0.00000000E+00  0.00000000E+00  0.00000000E+00
  0.00000000E+00  0.00000000E+00  0.00000000E+00
  0.00000000E+00  0.00000000E+00  0.00000000E+00
  0.00000000E+00  0.00000000E+00  0.00000000E+00
  0.00000000E+00  0.00000000E+00  0.00000000E+00
  0.00000000E+00  0.00000000E+00  0.00000000E+00
  0.00000000E+00  0.00000000E+00  0.00000000E+00
  0.00000000E+00  0.00000000E+00  0.00000000E+00
  0.00000000E+00  0.00000000E+00  0.00000000E+00
  0.00000000E+00  0.00000000E+00  0.00000000E+00
  0.00000000E+00  0.00000000E+00  0.00000000E+00
  0.00000000E+00  0.00000000E+00  0.00000000E+00
  0.00000000E+00  0.00000000E+00  0.00000000E+00
  0.00000000E+00  0.00000000E+00  0.00000000E+00
  0.00000000E+00  0.00000000E+00  0.00000000E+00
  0.00000000E+00  0.00000000E+00  0.00000000E+00
  0.00000000E+00  0.00000000E+00  0.00000000E+00
  0.00000000E+00  0.00000000E+00  0.00000000E+00
  0.00000000E+00  0.00000000E+00  0.00000000E+00
  0.00000000E+00  0.00000000E+00  0.00000000E+00
  0.00000000E+00  0.00000000E+00  0.00000000E+00
  0.00000000E+00  0.00000000E+00  0.00000000E+00
  0.00000000E+00  0.00000000E+00  0.00000000E+00
  0.00000000E+00  0.00000000E+00  0.00000000E+00
  0.00000000E+00  0.00000000E+00  0.00000000E+00
  0.00000000E+00  0.00000000E+00  0.00000000E+00
  0.00000000E+00  0.00000000E+00  0.00000000E+00
  0.00000000E+00  0.00000000E+00  0.00000000E+00
  0.00000000E+00  0.00000000E+00  0.00000000E+00
  0.00000000E+00  0.00000000E+00  0.00000000E+00
  0.00000000E+00  0.00000000E+00  0.00000000E+00
  0.00000000E+00  0.00000000E+00  0.00000000E+00
  0.00000000E+00  0.00000000E+00  0.00000000E+00
  0.00000000E+00  0.00000000E+00  0.00000000E+00
  0.00000000E+00  0.00000000E+00  0.00000000E+00
  0.00000000E+00  0.00000000E+00  0.00000000E+00
  0.00000000E+00  0.00000000E+00  0.00000000E+00
  0.00000000E+00  0.00000000E+00  0.00000000E+00
  0.00000000E+00  0.00000000E+00  0.00000000E+00
  0.00000000E+00  0.00000000E+00  0.00000000E+00
  0.00000000E+00  0.00000000E+00  0.00000000E+00
  0.00000000E+00  0.00000000E+00  0.00000000E+00
  0.00000000E+00  0.00000000E+00  0.00000000E+00
  0.00000000E+00  0.00000000E+00  0.00000000E+00
  0.00000000E+00  0.00000000E+00  0.00000000E+00
  0.00000000E+00  0.00000000E+00  0.00000000E+00
  0.00000000E+00  0.00000000E+00  0.00000000E+00
