C  N  Pb                                
   1.00000000000000     
    12.3000000000000007    0.0000000000000000    0.0000000000000000
    -6.1499999999999977   10.6521124665485960    0.0000000000000000
     0.0000000000000000    0.0000000000000000   20.0000000000000000
   C    N    Pb
    44     4     1
Direct
  0.9993041805273606  0.0006957837427848  0.7386746815789422
  0.1318755161657137  0.0651899021880809  0.7389945328324075
  0.1985005726906763  0.9985338359223945  0.7389853144061718
  0.3310381548412025  0.0639718021809799  0.7437234229448677
  0.3987098626270367  0.9978921605673392  0.7453375664541895
  0.5317408451557029  0.0665953649510413  0.7490911240224492
  0.5993675608393971  0.0005355920960923  0.7479670272923542
  0.7325485998359156  0.0691772010143623  0.7480613260242492
  0.7995856443878750  0.0021806092606838  0.7444121803222004
  0.9324617985880721  0.0675382398515012  0.7419656658237201
  0.9978193700874982  0.2004142982902835  0.7444121804507517
  0.1312571171289889  0.2653940394378935  0.7452807550361413
  0.1973483836558216  0.1977348215882984  0.7437173513881987
  0.3287807303785826  0.2634332867620088  0.7517540537274030
  0.3967512844911312  0.1954329005681714  0.7517940377219858
  0.5934828914347179  0.2005412589536135  0.7559920623157552
  0.7291236603071667  0.2708764395979770  0.7565224107025372
  0.7968119193146848  0.2031881063789243  0.7510519603053893
  0.9308228874702564  0.2674514259863656  0.7480613292096479
  0.9994645481018196  0.4006324821078877  0.7479670319973266
  0.1338589265763801  0.4660428924199067  0.7479911791193672
  0.1999390062625963  0.3984168757972668  0.7490358347736148
  0.3339056989601872  0.4601831596451404  0.7559228675287244
  0.7994588318690887  0.4065171611790248  0.7559920646712257
  0.9334046547321577  0.4682591708593975  0.7490911333005883
  0.0021078258063412  0.6012901559754624  0.7453375607966635
  0.1355373866178766  0.6662704290252179  0.7444043495525392
  0.2024889847939590  0.5992167760645444  0.7480233295365792
  0.3365314332373615  0.6634686330787645  0.7509628648424069
  0.4041808429112734  0.5958192438597081  0.7564981117243335
  0.5398168313733436  0.6660943500355785  0.7559228692463833
  0.7365666976434611  0.6712192525073561  0.7517540483500724
  0.8045671100888114  0.6032486550691587  0.7517940348574328
  0.9360282421669481  0.6689618402025630  0.7437234220854023
  0.0014661449670115  0.8014993686931859  0.7389853162329842
  0.1340237405598188  0.8659763099994606  0.7387732597323549
  0.2008692128925631  0.7991307720406340  0.7420245612296412
  0.3337295662399242  0.8644626873702990  0.7444043522460078
  0.4007832722860556  0.7975110678838035  0.7480233325192032
  0.5339570656728583  0.8661410710079807  0.7479911823386800
  0.6015831263077374  0.8000610056590389  0.7490358392656020
  0.7346059567581449  0.8687429534897646  0.7452807533295029
  0.8022651335460367  0.8026516354381812  0.7437173485734263
  0.9348101403019555  0.8681245076365514  0.7389945325147025
  0.5236098584167834  0.2583686739339512  0.7612163570727617
  0.3917513137384887  0.3903403377522352  0.7611706124972955
  0.7416314218354003  0.4763901295393893  0.7612163469275401
  0.6096596193464876  0.6082487526823783  0.7611705971987135
  0.5666564260613356  0.4333435797073548  0.8287769233795785
 
  0.00000000E+00  0.00000000E+00  0.00000000E+00
  0.00000000E+00  0.00000000E+00  0.00000000E+00
  0.00000000E+00  0.00000000E+00  0.00000000E+00
  0.00000000E+00  0.00000000E+00  0.00000000E+00
  0.00000000E+00  0.00000000E+00  0.00000000E+00
  0.00000000E+00  0.00000000E+00  0.00000000E+00
  0.00000000E+00  0.00000000E+00  0.00000000E+00
  0.00000000E+00  0.00000000E+00  0.00000000E+00
  0.00000000E+00  0.00000000E+00  0.00000000E+00
  0.00000000E+00  0.00000000E+00  0.00000000E+00
  0.00000000E+00  0.00000000E+00  0.00000000E+00
  0.00000000E+00  0.00000000E+00  0.00000000E+00
  0.00000000E+00  0.00000000E+00  0.00000000E+00
  0.00000000E+00  0.00000000E+00  0.00000000E+00
  0.00000000E+00  0.00000000E+00  0.00000000E+00
  0.00000000E+00  0.00000000E+00  0.00000000E+00
  0.00000000E+00  0.00000000E+00  0.00000000E+00
  0.00000000E+00  0.00000000E+00  0.00000000E+00
  0.00000000E+00  0.00000000E+00  0.00000000E+00
  0.00000000E+00  0.00000000E+00  0.00000000E+00
  0.00000000E+00  0.00000000E+00  0.00000000E+00
  0.00000000E+00  0.00000000E+00  0.00000000E+00
  0.00000000E+00  0.00000000E+00  0.00000000E+00
  0.00000000E+00  0.00000000E+00  0.00000000E+00
  0.00000000E+00  0.00000000E+00  0.00000000E+00
  0.00000000E+00  0.00000000E+00  0.00000000E+00
  0.00000000E+00  0.00000000E+00  0.00000000E+00
  0.00000000E+00  0.00000000E+00  0.00000000E+00
  0.00000000E+00  0.00000000E+00  0.00000000E+00
  0.00000000E+00  0.00000000E+00  0.00000000E+00
  0.00000000E+00  0.00000000E+00  0.00000000E+00
  0.00000000E+00  0.00000000E+00  0.00000000E+00
  0.00000000E+00  0.00000000E+00  0.00000000E+00
  0.00000000E+00  0.00000000E+00  0.00000000E+00
  0.00000000E+00  0.00000000E+00  0.00000000E+00
  0.00000000E+00  0.00000000E+00  0.00000000E+00
  0.00000000E+00  0.00000000E+00  0.00000000E+00
  0.00000000E+00  0.00000000E+00  0.00000000E+00
  0.00000000E+00  0.00000000E+00  0.00000000E+00
  0.00000000E+00  0.00000000E+00  0.00000000E+00
  0.00000000E+00  0.00000000E+00  0.00000000E+00
  0.00000000E+00  0.00000000E+00  0.00000000E+00
  0.00000000E+00  0.00000000E+00  0.00000000E+00
  0.00000000E+00  0.00000000E+00  0.00000000E+00
  0.00000000E+00  0.00000000E+00  0.00000000E+00
  0.00000000E+00  0.00000000E+00  0.00000000E+00
  0.00000000E+00  0.00000000E+00  0.00000000E+00
  0.00000000E+00  0.00000000E+00  0.00000000E+00
  0.00000000E+00  0.00000000E+00  0.00000000E+00
