       N       E                     dE             d eps       ncg     rms          ort
SDA:   1    -0.331266575799E+03   -0.33127E+03    0.00000E+00  3328   0.134E+03 0.000E+00
CGA:   2    -0.405858882362E+03   -0.74592E+02   -0.94143E+02  3328   0.970E+02-0.323E+02
CGA:   3    -0.423643691013E+03   -0.17785E+02   -0.17730E+02  3328   0.340E+02 0.185E+01
CGA:   4    -0.434148449944E+03   -0.10505E+02   -0.10479E+02  3328   0.146E+02 0.158E+00
CGA:   5    -0.438020939286E+03   -0.38725E+01   -0.38637E+01  3328   0.534E+01 0.146E+00
CGA:   6    -0.439509649647E+03   -0.14887E+01   -0.14940E+01  3328   0.200E+01-0.668E-01
CGA:   7    -0.440073723483E+03   -0.56407E+00   -0.56296E+00  3328   0.631E+00 0.156E-01
CGA:   8    -0.440278770363E+03   -0.20505E+00   -0.20514E+00  3328   0.220E+00-0.756E-03
CGA:   9    -0.440353528565E+03   -0.74758E-01   -0.74784E-01  3328   0.858E-01-0.169E-03
CGA:  10    -0.440382556544E+03   -0.29028E-01   -0.29041E-01  3328   0.346E-01-0.142E-03
CGA:  11    -0.440393806674E+03   -0.11250E-01   -0.11250E-01  3328   0.116E-01 0.981E-05
CGA:  12    -0.440397746967E+03   -0.39403E-02   -0.39443E-02  3328   0.359E-02-0.439E-04
CGA:  13    -0.440399017747E+03   -0.12708E-02   -0.12720E-02  3328   0.119E-02-0.114E-04
CGA:  14    -0.440399461581E+03   -0.44383E-03   -0.44336E-03  3328   0.470E-03 0.440E-05
CGA:  15    -0.440399642181E+03   -0.18060E-03   -0.18157E-03  3328   0.193E-03-0.721E-05
CGA:  16    -0.440399714086E+03   -0.71905E-04   -0.71439E-04  3328   0.682E-04 0.373E-05
CGA:  17    -0.440399739105E+03   -0.25019E-04   -0.24822E-04  3328   0.250E-04 0.298E-05
CGA:  18    -0.440399748009E+03   -0.89044E-05   -0.88360E-05  3328   0.878E-05 0.679E-06
   1 F= -.44216875E+03 E0= -.44216457E+03  d E =-.837008E-02  mag=    -0.0000
