       N       E                     dE             d eps       ncg     rms          ort
SDA:   1    -0.338768760308E+03   -0.33877E+03    0.00000E+00  3328   0.137E+03 0.000E+00
CGA:   2    -0.415248610421E+03   -0.76480E+02   -0.71670E+02  3328   0.561E+02 0.115E+02
CGA:   3    -0.433666007677E+03   -0.18417E+02   -0.18368E+02  3328   0.323E+02 0.234E+00
CGA:   4    -0.440604554853E+03   -0.69385E+01   -0.69419E+01  3328   0.215E+02 0.824E-01
CGA:   5    -0.443451588057E+03   -0.28470E+01   -0.28847E+01  3328   0.874E+01 0.911E-01
CGA:   6    -0.445007159645E+03   -0.15556E+01   -0.15562E+01  3328   0.340E+01-0.153E-01
CGA:   7    -0.445653348960E+03   -0.64619E+00   -0.64449E+00  3328   0.168E+01-0.288E-01
CGA:   8    -0.445944811055E+03   -0.29146E+00   -0.29084E+00  3328   0.610E+00-0.548E-02
CGA:   9    -0.446066253284E+03   -0.12144E+00   -0.12146E+00  3328   0.232E+00 0.636E-03
CGA:  10    -0.446115266713E+03   -0.49013E-01   -0.49013E-01  3328   0.922E-01 0.197E-04
CGA:  11    -0.446135935445E+03   -0.20669E-01   -0.20674E-01  3328   0.403E-01-0.213E-03
CGA:  12    -0.446146071081E+03   -0.10136E-01   -0.10135E-01  3328   0.172E-01-0.480E-05
CGA:  13    -0.446150720995E+03   -0.46499E-02   -0.46512E-02  3328   0.820E-02-0.241E-04
CGA:  14    -0.446152753608E+03   -0.20326E-02   -0.20332E-02  3328   0.313E-02-0.122E-04
CGA:  15    -0.446153604661E+03   -0.85105E-03   -0.85178E-03  3328   0.107E-02-0.121E-04
CGA:  16    -0.446153901887E+03   -0.29723E-03   -0.29743E-03  3328   0.384E-03-0.324E-05
CGA:  17    -0.446154007590E+03   -0.10570E-03   -0.10560E-03  3328   0.157E-03 0.211E-05
CGA:  18    -0.446154052851E+03   -0.45261E-04   -0.45387E-04  3328   0.671E-04-0.205E-05
CGA:  19    -0.446154073043E+03   -0.20192E-04   -0.20175E-04  3328   0.272E-04 0.213E-06
CGA:  20    -0.446154081691E+03   -0.86480E-05   -0.86605E-05  3328   0.114E-04-0.147E-06
   1 F= -.44789897E+03 E0= -.44787961E+03  d E =-.387182E-01  mag=     0.7756
