C  N  Zr                                
   1.00000000000000     
    12.3000000000000007    0.0000000000000000    0.0000000000000000
    -6.1499999999999977   10.6521124665485960    0.0000000000000000
     0.0000000000000000    0.0000000000000000   20.0000000000000000
   C    N    Zr
    44     4     1
Direct
  0.9993725105426391  0.0006274804716543  0.7498537129565226
  0.1319947977749052  0.0654720626439246  0.7503557917380210
  0.1987970063726476  0.9986697034386567  0.7503453074226647
  0.3307887116532285  0.0638147082476042  0.7502879278184285
  0.3986045256938578  0.9980036051497843  0.7485112490923614
  0.5323074280203390  0.0669210712271207  0.7473227436988440
  0.5997697463191917  0.0006080887859210  0.7464085187574243
  0.7324972261728031  0.0684911688844790  0.7468870100195603
  0.7996785047281635  0.0012738481833669  0.7478872503121399
  0.9327885776303380  0.0672114229937623  0.7487416809409756
  0.9987261548492419  0.2003214983519466  0.7478872520760455
  0.1313411927791095  0.2652849359970205  0.7485112445309924
  0.1971478288377181  0.1974668873673320  0.7502546305978993
  0.3297718965572898  0.2637345638706169  0.7513567584882593
  0.3970371248006793  0.1964481664364107  0.7514166541693353
  0.5955226004484243  0.2001961398156215  0.7490205474229616
  0.7299817939605847  0.2700182079902766  0.7482160248231938
  0.7976560429773876  0.2023439657965343  0.7470896567659830
  0.9315088401776046  0.2675027834579093  0.7468870107684600
  0.9993919209783584  0.4002302636757401  0.7464085180149047
  0.1339685682669647  0.4664684482991771  0.7463969899081052
  0.2002626608855863  0.3989775679060161  0.7473037603615044
  0.3335554671028124  0.4622051044222066  0.7490347679459656
  0.7998038612608769  0.4044773996952179  0.7490205482997134
  0.9330789325302159  0.4676925755801395  0.7473227420695117
  0.0019963965903511  0.6013954762265550  0.7485112442893668
  0.1346101563236399  0.6663348245186301  0.7478620492321425
  0.2018298072046130  0.5991710902907529  0.7468599219633789
  0.3356658221381805  0.6643341872510516  0.7470931890567669
  0.4033397482117533  0.5966602536534746  0.7482689974414162
  0.5377948956463051  0.6664445339901676  0.7490347683100874
  0.7362654286677492  0.6702280960759612  0.7513567556540290
  0.8035518258403072  0.6029628675032171  0.7514166517054867
  0.9361852843604626  0.6692112811545542  0.7502879251243522
  0.0013302871340735  0.8012029840604532  0.7503453049341688
  0.1339616547372179  0.8660383371206478  0.7498186091046376
  0.2005511500000492  0.7994488517658095  0.7487199057714665
  0.3336651800516935  0.8653898476979467  0.7478620533965685
  0.4008289205326500  0.7981702026233909  0.7468599239657417
  0.5335315621182039  0.8660314417369457  0.7463969902805825
  0.6010224356802419  0.7997373427312020  0.7473037587348413
  0.7347150655806181  0.8686588085908478  0.7485112435736642
  0.8025331054921756  0.8028521638546260  0.7502546282684182
  0.9345279278924378  0.8680051922818960  0.7503557910890695
  0.5267987028483592  0.2609949579293280  0.7531705242813720
  0.3943377114047979  0.3934845739346565  0.7531568587242399
  0.7390050368380986  0.4732012911003816  0.7531705247556646
  0.6065154204064752  0.6056622844429560  0.7531568600596669
  0.5666715529785953  0.4333284407761116  0.7984962212830944
 
  0.00000000E+00  0.00000000E+00  0.00000000E+00
  0.00000000E+00  0.00000000E+00  0.00000000E+00
  0.00000000E+00  0.00000000E+00  0.00000000E+00
  0.00000000E+00  0.00000000E+00  0.00000000E+00
  0.00000000E+00  0.00000000E+00  0.00000000E+00
  0.00000000E+00  0.00000000E+00  0.00000000E+00
  0.00000000E+00  0.00000000E+00  0.00000000E+00
  0.00000000E+00  0.00000000E+00  0.00000000E+00
  0.00000000E+00  0.00000000E+00  0.00000000E+00
  0.00000000E+00  0.00000000E+00  0.00000000E+00
  0.00000000E+00  0.00000000E+00  0.00000000E+00
  0.00000000E+00  0.00000000E+00  0.00000000E+00
  0.00000000E+00  0.00000000E+00  0.00000000E+00
  0.00000000E+00  0.00000000E+00  0.00000000E+00
  0.00000000E+00  0.00000000E+00  0.00000000E+00
  0.00000000E+00  0.00000000E+00  0.00000000E+00
  0.00000000E+00  0.00000000E+00  0.00000000E+00
  0.00000000E+00  0.00000000E+00  0.00000000E+00
  0.00000000E+00  0.00000000E+00  0.00000000E+00
  0.00000000E+00  0.00000000E+00  0.00000000E+00
  0.00000000E+00  0.00000000E+00  0.00000000E+00
  0.00000000E+00  0.00000000E+00  0.00000000E+00
  0.00000000E+00  0.00000000E+00  0.00000000E+00
  0.00000000E+00  0.00000000E+00  0.00000000E+00
  0.00000000E+00  0.00000000E+00  0.00000000E+00
  0.00000000E+00  0.00000000E+00  0.00000000E+00
  0.00000000E+00  0.00000000E+00  0.00000000E+00
  0.00000000E+00  0.00000000E+00  0.00000000E+00
  0.00000000E+00  0.00000000E+00  0.00000000E+00
  0.00000000E+00  0.00000000E+00  0.00000000E+00
  0.00000000E+00  0.00000000E+00  0.00000000E+00
  0.00000000E+00  0.00000000E+00  0.00000000E+00
  0.00000000E+00  0.00000000E+00  0.00000000E+00
  0.00000000E+00  0.00000000E+00  0.00000000E+00
  0.00000000E+00  0.00000000E+00  0.00000000E+00
  0.00000000E+00  0.00000000E+00  0.00000000E+00
  0.00000000E+00  0.00000000E+00  0.00000000E+00
  0.00000000E+00  0.00000000E+00  0.00000000E+00
  0.00000000E+00  0.00000000E+00  0.00000000E+00
  0.00000000E+00  0.00000000E+00  0.00000000E+00
  0.00000000E+00  0.00000000E+00  0.00000000E+00
  0.00000000E+00  0.00000000E+00  0.00000000E+00
  0.00000000E+00  0.00000000E+00  0.00000000E+00
  0.00000000E+00  0.00000000E+00  0.00000000E+00
  0.00000000E+00  0.00000000E+00  0.00000000E+00
  0.00000000E+00  0.00000000E+00  0.00000000E+00
  0.00000000E+00  0.00000000E+00  0.00000000E+00
  0.00000000E+00  0.00000000E+00  0.00000000E+00
  0.00000000E+00  0.00000000E+00  0.00000000E+00
