C  N  Yb
 1.0000000000000000
    12.3000000000000007    0.0000000000000000    0.0000000000000000
    -6.1499999999999977   10.6521124665485960    0.0000000000000000
     0.0000000000000000    0.0000000000000000   20.0000000000000000
 C   N   Yb 
  44   4   1
Direct
  0.9993920000000001  0.0006080000000000  0.7455480000000000
  0.1318990000000000  0.0651910000000000  0.7459920000000002
  0.1985039999999999  0.9985719999999999  0.7460730000000000
  0.3310700000000000  0.0641590000000000  0.7483110000000002
  0.3986680000000000  0.9980320000000000  0.7478580000000000
  0.5319270000000000  0.0664660000000000  0.7488300000000000
  0.5994429999999999  0.0004060000000000  0.7473860000000001
  0.7325880000000000  0.0688330000000000  0.7480100000000000
  0.7997090000000001  0.0018840000000000  0.7469570000000001
  0.9326070000000000  0.0673930000000000  0.7464390000000001
  0.9981160000000000  0.2002910000000000  0.7469570000000001
  0.1313540000000000  0.2653570000000000  0.7477220000000000
  0.1974790000000000  0.1977540000000000  0.7481570000000000
  0.3295100000000000  0.2641990000000000  0.7534650000000003
  0.3974900000000000  0.1962150000000000  0.7535330000000000
  0.5941450000000000  0.2002130000000000  0.7542500000000000
  0.7295540000000000  0.2704460000000000  0.7538330000000002
  0.7971590000000001  0.2028410000000000  0.7498270000000000
  0.9311670000000000  0.2674120000000000  0.7480100000000000
  0.9995950000000002  0.4005570000000000  0.7473860000000001
  0.1338130000000000  0.4661670000000000  0.7473590000000000
  0.1998380000000000  0.3985950000000000  0.7487340000000000
  0.3335740000000000  0.4607960000000000  0.7541870000000001
  0.7997870000000000  0.4058550000000000  0.7542500000000000
  0.9335340000000000  0.4680730000000000  0.7488300000000000
  0.0019680000000000  0.6013320000000000  0.7478580000000000
  0.1352150000000000  0.6663840000000000  0.7470290000000001
  0.2021950000000000  0.5992820000000000  0.7480080000000000
  0.3361930000000001  0.6638070000000000  0.7498160000000000
  0.4037920000000000  0.5962080000000000  0.7538070000000001
  0.5392040000000000  0.6664260000000000  0.7541870000000001
  0.7358010000000000  0.6704900000000000  0.7534650000000003
  0.8037850000000000  0.6025100000000000  0.7535330000000000
  0.9358400000000000  0.6689300000000000  0.7483110000000002
  0.0014280000000000  0.8014960000000000  0.7460730000000000
  0.1339380000000001  0.8660620000000000  0.7456400000000000
  0.2007160000000001  0.7992840000000001  0.7465330000000000
  0.3336160000000000  0.8647850000000000  0.7470290000000001
  0.4007180000000001  0.7978050000000000  0.7480080000000000
  0.5338330000000001  0.8661870000000002  0.7473590000000000
  0.6014050000000000  0.8001620000000000  0.7487340000000000
  0.7346430000000000  0.8686460000000001  0.7477220000000000
  0.8022460000000000  0.8025210000000000  0.7481570000000000
  0.9348090000000000  0.8681010000000000  0.7459920000000002
  0.5256140000000000  0.2595150000000000  0.7605050000000002
  0.3928660000000000  0.3922910000000000  0.7604490000000000
  0.7404850000000001  0.4743860000000000  0.7605050000000002
  0.6077090000000001  0.6071340000000000  0.7604490000000000
  0.5666530000000000  0.4333470000000000  0.8179300000000002
