       N       E                     dE             d eps       ncg     rms          rms(c)
DAV:   1     0.114972713899E+04    0.11497E+04   -0.81745E+04  4096   0.564E+02
DAV:   2    -0.400012125353E+03   -0.15497E+04   -0.15474E+04  6144   0.111E+02
DAV:   3    -0.473124898753E+03   -0.73113E+02   -0.73112E+02  8192   0.359E+01
DAV:   4    -0.473174848312E+03   -0.49950E-01   -0.49950E-01  4864   0.115E+00
DAV:   5    -0.473175036649E+03   -0.18834E-03   -0.18834E-03  8192   0.677E-02    0.281E+01
DAV:   6    -0.449419303765E+03    0.23756E+02   -0.33991E+01  6656   0.659E+00    0.143E+01
DAV:   7    -0.441459171327E+03    0.79601E+01   -0.19164E+01  8192   0.497E+00    0.363E+00
DAV:   8    -0.440984097892E+03    0.47507E+00   -0.10177E+00  8192   0.115E+00    0.174E+00
DAV:   9    -0.440812066802E+03    0.17203E+00   -0.10999E-01  8192   0.439E-01    0.363E-01
DAV:  10    -0.440782094576E+03    0.29972E-01   -0.13598E-02  7680   0.113E-01    0.263E-01
DAV:  11    -0.440762687341E+03    0.19407E-01   -0.47168E-02  8192   0.172E-01    0.128E-01
DAV:  12    -0.440771451936E+03   -0.87646E-02   -0.57306E-03  6656   0.735E-02    0.707E-02
DAV:  13    -0.440787768171E+03   -0.16316E-01   -0.13828E-03  7168   0.369E-02    0.436E-02
DAV:  14    -0.440798437211E+03   -0.10669E-01   -0.90696E-04  7168   0.276E-02    0.273E-02
DAV:  15    -0.440805127697E+03   -0.66905E-02   -0.61220E-04  7168   0.194E-02    0.136E-02
DAV:  16    -0.440807426643E+03   -0.22989E-02   -0.15485E-04  7168   0.102E-02    0.841E-03
DAV:  17    -0.440808435365E+03   -0.10087E-02   -0.68117E-05  5120   0.674E-03    0.441E-03
DAV:  18    -0.440808850734E+03   -0.41537E-03   -0.25040E-05  5632   0.389E-03    0.278E-03
DAV:  19    -0.440809025370E+03   -0.17464E-03   -0.73966E-06  5120   0.218E-03    0.177E-03
DAV:  20    -0.440809141760E+03   -0.11639E-03   -0.62949E-06  5632   0.177E-03    0.123E-03
DAV:  21    -0.440809184401E+03   -0.42641E-04   -0.89858E-07  7168   0.818E-04    0.949E-04
DAV:  22    -0.440809235492E+03   -0.51091E-04   -0.29083E-07  5632   0.541E-04    0.568E-04
DAV:  23    -0.440809260534E+03   -0.25042E-04   -0.12337E-07  6144   0.355E-04    0.322E-04
DAV:  24    -0.440809270119E+03   -0.95846E-05   -0.35836E-08  8192   0.179E-04
   1 F= -.44251949E+03 E0= -.44251909E+03  d E =-.442519E+03  mag=     0.0000
