C  N  Mg
 1.0000000000000000
    12.3000000000000007    0.0000000000000000    0.0000000000000000
    -6.1499999999999977   10.6521124665485960    0.0000000000000000
     0.0000000000000000    0.0000000000000000   20.0000000000000000
 C   N   Mg 
  44   4   1
Direct
  0.9992140000000003  0.0007860000000000  0.7500000000000000
  0.1311240000000000  0.0644000000000000  0.7500000000000000
  0.1977210000000000  0.9978040000000000  0.7500000000000000
  0.3299530000000000  0.0625280000000000  0.7500000000000000
  0.3984190000000000  0.9972920000000000  0.7500000000000000
  0.5315550000000000  0.0659230000000000  0.7500000000000000
  0.5993220000000001  0.0003700000000000  0.7500000000000000
  0.7324430000000000  0.0692660000000000  0.7500000000000000
  0.7996570000000000  0.0025200000000000  0.7500000000000000
  0.9323680000000001  0.0676320000000000  0.7500000000000000
  0.9974800000000000  0.2003430000000000  0.7500000000000000
  0.1306320000000000  0.2650830000000000  0.7500000000000000
  0.1958750000000000  0.1966240000000000  0.7500000000000000
  0.3272060000000000  0.2620900000000000  0.7500000000000000
  0.3954010000000000  0.1938760000000000  0.7500000000000000
  0.5934469999999999  0.1999460000000000  0.7500000000000000
  0.7289750000000000  0.2710250000000000  0.7500000000000000
  0.7966940000000000  0.2033060000000000  0.7500000000000000
  0.9307340000000000  0.2675570000000000  0.7500000000000000
  0.9996300000000002  0.4006780000000000  0.7500000000000000
  0.1336870000000000  0.4659970000000000  0.7500000000000000
  0.1992540000000000  0.3982010000000001  0.7500000000000000
  0.3332990000000000  0.4600960000000001  0.7500000000000000
  0.8000540000000000  0.4065530000000000  0.7500000000000000
  0.9340770000000002  0.4684450000000000  0.7500000000000000
  0.0027080000000000  0.6015810000000000  0.7500000000000000
  0.1358380000000000  0.6663400000000000  0.7500000000000000
  0.2025850000000000  0.5991270000000000  0.7500000000000000
  0.3366350000000000  0.6633650000000000  0.7500000000000000
  0.4043640000000000  0.5956360000000001  0.7500000000000000
  0.5399040000000001  0.6667010000000000  0.7500000000000000
  0.7379100000000000  0.6727940000000000  0.7500000000000000
  0.8061240000000000  0.6045990000000000  0.7500000000000000
  0.9374720000000000  0.6700469999999999  0.7500000000000000
  0.0021960000000000  0.8022790000000000  0.7500000000000000
  0.1341170000000000  0.8658830000000000  0.7500000000000000
  0.2009510000000000  0.7990490000000000  0.7500000000000000
  0.3336600000000000  0.8641620000000000  0.7500000000000000
  0.4008730000000000  0.7974150000000000  0.7500000000000000
  0.5340030000000000  0.8663129999999999  0.7500000000000000
  0.6017990000000000  0.8007460000000000  0.7500000000000000
  0.7349170000000003  0.8693680000000001  0.7500000000000000
  0.8033760000000001  0.8041250000000000  0.7500000000000000
  0.9356000000000000  0.8688760000000000  0.7500000000000000
  0.5234550000000000  0.2575430000000000  0.7500000000000000
  0.3908850000000001  0.3901270000000000  0.7500000000000000
  0.7424570000000000  0.4765450000000000  0.7500000000000000
  0.6098730000000000  0.6091150000000000  0.7500000000000000
  0.5666660000000000  0.4333340000000001  0.7510000000000000
