       N       E                     dE             d eps       ncg     rms          rms(c)
DAV:   1    -0.480156824110E+03   -0.48016E+03   -0.16142E+02  8192   0.130E+01    0.331E+01
DAV:   2    -0.469376960011E+03    0.10780E+02   -0.56824E+02  6400   0.172E+01    0.226E+01
DAV:   3    -0.449606271072E+03    0.19771E+02   -0.51700E+01  5632   0.172E+01    0.116E+01
DAV:   4    -0.446955126510E+03    0.26511E+01   -0.75888E+01  8192   0.116E+01    0.158E+01
DAV:   5    -0.443948751245E+03    0.30064E+01   -0.87391E+01  7424   0.537E+00    0.444E+00
DAV:   6    -0.445082961791E+03   -0.11342E+01   -0.10916E+00  7168   0.127E+00    0.412E+00
DAV:   7    -0.444818402217E+03    0.26456E+00   -0.97613E-01  6656   0.135E+00    0.267E+00
DAV:   8    -0.444790415406E+03    0.27987E-01   -0.49227E-01  8192   0.855E-01    0.119E+00
DAV:   9    -0.444859508758E+03   -0.69093E-01   -0.38050E-02  6400   0.231E-01    0.902E-01
DAV:  10    -0.445037451209E+03   -0.17794E+00   -0.30496E-01  7424   0.439E-01    0.572E-01
DAV:  11    -0.445098772767E+03   -0.61322E-01   -0.42653E-02  7936   0.181E-01    0.298E-01
DAV:  12    -0.445097499808E+03    0.12730E-02   -0.10993E-02  5632   0.115E-01    0.305E-01
DAV:  13    -0.445115947595E+03   -0.18448E-01   -0.89394E-03  6400   0.751E-02    0.171E-01
DAV:  14    -0.445125156977E+03   -0.92094E-02   -0.18979E-03  5888   0.330E-02    0.136E-01
DAV:  15    -0.445135096964E+03   -0.99400E-02   -0.30424E-03  7168   0.464E-02    0.719E-02
DAV:  16    -0.445139957224E+03   -0.48603E-02   -0.15935E-03  6400   0.361E-02    0.281E-02
DAV:  17    -0.445141725998E+03   -0.17688E-02   -0.30285E-04  7424   0.148E-02    0.205E-02
DAV:  18    -0.445143690435E+03   -0.19644E-02   -0.11455E-04  6400   0.764E-03    0.144E-02
DAV:  19    -0.445144447643E+03   -0.75721E-03   -0.45000E-05  5632   0.539E-03    0.101E-02
DAV:  20    -0.445145065252E+03   -0.61761E-03   -0.55983E-05  5376   0.479E-03    0.706E-03
DAV:  21    -0.445145365020E+03   -0.29977E-03   -0.14026E-05  4096   0.276E-03    0.224E-03
DAV:  22    -0.445145470569E+03   -0.10555E-03   -0.40544E-06  7168   0.160E-03    0.176E-03
DAV:  23    -0.445145530049E+03   -0.59479E-04   -0.32513E-06  7424   0.120E-03    0.887E-04
DAV:  24    -0.445145550981E+03   -0.20932E-04   -0.70501E-07  6912   0.680E-04    0.536E-04
DAV:  25    -0.445145569770E+03   -0.18789E-04   -0.26461E-07  6656   0.498E-04    0.371E-04
DAV:  26    -0.445145578439E+03   -0.86693E-05   -0.19187E-07  7424   0.344E-04
   1 F= -.44694249E+03 E0= -.44693428E+03  d E =-.446942E+03  mag=     0.4972
       N       E                     dE             d eps       ncg     rms          rms(c)
DAV:   1    -0.445145744229E+03   -0.17446E-03   -0.14076E-02  6144   0.173E-01    0.227E-02
DAV:   2    -0.445145740739E+03    0.34902E-05   -0.11277E-04  6144   0.180E-02    0.134E-02
DAV:   3    -0.445145741161E+03   -0.42141E-06   -0.25939E-05  7680   0.704E-03
   2 F= -.44694267E+03 E0= -.44693449E+03  d E =-.184329E-03  mag=     0.4971
