C  N  Ir                                
   1.00000000000000     
    12.3000000000000007    0.0000000000000000    0.0000000000000000
    -6.1499999999999977   10.6521124665485960    0.0000000000000000
     0.0000000000000000    0.0000000000000000   20.0000000000000000
   C    N    Ir
    44     4     1
Direct
  0.9988859999999988  0.0011140000000012  0.7478460000000027
  0.1302579999999978  0.0635729999999981  0.7484139999999968
  0.1969040000000035  0.9969279999999969  0.7484139999999968
  0.3289010000000019  0.0607839999999982  0.7502509999999987
  0.3981629999999967  0.9962489999999988  0.7499460000000013
  0.5306640000000016  0.0662749999999974  0.7509439999999969
  0.5989229999999992  0.0004330000000010  0.7500130000000027
  0.7317790000000031  0.0700860000000034  0.7499409999999997
  0.7992929999999987  0.0034750000000017  0.7490459999999999
  0.9318170000000023  0.0681829999999977  0.7484040000000007
  0.9965249999999983  0.2007070000000013  0.7490459999999999
  0.1295780000000022  0.2648319999999984  0.7499460000000013
  0.1941130000000015  0.1955699999999965  0.7502509999999987
  0.3238910000000033  0.2584159999999969  0.7531329999999983
  0.3917470000000023  0.1905610000000024  0.7531329999999983
  0.5923659999999984  0.2005330000000001  0.7533099999999990
  0.7278050000000036  0.2721950000000035  0.7529830000000004
  0.7956379999999967  0.2043620000000033  0.7508959999999973
  0.9299139999999966  0.2682209999999969  0.7499409999999997
  0.9995669999999990  0.4010770000000008  0.7500130000000027
  0.1337630000000019  0.4655920000000009  0.7500130000000027
  0.1996060000000028  0.3973349999999982  0.7509439999999969
  0.3338620000000034  0.4590350000000001  0.7533099999999990
  0.7994669999999999  0.4076340000000016  0.7533099999999990
  0.9337250000000026  0.4693359999999984  0.7509439999999969
  0.0037510000000012  0.6018370000000033  0.7499460000000013
  0.1368039999999979  0.6659629999999979  0.7490459999999999
  0.2034159999999972  0.5984490000000022  0.7499409999999997
  0.3376909999999995  0.6623090000000005  0.7508959999999973
  0.4055249999999972  0.5944750000000028  0.7529830000000004
  0.5409649999999999  0.6661379999999966  0.7533099999999990
  0.7415840000000031  0.6761089999999967  0.7531329999999983
  0.8094389999999976  0.6082529999999977  0.7531329999999983
  0.9392160000000018  0.6710989999999981  0.7502509999999987
  0.0030720000000031  0.8030959999999965  0.7484139999999968
  0.1344449999999995  0.8655550000000005  0.7478460000000027
  0.2015140000000031  0.7984859999999969  0.7484040000000007
  0.3340370000000021  0.8631960000000021  0.7490459999999999
  0.4015509999999978  0.7965840000000028  0.7499409999999997
  0.5344079999999991  0.8662369999999981  0.7500130000000027
  0.6026650000000018  0.8003939999999972  0.7509439999999969
  0.7351680000000016  0.8704219999999978  0.7499460000000013
  0.8044299999999964  0.8058869999999985  0.7502509999999987
  0.9364270000000019  0.8697420000000022  0.7484139999999968
  0.5201160000000016  0.2572079999999985  0.7554920000000038
  0.3905359999999973  0.3867839999999987  0.7554920000000038
  0.7427920000000015  0.4798839999999984  0.7554920000000038
  0.6132160000000013  0.6094640000000027  0.7554920000000038
  0.5666650000000004  0.4333349999999996  0.7577870000000004
 
  0.00000000E+00  0.00000000E+00  0.00000000E+00
  0.00000000E+00  0.00000000E+00  0.00000000E+00
  0.00000000E+00  0.00000000E+00  0.00000000E+00
  0.00000000E+00  0.00000000E+00  0.00000000E+00
  0.00000000E+00  0.00000000E+00  0.00000000E+00
  0.00000000E+00  0.00000000E+00  0.00000000E+00
  0.00000000E+00  0.00000000E+00  0.00000000E+00
  0.00000000E+00  0.00000000E+00  0.00000000E+00
  0.00000000E+00  0.00000000E+00  0.00000000E+00
  0.00000000E+00  0.00000000E+00  0.00000000E+00
  0.00000000E+00  0.00000000E+00  0.00000000E+00
  0.00000000E+00  0.00000000E+00  0.00000000E+00
  0.00000000E+00  0.00000000E+00  0.00000000E+00
  0.00000000E+00  0.00000000E+00  0.00000000E+00
  0.00000000E+00  0.00000000E+00  0.00000000E+00
  0.00000000E+00  0.00000000E+00  0.00000000E+00
  0.00000000E+00  0.00000000E+00  0.00000000E+00
  0.00000000E+00  0.00000000E+00  0.00000000E+00
  0.00000000E+00  0.00000000E+00  0.00000000E+00
  0.00000000E+00  0.00000000E+00  0.00000000E+00
  0.00000000E+00  0.00000000E+00  0.00000000E+00
  0.00000000E+00  0.00000000E+00  0.00000000E+00
  0.00000000E+00  0.00000000E+00  0.00000000E+00
  0.00000000E+00  0.00000000E+00  0.00000000E+00
  0.00000000E+00  0.00000000E+00  0.00000000E+00
  0.00000000E+00  0.00000000E+00  0.00000000E+00
  0.00000000E+00  0.00000000E+00  0.00000000E+00
  0.00000000E+00  0.00000000E+00  0.00000000E+00
  0.00000000E+00  0.00000000E+00  0.00000000E+00
  0.00000000E+00  0.00000000E+00  0.00000000E+00
  0.00000000E+00  0.00000000E+00  0.00000000E+00
  0.00000000E+00  0.00000000E+00  0.00000000E+00
  0.00000000E+00  0.00000000E+00  0.00000000E+00
  0.00000000E+00  0.00000000E+00  0.00000000E+00
  0.00000000E+00  0.00000000E+00  0.00000000E+00
  0.00000000E+00  0.00000000E+00  0.00000000E+00
  0.00000000E+00  0.00000000E+00  0.00000000E+00
  0.00000000E+00  0.00000000E+00  0.00000000E+00
  0.00000000E+00  0.00000000E+00  0.00000000E+00
  0.00000000E+00  0.00000000E+00  0.00000000E+00
  0.00000000E+00  0.00000000E+00  0.00000000E+00
  0.00000000E+00  0.00000000E+00  0.00000000E+00
  0.00000000E+00  0.00000000E+00  0.00000000E+00
  0.00000000E+00  0.00000000E+00  0.00000000E+00
  0.00000000E+00  0.00000000E+00  0.00000000E+00
  0.00000000E+00  0.00000000E+00  0.00000000E+00
  0.00000000E+00  0.00000000E+00  0.00000000E+00
  0.00000000E+00  0.00000000E+00  0.00000000E+00
  0.00000000E+00  0.00000000E+00  0.00000000E+00
