       N       E                     dE             d eps       ncg     rms          rms(c)
DAV:   1    -0.485595799369E+03   -0.48560E+03   -0.18184E+02  8192   0.130E+01    0.313E+01
DAV:   2    -0.454591385169E+03    0.31004E+02   -0.98216E+01  6144   0.920E+00    0.163E+01
DAV:   3    -0.450993032600E+03    0.35984E+01   -0.62032E+01  7936   0.537E+00    0.106E+01
DAV:   4    -0.447038869678E+03    0.39542E+01   -0.39066E+01  8192   0.438E+00    0.570E+00
DAV:   5    -0.446975034259E+03    0.63835E-01   -0.59035E+00  7168   0.148E+00    0.287E+00
DAV:   6    -0.447273220489E+03   -0.29819E+00   -0.12309E+00  7680   0.581E-01    0.175E+00
DAV:   7    -0.447001263738E+03    0.27196E+00   -0.13233E+00  6144   0.788E-01    0.107E+00
DAV:   8    -0.447425927619E+03   -0.42466E+00   -0.45332E-01  6656   0.507E-01    0.671E-01
DAV:   9    -0.447277432652E+03    0.14849E+00   -0.26583E-01  4096   0.431E-01    0.401E-01
DAV:  10    -0.447362013989E+03   -0.84581E-01   -0.12401E-01  6656   0.270E-01    0.453E-01
DAV:  11    -0.447428849353E+03   -0.66835E-01   -0.55274E-02  4096   0.196E-01    0.190E-01
DAV:  12    -0.447459395746E+03   -0.30546E-01   -0.66753E-02  5632   0.203E-01    0.250E-01
DAV:  13    -0.447511191993E+03   -0.51796E-01   -0.23588E-02  7424   0.136E-01    0.864E-02
DAV:  14    -0.447536560066E+03   -0.25368E-01   -0.76549E-03  6144   0.652E-02    0.103E-01
DAV:  15    -0.447541415171E+03   -0.48551E-02   -0.17363E-03  6912   0.352E-02    0.286E-02
DAV:  16    -0.447545571598E+03   -0.41564E-02   -0.34524E-04  6400   0.145E-02    0.228E-02
DAV:  17    -0.447552441218E+03   -0.68696E-02   -0.49585E-04  5632   0.144E-02    0.132E-02
DAV:  18    -0.447555476686E+03   -0.30355E-02   -0.19225E-04  5376   0.864E-03    0.934E-03
DAV:  19    -0.447556991403E+03   -0.15147E-02   -0.64992E-05  5376   0.496E-03    0.537E-03
DAV:  20    -0.447557878189E+03   -0.88679E-03   -0.49882E-05  6144   0.405E-03    0.501E-03
DAV:  21    -0.447558079114E+03   -0.20093E-03   -0.68224E-06  5888   0.165E-03    0.292E-03
DAV:  22    -0.447558248509E+03   -0.16939E-03   -0.71100E-06  7168   0.158E-03    0.187E-03
DAV:  23    -0.447558328801E+03   -0.80292E-04   -0.32951E-06  6400   0.885E-04    0.713E-04
DAV:  24    -0.447558376032E+03   -0.47231E-04   -0.14015E-06  7680   0.519E-04    0.554E-04
DAV:  25    -0.447558394815E+03   -0.18783E-04   -0.32589E-07  4864   0.282E-04    0.459E-04
DAV:  26    -0.447558400693E+03   -0.58782E-05   -0.80609E-08  7168   0.202E-04
   1 F= -.44932494E+03 E0= -.44929906E+03  d E =-.449325E+03  mag=     2.3711
       N       E                     dE             d eps       ncg     rms          rms(c)
DAV:   1    -0.447558555252E+03   -0.16044E-03   -0.27044E-02  7680   0.254E-01    0.364E-02
DAV:   2    -0.447558537066E+03    0.18186E-04   -0.32318E-04  8192   0.302E-02    0.380E-02
DAV:   3    -0.447558483163E+03    0.53903E-04   -0.48209E-05  4864   0.739E-03    0.171E-02
DAV:   4    -0.447558336097E+03    0.14707E-03   -0.17004E-05  8192   0.475E-03    0.124E-02
DAV:   5    -0.447558330356E+03    0.57408E-05   -0.14033E-05  6400   0.371E-03
   2 F= -.44932494E+03 E0= -.44929888E+03  d E =0.514750E-06  mag=     2.3662
       N       E                     dE             d eps       ncg     rms          rms(c)
DAV:   1    -0.447558417421E+03   -0.81324E-04   -0.47952E-03  8192   0.105E-01    0.187E-02
DAV:   2    -0.447558494973E+03   -0.77552E-04   -0.75557E-05  7936   0.129E-02    0.136E-02
DAV:   3    -0.447558530368E+03   -0.35395E-04   -0.12662E-05  7424   0.376E-03    0.624E-03
DAV:   4    -0.447558582414E+03   -0.52046E-04   -0.22930E-06  7936   0.193E-03    0.225E-03
DAV:   5    -0.447558600197E+03   -0.17783E-04   -0.61064E-07  7680   0.860E-04    0.148E-03
DAV:   6    -0.447558604036E+03   -0.38389E-05   -0.15092E-07  6400   0.388E-04
   3 F= -.44932522E+03 E0= -.44929924E+03  d E =-.280381E-03  mag=     2.3658
       N       E                     dE             d eps       ncg     rms          rms(c)
DAV:   1    -0.447558647823E+03   -0.47625E-04   -0.43870E-03  8192   0.932E-02    0.144E-02
DAV:   2    -0.447558648108E+03   -0.28561E-06   -0.52883E-05  7680   0.935E-03
   4 F= -.44932529E+03 E0= -.44929930E+03  d E =-.661268E-04  mag=     2.3661
