C  N  Ta                                
   1.00000000000000     
    12.3000000000000007    0.0000000000000000    0.0000000000000000
    -6.1499999999999977   10.6521124665485960    0.0000000000000000
     0.0000000000000000    0.0000000000000000   20.0000000000000000
   C    N    Ta
    44     4     1
Direct
  0.9991929999999982  0.0008070000000018  0.7394979999999975
  0.1317069999999987  0.0650800000000018  0.7398260000000008
  0.1983889999999988  0.9983810000000020  0.7398030000000020
  0.3305039999999977  0.0633600000000030  0.7447919999999968
  0.3984159999999974  0.9976539999999972  0.7467159999999993
  0.5320510000000027  0.0674550000000025  0.7500459999999975
  0.5995800000000031  0.0007250000000028  0.7487330000000014
  0.7323080000000033  0.0689739999999972  0.7484269999999995
  0.7995019999999968  0.0016829999999999  0.7453930000000000
  0.9325440000000000  0.0674560000000000  0.7428710000000009
  0.9983170000000001  0.2004980000000032  0.7453930000000000
  0.1309869999999975  0.2650930000000002  0.7466349999999977
  0.1966899999999967  0.1971589999999992  0.7447680000000005
  0.3278719999999993  0.2612310000000022  0.7516299999999987
  0.3945620000000005  0.1945229999999967  0.7516740000000013
  0.5945269999999994  0.2006200000000007  0.7557120000000026
  0.7292029999999983  0.2707970000000017  0.7550770000000000
  0.7971160000000026  0.2028839999999974  0.7504109999999997
  0.9310260000000028  0.2676919999999967  0.7484269999999995
  0.9992749999999972  0.4004199999999969  0.7487330000000014
  0.1340780000000024  0.4662519999999972  0.7485959999999992
  0.2007800000000017  0.3986969999999985  0.7498659999999973
  0.3339319999999972  0.4612089999999966  0.7555430000000030
  0.7993799999999993  0.4054730000000006  0.7557120000000026
  0.9325449999999975  0.4679489999999973  0.7500459999999975
  0.0023460000000028  0.6015840000000026  0.7467159999999993
  0.1350079999999991  0.6661599999999979  0.7454139999999967
  0.2023190000000028  0.5989700000000013  0.7481980000000021
  0.3362249999999989  0.6637750000000011  0.7501269999999991
  0.4041250000000005  0.5958749999999995  0.7548630000000003
  0.5387910000000034  0.6660680000000028  0.7555430000000030
  0.7387689999999978  0.6721280000000007  0.7516299999999987
  0.8054770000000033  0.6054379999999995  0.7516740000000013
  0.9366399999999970  0.6694960000000023  0.7447919999999968
  0.0016189999999980  0.8016110000000012  0.7398030000000020
  0.1341430000000017  0.8658569999999983  0.7394669999999977
  0.2007809999999992  0.7992190000000008  0.7428870000000032
  0.3338400000000021  0.8649920000000009  0.7454139999999967
  0.4010299999999987  0.7976809999999972  0.7481980000000021
  0.5337480000000028  0.8659219999999976  0.7485959999999992
  0.6013030000000015  0.7992190000000008  0.7498659999999973
  0.7349069999999998  0.8690130000000025  0.7466349999999977
  0.8028410000000008  0.8033100000000033  0.7447680000000005
  0.9349199999999982  0.8682930000000013  0.7398260000000008
  0.5235819999999975  0.2600559999999987  0.7630150000000029
  0.3933770000000010  0.3902700000000010  0.7629090000000005
  0.7399440000000013  0.4764180000000025  0.7630150000000029
  0.6097299999999990  0.6066229999999990  0.7629090000000005
  0.5666429999999991  0.4333570000000009  0.8004079999999973
 
  0.00000000E+00  0.00000000E+00  0.00000000E+00
  0.00000000E+00  0.00000000E+00  0.00000000E+00
  0.00000000E+00  0.00000000E+00  0.00000000E+00
  0.00000000E+00  0.00000000E+00  0.00000000E+00
  0.00000000E+00  0.00000000E+00  0.00000000E+00
  0.00000000E+00  0.00000000E+00  0.00000000E+00
  0.00000000E+00  0.00000000E+00  0.00000000E+00
  0.00000000E+00  0.00000000E+00  0.00000000E+00
  0.00000000E+00  0.00000000E+00  0.00000000E+00
  0.00000000E+00  0.00000000E+00  0.00000000E+00
  0.00000000E+00  0.00000000E+00  0.00000000E+00
  0.00000000E+00  0.00000000E+00  0.00000000E+00
  0.00000000E+00  0.00000000E+00  0.00000000E+00
  0.00000000E+00  0.00000000E+00  0.00000000E+00
  0.00000000E+00  0.00000000E+00  0.00000000E+00
  0.00000000E+00  0.00000000E+00  0.00000000E+00
  0.00000000E+00  0.00000000E+00  0.00000000E+00
  0.00000000E+00  0.00000000E+00  0.00000000E+00
  0.00000000E+00  0.00000000E+00  0.00000000E+00
  0.00000000E+00  0.00000000E+00  0.00000000E+00
  0.00000000E+00  0.00000000E+00  0.00000000E+00
  0.00000000E+00  0.00000000E+00  0.00000000E+00
  0.00000000E+00  0.00000000E+00  0.00000000E+00
  0.00000000E+00  0.00000000E+00  0.00000000E+00
  0.00000000E+00  0.00000000E+00  0.00000000E+00
  0.00000000E+00  0.00000000E+00  0.00000000E+00
  0.00000000E+00  0.00000000E+00  0.00000000E+00
  0.00000000E+00  0.00000000E+00  0.00000000E+00
  0.00000000E+00  0.00000000E+00  0.00000000E+00
  0.00000000E+00  0.00000000E+00  0.00000000E+00
  0.00000000E+00  0.00000000E+00  0.00000000E+00
  0.00000000E+00  0.00000000E+00  0.00000000E+00
  0.00000000E+00  0.00000000E+00  0.00000000E+00
  0.00000000E+00  0.00000000E+00  0.00000000E+00
  0.00000000E+00  0.00000000E+00  0.00000000E+00
  0.00000000E+00  0.00000000E+00  0.00000000E+00
  0.00000000E+00  0.00000000E+00  0.00000000E+00
  0.00000000E+00  0.00000000E+00  0.00000000E+00
  0.00000000E+00  0.00000000E+00  0.00000000E+00
  0.00000000E+00  0.00000000E+00  0.00000000E+00
  0.00000000E+00  0.00000000E+00  0.00000000E+00
  0.00000000E+00  0.00000000E+00  0.00000000E+00
  0.00000000E+00  0.00000000E+00  0.00000000E+00
  0.00000000E+00  0.00000000E+00  0.00000000E+00
  0.00000000E+00  0.00000000E+00  0.00000000E+00
  0.00000000E+00  0.00000000E+00  0.00000000E+00
  0.00000000E+00  0.00000000E+00  0.00000000E+00
  0.00000000E+00  0.00000000E+00  0.00000000E+00
  0.00000000E+00  0.00000000E+00  0.00000000E+00
