       N       E                     dE             d eps       ncg     rms          rms(c)
DAV:   1    -0.471588928907E+03   -0.47159E+03   -0.12906E+02  8192   0.127E+01    0.281E+01
DAV:   2    -0.445677653044E+03    0.25911E+02   -0.38320E+01  6144   0.678E+00    0.141E+01
DAV:   3    -0.438644583379E+03    0.70331E+01   -0.24255E+01  8192   0.570E+00    0.394E+00
DAV:   4    -0.439049304282E+03   -0.40472E+00   -0.97375E-01  7680   0.119E+00    0.211E+00
DAV:   5    -0.439311223189E+03   -0.26192E+00   -0.19116E-01  6144   0.440E-01    0.100E+00
DAV:   6    -0.439536173199E+03   -0.22495E+00   -0.60166E-02  8192   0.266E-01    0.455E-01
DAV:   7    -0.439806572462E+03   -0.27040E+00   -0.32962E-02  6144   0.180E-01    0.338E-01
DAV:   8    -0.439931778827E+03   -0.12521E+00   -0.46400E-02  7936   0.190E-01    0.220E-01
DAV:   9    -0.439983472163E+03   -0.51693E-01   -0.18790E-02  5120   0.137E-01    0.137E-01
DAV:  10    -0.440047551064E+03   -0.64079E-01   -0.14367E-02  7424   0.932E-02    0.714E-02
DAV:  11    -0.440070226650E+03   -0.22676E-01   -0.21449E-03  4352   0.376E-02    0.483E-02
DAV:  12    -0.440087431133E+03   -0.17204E-01   -0.22072E-03  7680   0.374E-02    0.258E-02
DAV:  13    -0.440093611756E+03   -0.61806E-02   -0.56468E-04  7424   0.182E-02    0.150E-02
DAV:  14    -0.440095807023E+03   -0.21953E-02   -0.19130E-04  5888   0.105E-02    0.908E-03
DAV:  15    -0.440097317123E+03   -0.15101E-02   -0.12219E-04  5376   0.791E-03    0.513E-03
DAV:  16    -0.440097972562E+03   -0.65544E-03   -0.37396E-05  5376   0.414E-03    0.348E-03
DAV:  17    -0.440098338542E+03   -0.36598E-03   -0.18757E-05  7168   0.283E-03    0.222E-03
DAV:  18    -0.440098482856E+03   -0.14431E-03   -0.84359E-06  6144   0.181E-03    0.137E-03
DAV:  19    -0.440098552293E+03   -0.69437E-04   -0.27867E-06  7168   0.116E-03    0.779E-04
DAV:  20    -0.440098582485E+03   -0.30192E-04   -0.58811E-07  7936   0.759E-04    0.471E-04
DAV:  21    -0.440098599306E+03   -0.16821E-04   -0.22633E-07  7680   0.505E-04    0.247E-04
DAV:  22    -0.440098607365E+03   -0.80586E-05   -0.12897E-07  7168   0.334E-04
   1 F= -.44183421E+03 E0= -.44180716E+03  d E =-.441834E+03  mag=    -0.0000
       N       E                     dE             d eps       ncg     rms          rms(c)
DAV:   1    -0.440098795155E+03   -0.19585E-03   -0.42138E-02  7680   0.315E-01    0.492E-02
DAV:   2    -0.440098750267E+03    0.44888E-04   -0.42766E-04  5888   0.348E-02    0.262E-02
DAV:   3    -0.440098739682E+03    0.10585E-04   -0.54971E-05  8192   0.116E-02    0.805E-03
DAV:   4    -0.440098740076E+03   -0.39460E-06   -0.72312E-06  7680   0.394E-03
   2 F= -.44183434E+03 E0= -.44180729E+03  d E =-.126570E-03  mag=    -0.0000
       N       E                     dE             d eps       ncg     rms          rms(c)
DAV:   1    -0.440098915671E+03   -0.17599E-03   -0.99780E-03  7680   0.152E-01    0.243E-02
DAV:   2    -0.440098903492E+03    0.12178E-04   -0.99915E-05  4864   0.168E-02    0.128E-02
DAV:   3    -0.440098901414E+03    0.20780E-05   -0.13559E-05  8192   0.578E-03
   3 F= -.44183451E+03 E0= -.44180746E+03  d E =-.166419E-03  mag=    -0.0000
