C  N  Sb                                
   1.00000000000000     
    12.3000000000000007    0.0000000000000000    0.0000000000000000
    -6.1499999999999977   10.6521124665485960    0.0000000000000000
     0.0000000000000000    0.0000000000000000   20.0000000000000000
   C    N    Sb
    44     4     1
Direct
  0.9991047911865506  0.0008953451844931  0.7387540360727956
  0.1315930454756437  0.0650268709621757  0.7386086561771061
  0.1983212406666829  0.9982492445181570  0.7386979089175396
  0.3304146833508983  0.0632104164986847  0.7436866031588363
  0.3983417389520637  0.9975294030472261  0.7466626565228855
  0.5318636444686549  0.0675274281482829  0.7508055106929431
  0.5994887010166023  0.0008424156157596  0.7501223639167274
  0.7322757725366109  0.0692269688919105  0.7498962436997694
  0.7994236683823609  0.0018655524026461  0.7460570311252112
  0.9324166122621165  0.0675834573156528  0.7431009612262478
  0.9981343444622353  0.2005762370155912  0.7460570302667221
  0.1308692523528006  0.2650341089557037  0.7465754371772320
  0.1965060475808086  0.1970297781453347  0.7435748232586150
  0.3276863860512750  0.2611520487411707  0.7499384381825442
  0.3944043666769893  0.1942822127820108  0.7499850989107406
  0.5940507628266046  0.2012002763565514  0.7558552102098616
  0.7288089448440828  0.2711910827687455  0.7563806264795450
  0.7968169285668284  0.2031830661011313  0.7522119337278992
  0.9307730209995490  0.2677242153392096  0.7498962435235335
  0.9991575722009222  0.4005112970663804  0.7501223640395448
  0.1342069575435887  0.4661790600776974  0.7500677608889136
  0.2008742435705018  0.3985324553128635  0.7506860742855770
  0.3345598107565841  0.4607038976318141  0.7556464964742722
  0.7987996552904835  0.4059491291453485  0.7558552153630324
  0.9324725843631986  0.4681363757503557  0.7508055095992611
  0.0024707250864331  0.6016582485172709  0.7466626540393629
  0.1351845622681268  0.6661022389263327  0.7460738297657274
  0.2026120661823391  0.5989304087919654  0.7497619822274059
  0.3364895229056739  0.6635104694016004  0.7519599066489394
  0.4045214016750437  0.5954786199449333  0.7560817157000719
  0.5392960653923415  0.6654401678479022  0.7556464968007447
  0.7388484937708222  0.6723134560652186  0.7499384350138467
  0.8057173656033710  0.6055954931799931  0.7499851608217537
  0.9367901821689957  0.6695855143894113  0.7436865821419064
  0.0017508994586796  0.8016788829685710  0.7386979004318607
  0.1341890174212148  0.8658109228841355  0.7389301863157840
  0.2008904482720285  0.7991095892215143  0.7431551257044277
  0.3338977103992760  0.8648153892119519  0.7460738301758859
  0.4010695898633276  0.7973879274804048  0.7497619823106909
  0.5338209372288928  0.8657930590061010  0.7500677604161916
  0.6014676747294979  0.7991257667494978  0.7506860684664458
  0.7349662456265230  0.8691305993819256  0.7465754256413646
  0.8029698222464631  0.8034938143082911  0.7435748682300892
  0.9349737839874708  0.8684071200348911  0.7386086367099902
  0.5225861570951663  0.2601240059911785  0.7590315863718812
  0.3934468234754025  0.3892381969354871  0.7589529438106506
  0.7398762609402230  0.4774139102921625  0.7590315640637706
  0.6107620144027658  0.6065532911439935  0.7589529184772659
  0.5666294534152521  0.4333705635503970  0.8090502058165961
 
  0.00000000E+00  0.00000000E+00  0.00000000E+00
  0.00000000E+00  0.00000000E+00  0.00000000E+00
  0.00000000E+00  0.00000000E+00  0.00000000E+00
  0.00000000E+00  0.00000000E+00  0.00000000E+00
  0.00000000E+00  0.00000000E+00  0.00000000E+00
  0.00000000E+00  0.00000000E+00  0.00000000E+00
  0.00000000E+00  0.00000000E+00  0.00000000E+00
  0.00000000E+00  0.00000000E+00  0.00000000E+00
  0.00000000E+00  0.00000000E+00  0.00000000E+00
  0.00000000E+00  0.00000000E+00  0.00000000E+00
  0.00000000E+00  0.00000000E+00  0.00000000E+00
  0.00000000E+00  0.00000000E+00  0.00000000E+00
  0.00000000E+00  0.00000000E+00  0.00000000E+00
  0.00000000E+00  0.00000000E+00  0.00000000E+00
  0.00000000E+00  0.00000000E+00  0.00000000E+00
  0.00000000E+00  0.00000000E+00  0.00000000E+00
  0.00000000E+00  0.00000000E+00  0.00000000E+00
  0.00000000E+00  0.00000000E+00  0.00000000E+00
  0.00000000E+00  0.00000000E+00  0.00000000E+00
  0.00000000E+00  0.00000000E+00  0.00000000E+00
  0.00000000E+00  0.00000000E+00  0.00000000E+00
  0.00000000E+00  0.00000000E+00  0.00000000E+00
  0.00000000E+00  0.00000000E+00  0.00000000E+00
  0.00000000E+00  0.00000000E+00  0.00000000E+00
  0.00000000E+00  0.00000000E+00  0.00000000E+00
  0.00000000E+00  0.00000000E+00  0.00000000E+00
  0.00000000E+00  0.00000000E+00  0.00000000E+00
  0.00000000E+00  0.00000000E+00  0.00000000E+00
  0.00000000E+00  0.00000000E+00  0.00000000E+00
  0.00000000E+00  0.00000000E+00  0.00000000E+00
  0.00000000E+00  0.00000000E+00  0.00000000E+00
  0.00000000E+00  0.00000000E+00  0.00000000E+00
  0.00000000E+00  0.00000000E+00  0.00000000E+00
  0.00000000E+00  0.00000000E+00  0.00000000E+00
  0.00000000E+00  0.00000000E+00  0.00000000E+00
  0.00000000E+00  0.00000000E+00  0.00000000E+00
  0.00000000E+00  0.00000000E+00  0.00000000E+00
  0.00000000E+00  0.00000000E+00  0.00000000E+00
  0.00000000E+00  0.00000000E+00  0.00000000E+00
  0.00000000E+00  0.00000000E+00  0.00000000E+00
  0.00000000E+00  0.00000000E+00  0.00000000E+00
  0.00000000E+00  0.00000000E+00  0.00000000E+00
  0.00000000E+00  0.00000000E+00  0.00000000E+00
  0.00000000E+00  0.00000000E+00  0.00000000E+00
  0.00000000E+00  0.00000000E+00  0.00000000E+00
  0.00000000E+00  0.00000000E+00  0.00000000E+00
  0.00000000E+00  0.00000000E+00  0.00000000E+00
  0.00000000E+00  0.00000000E+00  0.00000000E+00
  0.00000000E+00  0.00000000E+00  0.00000000E+00
