C  N  Hf                                
   1.00000000000000     
    12.3000000000000007    0.0000000000000000    0.0000000000000000
    -6.1499999999999977   10.6521124665485960    0.0000000000000000
     0.0000000000000000    0.0000000000000000   20.0000000000000000
   C    N    Hf
    44     4     1
Direct
  0.9993277218889745  0.0006722816427640  0.7450711183021141
  0.1319092182917672  0.0653331401679367  0.7454099480622673
  0.1986760125804210  0.9985658936311026  0.7453156351892147
  0.3307123373898122  0.0637124527270458  0.7476955346707044
  0.3985588111911369  0.9978871297084382  0.7477842546375939
  0.5322646388370700  0.0671601248060654  0.7488896630377866
  0.5997224530039347  0.0007004086674840  0.7478890650336183
  0.7323973456874597  0.0687024959141809  0.7481328532165819
  0.7996134598782803  0.0013899806290283  0.7471805699502596
  0.9326895390656418  0.0673104629337757  0.7463517125635875
  0.9986100179984732  0.2003865415843720  0.7471805708313539
  0.1312175584392676  0.2652087647326553  0.7478792754642072
  0.1970533646762220  0.1973584576547509  0.7477018627370882
  0.3292086539458197  0.2629544752757624  0.7511211950616357
  0.3962714719543001  0.1958663146674695  0.7512412091121377
  0.5952118458173246  0.2003922578881685  0.7521819145493325
  0.7296699405886002  0.2703300589691011  0.7516647610253102
  0.7974697420208869  0.2025302575688173  0.7491632665737455
  0.9312975034251423  0.2676026562429072  0.7481328539507359
  0.9992995899961059  0.4002775488879635  0.7478890648370751
  0.1340188040292674  0.4663809888022286  0.7477451996482003
  0.2004624076959587  0.3989059567777815  0.7487236659172254
  0.3337095415955815  0.4618816038476155  0.7518044512844568
  0.7996077408254152  0.4047881538604372  0.7521819146507198
  0.9328398736254684  0.4677353622258877  0.7488896629069970
  0.0021128690463428  0.6014411897643228  0.7477842524897582
  0.1347206344421110  0.6662496380481429  0.7468512515792085
  0.2020315554675634  0.5990428016976210  0.7477622165453539
  0.3358707582301008  0.6641292415795377  0.7487228441748996
  0.4036544583518733  0.5963455406209874  0.7511819293287090
  0.5381183948862756  0.6662904563845871  0.7518044509199271
  0.7370455227415889  0.6707913438269202  0.7511211934243107
  0.8041336829422860  0.6037285260687071  0.7512412079186959
  0.9362875461285967  0.6692876636075482  0.7476955340211902
  0.0014341092794083  0.8013239902013609  0.7453156341404608
  0.1340214950673584  0.8659785090118248  0.7448279919640299
  0.2006552519287581  0.7993447512646981  0.7459629532285490
  0.3337503647237199  0.8652793654214079  0.7468512536071827
  0.4009572009349114  0.7979684442504507  0.7477622178507346
  0.5336190134312417  0.8659811947902085  0.7477452002220843
  0.6010940437433732  0.7995375899854196  0.7487236657191190
  0.7347912355802393  0.8687824394138843  0.7478792752359524
  0.8026415430353069  0.8029466339066360  0.7477018611846660
  0.9346668624666421  0.8680907846408914  0.7454099479524530
  0.5259634879172310  0.2611926885693308  0.7567036215284944
  0.3945176879921775  0.3926716023460131  0.7563679908252112
  0.7388073087893048  0.4740365101953614  0.7567036210698816
  0.6073283956948643  0.6054823094816939  0.7563679902310199
  0.5665459827303962  0.4334540151087083  0.7992926716241371
 
  0.00000000E+00  0.00000000E+00  0.00000000E+00
  0.00000000E+00  0.00000000E+00  0.00000000E+00
  0.00000000E+00  0.00000000E+00  0.00000000E+00
  0.00000000E+00  0.00000000E+00  0.00000000E+00
  0.00000000E+00  0.00000000E+00  0.00000000E+00
  0.00000000E+00  0.00000000E+00  0.00000000E+00
  0.00000000E+00  0.00000000E+00  0.00000000E+00
  0.00000000E+00  0.00000000E+00  0.00000000E+00
  0.00000000E+00  0.00000000E+00  0.00000000E+00
  0.00000000E+00  0.00000000E+00  0.00000000E+00
  0.00000000E+00  0.00000000E+00  0.00000000E+00
  0.00000000E+00  0.00000000E+00  0.00000000E+00
  0.00000000E+00  0.00000000E+00  0.00000000E+00
  0.00000000E+00  0.00000000E+00  0.00000000E+00
  0.00000000E+00  0.00000000E+00  0.00000000E+00
  0.00000000E+00  0.00000000E+00  0.00000000E+00
  0.00000000E+00  0.00000000E+00  0.00000000E+00
  0.00000000E+00  0.00000000E+00  0.00000000E+00
  0.00000000E+00  0.00000000E+00  0.00000000E+00
  0.00000000E+00  0.00000000E+00  0.00000000E+00
  0.00000000E+00  0.00000000E+00  0.00000000E+00
  0.00000000E+00  0.00000000E+00  0.00000000E+00
  0.00000000E+00  0.00000000E+00  0.00000000E+00
  0.00000000E+00  0.00000000E+00  0.00000000E+00
  0.00000000E+00  0.00000000E+00  0.00000000E+00
  0.00000000E+00  0.00000000E+00  0.00000000E+00
  0.00000000E+00  0.00000000E+00  0.00000000E+00
  0.00000000E+00  0.00000000E+00  0.00000000E+00
  0.00000000E+00  0.00000000E+00  0.00000000E+00
  0.00000000E+00  0.00000000E+00  0.00000000E+00
  0.00000000E+00  0.00000000E+00  0.00000000E+00
  0.00000000E+00  0.00000000E+00  0.00000000E+00
  0.00000000E+00  0.00000000E+00  0.00000000E+00
  0.00000000E+00  0.00000000E+00  0.00000000E+00
  0.00000000E+00  0.00000000E+00  0.00000000E+00
  0.00000000E+00  0.00000000E+00  0.00000000E+00
  0.00000000E+00  0.00000000E+00  0.00000000E+00
  0.00000000E+00  0.00000000E+00  0.00000000E+00
  0.00000000E+00  0.00000000E+00  0.00000000E+00
  0.00000000E+00  0.00000000E+00  0.00000000E+00
  0.00000000E+00  0.00000000E+00  0.00000000E+00
  0.00000000E+00  0.00000000E+00  0.00000000E+00
  0.00000000E+00  0.00000000E+00  0.00000000E+00
  0.00000000E+00  0.00000000E+00  0.00000000E+00
  0.00000000E+00  0.00000000E+00  0.00000000E+00
  0.00000000E+00  0.00000000E+00  0.00000000E+00
  0.00000000E+00  0.00000000E+00  0.00000000E+00
  0.00000000E+00  0.00000000E+00  0.00000000E+00
  0.00000000E+00  0.00000000E+00  0.00000000E+00
