       N       E                     dE             d eps       ncg     rms          ort
SDA:   1    -0.339314925610E+03   -0.33931E+03    0.00000E+00  3328   0.140E+03 0.000E+00
CGA:   2    -0.414184697808E+03   -0.74870E+02   -0.71328E+02  3328   0.690E+02 0.867E+01
CGA:   3    -0.433531659423E+03   -0.19347E+02   -0.19225E+02  3328   0.356E+02 0.114E+01
CGA:   4    -0.442020836671E+03   -0.84892E+01   -0.84795E+01  3328   0.154E+02 0.115E+00
CGA:   5    -0.445762624842E+03   -0.37418E+01   -0.37418E+01  3328   0.532E+01-0.593E-01
CGA:   6    -0.447069577210E+03   -0.13070E+01   -0.13065E+01  3328   0.179E+01-0.464E-03
CGA:   7    -0.447535957356E+03   -0.46638E+00   -0.46712E+00  3328   0.565E+00-0.139E-01
CGA:   8    -0.447687758927E+03   -0.15180E+00   -0.15192E+00  3328   0.170E+00-0.176E-02
CGA:   9    -0.447736371708E+03   -0.48613E-01   -0.48614E-01  3328   0.531E-01-0.213E-04
CGA:  10    -0.447753513844E+03   -0.17142E-01   -0.17142E-01  3328   0.188E-01 0.171E-06
CGA:  11    -0.447760140413E+03   -0.66266E-02   -0.66275E-02  3328   0.686E-02-0.122E-04
CGA:  12    -0.447762570624E+03   -0.24302E-02   -0.24324E-02  3328   0.217E-02-0.190E-04
CGA:  13    -0.447763321021E+03   -0.75040E-03   -0.75107E-03  3328   0.590E-03-0.563E-05
CGA:  14    -0.447763529664E+03   -0.20864E-03   -0.20884E-03  3328   0.167E-03-0.173E-05
CGA:  15    -0.447763591704E+03   -0.62040E-04   -0.61988E-04  3328   0.529E-04 0.459E-06
CGA:  16    -0.447763612987E+03   -0.21283E-04   -0.21360E-04  3328   0.185E-04-0.555E-06
CGA:  17    -0.447763620160E+03   -0.71737E-05   -0.71658E-05  3328   0.601E-05 0.632E-07
   1 F= -.44951273E+03 E0= -.44949487E+03  d E =-.357202E-01  mag=     0.8983
