C  N  W                                 
   1.00000000000000     
    12.3000000000000007    0.0000000000000000    0.0000000000000000
    -6.1499999999999977   10.6521124665485960    0.0000000000000000
     0.0000000000000000    0.0000000000000000   20.0000000000000000
   C    N    W 
    44     4     1
Direct
  0.9990651431846138  0.0009348691860768  0.7367453956668171
  0.1315217030167644  0.0648902081624117  0.7376880145785628
  0.1982078953282519  0.9982044060837864  0.7376843770536734
  0.3302028531847773  0.0628972629754607  0.7443851182265141
  0.3983534204271409  0.9973976304064307  0.7461056238278047
  0.5318560172696825  0.0672677550813384  0.7502951559680548
  0.5994517099792391  0.0006436627389379  0.7484731360648353
  0.7322779941633885  0.0692150876657178  0.7477890027273028
  0.7994023009021071  0.0019475213498214  0.7439782162260596
  0.9323791974455712  0.0676207947482537  0.7406573507775012
  0.9980524669181871  0.2005977136251965  0.7439782179928534
  0.1307135302757904  0.2650297033222416  0.7461216081970942
  0.1962233131801885  0.1968669788302567  0.7444006226112618
  0.3263829554054565  0.2596192897855994  0.7535361189961218
  0.3929470735338519  0.1930655525130441  0.7535360445643136
  0.5941918369167762  0.2000337356283160  0.7575912341773086
  0.7290061939009365  0.2709937185822063  0.7565985941216629
  0.7968956398394530  0.2031043078311279  0.7503106852911863
  0.9307848557840707  0.2677219668459361  0.7477890039346642
  0.9993563064383619  0.4005482768234180  0.7484731373038778
  0.1339987599121489  0.4661361742947901  0.7484667482057585
  0.2006043138222331  0.3985150358831275  0.7503057020644269
  0.3333828867800973  0.4608652116268089  0.7575983938207642
  0.7999661705180307  0.4058080445863770  0.7575912294677214
  0.9327321671297908  0.4681439144567436  0.7502951560152429
  0.0026023226729804  0.6016465281192502  0.7461056258614016
  0.1352651944968923  0.6660573639429958  0.7439523719156446
  0.2025490256650774  0.5989437030405934  0.7477697036461316
  0.3364356872778579  0.6635643172503837  0.7503004671612499
  0.4043296706995786  0.5956703242852229  0.7566118614926691
  0.5391347940276890  0.6666171191421851  0.7575983927763038
  0.7403807090927766  0.6736170343328735  0.7535361186142545
  0.8069344460118575  0.6070528941397886  0.7535360434921096
  0.9371027230879202  0.6697971401959253  0.7443851206596923
  0.0017955942800337  0.8017920932448163  0.7376843795134314
  0.1342671885834797  0.8657328241479595  0.7367392391826881
  0.2009503576287661  0.7990496000021087  0.7406482319199185
  0.3339426211937906  0.8647347847113305  0.7439523714870637
  0.4010562824316916  0.7974509504725937  0.7477697036620898
  0.5338638209913054  0.8660012290408188  0.7484667474196958
  0.6014849676370153  0.7993956718860217  0.7503057014076504
  0.7349702963291207  0.8692864563204709  0.7461216080394816
  0.8031330333967316  0.8037766752908411  0.7444006233658235
  0.9351097957395068  0.8684783037424493  0.7376880157584939
  0.5221124540271129  0.2582541506798999  0.7671180944855537
  0.3915857769339158  0.3887829198638885  0.7671165705827537
  0.7417458171599274  0.4778875040153267  0.7671180878546996
  0.6112170815369992  0.6084142215942062  0.7671165697410983
  0.5666626338410810  0.4333373675046248  0.7945644620786936
 
  0.00000000E+00  0.00000000E+00  0.00000000E+00
  0.00000000E+00  0.00000000E+00  0.00000000E+00
  0.00000000E+00  0.00000000E+00  0.00000000E+00
  0.00000000E+00  0.00000000E+00  0.00000000E+00
  0.00000000E+00  0.00000000E+00  0.00000000E+00
  0.00000000E+00  0.00000000E+00  0.00000000E+00
  0.00000000E+00  0.00000000E+00  0.00000000E+00
  0.00000000E+00  0.00000000E+00  0.00000000E+00
  0.00000000E+00  0.00000000E+00  0.00000000E+00
  0.00000000E+00  0.00000000E+00  0.00000000E+00
  0.00000000E+00  0.00000000E+00  0.00000000E+00
  0.00000000E+00  0.00000000E+00  0.00000000E+00
  0.00000000E+00  0.00000000E+00  0.00000000E+00
  0.00000000E+00  0.00000000E+00  0.00000000E+00
  0.00000000E+00  0.00000000E+00  0.00000000E+00
  0.00000000E+00  0.00000000E+00  0.00000000E+00
  0.00000000E+00  0.00000000E+00  0.00000000E+00
  0.00000000E+00  0.00000000E+00  0.00000000E+00
  0.00000000E+00  0.00000000E+00  0.00000000E+00
  0.00000000E+00  0.00000000E+00  0.00000000E+00
  0.00000000E+00  0.00000000E+00  0.00000000E+00
  0.00000000E+00  0.00000000E+00  0.00000000E+00
  0.00000000E+00  0.00000000E+00  0.00000000E+00
  0.00000000E+00  0.00000000E+00  0.00000000E+00
  0.00000000E+00  0.00000000E+00  0.00000000E+00
  0.00000000E+00  0.00000000E+00  0.00000000E+00
  0.00000000E+00  0.00000000E+00  0.00000000E+00
  0.00000000E+00  0.00000000E+00  0.00000000E+00
  0.00000000E+00  0.00000000E+00  0.00000000E+00
  0.00000000E+00  0.00000000E+00  0.00000000E+00
  0.00000000E+00  0.00000000E+00  0.00000000E+00
  0.00000000E+00  0.00000000E+00  0.00000000E+00
  0.00000000E+00  0.00000000E+00  0.00000000E+00
  0.00000000E+00  0.00000000E+00  0.00000000E+00
  0.00000000E+00  0.00000000E+00  0.00000000E+00
  0.00000000E+00  0.00000000E+00  0.00000000E+00
  0.00000000E+00  0.00000000E+00  0.00000000E+00
  0.00000000E+00  0.00000000E+00  0.00000000E+00
  0.00000000E+00  0.00000000E+00  0.00000000E+00
  0.00000000E+00  0.00000000E+00  0.00000000E+00
  0.00000000E+00  0.00000000E+00  0.00000000E+00
  0.00000000E+00  0.00000000E+00  0.00000000E+00
  0.00000000E+00  0.00000000E+00  0.00000000E+00
  0.00000000E+00  0.00000000E+00  0.00000000E+00
  0.00000000E+00  0.00000000E+00  0.00000000E+00
  0.00000000E+00  0.00000000E+00  0.00000000E+00
  0.00000000E+00  0.00000000E+00  0.00000000E+00
  0.00000000E+00  0.00000000E+00  0.00000000E+00
  0.00000000E+00  0.00000000E+00  0.00000000E+00
