       N       E                     dE             d eps       ncg     rms          rms(c)
DAV:   1    -0.484708795677E+03   -0.48471E+03   -0.18086E+02  8192   0.134E+01    0.339E+01
DAV:   2    -0.459153977302E+03    0.25555E+02   -0.26340E+02  6144   0.114E+01    0.218E+01
DAV:   3    -0.450768853633E+03    0.83851E+01   -0.18553E+02  7936   0.119E+01    0.143E+01
DAV:   4    -0.445310810590E+03    0.54580E+01   -0.67040E+01  6656   0.532E+00    0.734E+00
DAV:   5    -0.445320781499E+03   -0.99709E-02   -0.70616E+00  6144   0.217E+00    0.348E+00
DAV:   6    -0.446205077405E+03   -0.88430E+00   -0.10391E+00  6144   0.748E-01    0.274E+00
DAV:   7    -0.446672967205E+03   -0.46789E+00   -0.15148E+00  6656   0.781E-01    0.152E+00
DAV:   8    -0.446922540811E+03   -0.24957E+00   -0.16071E-01  8192   0.388E-01    0.811E-01
DAV:   9    -0.447197427034E+03   -0.27489E+00   -0.22870E-01  7680   0.337E-01    0.679E-01
DAV:  10    -0.447249073693E+03   -0.51647E-01   -0.66126E-02  5120   0.172E-01    0.516E-01
DAV:  11    -0.447264833344E+03   -0.15760E-01   -0.43074E-02  6912   0.165E-01    0.206E-01
DAV:  12    -0.447238717894E+03    0.26115E-01   -0.40498E-02  5632   0.158E-01    0.221E-01
DAV:  13    -0.447253710441E+03   -0.14993E-01   -0.87522E-03  8192   0.719E-02    0.151E-01
DAV:  14    -0.447287765753E+03   -0.34055E-01   -0.19502E-02  6912   0.100E-01    0.806E-02
DAV:  15    -0.447297672996E+03   -0.99072E-02   -0.22978E-03  6912   0.388E-02    0.574E-02
DAV:  16    -0.447304741004E+03   -0.70680E-02   -0.82524E-04  7424   0.225E-02    0.242E-02
DAV:  17    -0.447307084398E+03   -0.23434E-02   -0.10846E-04  8192   0.900E-03    0.131E-02
DAV:  18    -0.447308644483E+03   -0.15601E-02   -0.72162E-05  5120   0.612E-03    0.874E-03
DAV:  19    -0.447310078694E+03   -0.14342E-02   -0.99152E-05  5632   0.630E-03    0.536E-03
DAV:  20    -0.447310693946E+03   -0.61525E-03   -0.40343E-05  5632   0.395E-03    0.377E-03
DAV:  21    -0.447310919605E+03   -0.22566E-03   -0.11744E-05  6144   0.220E-03    0.246E-03
DAV:  22    -0.447311047413E+03   -0.12781E-03   -0.55929E-06  7680   0.145E-03    0.107E-03
DAV:  23    -0.447311115645E+03   -0.68231E-04   -0.16096E-06  8192   0.857E-04    0.702E-04
DAV:  24    -0.447311153241E+03   -0.37596E-04   -0.91105E-07  7936   0.582E-04    0.656E-04
DAV:  25    -0.447311176745E+03   -0.23505E-04   -0.58691E-07  7424   0.422E-04    0.463E-04
DAV:  26    -0.447311185439E+03   -0.86938E-05   -0.16539E-07  6912   0.261E-04
   1 F= -.44914050E+03 E0= -.44912912E+03  d E =-.449141E+03  mag=     2.4299
       N       E                     dE             d eps       ncg     rms          rms(c)
DAV:   1    -0.447311429494E+03   -0.25275E-03   -0.43018E-02  5632   0.327E-01    0.443E-02
DAV:   2    -0.447311431691E+03   -0.21969E-05   -0.71667E-04  6656   0.432E-02    0.261E-02
DAV:   3    -0.447311404534E+03    0.27157E-04   -0.70441E-05  6912   0.115E-02    0.124E-02
DAV:   4    -0.447311394516E+03    0.10018E-04   -0.26042E-05  5888   0.591E-03    0.531E-03
DAV:   5    -0.447311393337E+03    0.11797E-05   -0.34385E-06  6656   0.198E-03
   2 F= -.44914070E+03 E0= -.44912929E+03  d E =-.194491E-03  mag=     2.4305
       N       E                     dE             d eps       ncg     rms          rms(c)
DAV:   1    -0.447311509305E+03   -0.11479E-03   -0.90960E-03  5888   0.149E-01    0.212E-02
DAV:   2    -0.447311510960E+03   -0.16558E-05   -0.13968E-04  6144   0.193E-02    0.121E-02
DAV:   3    -0.447311509598E+03    0.13626E-05   -0.13534E-05  7424   0.535E-03
   3 F= -.44914084E+03 E0= -.44912944E+03  d E =-.146784E-03  mag=     2.4305
       N       E                     dE             d eps       ncg     rms          rms(c)
DAV:   1    -0.447311561175E+03   -0.50215E-04   -0.74149E-03  6144   0.123E-01    0.152E-02
DAV:   2    -0.447311566707E+03   -0.55318E-05   -0.12237E-04  7168   0.141E-02    0.826E-03
DAV:   3    -0.447311561457E+03    0.52502E-05   -0.51196E-06  7168   0.287E-03
   4 F= -.44914092E+03 E0= -.44912951E+03  d E =-.760703E-04  mag=     2.4305
