C  N  W                                 
   1.00000000000000     
    12.3000000000000007    0.0000000000000000    0.0000000000000000
    -6.1499999999999977   10.6521124665485960    0.0000000000000000
     0.0000000000000000    0.0000000000000000   20.0000000000000000
   C    N    W 
    44     4     1
Direct
  0.9990459626622860  0.0009540514981214  0.7367229552869341
  0.1315535794980414  0.0649175080904988  0.7376978621961765
  0.1982409545168521  0.9982064111779069  0.7376725363825999
  0.3302263006187021  0.0629494721853607  0.7444041396206548
  0.3983710308083334  0.9974036642128633  0.7460960365022632
  0.5318528061587372  0.0672727051860985  0.7503245606523573
  0.5994450879885066  0.0006698042642609  0.7484779741543838
  0.7322844376535745  0.0691885144061651  0.7477804648722327
  0.7993818786499185  0.0019319607666969  0.7439600437283651
  0.9323589984815119  0.0676410102613157  0.7405995640518601
  0.9980680214840824  0.2006181145466115  0.7439600439744576
  0.1307184000503084  0.2650424589975366  0.7461182122608889
  0.1962487675429196  0.1968644930701696  0.7444177960956327
  0.3263656929579249  0.2595828542592721  0.7535665691297835
  0.3929151811179744  0.1930311753806552  0.7535701929627744
  0.5941694500776163  0.2000393542727553  0.7576040281348435
  0.7289802761032820  0.2710200044791979  0.7565588038980899
  0.7968541195960027  0.2031456379657880  0.7502958543272576
  0.9308114772360394  0.2677156250229303  0.7477804662968924
  0.9993302101397934  0.4005548944817263  0.7484779722241522
  0.1340042373044332  0.4661159745396458  0.7484909355200013
  0.2006170959334946  0.3985028589051367  0.7503283180699271
  0.3333978571285718  0.4608959801048150  0.7576000424464187
  0.7999602627684010  0.4058300284883938  0.7576040357178745
  0.9327271574712053  0.4681470795233661  0.7503245613905650
  0.0025963360294196  0.6016289977913843  0.7460960355049229
  0.1352722627470019  0.6660782464160016  0.7439440312622281
  0.2025717971208701  0.5989144961923641  0.7477641492194242
  0.3364389571005585  0.6635610334790725  0.7502959913353261
  0.4043394929763502  0.5956605171158972  0.7565956017290555
  0.5391040190882384  0.6666021464582480  0.7576000420475097
  0.7404171397730693  0.6736343025066773  0.7535665686569047
  0.8069688155752611  0.6070848214080968  0.7535701939767451
  0.9370505369771133  0.6697736946670677  0.7444041405612353
  0.0017936044460558  0.8017590625096016  0.7376725354509763
  0.1342469549350396  0.8657530591554141  0.7367244304085111
  0.2009684654723507  0.7990315422867418  0.7405966211589441
  0.3339217555454460  0.8647277314434287  0.7439440313029219
  0.4010855125447557  0.7974282132780212  0.7477641487030362
  0.5338840151891783  0.8659957426892736  0.7484909336504674
  0.6014971322266967  0.7993828925231089  0.7503283183899477
  0.7349575466425021  0.8692815998897363  0.7461182121179391
  0.8031355056305277  0.8037512307777884  0.7444177955619501
  0.9350825056060833  0.8684464336094564  0.7376978621342757
  0.5221227709398163  0.2582577797857635  0.7671312021410950
  0.3915891248116288  0.3887918011475871  0.7671312494821786
  0.7417422656228136  0.4778772036187178  0.7671311937782832
  0.6112081983205532  0.6084108677099381  0.7671312454413475
  0.5666650407301672  0.4333349474533169  0.7944494960873645
 
  0.00000000E+00  0.00000000E+00  0.00000000E+00
  0.00000000E+00  0.00000000E+00  0.00000000E+00
  0.00000000E+00  0.00000000E+00  0.00000000E+00
  0.00000000E+00  0.00000000E+00  0.00000000E+00
  0.00000000E+00  0.00000000E+00  0.00000000E+00
  0.00000000E+00  0.00000000E+00  0.00000000E+00
  0.00000000E+00  0.00000000E+00  0.00000000E+00
  0.00000000E+00  0.00000000E+00  0.00000000E+00
  0.00000000E+00  0.00000000E+00  0.00000000E+00
  0.00000000E+00  0.00000000E+00  0.00000000E+00
  0.00000000E+00  0.00000000E+00  0.00000000E+00
  0.00000000E+00  0.00000000E+00  0.00000000E+00
  0.00000000E+00  0.00000000E+00  0.00000000E+00
  0.00000000E+00  0.00000000E+00  0.00000000E+00
  0.00000000E+00  0.00000000E+00  0.00000000E+00
  0.00000000E+00  0.00000000E+00  0.00000000E+00
  0.00000000E+00  0.00000000E+00  0.00000000E+00
  0.00000000E+00  0.00000000E+00  0.00000000E+00
  0.00000000E+00  0.00000000E+00  0.00000000E+00
  0.00000000E+00  0.00000000E+00  0.00000000E+00
  0.00000000E+00  0.00000000E+00  0.00000000E+00
  0.00000000E+00  0.00000000E+00  0.00000000E+00
  0.00000000E+00  0.00000000E+00  0.00000000E+00
  0.00000000E+00  0.00000000E+00  0.00000000E+00
  0.00000000E+00  0.00000000E+00  0.00000000E+00
  0.00000000E+00  0.00000000E+00  0.00000000E+00
  0.00000000E+00  0.00000000E+00  0.00000000E+00
  0.00000000E+00  0.00000000E+00  0.00000000E+00
  0.00000000E+00  0.00000000E+00  0.00000000E+00
  0.00000000E+00  0.00000000E+00  0.00000000E+00
  0.00000000E+00  0.00000000E+00  0.00000000E+00
  0.00000000E+00  0.00000000E+00  0.00000000E+00
  0.00000000E+00  0.00000000E+00  0.00000000E+00
  0.00000000E+00  0.00000000E+00  0.00000000E+00
  0.00000000E+00  0.00000000E+00  0.00000000E+00
  0.00000000E+00  0.00000000E+00  0.00000000E+00
  0.00000000E+00  0.00000000E+00  0.00000000E+00
  0.00000000E+00  0.00000000E+00  0.00000000E+00
  0.00000000E+00  0.00000000E+00  0.00000000E+00
  0.00000000E+00  0.00000000E+00  0.00000000E+00
  0.00000000E+00  0.00000000E+00  0.00000000E+00
  0.00000000E+00  0.00000000E+00  0.00000000E+00
  0.00000000E+00  0.00000000E+00  0.00000000E+00
  0.00000000E+00  0.00000000E+00  0.00000000E+00
  0.00000000E+00  0.00000000E+00  0.00000000E+00
  0.00000000E+00  0.00000000E+00  0.00000000E+00
  0.00000000E+00  0.00000000E+00  0.00000000E+00
  0.00000000E+00  0.00000000E+00  0.00000000E+00
  0.00000000E+00  0.00000000E+00  0.00000000E+00
