       N       E                     dE             d eps       ncg     rms          rms(c)
DAV:   1    -0.481359762238E+03   -0.48136E+03   -0.13318E+02  8192   0.261E+01    0.311E+01
DAV:   2    -0.460399009327E+03    0.20961E+02   -0.41669E+01  6912   0.219E+01    0.152E+01
DAV:   3    -0.454016674512E+03    0.63823E+01   -0.13083E+01  8192   0.903E+00    0.749E+00
DAV:   4    -0.453112808357E+03    0.90387E+00   -0.49944E+00  8192   0.844E+00    0.241E+00
DAV:   5    -0.453054199251E+03    0.58609E-01   -0.29551E-01  8192   0.194E+00    0.142E+00
DAV:   6    -0.452949155641E+03    0.10504E+00   -0.10796E-01  8192   0.102E+00    0.591E-01
DAV:   7    -0.452916778779E+03    0.32377E-01   -0.21331E-02  7680   0.358E-01    0.349E-01
DAV:   8    -0.452896434146E+03    0.20345E-01   -0.45088E-02  8192   0.517E-01    0.248E-01
DAV:   9    -0.452893828160E+03    0.26060E-02   -0.21130E-02  7936   0.460E-01    0.149E-01
DAV:  10    -0.452901127445E+03   -0.72993E-02   -0.46619E-03  7168   0.134E-01    0.919E-02
DAV:  11    -0.452918435126E+03   -0.17308E-01   -0.26789E-03  7424   0.759E-02    0.563E-02
DAV:  12    -0.452934003105E+03   -0.15568E-01   -0.20314E-03  8192   0.752E-02    0.418E-02
DAV:  13    -0.452943428142E+03   -0.94250E-02   -0.12472E-03  7424   0.683E-02    0.177E-02
DAV:  14    -0.452946034680E+03   -0.26065E-02   -0.16870E-04  6144   0.189E-02    0.114E-02
DAV:  15    -0.452947724347E+03   -0.16897E-02   -0.14897E-04  6912   0.158E-02    0.647E-03
DAV:  16    -0.452948573279E+03   -0.84893E-03   -0.93445E-05  6144   0.105E-02    0.370E-03
DAV:  17    -0.452948840792E+03   -0.26751E-03   -0.22983E-05  5888   0.549E-03    0.250E-03
DAV:  18    -0.452948996189E+03   -0.15540E-03   -0.14529E-05  7936   0.292E-03    0.174E-03
DAV:  19    -0.452949081751E+03   -0.85562E-04   -0.36732E-06  7680   0.116E-03    0.113E-03
DAV:  20    -0.452949137848E+03   -0.56097E-04   -0.14425E-06  7680   0.132E-03    0.652E-04
DAV:  21    -0.452949165166E+03   -0.27317E-04   -0.28339E-07  7168   0.497E-04    0.399E-04
DAV:  22    -0.452949179939E+03   -0.14774E-04   -0.14568E-07  7424   0.445E-04    0.228E-04
DAV:  23    -0.452949184246E+03   -0.43066E-05   -0.67289E-08  7936   0.288E-04
   1 F= -.45472714E+03 E0= -.45471035E+03  d E =-.454727E+03  mag=     6.7644
       N       E                     dE             d eps       ncg     rms          rms(c)
DAV:   1    -0.452949498035E+03   -0.31810E-03   -0.40088E-02  7680   0.319E-01    0.490E-02
DAV:   2    -0.452949481346E+03    0.16689E-04   -0.35553E-04  7680   0.358E-02    0.256E-02
DAV:   3    -0.452949470996E+03    0.10351E-04   -0.24688E-05  7680   0.825E-03    0.122E-02
DAV:   4    -0.452949465537E+03    0.54584E-05   -0.85421E-06  7680   0.473E-03
   2 F= -.45472743E+03 E0= -.45471059E+03  d E =-.292425E-03  mag=     6.7643
       N       E                     dE             d eps       ncg     rms          rms(c)
DAV:   1    -0.452949648601E+03   -0.17761E-03   -0.98972E-03  7168   0.153E-01    0.232E-02
DAV:   2    -0.452949642605E+03    0.59960E-05   -0.91694E-05  6656   0.188E-02
   3 F= -.45472759E+03 E0= -.45471079E+03  d E =-.164686E-03  mag=     6.7643
