C  N  Gd                                
   1.00000000000000     
    12.3000000000000007    0.0000000000000000    0.0000000000000000
    -6.1499999999999977   10.6521124665485960    0.0000000000000000
     0.0000000000000000    0.0000000000000000   20.0000000000000000
   C    N    Gd
    44     4     1
Direct
  0.9993936744265696  0.0006063491413891  0.7436002464248440
  0.1320909018373374  0.0655841612751513  0.7440646485619755
  0.1989009160791969  0.9987378219259313  0.7441733069793421
  0.3308955799344664  0.0640520955337870  0.7471249180939856
  0.3986330313500080  0.9979924093729701  0.7472086166525387
  0.5322320784042797  0.0668730972440663  0.7482671703328669
  0.5997412463472497  0.0006229941179386  0.7472141839180200
  0.7324848970074974  0.0686240801816604  0.7473518125009161
  0.7996749029180934  0.0014077171342366  0.7461132156250462
  0.9327743103735211  0.0672257005187896  0.7450515014848922
  0.9985922777036447  0.2003251040102020  0.7461132185953193
  0.1313307907441978  0.2653126266683928  0.7471175510159848
  0.1973887840405450  0.1975586503106029  0.7469797944667450
  0.3298492652779024  0.2639998907982039  0.7518934881094487
  0.3973238615593217  0.1964867845846557  0.7519440436366284
  0.5949420719172492  0.2002166670707968  0.7521050906551721
  0.7297620874316989  0.2702379139400508  0.7516320562812763
  0.7974691439024462  0.2025308547904808  0.7485701867355954
  0.9313759162253584  0.2675151112112986  0.7473518137610999
  0.9993769963549093  0.4002587621337330  0.7472141804172939
  0.1339905059053906  0.4664064298944837  0.7473634786030192
  0.2002426797197329  0.3989135949847408  0.7483216377494381
  0.3335776883585380  0.4616724416991113  0.7522720625478344
  0.7997833245665306  0.4050579276847204  0.7521050932722667
  0.9331268907849899  0.4677679255016539  0.7482671701001531
  0.0020075834062531  0.6013669763396219  0.7472086066104004
  0.1346947160497906  0.6663345277338593  0.7463825992666323
  0.2019238158398690  0.5991605268702226  0.7475814599277973
  0.3357949873838593  0.6642050157455582  0.7489228245511995
  0.4035257442350259  0.5964742538728103  0.7518881811784419
  0.5383275555113867  0.6664223022172983  0.7522720632398587
  0.7360000978578872  0.6701507199793109  0.7518934806574546
  0.8035132009198896  0.6026761279056626  0.7519440373808106
  0.9359478997819053  0.6691044286033254  0.7471249158212196
  0.0012621960248859  0.8010991033815632  0.7441732996845383
  0.1339462712214061  0.8660537527115263  0.7436731658170318
  0.2005982491199941  0.7994017628276298  0.7453386790555881
  0.3336654835444464  0.8653052815437299  0.7463826081181644
  0.4008394844694415  0.7980761828500818  0.7475814643462654
  0.5335935794514299  0.8660094854111648  0.7473634796419321
  0.6010864074777024  0.7997573073874394  0.7483216353116061
  0.7346873781484989  0.8686692004559512  0.7471175507288553
  0.8024413558203810  0.8026112108584608  0.7469797855549112
  0.9344158587118050  0.8679091197397010  0.7440646465961560
  0.5262437447029302  0.2604361660720360  0.7578112553112150
  0.3937745539990145  0.3929135616233280  0.7578699059236962
  0.7395638112625774  0.4737562396793407  0.7578112525365118
  0.6070864223542644  0.6062254239248809  0.7578699005626484
  0.5666977795346835  0.4333022105364465  0.8140047156553560
 
  0.00000000E+00  0.00000000E+00  0.00000000E+00
  0.00000000E+00  0.00000000E+00  0.00000000E+00
  0.00000000E+00  0.00000000E+00  0.00000000E+00
  0.00000000E+00  0.00000000E+00  0.00000000E+00
  0.00000000E+00  0.00000000E+00  0.00000000E+00
  0.00000000E+00  0.00000000E+00  0.00000000E+00
  0.00000000E+00  0.00000000E+00  0.00000000E+00
  0.00000000E+00  0.00000000E+00  0.00000000E+00
  0.00000000E+00  0.00000000E+00  0.00000000E+00
  0.00000000E+00  0.00000000E+00  0.00000000E+00
  0.00000000E+00  0.00000000E+00  0.00000000E+00
  0.00000000E+00  0.00000000E+00  0.00000000E+00
  0.00000000E+00  0.00000000E+00  0.00000000E+00
  0.00000000E+00  0.00000000E+00  0.00000000E+00
  0.00000000E+00  0.00000000E+00  0.00000000E+00
  0.00000000E+00  0.00000000E+00  0.00000000E+00
  0.00000000E+00  0.00000000E+00  0.00000000E+00
  0.00000000E+00  0.00000000E+00  0.00000000E+00
  0.00000000E+00  0.00000000E+00  0.00000000E+00
  0.00000000E+00  0.00000000E+00  0.00000000E+00
  0.00000000E+00  0.00000000E+00  0.00000000E+00
  0.00000000E+00  0.00000000E+00  0.00000000E+00
  0.00000000E+00  0.00000000E+00  0.00000000E+00
  0.00000000E+00  0.00000000E+00  0.00000000E+00
  0.00000000E+00  0.00000000E+00  0.00000000E+00
  0.00000000E+00  0.00000000E+00  0.00000000E+00
  0.00000000E+00  0.00000000E+00  0.00000000E+00
  0.00000000E+00  0.00000000E+00  0.00000000E+00
  0.00000000E+00  0.00000000E+00  0.00000000E+00
  0.00000000E+00  0.00000000E+00  0.00000000E+00
  0.00000000E+00  0.00000000E+00  0.00000000E+00
  0.00000000E+00  0.00000000E+00  0.00000000E+00
  0.00000000E+00  0.00000000E+00  0.00000000E+00
  0.00000000E+00  0.00000000E+00  0.00000000E+00
  0.00000000E+00  0.00000000E+00  0.00000000E+00
  0.00000000E+00  0.00000000E+00  0.00000000E+00
  0.00000000E+00  0.00000000E+00  0.00000000E+00
  0.00000000E+00  0.00000000E+00  0.00000000E+00
  0.00000000E+00  0.00000000E+00  0.00000000E+00
  0.00000000E+00  0.00000000E+00  0.00000000E+00
  0.00000000E+00  0.00000000E+00  0.00000000E+00
  0.00000000E+00  0.00000000E+00  0.00000000E+00
  0.00000000E+00  0.00000000E+00  0.00000000E+00
  0.00000000E+00  0.00000000E+00  0.00000000E+00
  0.00000000E+00  0.00000000E+00  0.00000000E+00
  0.00000000E+00  0.00000000E+00  0.00000000E+00
  0.00000000E+00  0.00000000E+00  0.00000000E+00
  0.00000000E+00  0.00000000E+00  0.00000000E+00
  0.00000000E+00  0.00000000E+00  0.00000000E+00
