       N       E                     dE             d eps       ncg     rms          ort
SDA:   1    -0.329275389002E+03   -0.32928E+03    0.00000E+00  3328   0.135E+03 0.000E+00
CGA:   2    -0.408783459270E+03   -0.79508E+02   -0.85725E+02  3328   0.639E+02-0.145E+02
CGA:   3    -0.426185846492E+03   -0.17402E+02   -0.17261E+02  3328   0.235E+02 0.115E+01
CGA:   4    -0.433916409510E+03   -0.77306E+01   -0.77393E+01  3328   0.841E+01-0.115E+00
CGA:   5    -0.436427334872E+03   -0.25109E+01   -0.25384E+01  3328   0.290E+01-0.274E+00
CGA:   6    -0.437222145885E+03   -0.79481E+00   -0.79207E+00  3328   0.782E+00 0.339E-01
CGA:   7    -0.437465991370E+03   -0.24385E+00   -0.24394E+00  3328   0.223E+00-0.906E-03
CGA:   8    -0.437537625559E+03   -0.71634E-01   -0.71660E-01  3328   0.682E-01-0.306E-03
CGA:   9    -0.437562422465E+03   -0.24797E-01   -0.24813E-01  3328   0.238E-01-0.129E-03
CGA:  10    -0.437571550535E+03   -0.91281E-02   -0.91407E-02  3328   0.799E-02-0.900E-04
CGA:  11    -0.437574575135E+03   -0.30246E-02   -0.30282E-02  3328   0.231E-02-0.266E-04
CGA:  12    -0.437575450938E+03   -0.87580E-03   -0.87659E-03  3328   0.628E-03-0.548E-05
CGA:  13    -0.437575695897E+03   -0.24496E-03   -0.24539E-03  3328   0.183E-03-0.338E-05
CGA:  14    -0.437575769697E+03   -0.73800E-04   -0.73595E-04  3328   0.628E-04 0.156E-05
CGA:  15    -0.437575796589E+03   -0.26892E-04   -0.27268E-04  3328   0.248E-04-0.253E-05
CGA:  16    -0.437575805659E+03   -0.90705E-05   -0.90107E-05  3328   0.770E-05 0.669E-06
   1 F= -.43938468E+03 E0= -.43937853E+03  d E =-.123055E-01  mag=     0.0000
