 vasp.5.4.4.18Apr17-6-g9f103f2a35 (build Nov 21 2023 15:34:30) complex          
  
 executed on             LinuxIFC date 2026.09.23  14:43:36
 running on  256 total cores
 distrk:  each k-point on  256 cores,    1 groups
 distr:  one band on NCORES_PER_BAND=   1 cores,  256 groups


--------------------------------------------------------------------------------------------------------


 INCAR:
 POTCAR:   PAW_PBE C 08Apr2002                    
 POTCAR:   PAW_PBE N 08Apr2002                    
 POTCAR:   PAW_PBE Ag 06Sep2000                   

 ----------------------------------------------------------------------------- 
|                                                                             |
|           W    W    AA    RRRRR   N    N  II  N    N   GGGG   !!!           |
|           W    W   A  A   R    R  NN   N  II  NN   N  G    G  !!!           |
|           W    W  A    A  R    R  N N  N  II  N N  N  G       !!!           |
|           W WW W  AAAAAA  RRRRR   N  N N  II  N  N N  G  GGG   !            |
|           WW  WW  A    A  R   R   N   NN  II  N   NN  G    G                |
|           W    W  A    A  R    R  N    N  II  N    N   GGGG   !!!           |
|                                                                             |
|      For optimal performance we recommend to set                            |
|        NCORE= 4 - approx SQRT( number of cores)                             |
|      NCORE specifies how many cores store one orbital (NPAR=cpu/NCORE).     |
|      This setting can  greatly improve the performance of VASP for DFT.     |
|      The default,   NCORE=1            might be grossly inefficient         |
|      on modern multi-core architectures or massively parallel machines.     |
|      Do your own testing !!!!                                               |
|      Unfortunately you need to use the default for GW and RPA calculations. |
|      (for HF NCORE is supported but not extensively tested yet)             |
|                                                                             |
 ----------------------------------------------------------------------------- 

 POTCAR:   PAW_PBE C 08Apr2002                    
   VRHFIN =C: s2p2                                                              
   LEXCH  = PE                                                                  
   EATOM  =   147.1560 eV,   10.8157 Ry                                         
                                                                                
   TITEL  = PAW_PBE C 08Apr2002                                                 
   LULTRA =        F    use ultrasoft PP ?                                      
   IUNSCR =        0    unscreen: 0-lin 1-nonlin 2-no                           
   RPACOR =     .000    partial core radius                                     
   POMASS =   12.011; ZVAL   =    4.000    mass and valenz                      
   RCORE  =    1.500    outmost cutoff radius                                   
   RWIGS  =    1.630; RWIGS  =     .863    wigner-seitz radius (au A)           
   ENMAX  =  400.000; ENMIN  =  300.000 eV                                      
   ICORE  =        2    local potential                                         
   LCOR   =        T    correct aug charges                                     
   LPAW   =        T    paw PP                                                  
   EAUG   =  644.873                                                            
   DEXC   =     .000                                                            
   RMAX   =    2.266    core radius for proj-oper                               
   RAUG   =    1.300    factor for augmentation sphere                          
   RDEP   =    1.501    radius for radial grids                                 
   RDEPT  =    1.300    core radius for aug-charge                              
   QCUT   =   -5.516; QGAM   =   11.032    optimization parameters              
                                                                                
   Description                                                                  
     l     E      TYP  RCUT    TYP  RCUT                                        
     0   .000     23  1.200                                                     
     0   .000     23  1.200                                                     
     1   .000     23  1.500                                                     
     1  2.500     23  1.500                                                     
     2   .000      7  1.500                                                     
  local pseudopotential read in
  atomic valenz-charges read in
  non local Contribution for L=           0  read in
    real space projection operators read in
  non local Contribution for L=           0  read in
    real space projection operators read in
  non local Contribution for L=           1  read in
    real space projection operators read in
  non local Contribution for L=           1  read in
    real space projection operators read in
    PAW grid and wavefunctions read in
 
   number of l-projection  operators is LMAX  =           4
   number of lm-projection operators is LMMAX =           8
 
 POTCAR:   PAW_PBE N 08Apr2002                    
   VRHFIN =N: s2p3                                                              
   LEXCH  = PE                                                                  
   EATOM  =   264.5486 eV,   19.4438 Ry                                         
                                                                                
   TITEL  = PAW_PBE N 08Apr2002                                                 
   LULTRA =        F    use ultrasoft PP ?                                      
   IUNSCR =        0    unscreen: 0-lin 1-nonlin 2-no                           
   RPACOR =     .000    partial core radius                                     
   POMASS =   14.001; ZVAL   =    5.000    mass and valenz                      
   RCORE  =    1.500    outmost cutoff radius                                   
   RWIGS  =    1.400; RWIGS  =     .741    wigner-seitz radius (au A)           
   ENMAX  =  400.000; ENMIN  =  300.000 eV                                      
   ICORE  =        2    local potential                                         
   LCOR   =        T    correct aug charges                                     
   LPAW   =        T    paw PP                                                  
   EAUG   =  627.112                                                            
   DEXC   =     .000                                                            
   RMAX   =    2.247    core radius for proj-oper                               
   RAUG   =    1.300    factor for augmentation sphere                          
   RDEP   =    1.514    radius for radial grids                                 
   QCUT   =   -5.562; QGAM   =   11.124    optimization parameters              
                                                                                
   Description                                                                  
     l     E      TYP  RCUT    TYP  RCUT                                        
     0   .000     23  1.200                                                     
     0   .000     23  1.200                                                     
     1   .000     23  1.500                                                     
     1   .700     23  1.500                                                     
     2   .000      7  1.500                                                     
  local pseudopotential read in
  atomic valenz-charges read in
  non local Contribution for L=           0  read in
    real space projection operators read in
  non local Contribution for L=           0  read in
    real space projection operators read in
  non local Contribution for L=           1  read in
    real space projection operators read in
  non local Contribution for L=           1  read in
    real space projection operators read in
    PAW grid and wavefunctions read in
 
   number of l-projection  operators is LMAX  =           4
   number of lm-projection operators is LMMAX =           8
 
 POTCAR:   PAW_PBE Ag 06Sep2000                   
   VRHFIN =Ag : s1 d10                                                          
   LEXCH  = PE                                                                  
   EATOM  =  1037.4134 eV,   76.2477 Ry                                         
                                                                                
   TITEL  = PAW_PBE Ag 06Sep2000                                                
   LULTRA =        F    use ultrasoft PP ?                                      
   IUNSCR =        1    unscreen: 0-lin 1-nonlin 2-no                           
   RPACOR =    2.000    partial core radius                                     
   POMASS =  107.868; ZVAL   =   11.000    mass and valenz                      
   RCORE  =    2.400    outmost cutoff radius                                   
   RWIGS  =    2.840; RWIGS  =    1.503    wigner-seitz radius (au A)           
   ENMAX  =  249.846; ENMIN  =  187.385 eV                                      
   RCLOC  =    1.962    cutoff for local pot                                    
   LCOR   =        T    correct aug charges                                     
   LPAW   =        T    paw PP                                                  
   EAUG   =  412.496                                                            
   DEXC   =    -.047                                                            
   RMAX   =    2.917    core radius for proj-oper                               
   RAUG   =    1.300    factor for augmentation sphere                          
   RDEP   =    2.416    radius for radial grids                                 
   QCUT   =   -4.285; QGAM   =    8.570    optimization parameters              
                                                                                
   Description                                                                  
     l     E      TYP  RCUT    TYP  RCUT                                        
     2   .000     23  2.400                                                     
     2   .000     23  2.400                                                     
     0   .000     23  2.400                                                     
     0   .000     23  2.400                                                     
     1  -.200     23  2.400                                                     
     1  1.500     23  2.400                                                     
     3   .000      7   .000                                                     
  local pseudopotential read in
  partial core-charges read in
  atomic valenz-charges read in
  non local Contribution for L=           2  read in
    real space projection operators read in
  non local Contribution for L=           2  read in
    real space projection operators read in
  non local Contribution for L=           0  read in
    real space projection operators read in
  non local Contribution for L=           0  read in
    real space projection operators read in
  non local Contribution for L=           1  read in
    real space projection operators read in
  non local Contribution for L=           1  read in
    real space projection operators read in
    PAW grid and wavefunctions read in
 
   number of l-projection  operators is LMAX  =           6
   number of lm-projection operators is LMMAX =          18
 

 ----------------------------------------------------------------------------- 
|                                                                             |
|  ADVICE TO THIS USER RUNNING 'VASP/VAMP'   (HEAR YOUR MASTER'S VOICE ...):  |
|                                                                             |
|      You have a (more or less) 'large supercell' and for larger cells       |
|      it might be more efficient to use real space projection operators      |
|      So try LREAL= Auto  in the INCAR   file.                               |
|      Mind: If you want to do a very accurate calculations keep the          |
|      reciprocal projection scheme          (i.e. LREAL=.FALSE.)             |
|                                                                             |
 ----------------------------------------------------------------------------- 

 PAW_PBE C 08Apr2002                    :
 energy of atom  1       EATOM= -147.1560
 kinetic energy error for atom=    0.0071 (will be added to EATOM!!)
 PAW_PBE N 08Apr2002                    :
 energy of atom  2       EATOM= -264.5486
 kinetic energy error for atom=    0.0125 (will be added to EATOM!!)
 PAW_PBE Ag 06Sep2000                   :
 energy of atom  3       EATOM=-1037.4134
 kinetic energy error for atom=    0.0047 (will be added to EATOM!!)
 
 
 POSCAR: C  N  Ag                                
  positions in direct lattice
  velocities in cartesian coordinates
 exchange correlation table for  LEXCH =        8
   RHO(1)=    0.500       N(1)  =     2000
   RHO(2)=  100.500       N(2)  =     4000

 VTST: version 3.2, (02/03/18)

 CHAIN: initializing optimizer
 
 OPT: Using VASP Dynamics algorithm
 CHAIN: Read ICHAIN            0
 
 POSCAR: C  N  Ag                                
  positions in direct lattice
  velocities in cartesian coordinates
 


--------------------------------------------------------------------------------------------------------


 ion  position               nearest neighbor table
   1  0.999  0.001  0.744-  44 1.41   2 1.41  10 1.43
   2  0.132  0.065  0.744-   1 1.41  13 1.41   3 1.42
   3  0.199  0.999  0.744-  36 1.41   4 1.41   2 1.42
   4  0.331  0.064  0.746-  15 1.41   3 1.41   5 1.43
   5  0.399  0.998  0.748-   6 1.41  38 1.42   4 1.43
   6  0.531  0.066  0.750-   5 1.41   7 1.42  16 1.43
   7  0.599  0.000  0.750-   8 1.42   6 1.42  40 1.43
   8  0.732  0.069  0.750-   7 1.42   9 1.43  18 1.43
   9  0.800  0.003  0.747-  10 1.41  42 1.42   8 1.43
  10  0.932  0.068  0.746-  11 1.41   9 1.41   1 1.43
  11  0.997  0.200  0.747-  10 1.41  12 1.42  19 1.43
  12  0.131  0.265  0.748-  22 1.41  11 1.42  13 1.43
  13  0.197  0.198  0.746-  14 1.41   2 1.41  12 1.43
  14  0.329  0.265  0.752-  46 1.34  13 1.41  15 1.48
  15  0.399  0.196  0.752-  45 1.34   4 1.41  14 1.48
  16  0.593  0.200  0.754-  45 1.36   6 1.43  17 1.45
  17  0.729  0.271  0.754-  18 1.44  24 1.45  16 1.45
  18  0.796  0.204  0.751-  19 1.43   8 1.43  17 1.44
  19  0.931  0.268  0.750-  20 1.42  11 1.43  18 1.43
  20  1.000  0.401  0.750-  19 1.42  25 1.42  21 1.43
  21  0.134  0.466  0.750-  28 1.42  22 1.42  20 1.43
  22  0.199  0.398  0.750-  12 1.41  21 1.42  23 1.43
  23  0.333  0.460  0.754-  46 1.36  22 1.43  30 1.45
  24  0.800  0.407  0.754-  47 1.36  25 1.43  17 1.45
  25  0.934  0.469  0.750-  26 1.41  20 1.42  24 1.43
  26  0.002  0.601  0.748-  25 1.41  27 1.42  34 1.43
  27  0.136  0.666  0.747-  37 1.41  26 1.42  28 1.43
  28  0.203  0.599  0.750-  21 1.42  27 1.43  29 1.43
  29  0.337  0.663  0.751-  28 1.43  39 1.43  30 1.44
  30  0.404  0.596  0.754-  29 1.44  31 1.45  23 1.45
  31  0.540  0.667  0.754-  48 1.36  41 1.43  30 1.45
  32  0.735  0.671  0.752-  48 1.34  43 1.41  33 1.48
  33  0.804  0.601  0.752-  47 1.34  34 1.41  32 1.48
  34  0.936  0.669  0.746-  33 1.41  35 1.41  26 1.43
  35  0.001  0.801  0.744-  36 1.41  34 1.41  44 1.42
  36  0.134  0.866  0.744-   3 1.41  35 1.41  37 1.43
  37  0.201  0.799  0.746-  38 1.41  27 1.41  36 1.43
  38  0.334  0.864  0.747-  37 1.41   5 1.42  39 1.43
  39  0.401  0.797  0.750-  40 1.42  38 1.43  29 1.43
  40  0.534  0.866  0.750-  39 1.42  41 1.42   7 1.43
  41  0.602  0.801  0.750-  42 1.41  40 1.42  31 1.43
  42  0.735  0.869  0.748-  41 1.41   9 1.42  43 1.43
  43  0.802  0.803  0.746-  32 1.41  44 1.41  42 1.43
  44  0.935  0.868  0.744-   1 1.41  43 1.41  35 1.42
  45  0.524  0.258  0.758-  15 1.34  16 1.36  49 2.33
  46  0.392  0.391  0.758-  14 1.34  23 1.36  49 2.33
  47  0.742  0.476  0.758-  33 1.34  24 1.36  49 2.33
  48  0.609  0.608  0.758-  32 1.34  31 1.36  49 2.33
  49  0.567  0.433  0.822-  45 2.33  47 2.33  48 2.33  46 2.33
 

IMPORTANT INFORMATION: All symmetrisations will be switched off!
NOSYMM: (Re-)initialisation of all symmetry stuff for point group C_1.

 
 
 KPOINTS: K-POINTS                                

Automatic generation of k-mesh.
Space group operators:
 irot       det(A)        alpha          n_x          n_y          n_z        tau_x        tau_y        tau_z
    1     1.000000     0.000000     1.000000     0.000000     0.000000     0.000000     0.000000     0.000000
 
 Subroutine IBZKPT returns following result:
 ===========================================
 
 Found     13 irreducible k-points:
 
 Following reciprocal coordinates:
            Coordinates               Weight
  0.000000  0.000000  0.000000      1.000000
  0.200000  0.000000  0.000000      2.000000
  0.400000  0.000000  0.000000      2.000000
  0.000000  0.200000  0.000000      2.000000
  0.200000  0.200000  0.000000      2.000000
  0.400000  0.200000  0.000000      2.000000
 -0.400000  0.200000  0.000000      2.000000
 -0.200000  0.200000  0.000000      2.000000
  0.000000  0.400000  0.000000      2.000000
  0.200000  0.400000  0.000000      2.000000
  0.400000  0.400000  0.000000      2.000000
 -0.400000  0.400000  0.000000      2.000000
 -0.200000  0.400000  0.000000      2.000000
 
 Following cartesian coordinates:
            Coordinates               Weight
  0.000000  0.000000  0.000000      1.000000
  0.016260  0.009388  0.000000      2.000000
  0.032520  0.018776  0.000000      2.000000
  0.000000  0.018776  0.000000      2.000000
  0.016260  0.028163  0.000000      2.000000
  0.032520  0.037551  0.000000      2.000000
 -0.032520  0.000000  0.000000      2.000000
 -0.016260  0.009388  0.000000      2.000000
  0.000000  0.037551  0.000000      2.000000
  0.016260  0.046939  0.000000      2.000000
  0.032520  0.056327  0.000000      2.000000
 -0.032520  0.018776  0.000000      2.000000
 -0.016260  0.028163  0.000000      2.000000
 


--------------------------------------------------------------------------------------------------------




 Dimension of arrays:
   k-points           NKPTS =     13   k-points in BZ     NKDIM =     13   number of bands    NBANDS=    256
   number of dos      NEDOS =    301   number of ions     NIONS =     49
   non local maximal  LDIM  =      6   non local SUM 2l+1 LMDIM =     18
   total plane-waves  NPLWV = ******
   max r-space proj   IRMAX =      1   max aug-charges    IRDMAX=  26135
   dimension x,y,z NGX =    96 NGY =   96 NGZ =  150
   dimension x,y,z NGXF=   192 NGYF=  192 NGZF=  300
   support grid    NGXF=   192 NGYF=  192 NGZF=  300
   ions per type =              44   4   1
   NGX,Y,Z   is equivalent  to a cutoff of  12.98, 12.98, 12.47 a.u.
   NGXF,Y,Z  is equivalent  to a cutoff of  25.95, 25.95, 24.94 a.u.

 SYSTEM =  Ag-N-C                                  
 POSCAR =  C  N  Ag                                

 Startparameter for this run:
   NWRITE =      2    write-flag & timer
   PREC   = accura    normal or accurate (medium, high low for compatibility)
   ISTART =      1    job   : 0-new  1-cont  2-samecut
   ICHARG =      1    charge: 1-file 2-atom 10-const
   ISPIN  =      2    spin polarized calculation?
   LNONCOLLINEAR =      F non collinear calculations
   LSORBIT =      F    spin-orbit coupling
   INIWAV =      1    electr: 0-lowe 1-rand  2-diag
   LASPH  =      T    aspherical Exc in radial PAW
   METAGGA=      F    non-selfconsistent MetaGGA calc.

 Electronic Relaxation 1
   ENCUT  =  520.0 eV  38.22 Ry    6.18 a.u.  22.87 22.87 37.19*2*pi/ulx,y,z
   ENINI  =  520.0     initial cutoff
   ENAUG  =  644.9 eV  augmentation charge cutoff
   NELM   =    500;   NELMIN=  2; NELMDL=  0     # of ELM steps 
   EDIFF  = 0.1E-04   stopping-criterion for ELM
   LREAL  =      F    real-space projection
   NLSPLINE    = F    spline interpolate recip. space projectors
   LCOMPAT=      F    compatible to vasp.4.4
   GGA_COMPAT  = T    GGA compatible to vasp.4.4-vasp.4.6
   LMAXPAW     = -100 max onsite density
   LMAXMIX     =    2 max onsite mixed and CHGCAR
   VOSKOWN=      0    Vosko Wilk Nusair interpolation
   ROPT   =    0.00000   0.00000   0.00000
 Ionic relaxation
   EDIFFG = 0.1E-03   stopping-criterion for IOM
   NSW    =      0    number of steps for IOM
   NBLOCK =      1;   KBLOCK =      1    inner block; outer block 
   IBRION =     -1    ionic relax: 0-MD 1-quasi-New 2-CG
   NFREE  =      0    steps in history (QN), initial steepest desc. (CG)
   ISIF   =      2    stress and relaxation
   IWAVPR =     10    prediction:  0-non 1-charg 2-wave 3-comb
   ISYM   =      0    0-nonsym 1-usesym 2-fastsym
   LCORR  =      T    Harris-Foulkes like correction to forces

   POTIM  = 0.5000    time-step for ionic-motion
   TEIN   =    0.0    initial temperature
   TEBEG  =    0.0;   TEEND  =   0.0 temperature during run
   SMASS  =  -3.00    Nose mass-parameter (am)
   estimated Nose-frequenzy (Omega)   =  0.10E-29 period in steps =****** mass=  -0.346E-26a.u.
   SCALEE = 1.0000    scale energy and forces
   NPACO  =    256;   APACO  = 16.0  distance and # of slots for P.C.
   PSTRESS=    0.0 pullay stress

  Mass of Ions in am
   POMASS =  12.01 14.00107.87
  Ionic Valenz
   ZVAL   =   4.00  5.00 11.00
  Atomic Wigner-Seitz radii
   RWIGS  =  -1.00 -1.00 -1.00
  virtual crystal weights 
   VCA    =   1.00  1.00  1.00
   NELECT =     207.0000    total number of electrons
   NUPDOWN=      -1.0000    fix difference up-down

 DOS related values:
   EMIN   =  10.00;   EMAX   =-10.00  energy-range for DOS
   EFERMI =   0.00
   ISMEAR =     0;   SIGMA  =   0.10  broadening in eV -4-tet -1-fermi 0-gaus

 Electronic relaxation 2 (details)
   IALGO  =     58    algorithm
   LDIAG  =      T    sub-space diagonalisation (order eigenvalues)
   LSUBROT=      F    optimize rotation matrix (better conditioning)
   TURBO    =      0    0=normal 1=particle mesh
   IRESTART =      0    0=no restart 2=restart with 2 vectors
   NREBOOT  =      0    no. of reboots
   NMIN     =      0    reboot dimension
   EREF     =   0.00    reference energy to select bands
   IMIX   =      4    mixing-type and parameters
     AMIX     =   0.40;   BMIX     =  1.00
     AMIX_MAG =   1.60;   BMIX_MAG =  1.00
     AMIN     =   0.10
     WC   =   100.;   INIMIX=   1;  MIXPRE=   1;  MAXMIX= -45

 Intra band minimization:
   WEIMIN = 0.0000     energy-eigenvalue tresh-hold
   EBREAK =  0.98E-08  absolut break condition
   DEPER  =   0.30     relativ break condition  

   TIME   =   0.40     timestep for ELM

  volume/ion in A,a.u.               =      53.48       360.89
  Fermi-wavevector in a.u.,A,eV,Ry     =   0.702438  1.327415  6.713375  0.493419
  Thomas-Fermi vector in A             =   1.787137
 
 Write flags
   LWAVE        =      T    write WAVECAR
   LDOWNSAMPLE  =      F    k-point downsampling of WAVECAR
   LCHARG       =      T    write CHGCAR
   LVTOT        =      F    write LOCPOT, total local potential
   LVHAR        =      F    write LOCPOT, Hartree potential only
   LELF         =      F    write electronic localiz. function (ELF)
   LORBIT       =      0    0 simple, 1 ext, 2 COOP (PROOUT), +10 PAW based schemes


 Dipole corrections
   LMONO  =      F    monopole corrections only (constant potential shift)
   LDIPOL =      F    correct potential (dipole corrections)
   IDIPOL =      0    1-x, 2-y, 3-z, 4-all directions 
   EPSILON=  1.0000000 bulk dielectric constant

 Exchange correlation treatment:
   GGA     =    --    GGA type
   LEXCH   =     8    internal setting for exchange type
   VOSKOWN=      0    Vosko Wilk Nusair interpolation
   LHFCALC =     F    Hartree Fock is set to
   LHFONE  =     F    Hartree Fock one center treatment
   AEXX    =    0.0000 exact exchange contribution

 Linear response parameters
   LEPSILON=     F    determine dielectric tensor
   LRPA    =     F    only Hartree local field effects (RPA)
   LNABLA  =     F    use nabla operator in PAW spheres
   LVEL    =     F    velocity operator in full k-point grid
   LINTERFAST=   F  fast interpolation
   KINTER  =     0    interpolate to denser k-point grid
   CSHIFT  =0.1000    complex shift for real part using Kramers Kronig
   OMEGAMAX=  -1.0    maximum frequency
   DEG_THRESHOLD= 0.2000000E-02 threshold for treating states as degnerate
   RTIME   =   -0.100 relaxation time in fs
  (WPLASMAI=    0.000 imaginary part of plasma frequency in eV, 0.658/RTIME)
   DFIELD  = 0.0000000 0.0000000 0.0000000 field for delta impulse in time
 
 Orbital magnetization related:
   ORBITALMAG=     F  switch on orbital magnetization
   LCHIMAG   =     F  perturbation theory with respect to B field
   DQ        =  0.001000  dq finite difference perturbation B field
   LLRAUG    =     F  two centre corrections for induced B field



--------------------------------------------------------------------------------------------------------


 Static calculation
 charge density and potential will be updated during run
 spin polarized calculation
 Conjugate gradient for all bands (Freysoldt, et al. PRB 79, 241103 (2009))
 preconditioned conjugated gradient                                        
 perform sub-space diagonalisation
    before iterative eigenvector-optimisation
 modified Broyden-mixing scheme, WC =      100.0
 initial mixing is a Kerker type mixing with AMIX =  0.4000 and BMIX =      1.0000
 Hartree-type preconditioning will be used
 using additional bands          152
 reciprocal scheme for non local part
 use partial core corrections
 no Harris-corrections to forces 
 use gradient corrections 
 use of overlap-Matrix (Vanderbilt PP)
 Gauss-broadening in eV      SIGMA  =   0.10


--------------------------------------------------------------------------------------------------------


  energy-cutoff  :      520.00
  volume of cell :     2620.42
      direct lattice vectors                 reciprocal lattice vectors
    12.300000000  0.000000000  0.000000000     0.081300813  0.046939046  0.000000000
    -6.150000000 10.652112467  0.000000000     0.000000000  0.093878093  0.000000000
     0.000000000  0.000000000 20.000000000     0.000000000  0.000000000  0.050000000

  length of vectors
    12.300000000 12.300000000 20.000000000     0.093878093  0.093878093  0.050000000


 
 old parameters found on file WAVECAR:
  energy-cutoff  :      520.00
  volume of cell :     2620.42
      direct lattice vectors                 reciprocal lattice vectors
    12.300000000  0.000000000  0.000000000     0.081300813  0.046939046  0.000000000
    -6.150000000 10.652112467  0.000000000     0.000000000  0.093878093  0.000000000
     0.000000000  0.000000000 20.000000000     0.000000000  0.000000000  0.050000000

  length of vectors

 
 k-points in units of 2pi/SCALE and weight: K-POINTS                                
   0.00000000  0.00000000  0.00000000       0.040
   0.01626016  0.00938781  0.00000000       0.080
   0.03252033  0.01877562  0.00000000       0.080
   0.00000000  0.01877562  0.00000000       0.080
   0.01626016  0.02816343  0.00000000       0.080
   0.03252033  0.03755124  0.00000000       0.080
  -0.03252033  0.00000000  0.00000000       0.080
  -0.01626016  0.00938781  0.00000000       0.080
   0.00000000  0.03755124  0.00000000       0.080
   0.01626016  0.04693905  0.00000000       0.080
   0.03252033  0.05632686  0.00000000       0.080
  -0.03252033  0.01877562  0.00000000       0.080
  -0.01626016  0.02816343  0.00000000       0.080
 
 k-points in reciprocal lattice and weights: K-POINTS                                
   0.00000000  0.00000000  0.00000000       0.040
   0.20000000  0.00000000  0.00000000       0.080
   0.40000000  0.00000000  0.00000000       0.080
   0.00000000  0.20000000  0.00000000       0.080
   0.20000000  0.20000000  0.00000000       0.080
   0.40000000  0.20000000  0.00000000       0.080
  -0.40000000  0.20000000  0.00000000       0.080
  -0.20000000  0.20000000  0.00000000       0.080
   0.00000000  0.40000000  0.00000000       0.080
   0.20000000  0.40000000  0.00000000       0.080
   0.40000000  0.40000000  0.00000000       0.080
  -0.40000000  0.40000000  0.00000000       0.080
  -0.20000000  0.40000000  0.00000000       0.080
 
 position of ions in fractional coordinates (direct lattice) 
   0.99945570  0.00054430  0.74372451
   0.13183872  0.06525565  0.74362724
   0.19856280  0.99851544  0.74365233
   0.33125168  0.06394337  0.74647558
   0.39875752  0.99768880  0.74795001
   0.53134285  0.06595088  0.75034647
   0.59927267  0.00028501  0.74967275
   0.73214670  0.06922256  0.74955733
   0.79959292  0.00260495  0.74745366
   0.93227727  0.06772273  0.74593985
   0.99739504  0.20040707  0.74745367
   0.13098635  0.26542884  0.74786139
   0.19726999  0.19791381  0.74641198
   0.32931900  0.26546875  0.75180677
   0.39879747  0.19600311  0.75181055
   0.59291169  0.20004935  0.75448016
   0.72888892  0.27111108  0.75418016
   0.79629844  0.20370156  0.75102491
   0.93077744  0.26785330  0.74955733
   0.99971499  0.40072733  0.74967275
   0.13360834  0.46595411  0.74967148
   0.19927520  0.39799719  0.75028828
   0.33340408  0.45955890  0.75443180
   0.79995065  0.40708831  0.75448016
   0.93404912  0.46865715  0.75034647
   0.00231120  0.60124248  0.74795001
   0.13590993  0.66626405  0.74749415
   0.20254339  0.59882356  0.74959912
   0.33702924  0.66297076  0.75105042
   0.40446533  0.59553466  0.75419887
   0.54044110  0.66659591  0.75443180
   0.73453125  0.67068100  0.75180678
   0.80399689  0.60120253  0.75181055
   0.93605663  0.66874833  0.74647559
   0.00148457  0.80143721  0.74365234
   0.13388164  0.86611837  0.74377238
   0.20105586  0.79894414  0.74602754
   0.33373595  0.86409007  0.74749416
   0.40117644  0.79745661  0.74959913
   0.53404589  0.86639166  0.74967148
   0.60200281  0.80072480  0.75028828
   0.73457116  0.86901364  0.74786139
   0.80208619  0.80273001  0.74641199
   0.93474435  0.86816128  0.74362725
   0.52424560  0.25837437  0.75819121
   0.39171111  0.39090468  0.75818556
   0.74162564  0.47575440  0.75819120
   0.60909532  0.60828889  0.75818556
   0.56669997  0.43330004  0.82214664
 
 position of ions in cartesian coordinates  (Angst):
  12.28995770  0.00579795 14.87449025
   1.22029404  0.69511056 14.87254487
  -3.69854752 10.63629876 14.87304661
   3.68114392  0.68113200 14.92951169
  -1.23106865 10.62749329 14.95900027
   6.12991916  0.70251621 15.00692939
   7.36930098  0.00303598 14.99345498
   8.57968567  0.73736652 14.99114651
   9.81897250  0.02774825 14.94907324
  11.05051563  0.72139013 14.91879705
  11.03545553  2.13475869 14.94907332
  -0.02125520  2.82737782 14.95722781
   1.20925097  2.10820013 14.92823960
   2.41799090  2.82780296 15.03613550
   3.69978980  2.08784719 15.03621105
   6.06251021  2.13094822 15.08960325
   7.29800059  2.88790569 15.08360318
   8.54170622  2.16985192 15.02049810
   9.80126468  2.85320346 14.99114658
   9.83202126  4.26859262 14.99345504
  -1.22223523  4.96339562 14.99342960
   0.00340218  4.23951084 15.00576569
   1.27458303  4.89527304 15.08863596
   7.33579982  4.33635048 15.08960322
   8.60656269  4.99218863 15.00692941
  -3.66921352  6.40450254 14.95900027
  -2.42583176  7.09711959 14.94988306
  -1.19148116  6.37873590 14.99198248
   0.06818943  7.06203912 15.02100847
   1.31238539  6.34370222 15.08397742
   2.54786067  7.10065462 15.08863592
   4.91004625  7.14416943 15.03613557
   6.19176621  6.40407693 15.03621108
   7.40069434  7.12358237 14.92951180
  -4.91057866  8.53699927 14.87304677
  -3.67988377  9.22599024 14.87544754
  -2.44051930  8.51044279 14.92055088
  -1.20920173  9.20438457 14.94988311
   0.03011210  8.49459746 14.99198251
   1.24045570  9.22890142 14.99342953
   2.48017698  8.52941064 15.00576559
   3.69079137  9.25683105 14.95722778
   4.92887062  8.55077033 14.92823972
   6.15816362  9.24775158 14.87254504
   4.85921849  2.75223280 15.16382414
   2.41398287  4.16396063 15.16371112
   6.19610574  5.06778941 15.16382403
   3.75089573  6.47956166 15.16371118
   4.30561433  4.61556077 16.44293280
 


--------------------------------------------------------------------------------------------------------


 k-point  1 :   0.0000 0.0000 0.0000  plane waves:   70503
 k-point  2 :   0.2000 0.0000 0.0000  plane waves:   70568
 k-point  3 :   0.4000 0.0000 0.0000  plane waves:   70572
 k-point  4 :   0.0000 0.2000 0.0000  plane waves:   70568
 k-point  5 :   0.2000 0.2000 0.0000  plane waves:   70519
 k-point  6 :   0.4000 0.2000 0.0000  plane waves:   70609
 k-point  7 :  -0.4000 0.2000 0.0000  plane waves:   70519
 k-point  8 :  -0.2000 0.2000 0.0000  plane waves:   70568
 k-point  9 :   0.0000 0.4000 0.0000  plane waves:   70572
 k-point 10 :   0.2000 0.4000 0.0000  plane waves:   70609
 k-point 11 :   0.4000 0.4000 0.0000  plane waves:   70609
 k-point 12 :  -0.4000 0.4000 0.0000  plane waves:   70572
 k-point 13 :  -0.2000 0.4000 0.0000  plane waves:   70519

 maximum and minimum number of plane-waves per node :     70609    70503

 maximum number of plane-waves:     70609
 maximum index in each direction: 
   IXMAX=   23   IYMAX=   22   IZMAX=   37
   IXMIN=  -23   IYMIN=  -23   IZMIN=  -37


 serial   3D FFT for wavefunctions
 parallel 3D FFT for charge:
    minimum data exchange during FFTs selected (reduces bandwidth)


 total amount of memory used by VASP MPI-rank0   696067. kBytes
=======================================================================

   base      :      30000. kBytes
   nonl-proj :     452198. kBytes
   fftplans  :       7547. kBytes
   grid      :     115983. kBytes
   one-center:       1524. kBytes
   wavefun   :      88815. kBytes
 
     INWAV:  cpu time   61.1048: real time   61.2335
 Broyden mixing: mesh for mixing (old mesh)
   NGX = 45   NGY = 45   NGZ = 75
  (NGX  =192   NGY  =192   NGZ  =300)
  gives a total of 151875 points

 initial charge density was supplied:
 number of electron     207.0000002 magnetization       0.0000007
 charge density for first step will be calculated from the start-wavefunctions


--------------------------------------------------------------------------------------------------------


 Maximum index for augmentation-charges          362 (set IRDMAX)


--------------------------------------------------------------------------------------------------------


 initial charge from wavefunction
 First call to EWALD:  gamma=   0.129
 Maximum number of real-space cells 3x 3x 2
 Maximum number of reciprocal cells 3x 3x 4

    FEWALD:  cpu time    0.0290: real time    0.0290


--------------------------------------- Iteration      1(   1)  ---------------------------------------


    POTLOK:  cpu time    2.5220: real time    2.5598
    SETDIJ:  cpu time    0.4513: real time    0.4752
    TRIAL :  cpu time   62.2964: real time   64.0197
    CORREC:  cpu time   27.6589: real time   28.9069
    CHARGE:  cpu time    3.2960: real time    3.2966
    --------------------------------------------
      LOOP:  cpu time   96.3057: real time   99.3619

 eigenvalue-minimisations  :     0
 total energy-change (2. order) :-0.3292754E+03  (-0.8572497E+02)
 number of electron     207.0000001 magnetization       0.0000012
 augmentation part       10.2789995 magnetization      -0.0000030

 Free energy of the ion-electron system (eV)
  ---------------------------------------------------
  alpha Z        PSCENC =        90.35583616
  Ewald energy   TEWEN  =     33702.90407510
  -Hartree energ DENC   =    -41083.90934751
  -exchange      EXHF   =         0.00000000
  -V(xc)+E(xc)   XCENC  =       704.32385931
  PAW double counting   =      4545.21702364    -4563.78422478
  entropy T*S    EENTRO =        -0.01859325
  eigenvalues    EBANDS =     -2294.44397033
  atomic energy  EATOM  =      8570.10426870
  ---------------------------------------------------
  free energy    TOTEN  =      -329.27538900 eV

  energy without entropy =     -329.25679575  energy(sigma->0) =     -329.26609237


--------------------------------------------------------------------------------------------------------




--------------------------------------- Iteration      1(   2)  ---------------------------------------


    POTLOK:  cpu time    2.4739: real time    2.4747
    SETDIJ:  cpu time    0.4564: real time    0.4565
    TRIAL :  cpu time   62.0641: real time   63.4939
    CORREC:  cpu time   27.8757: real time   29.0959
    CHARGE:  cpu time    3.3025: real time    3.3030
    --------------------------------------------
      LOOP:  cpu time   96.1969: real time   98.8783

 eigenvalue-minimisations  :     0
 total energy-change (2. order) :-0.7950807E+02  (-0.1726101E+02)
 number of electron     207.0000002 magnetization       0.0000007
 augmentation part       10.5146186 magnetization      -0.0000051

 Free energy of the ion-electron system (eV)
  ---------------------------------------------------
  alpha Z        PSCENC =        90.35583616
  Ewald energy   TEWEN  =     33702.90407510
  -Hartree energ DENC   =    -40888.48181651
  -exchange      EXHF   =         0.00000000
  -V(xc)+E(xc)   XCENC  =       698.99474425
  PAW double counting   =      4436.02152024    -4453.21437375
  entropy T*S    EENTRO =        -0.01547835
  eigenvalues    EBANDS =     -2565.44912019
  atomic energy  EATOM  =      8570.10426870
  ---------------------------------------------------
  free energy    TOTEN  =      -408.78345927 eV

  energy without entropy =     -408.76798092  energy(sigma->0) =     -408.77572010


--------------------------------------------------------------------------------------------------------




--------------------------------------- Iteration      1(   3)  ---------------------------------------


    POTLOK:  cpu time    2.4586: real time    2.4590
    SETDIJ:  cpu time    0.4508: real time    0.4508
    TRIAL :  cpu time   65.4737: real time   66.7496
    CORREC:  cpu time   28.3855: real time   29.6456
    CHARGE:  cpu time    3.2655: real time    3.2668
    --------------------------------------------
      LOOP:  cpu time  100.0454: real time  102.5851

 eigenvalue-minimisations  :     0
 total energy-change (2. order) :-0.1740239E+02  (-0.7739290E+01)
 number of electron     207.0000002 magnetization       0.0000013
 augmentation part       10.4197827 magnetization      -0.0000013

 Free energy of the ion-electron system (eV)
  ---------------------------------------------------
  alpha Z        PSCENC =        90.35583616
  Ewald energy   TEWEN  =     33702.90407510
  -Hartree energ DENC   =    -41113.44807395
  -exchange      EXHF   =         0.00000000
  -V(xc)+E(xc)   XCENC  =       705.05509396
  PAW double counting   =      4566.58963380    -4584.49903158
  entropy T*S    EENTRO =        -0.00959636
  eigenvalues    EBANDS =     -2363.23217033
  atomic energy  EATOM  =      8570.10426870
  ---------------------------------------------------
  free energy    TOTEN  =      -426.18584649 eV

  energy without entropy =     -426.17625013  energy(sigma->0) =     -426.18104831


--------------------------------------------------------------------------------------------------------




--------------------------------------- Iteration      1(   4)  ---------------------------------------


    POTLOK:  cpu time    2.4766: real time    2.4772
    SETDIJ:  cpu time    0.5333: real time    0.5334
    TRIAL :  cpu time   62.4340: real time   63.6646
    CORREC:  cpu time   27.4428: real time   28.7003
    CHARGE:  cpu time    3.2436: real time    3.2548
    --------------------------------------------
      LOOP:  cpu time   96.1574: real time   98.6574

 eigenvalue-minimisations  :     0
 total energy-change (2. order) :-0.7730563E+01  (-0.2538363E+01)
 number of electron     207.0000002 magnetization       0.0000013
 augmentation part       10.5028062 magnetization       0.0000017

 Free energy of the ion-electron system (eV)
  ---------------------------------------------------
  alpha Z        PSCENC =        90.35583616
  Ewald energy   TEWEN  =     33702.90407510
  -Hartree energ DENC   =    -41096.62186245
  -exchange      EXHF   =         0.00000000
  -V(xc)+E(xc)   XCENC  =       704.88305221
  PAW double counting   =      4571.60236846    -4588.70091814
  entropy T*S    EENTRO =        -0.01245609
  eigenvalues    EBANDS =     -2388.43363320
  atomic energy  EATOM  =      8570.10426870
  ---------------------------------------------------
  free energy    TOTEN  =      -433.91640951 eV

  energy without entropy =     -433.90395342  energy(sigma->0) =     -433.91018147


--------------------------------------------------------------------------------------------------------




--------------------------------------- Iteration      1(   5)  ---------------------------------------


    POTLOK:  cpu time    2.4657: real time    2.4687
    SETDIJ:  cpu time    0.4535: real time    0.4539
    TRIAL :  cpu time   65.6138: real time   66.9868
    CORREC:  cpu time   27.7086: real time   29.0077
    CHARGE:  cpu time    3.3545: real time    3.3554
    --------------------------------------------
      LOOP:  cpu time   99.6176: real time  102.2947

 eigenvalue-minimisations  :     0
 total energy-change (2. order) :-0.2510925E+01  (-0.7920688E+00)
 number of electron     207.0000002 magnetization       0.0000019
 augmentation part       10.5030884 magnetization       0.0000019

 Free energy of the ion-electron system (eV)
  ---------------------------------------------------
  alpha Z        PSCENC =        90.35583616
  Ewald energy   TEWEN  =     33702.90407510
  -Hartree energ DENC   =    -41093.59840155
  -exchange      EXHF   =         0.00000000
  -V(xc)+E(xc)   XCENC  =       704.64485981
  PAW double counting   =      4586.26834904    -4603.60586394
  entropy T*S    EENTRO =        -0.01123244
  eigenvalues    EBANDS =     -2393.48800211
  atomic energy  EATOM  =      8570.10426870
  ---------------------------------------------------
  free energy    TOTEN  =      -436.42733487 eV

  energy without entropy =     -436.41610243  energy(sigma->0) =     -436.42171865


--------------------------------------------------------------------------------------------------------




--------------------------------------- Iteration      1(   6)  ---------------------------------------


    POTLOK:  cpu time    2.4330: real time    2.4339
    SETDIJ:  cpu time    0.4580: real time    0.4581
    TRIAL :  cpu time   65.5745: real time   66.8565
    CORREC:  cpu time   31.7314: real time   33.2373
    CHARGE:  cpu time    3.1791: real time    3.2626
    --------------------------------------------
      LOOP:  cpu time  103.3983: real time  106.2708

 eigenvalue-minimisations  :     0
 total energy-change (2. order) :-0.7948110E+00  (-0.2439351E+00)
 number of electron     207.0000002 magnetization       0.0000019
 augmentation part       10.5072757 magnetization       0.0000008

 Free energy of the ion-electron system (eV)
  ---------------------------------------------------
  alpha Z        PSCENC =        90.35583616
  Ewald energy   TEWEN  =     33702.90407510
  -Hartree energ DENC   =    -41089.05617491
  -exchange      EXHF   =         0.00000000
  -V(xc)+E(xc)   XCENC  =       704.45784777
  PAW double counting   =      4583.79060758    -4601.05988697
  entropy T*S    EENTRO =        -0.01172765
  eigenvalues    EBANDS =     -2398.70748688
  atomic energy  EATOM  =      8570.10426870
  ---------------------------------------------------
  free energy    TOTEN  =      -437.22214589 eV

  energy without entropy =     -437.21041823  energy(sigma->0) =     -437.21628206


--------------------------------------------------------------------------------------------------------




--------------------------------------- Iteration      1(   7)  ---------------------------------------


    POTLOK:  cpu time    2.4153: real time    2.4746
    SETDIJ:  cpu time    0.4388: real time    0.4508
    TRIAL :  cpu time   60.7536: real time   63.5216
    CORREC:  cpu time   27.3859: real time   28.6500
    CHARGE:  cpu time    3.4716: real time    3.4765
    --------------------------------------------
      LOOP:  cpu time   94.5072: real time   98.6155

 eigenvalue-minimisations  :     0
 total energy-change (2. order) :-0.2438455E+00  (-0.7166002E-01)
 number of electron     207.0000002 magnetization       0.0000016
 augmentation part       10.5217981 magnetization       0.0000003

 Free energy of the ion-electron system (eV)
  ---------------------------------------------------
  alpha Z        PSCENC =        90.35583616
  Ewald energy   TEWEN  =     33702.90407510
  -Hartree energ DENC   =    -41092.36241397
  -exchange      EXHF   =         0.00000000
  -V(xc)+E(xc)   XCENC  =       704.53599978
  PAW double counting   =      4583.75147971    -4601.03456888
  entropy T*S    EENTRO =        -0.01196541
  eigenvalues    EBANDS =     -2395.70894033
  atomic energy  EATOM  =      8570.10426870
  ---------------------------------------------------
  free energy    TOTEN  =      -437.46599137 eV

  energy without entropy =     -437.45402596  energy(sigma->0) =     -437.46000866


--------------------------------------------------------------------------------------------------------




--------------------------------------- Iteration      1(   8)  ---------------------------------------


    POTLOK:  cpu time    2.4769: real time    2.4783
    SETDIJ:  cpu time    0.4489: real time    0.4493
    TRIAL :  cpu time   62.8682: real time   64.4492
    CORREC:  cpu time   27.5260: real time   28.9629
    CHARGE:  cpu time    3.2263: real time    3.2382
    --------------------------------------------
      LOOP:  cpu time   96.5689: real time   99.6006

 eigenvalue-minimisations  :     0
 total energy-change (2. order) :-0.7163419E-01  (-0.2481324E-01)
 number of electron     207.0000002 magnetization       0.0000013
 augmentation part       10.5131521 magnetization       0.0000003

 Free energy of the ion-electron system (eV)
  ---------------------------------------------------
  alpha Z        PSCENC =        90.35583616
  Ewald energy   TEWEN  =     33702.90407510
  -Hartree energ DENC   =    -41093.59163514
  -exchange      EXHF   =         0.00000000
  -V(xc)+E(xc)   XCENC  =       704.55046801
  PAW double counting   =      4584.46111623    -4601.82516429
  entropy T*S    EENTRO =        -0.01215688
  eigenvalues    EBANDS =     -2394.48462492
  atomic energy  EATOM  =      8570.10426870
  ---------------------------------------------------
  free energy    TOTEN  =      -437.53762556 eV

  energy without entropy =     -437.52546868  energy(sigma->0) =     -437.53154712


--------------------------------------------------------------------------------------------------------




--------------------------------------- Iteration      1(   9)  ---------------------------------------


    POTLOK:  cpu time    2.4511: real time    2.4550
    SETDIJ:  cpu time    0.4500: real time    0.4506
    TRIAL :  cpu time   61.7761: real time   63.2474
    CORREC:  cpu time   31.4672: real time   32.7516
    CHARGE:  cpu time    3.3661: real time    3.3719
    --------------------------------------------
      LOOP:  cpu time   99.5409: real time  102.3069

 eigenvalue-minimisations  :     0
 total energy-change (2. order) :-0.2479691E-01  (-0.9140676E-02)
 number of electron     207.0000002 magnetization       0.0000009
 augmentation part       10.5176928 magnetization       0.0000002

 Free energy of the ion-electron system (eV)
  ---------------------------------------------------
  alpha Z        PSCENC =        90.35583616
  Ewald energy   TEWEN  =     33702.90407510
  -Hartree energ DENC   =    -41091.24774970
  -exchange      EXHF   =         0.00000000
  -V(xc)+E(xc)   XCENC  =       704.49339547
  PAW double counting   =      4582.48373948    -4599.79914048
  entropy T*S    EENTRO =        -0.01230488
  eigenvalues    EBANDS =     -2396.84469031
  atomic energy  EATOM  =      8570.10426870
  ---------------------------------------------------
  free energy    TOTEN  =      -437.56242247 eV

  energy without entropy =     -437.55011759  energy(sigma->0) =     -437.55627003


--------------------------------------------------------------------------------------------------------




--------------------------------------- Iteration      1(  10)  ---------------------------------------


    POTLOK:  cpu time    2.4472: real time    2.4492
    SETDIJ:  cpu time    0.4455: real time    0.4460
    TRIAL :  cpu time   61.5421: real time   63.3298
    CORREC:  cpu time   27.0774: real time   28.5544
    CHARGE:  cpu time    3.5402: real time    3.5437
    --------------------------------------------
      LOOP:  cpu time   95.0785: real time   98.3493

 eigenvalue-minimisations  :     0
 total energy-change (2. order) :-0.9128070E-02  (-0.3028188E-02)
 number of electron     207.0000002 magnetization       0.0000006
 augmentation part       10.5169163 magnetization       0.0000001

 Free energy of the ion-electron system (eV)
  ---------------------------------------------------
  alpha Z        PSCENC =        90.35583616
  Ewald energy   TEWEN  =     33702.90407510
  -Hartree energ DENC   =    -41092.03941458
  -exchange      EXHF   =         0.00000000
  -V(xc)+E(xc)   XCENC  =       704.52059126
  PAW double counting   =      4583.14164112    -4600.46908488
  entropy T*S    EENTRO =        -0.01236901
  eigenvalues    EBANDS =     -2396.07715855
  atomic energy  EATOM  =      8570.10426870
  ---------------------------------------------------
  free energy    TOTEN  =      -437.57155054 eV

  energy without entropy =     -437.55918153  energy(sigma->0) =     -437.56536603


--------------------------------------------------------------------------------------------------------




--------------------------------------- Iteration      1(  11)  ---------------------------------------


    POTLOK:  cpu time    2.4390: real time    2.4404
    SETDIJ:  cpu time    0.4519: real time    0.4521
    TRIAL :  cpu time   61.9460: real time   63.3519
    CORREC:  cpu time   27.7574: real time   29.1804
    CHARGE:  cpu time    3.2203: real time    3.2237
    --------------------------------------------
      LOOP:  cpu time   95.8419: real time   98.6772

 eigenvalue-minimisations  :     0
 total energy-change (2. order) :-0.3024600E-02  (-0.8765859E-03)
 number of electron     207.0000002 magnetization       0.0000004
 augmentation part       10.5165350 magnetization       0.0000000

 Free energy of the ion-electron system (eV)
  ---------------------------------------------------
  alpha Z        PSCENC =        90.35583616
  Ewald energy   TEWEN  =     33702.90407510
  -Hartree energ DENC   =    -41091.94411778
  -exchange      EXHF   =         0.00000000
  -V(xc)+E(xc)   XCENC  =       704.52186690
  PAW double counting   =      4583.00945610    -4600.33031389
  entropy T*S    EENTRO =        -0.01236577
  eigenvalues    EBANDS =     -2396.18327742
  atomic energy  EATOM  =      8570.10426870
  ---------------------------------------------------
  free energy    TOTEN  =      -437.57457514 eV

  energy without entropy =     -437.56220936  energy(sigma->0) =     -437.56839225


--------------------------------------------------------------------------------------------------------




--------------------------------------- Iteration      1(  12)  ---------------------------------------


    POTLOK:  cpu time    2.4516: real time    2.4533
    SETDIJ:  cpu time    0.4501: real time    0.4503
    TRIAL :  cpu time   61.8618: real time   63.2728
    CORREC:  cpu time   31.6209: real time   32.9769
    CHARGE:  cpu time    3.2416: real time    3.2446
    --------------------------------------------
      LOOP:  cpu time   99.6515: real time  102.4235

 eigenvalue-minimisations  :     0
 total energy-change (2. order) :-0.8758033E-03  (-0.2453946E-03)
 number of electron     207.0000002 magnetization       0.0000003
 augmentation part       10.5170324 magnetization       0.0000000

 Free energy of the ion-electron system (eV)
  ---------------------------------------------------
  alpha Z        PSCENC =        90.35583616
  Ewald energy   TEWEN  =     33702.90407510
  -Hartree energ DENC   =    -41091.79380124
  -exchange      EXHF   =         0.00000000
  -V(xc)+E(xc)   XCENC  =       704.51717398
  PAW double counting   =      4582.90461337    -4600.22333264
  entropy T*S    EENTRO =        -0.01234538
  eigenvalues    EBANDS =     -2396.33191861
  atomic energy  EATOM  =      8570.10426870
  ---------------------------------------------------
  free energy    TOTEN  =      -437.57545094 eV

  energy without entropy =     -437.56310555  energy(sigma->0) =     -437.56927825


--------------------------------------------------------------------------------------------------------




--------------------------------------- Iteration      1(  13)  ---------------------------------------


    POTLOK:  cpu time    2.4814: real time    2.4820
    SETDIJ:  cpu time    0.4586: real time    0.4586
    TRIAL :  cpu time   62.0568: real time   63.3791
    CORREC:  cpu time   27.2845: real time   28.5980
    CHARGE:  cpu time    3.3881: real time    3.4110
    --------------------------------------------
      LOOP:  cpu time   95.6964: real time   98.3558

 eigenvalue-minimisations  :     0
 total energy-change (2. order) :-0.2449583E-03  (-0.7359495E-04)
 number of electron     207.0000002 magnetization       0.0000002
 augmentation part       10.5165430 magnetization       0.0000000

 Free energy of the ion-electron system (eV)
  ---------------------------------------------------
  alpha Z        PSCENC =        90.35583616
  Ewald energy   TEWEN  =     33702.90407510
  -Hartree energ DENC   =    -41091.89482515
  -exchange      EXHF   =         0.00000000
  -V(xc)+E(xc)   XCENC  =       704.51914756
  PAW double counting   =      4582.98571074    -4600.30713495
  entropy T*S    EENTRO =        -0.01232791
  eigenvalues    EBANDS =     -2396.23042869
  atomic energy  EATOM  =      8570.10426870
  ---------------------------------------------------
  free energy    TOTEN  =      -437.57569590 eV

  energy without entropy =     -437.56336798  energy(sigma->0) =     -437.56953194


--------------------------------------------------------------------------------------------------------




--------------------------------------- Iteration      1(  14)  ---------------------------------------


    POTLOK:  cpu time    2.4472: real time    2.4482
    SETDIJ:  cpu time    0.4494: real time    0.4495
    TRIAL :  cpu time   62.4768: real time   63.7990
    CORREC:  cpu time   27.6636: real time   28.9772
    CHARGE:  cpu time    3.2212: real time    3.2247
    --------------------------------------------
      LOOP:  cpu time   96.2855: real time   98.9260

 eigenvalue-minimisations  :     0
 total energy-change (2. order) :-0.7379983E-04  (-0.2726823E-04)
 number of electron     207.0000002 magnetization       0.0000001
 augmentation part       10.5169536 magnetization       0.0000000

 Free energy of the ion-electron system (eV)
  ---------------------------------------------------
  alpha Z        PSCENC =        90.35583616
  Ewald energy   TEWEN  =     33702.90407510
  -Hartree energ DENC   =    -41091.87918329
  -exchange      EXHF   =         0.00000000
  -V(xc)+E(xc)   XCENC  =       704.51901873
  PAW double counting   =      4582.94574981    -4600.26512085
  entropy T*S    EENTRO =        -0.01231413
  eigenvalues    EBANDS =     -2396.24808616
  atomic energy  EATOM  =      8570.10426870
  ---------------------------------------------------
  free energy    TOTEN  =      -437.57576970 eV

  energy without entropy =     -437.56345557  energy(sigma->0) =     -437.56961263


--------------------------------------------------------------------------------------------------------




--------------------------------------- Iteration      1(  15)  ---------------------------------------


    POTLOK:  cpu time    2.4519: real time    2.4529
    SETDIJ:  cpu time    0.4473: real time    0.4475
    TRIAL :  cpu time   61.4218: real time   62.9355
    CORREC:  cpu time   31.5639: real time   32.9028
    CHARGE:  cpu time    3.2706: real time    3.2733
    --------------------------------------------
      LOOP:  cpu time   99.1805: real time  102.0371

 eigenvalue-minimisations  :     0
 total energy-change (2. order) :-0.2689221E-04  (-0.9010734E-05)
 number of electron     207.0000002 magnetization       0.0000001
 augmentation part       10.5166264 magnetization       0.0000000

 Free energy of the ion-electron system (eV)
  ---------------------------------------------------
  alpha Z        PSCENC =        90.35583616
  Ewald energy   TEWEN  =     33702.90407510
  -Hartree energ DENC   =    -41091.94722271
  -exchange      EXHF   =         0.00000000
  -V(xc)+E(xc)   XCENC  =       704.52040027
  PAW double counting   =      4583.01715504    -4600.33867142
  entropy T*S    EENTRO =        -0.01230807
  eigenvalues    EBANDS =     -2396.17932361
  atomic energy  EATOM  =      8570.10426870
  ---------------------------------------------------
  free energy    TOTEN  =      -437.57579659 eV

  energy without entropy =     -437.56348852  energy(sigma->0) =     -437.56964256


--------------------------------------------------------------------------------------------------------




--------------------------------------- Iteration      1(  16)  ---------------------------------------


    POTLOK:  cpu time    2.8207: real time    2.8216
    SETDIJ:  cpu time    0.4426: real time    0.4429
    TRIAL :  cpu time   62.2394: real time   63.5202
    CORREC:  cpu time   27.1393: real time   28.4810
    EDDIAG:  cpu time   22.5852: real time   22.6902
    CHARGE:  cpu time    3.1657: real time    3.2176
    --------------------------------------------
      LOOP:  cpu time  118.4153: real time  121.1959

 eigenvalue-minimisations  :     0
 total energy-change (2. order) :-0.9070508E-05  (-0.3556591E-05)
 number of electron     207.0000002 magnetization       0.0000000
 augmentation part       10.5167453 magnetization      -0.0000000

 Free energy of the ion-electron system (eV)
  ---------------------------------------------------
  alpha Z        PSCENC =        90.35583616
  Ewald energy   TEWEN  =     33702.90407510
  -Hartree energ DENC   =    -41091.91182401
  -exchange      EXHF   =         0.00000000
  -V(xc)+E(xc)   XCENC  =       704.51958384
  PAW double counting   =      4582.98121521    -4600.30133327
  entropy T*S    EENTRO =        -0.01230553
  eigenvalues    EBANDS =     -2396.21531933
  atomic energy  EATOM  =      8570.10426870
  ---------------------------------------------------
  free energy    TOTEN  =      -437.57580566 eV

  energy without entropy =     -437.56350013  energy(sigma->0) =     -437.56965290


--------------------------------------------------------------------------------------------------------


  average scaling for gradient   1.2554


 average (electrostatic) potential at core
  the test charge radii are     0.6991  0.7089  1.1249
  (the norm of the test charge is              1.0000)
       1 -58.1067       2 -58.0436       3 -58.0434       4 -58.0760       5 -58.2472
       6 -58.1568       7 -58.1500       8 -58.1487       9 -58.1237      10 -58.1088
      11 -58.1237      12 -58.2471      13 -58.0764      14 -58.6835      15 -58.6834
      16 -58.7513      17 -58.0245      18 -58.2316      19 -58.1487      20 -58.1500
      21 -58.1500      22 -58.1569      23 -58.7515      24 -58.7513      25 -58.1568
      26 -58.2472      27 -58.1237      28 -58.1487      29 -58.2320      30 -58.0245
      31 -58.7515      32 -58.6835      33 -58.6834      34 -58.0760      35 -58.0434
      36 -58.1064      37 -58.1088      38 -58.1237      39 -58.1487      40 -58.1500
      41 -58.1569      42 -58.2471      43 -58.0764      44 -58.0436      45 -72.1742
      46 -72.1745      47 -72.1742      48 -72.1745      49 -45.9866
 
 
 
 E-fermi :  -2.6136     XC(G=0):  -2.2032     alpha+bet : -1.8739


 spin component 1

 k-point     1 :       0.0000    0.0000    0.0000
  band No.  band energies     occupation 
      1     -22.9965      1.00000
      2     -22.7022      1.00000
      3     -22.4533      1.00000
      4     -22.1782      1.00000
      5     -21.7174      1.00000
      6     -21.3110      1.00000
      7     -21.2898      1.00000
      8     -20.8423      1.00000
      9     -20.2702      1.00000
     10     -20.0835      1.00000
     11     -19.5403      1.00000
     12     -19.4304      1.00000
     13     -19.2213      1.00000
     14     -19.0939      1.00000
     15     -18.9099      1.00000
     16     -18.7781      1.00000
     17     -18.6333      1.00000
     18     -18.4839      1.00000
     19     -17.9519      1.00000
     20     -17.1656      1.00000
     21     -16.9961      1.00000
     22     -16.6880      1.00000
     23     -16.5364      1.00000
     24     -16.3794      1.00000
     25     -15.8729      1.00000
     26     -15.6121      1.00000
     27     -15.6032      1.00000
     28     -15.3997      1.00000
     29     -15.3914      1.00000
     30     -15.0707      1.00000
     31     -14.4748      1.00000
     32     -14.4245      1.00000
     33     -14.3654      1.00000
     34     -14.2545      1.00000
     35     -14.0528      1.00000
     36     -13.2166      1.00000
     37     -12.4763      1.00000
     38     -12.4256      1.00000
     39     -12.1999      1.00000
     40     -12.0684      1.00000
     41     -11.7457      1.00000
     42     -11.6685      1.00000
     43     -11.6287      1.00000
     44     -11.6092      1.00000
     45     -11.5785      1.00000
     46     -11.4373      1.00000
     47     -11.0904      1.00000
     48     -10.5609      1.00000
     49     -10.5609      1.00000
     50     -10.5090      1.00000
     51     -10.3870      1.00000
     52     -10.0829      1.00000
     53     -10.0197      1.00000
     54      -9.9953      1.00000
     55      -9.6819      1.00000
     56      -9.6742      1.00000
     57      -9.5800      1.00000
     58      -9.3939      1.00000
     59      -9.3731      1.00000
     60      -9.3095      1.00000
     61      -9.2402      1.00000
     62      -9.1757      1.00000
     63      -9.1243      1.00000
     64      -9.1012      1.00000
     65      -9.0660      1.00000
     66      -8.9774      1.00000
     67      -8.9346      1.00000
     68      -8.9152      1.00000
     69      -8.8273      1.00000
     70      -8.3102      1.00000
     71      -8.3078      1.00000
     72      -7.8019      1.00000
     73      -7.7890      1.00000
     74      -7.6689      1.00000
     75      -7.5115      1.00000
     76      -7.4137      1.00000
     77      -7.3288      1.00000
     78      -7.2295      1.00000
     79      -7.1272      1.00000
     80      -7.0435      1.00000
     81      -6.8100      1.00000
     82      -6.8060      1.00000
     83      -6.7874      1.00000
     84      -6.6937      1.00000
     85      -6.4140      1.00000
     86      -6.3550      1.00000
     87      -6.3030      1.00000
     88      -6.2481      1.00000
     89      -6.1246      1.00000
     90      -6.0684      1.00000
     91      -5.9395      1.00000
     92      -5.7349      1.00000
     93      -5.7081      1.00000
     94      -5.5204      1.00000
     95      -4.9666      1.00000
     96      -4.4973      1.00000
     97      -4.3838      1.00000
     98      -4.3273      1.00000
     99      -4.2606      1.00000
    100      -4.2300      1.00000
    101      -4.0150      1.00000
    102      -3.7215      1.00000
    103      -3.2099      1.00000
    104      -2.5400      0.14940
    105      -1.6434      0.00000
    106      -1.5512      0.00000
    107      -1.3916      0.00000
    108      -1.3764      0.00000
    109      -0.9773      0.00000
    110      -0.9384      0.00000
    111      -0.1019      0.00000
    112       0.3119      0.00000
    113       0.3353      0.00000
    114       0.3631      0.00000
    115       0.4820      0.00000
    116       0.7138      0.00000
    117       1.1465      0.00000
    118       1.3751      0.00000
    119       1.5860      0.00000
    120       1.6372      0.00000
    121       1.6410      0.00000
    122       1.6780      0.00000
    123       1.7780      0.00000
    124       1.7938      0.00000
    125       1.8054      0.00000
    126       2.0488      0.00000
    127       2.0663      0.00000
    128       2.1294      0.00000
    129       2.1687      0.00000
    130       2.4065      0.00000
    131       2.4822      0.00000
    132       2.4960      0.00000
    133       2.5132      0.00000
    134       2.5889      0.00000
    135       2.5914      0.00000
    136       2.6075      0.00000
    137       2.8316      0.00000
    138       2.9423      0.00000
    139       2.9527      0.00000
    140       2.9713      0.00000
    141       2.9715      0.00000
    142       2.9766      0.00000
    143       2.9968      0.00000
    144       3.3798      0.00000
    145       3.6056      0.00000
    146       3.6889      0.00000
    147       3.8595      0.00000
    148       3.8651      0.00000
    149       3.8676      0.00000
    150       3.8905      0.00000
    151       3.9777      0.00000
    152       4.0753      0.00000
    153       4.1298      0.00000
    154       4.2056      0.00000
    155       4.2308      0.00000
    156       4.2642      0.00000
    157       4.3037      0.00000
    158       4.3056      0.00000
    159       4.3143      0.00000
    160       4.3251      0.00000
    161       4.3421      0.00000
    162       4.3506      0.00000
    163       4.5590      0.00000
    164       4.5747      0.00000
    165       4.6433      0.00000
    166       4.6494      0.00000
    167       4.8537      0.00000
    168       4.8872      0.00000
    169       4.9490      0.00000
    170       4.9522      0.00000
    171       4.9589      0.00000
    172       5.0243      0.00000
    173       5.1069      0.00000
    174       5.1249      0.00000
    175       5.1428      0.00000
    176       5.1918      0.00000
    177       5.3016      0.00000
    178       5.3875      0.00000
    179       5.3981      0.00000
    180       5.4508      0.00000
    181       5.4775      0.00000
    182       5.5048      0.00000
    183       5.5148      0.00000
    184       5.5745      0.00000
    185       5.5927      0.00000
    186       5.6021      0.00000
    187       5.6040      0.00000
    188       5.6045      0.00000
    189       5.6057      0.00000
    190       5.6093      0.00000
    191       5.6101      0.00000
    192       5.6202      0.00000
    193       5.6278      0.00000
    194       5.6836      0.00000
    195       5.7374      0.00000
    196       5.7702      0.00000
    197       5.8560      0.00000
    198       5.8995      0.00000
    199       5.9224      0.00000
    200       5.9422      0.00000
    201       5.9914      0.00000
    202       5.9974      0.00000
    203       6.0122      0.00000
    204       6.0515      0.00000
    205       6.1652      0.00000
    206       6.2763      0.00000
    207       6.2852      0.00000
    208       6.3033      0.00000
    209       6.3747      0.00000
    210       6.3859      0.00000
    211       6.4106      0.00000
    212       6.4260      0.00000
    213       6.4348      0.00000
    214       6.4382      0.00000
    215       6.4396      0.00000
    216       6.4482      0.00000
    217       6.4508      0.00000
    218       6.4594      0.00000
    219       6.4609      0.00000
    220       6.5281      0.00000
    221       6.5825      0.00000
    222       6.5874      0.00000
    223       6.6392      0.00000
    224       6.6435      0.00000
    225       6.6581      0.00000
    226       6.8517      0.00000
    227       6.8635      0.00000
    228       6.9033      0.00000
    229       6.9199      0.00000
    230       6.9203      0.00000
    231       6.9225      0.00000
    232       6.9291      0.00000
    233       6.9313      0.00000
    234       6.9354      0.00000
    235       6.9381      0.00000
    236       6.9383      0.00000
    237       6.9414      0.00000
    238       7.2710      0.00000
    239       7.4540      0.00000
    240       7.6003      0.00000
    241       7.6111      0.00000
    242       7.6906      0.00000
    243       7.7541      0.00000
    244       7.7585      0.00000
    245       7.7634      0.00000
    246       7.7807      0.00000
    247       7.8412      0.00000
    248       7.8963      0.00000
    249       7.9846      0.00000
    250       8.0739      0.00000
    251       8.0928      0.00000
    252       8.0964      0.00000
    253       8.1049      0.00000
    254       8.1955      0.00000
    255       8.1971      0.00000
    256       8.2189      0.00000

 k-point     2 :       0.2000    0.0000    0.0000
  band No.  band energies     occupation 
      1     -22.9824      1.00000
      2     -22.7206      1.00000
      3     -22.4663      1.00000
      4     -22.1829      1.00000
      5     -21.6871      1.00000
      6     -21.3858      1.00000
      7     -21.1748      1.00000
      8     -20.8007      1.00000
      9     -20.3387      1.00000
     10     -20.1194      1.00000
     11     -19.7065      1.00000
     12     -19.4093      1.00000
     13     -19.2628      1.00000
     14     -19.1235      1.00000
     15     -18.9859      1.00000
     16     -18.6303      1.00000
     17     -18.3915      1.00000
     18     -18.2961      1.00000
     19     -17.8860      1.00000
     20     -17.2754      1.00000
     21     -17.0338      1.00000
     22     -16.9822      1.00000
     23     -16.7116      1.00000
     24     -16.4480      1.00000
     25     -16.0102      1.00000
     26     -15.5223      1.00000
     27     -15.4000      1.00000
     28     -15.2209      1.00000
     29     -15.1706      1.00000
     30     -15.0576      1.00000
     31     -14.8310      1.00000
     32     -14.7141      1.00000
     33     -14.2635      1.00000
     34     -13.9326      1.00000
     35     -13.5040      1.00000
     36     -13.1934      1.00000
     37     -12.7612      1.00000
     38     -12.5355      1.00000
     39     -12.4389      1.00000
     40     -12.1819      1.00000
     41     -12.1049      1.00000
     42     -11.9516      1.00000
     43     -11.6284      1.00000
     44     -11.4561      1.00000
     45     -11.3093      1.00000
     46     -11.2020      1.00000
     47     -11.0205      1.00000
     48     -10.6718      1.00000
     49     -10.5413      1.00000
     50     -10.3578      1.00000
     51     -10.3420      1.00000
     52     -10.1810      1.00000
     53      -9.8756      1.00000
     54      -9.8219      1.00000
     55      -9.7612      1.00000
     56      -9.7503      1.00000
     57      -9.6236      1.00000
     58      -9.5261      1.00000
     59      -9.4973      1.00000
     60      -9.4690      1.00000
     61      -9.2889      1.00000
     62      -9.1077      1.00000
     63      -9.0834      1.00000
     64      -9.0267      1.00000
     65      -8.9838      1.00000
     66      -8.9321      1.00000
     67      -8.8328      1.00000
     68      -8.7427      1.00000
     69      -8.5350      1.00000
     70      -8.3405      1.00000
     71      -8.2936      1.00000
     72      -7.9491      1.00000
     73      -7.8847      1.00000
     74      -7.7584      1.00000
     75      -7.6586      1.00000
     76      -7.5188      1.00000
     77      -7.4482      1.00000
     78      -7.3010      1.00000
     79      -7.1480      1.00000
     80      -6.9358      1.00000
     81      -6.8383      1.00000
     82      -6.8304      1.00000
     83      -6.6850      1.00000
     84      -6.5637      1.00000
     85      -6.5095      1.00000
     86      -6.4399      1.00000
     87      -6.1684      1.00000
     88      -6.1231      1.00000
     89      -6.0634      1.00000
     90      -6.0042      1.00000
     91      -5.9035      1.00000
     92      -5.6802      1.00000
     93      -5.5730      1.00000
     94      -5.4633      1.00000
     95      -5.0524      1.00000
     96      -4.6945      1.00000
     97      -4.6119      1.00000
     98      -4.5037      1.00000
     99      -4.3020      1.00000
    100      -4.1862      1.00000
    101      -3.8184      1.00000
    102      -3.7213      1.00000
    103      -3.2449      1.00000
    104      -2.6343      0.61602
    105      -1.6617      0.00000
    106      -1.4158      0.00000
    107      -1.2413      0.00000
    108      -1.1228      0.00000
    109      -0.9903      0.00000
    110      -0.8527      0.00000
    111      -0.3602      0.00000
    112      -0.2685      0.00000
    113       0.2367      0.00000
    114       0.5266      0.00000
    115       0.7450      0.00000
    116       0.9787      0.00000
    117       1.1478      0.00000
    118       1.2734      0.00000
    119       1.3306      0.00000
    120       1.4462      0.00000
    121       1.5036      0.00000
    122       1.6721      0.00000
    123       1.7361      0.00000
    124       1.8027      0.00000
    125       1.8339      0.00000
    126       2.0209      0.00000
    127       2.0812      0.00000
    128       2.2548      0.00000
    129       2.3420      0.00000
    130       2.3464      0.00000
    131       2.4471      0.00000
    132       2.5091      0.00000
    133       2.5579      0.00000
    134       2.7270      0.00000
    135       2.7509      0.00000
    136       2.8104      0.00000
    137       2.8455      0.00000
    138       2.8817      0.00000
    139       2.9689      0.00000
    140       3.0891      0.00000
    141       3.1551      0.00000
    142       3.2700      0.00000
    143       3.2776      0.00000
    144       3.4546      0.00000
    145       3.4962      0.00000
    146       3.5223      0.00000
    147       3.6161      0.00000
    148       3.6524      0.00000
    149       3.7528      0.00000
    150       3.7934      0.00000
    151       3.9244      0.00000
    152       4.0576      0.00000
    153       4.0773      0.00000
    154       4.1118      0.00000
    155       4.1976      0.00000
    156       4.2568      0.00000
    157       4.2995      0.00000
    158       4.3636      0.00000
    159       4.4163      0.00000
    160       4.4430      0.00000
    161       4.5059      0.00000
    162       4.5651      0.00000
    163       4.6069      0.00000
    164       4.6652      0.00000
    165       4.7137      0.00000
    166       4.7411      0.00000
    167       4.8270      0.00000
    168       4.8503      0.00000
    169       4.8609      0.00000
    170       4.8739      0.00000
    171       4.9132      0.00000
    172       4.9575      0.00000
    173       4.9710      0.00000
    174       5.0328      0.00000
    175       5.0566      0.00000
    176       5.1021      0.00000
    177       5.1533      0.00000
    178       5.1708      0.00000
    179       5.2387      0.00000
    180       5.2538      0.00000
    181       5.3234      0.00000
    182       5.3954      0.00000
    183       5.4311      0.00000
    184       5.4573      0.00000
    185       5.5292      0.00000
    186       5.5576      0.00000
    187       5.6111      0.00000
    188       5.6187      0.00000
    189       5.6657      0.00000
    190       5.6818      0.00000
    191       5.6951      0.00000
    192       5.7082      0.00000
    193       5.7424      0.00000
    194       5.7468      0.00000
    195       5.7933      0.00000
    196       5.8162      0.00000
    197       5.8766      0.00000
    198       5.9240      0.00000
    199       5.9471      0.00000
    200       5.9620      0.00000
    201       6.0326      0.00000
    202       6.0803      0.00000
    203       6.1134      0.00000
    204       6.1589      0.00000
    205       6.1803      0.00000
    206       6.1929      0.00000
    207       6.2318      0.00000
    208       6.2609      0.00000
    209       6.2901      0.00000
    210       6.3107      0.00000
    211       6.3474      0.00000
    212       6.4001      0.00000
    213       6.4258      0.00000
    214       6.4401      0.00000
    215       6.4477      0.00000
    216       6.4626      0.00000
    217       6.4765      0.00000
    218       6.4838      0.00000
    219       6.4988      0.00000
    220       6.5121      0.00000
    221       6.6607      0.00000
    222       6.6881      0.00000
    223       6.7650      0.00000
    224       6.7681      0.00000
    225       6.8703      0.00000
    226       6.9232      0.00000
    227       6.9570      0.00000
    228       7.0032      0.00000
    229       7.0270      0.00000
    230       7.0536      0.00000
    231       7.1407      0.00000
    232       7.2223      0.00000
    233       7.2467      0.00000
    234       7.2613      0.00000
    235       7.3076      0.00000
    236       7.3928      0.00000
    237       7.5418      0.00000
    238       7.5753      0.00000
    239       7.5771      0.00000
    240       7.6731      0.00000
    241       7.7230      0.00000
    242       7.7254      0.00000
    243       7.7973      0.00000
    244       7.8143      0.00000
    245       7.9715      0.00000
    246       8.0613      0.00000
    247       8.1175      0.00000
    248       8.1578      0.00000
    249       8.1790      0.00000
    250       8.2728      0.00000
    251       8.3020      0.00000
    252       8.3551      0.00000
    253       8.4213      0.00000
    254       8.5111      0.00000
    255       8.5966      0.00000
    256       8.9563      0.00000

 k-point     3 :       0.4000    0.0000    0.0000
  band No.  band energies     occupation 
      1     -22.9539      1.00000
      2     -22.7566      1.00000
      3     -22.4849      1.00000
      4     -22.1918      1.00000
      5     -21.6263      1.00000
      6     -21.4255      1.00000
      7     -21.1012      1.00000
      8     -20.6594      1.00000
      9     -20.4492      1.00000
     10     -20.2361      1.00000
     11     -19.7566      1.00000
     12     -19.6559      1.00000
     13     -19.3053      1.00000
     14     -19.2423      1.00000
     15     -18.6558      1.00000
     16     -18.4267      1.00000
     17     -18.1189      1.00000
     18     -17.9774      1.00000
     19     -17.8158      1.00000
     20     -17.4968      1.00000
     21     -17.4326      1.00000
     22     -17.2650      1.00000
     23     -16.8144      1.00000
     24     -16.4153      1.00000
     25     -16.0416      1.00000
     26     -15.7644      1.00000
     27     -15.3248      1.00000
     28     -15.3071      1.00000
     29     -15.0868      1.00000
     30     -15.0085      1.00000
     31     -14.6337      1.00000
     32     -14.3024      1.00000
     33     -14.0736      1.00000
     34     -13.5236      1.00000
     35     -13.4523      1.00000
     36     -13.2734      1.00000
     37     -12.9286      1.00000
     38     -12.7549      1.00000
     39     -12.7363      1.00000
     40     -12.6575      1.00000
     41     -12.2550      1.00000
     42     -11.8039      1.00000
     43     -11.5335      1.00000
     44     -11.4966      1.00000
     45     -11.3135      1.00000
     46     -11.2722      1.00000
     47     -10.8945      1.00000
     48     -10.6909      1.00000
     49     -10.4987      1.00000
     50     -10.2492      1.00000
     51     -10.2203      1.00000
     52     -10.1275      1.00000
     53     -10.0118      1.00000
     54      -9.9011      1.00000
     55      -9.8260      1.00000
     56      -9.7246      1.00000
     57      -9.6027      1.00000
     58      -9.5571      1.00000
     59      -9.5176      1.00000
     60      -9.4484      1.00000
     61      -9.2038      1.00000
     62      -9.1848      1.00000
     63      -9.0494      1.00000
     64      -8.8269      1.00000
     65      -8.7881      1.00000
     66      -8.7180      1.00000
     67      -8.6045      1.00000
     68      -8.5393      1.00000
     69      -8.4725      1.00000
     70      -8.3542      1.00000
     71      -8.3286      1.00000
     72      -8.2470      1.00000
     73      -8.1921      1.00000
     74      -8.0289      1.00000
     75      -7.8140      1.00000
     76      -7.5516      1.00000
     77      -7.4905      1.00000
     78      -7.2692      1.00000
     79      -7.0628      1.00000
     80      -7.0475      1.00000
     81      -6.9307      1.00000
     82      -6.8878      1.00000
     83      -6.8004      1.00000
     84      -6.5939      1.00000
     85      -6.3324      1.00000
     86      -6.2654      1.00000
     87      -6.1789      1.00000
     88      -6.1249      1.00000
     89      -5.8374      1.00000
     90      -5.7088      1.00000
     91      -5.6204      1.00000
     92      -5.5159      1.00000
     93      -5.4551      1.00000
     94      -5.2751      1.00000
     95      -5.2093      1.00000
     96      -5.0866      1.00000
     97      -5.0287      1.00000
     98      -5.0044      1.00000
     99      -4.2622      1.00000
    100      -4.0915      1.00000
    101      -3.7292      1.00000
    102      -3.6196      1.00000
    103      -3.3095      1.00000
    104      -2.7466      0.97011
    105      -1.7272      0.00000
    106      -1.2845      0.00000
    107      -1.0352      0.00000
    108      -0.8836      0.00000
    109      -0.7523      0.00000
    110      -0.6306      0.00000
    111      -0.5771      0.00000
    112      -0.4650      0.00000
    113      -0.0394      0.00000
    114       0.2888      0.00000
    115       0.6899      0.00000
    116       0.7761      0.00000
    117       0.9560      0.00000
    118       1.1293      0.00000
    119       1.3990      0.00000
    120       1.5179      0.00000
    121       1.6003      0.00000
    122       1.6315      0.00000
    123       1.7208      0.00000
    124       1.8198      0.00000
    125       1.9499      0.00000
    126       2.1019      0.00000
    127       2.1171      0.00000
    128       2.1938      0.00000
    129       2.3396      0.00000
    130       2.4795      0.00000
    131       2.5193      0.00000
    132       2.6448      0.00000
    133       2.6685      0.00000
    134       2.7574      0.00000
    135       2.8495      0.00000
    136       2.8767      0.00000
    137       2.9830      0.00000
    138       3.0344      0.00000
    139       3.1479      0.00000
    140       3.2565      0.00000
    141       3.2747      0.00000
    142       3.3982      0.00000
    143       3.4660      0.00000
    144       3.4832      0.00000
    145       3.5179      0.00000
    146       3.5875      0.00000
    147       3.6574      0.00000
    148       3.6891      0.00000
    149       3.7030      0.00000
    150       3.7866      0.00000
    151       3.8528      0.00000
    152       3.8630      0.00000
    153       3.9183      0.00000
    154       3.9863      0.00000
    155       4.1784      0.00000
    156       4.1865      0.00000
    157       4.2013      0.00000
    158       4.2353      0.00000
    159       4.2861      0.00000
    160       4.3182      0.00000
    161       4.3954      0.00000
    162       4.5177      0.00000
    163       4.5505      0.00000
    164       4.5618      0.00000
    165       4.6193      0.00000
    166       4.6460      0.00000
    167       4.7059      0.00000
    168       4.7344      0.00000
    169       4.7808      0.00000
    170       4.9523      0.00000
    171       4.9762      0.00000
    172       5.0175      0.00000
    173       5.0497      0.00000
    174       5.0765      0.00000
    175       5.0996      0.00000
    176       5.1167      0.00000
    177       5.1341      0.00000
    178       5.2010      0.00000
    179       5.2668      0.00000
    180       5.2964      0.00000
    181       5.3296      0.00000
    182       5.4447      0.00000
    183       5.4947      0.00000
    184       5.5199      0.00000
    185       5.5253      0.00000
    186       5.5492      0.00000
    187       5.5658      0.00000
    188       5.5832      0.00000
    189       5.6096      0.00000
    190       5.6293      0.00000
    191       5.6530      0.00000
    192       5.6825      0.00000
    193       5.6948      0.00000
    194       5.7399      0.00000
    195       5.8054      0.00000
    196       5.8087      0.00000
    197       5.8267      0.00000
    198       5.8672      0.00000
    199       5.8816      0.00000
    200       5.9688      0.00000
    201       6.0193      0.00000
    202       6.0589      0.00000
    203       6.0847      0.00000
    204       6.0973      0.00000
    205       6.1549      0.00000
    206       6.1932      0.00000
    207       6.2596      0.00000
    208       6.2980      0.00000
    209       6.3040      0.00000
    210       6.3571      0.00000
    211       6.4015      0.00000
    212       6.4697      0.00000
    213       6.4798      0.00000
    214       6.5612      0.00000
    215       6.6195      0.00000
    216       6.6402      0.00000
    217       6.6808      0.00000
    218       6.7122      0.00000
    219       6.7777      0.00000
    220       6.8009      0.00000
    221       6.8614      0.00000
    222       6.9158      0.00000
    223       6.9733      0.00000
    224       7.0546      0.00000
    225       7.1147      0.00000
    226       7.1320      0.00000
    227       7.1823      0.00000
    228       7.2008      0.00000
    229       7.2767      0.00000
    230       7.3467      0.00000
    231       7.3851      0.00000
    232       7.3880      0.00000
    233       7.4509      0.00000
    234       7.4838      0.00000
    235       7.5531      0.00000
    236       7.5644      0.00000
    237       7.6117      0.00000
    238       7.7548      0.00000
    239       7.7571      0.00000
    240       7.8349      0.00000
    241       7.8599      0.00000
    242       7.9406      0.00000
    243       8.0466      0.00000
    244       8.0739      0.00000
    245       8.1812      0.00000
    246       8.1977      0.00000
    247       8.2388      0.00000
    248       8.3140      0.00000
    249       8.5535      0.00000
    250       8.6316      0.00000
    251       8.6410      0.00000
    252       8.7435      0.00000
    253       8.8009      0.00000
    254       8.8707      0.00000
    255       9.0079      0.00000
    256       9.3812      0.00000

 k-point     4 :       0.0000    0.2000    0.0000
  band No.  band energies     occupation 
      1     -22.9824      1.00000
      2     -22.7206      1.00000
      3     -22.4663      1.00000
      4     -22.1829      1.00000
      5     -21.6871      1.00000
      6     -21.3858      1.00000
      7     -21.1748      1.00000
      8     -20.8007      1.00000
      9     -20.3387      1.00000
     10     -20.1194      1.00000
     11     -19.7065      1.00000
     12     -19.4093      1.00000
     13     -19.2628      1.00000
     14     -19.1235      1.00000
     15     -18.9859      1.00000
     16     -18.6303      1.00000
     17     -18.3915      1.00000
     18     -18.2961      1.00000
     19     -17.8860      1.00000
     20     -17.2754      1.00000
     21     -17.0338      1.00000
     22     -16.9822      1.00000
     23     -16.7116      1.00000
     24     -16.4480      1.00000
     25     -16.0102      1.00000
     26     -15.5223      1.00000
     27     -15.4000      1.00000
     28     -15.2209      1.00000
     29     -15.1706      1.00000
     30     -15.0576      1.00000
     31     -14.8310      1.00000
     32     -14.7141      1.00000
     33     -14.2635      1.00000
     34     -13.9326      1.00000
     35     -13.5040      1.00000
     36     -13.1934      1.00000
     37     -12.7612      1.00000
     38     -12.5355      1.00000
     39     -12.4389      1.00000
     40     -12.1819      1.00000
     41     -12.1049      1.00000
     42     -11.9516      1.00000
     43     -11.6284      1.00000
     44     -11.4561      1.00000
     45     -11.3093      1.00000
     46     -11.2020      1.00000
     47     -11.0205      1.00000
     48     -10.6718      1.00000
     49     -10.5413      1.00000
     50     -10.3578      1.00000
     51     -10.3420      1.00000
     52     -10.1810      1.00000
     53      -9.8756      1.00000
     54      -9.8219      1.00000
     55      -9.7612      1.00000
     56      -9.7503      1.00000
     57      -9.6236      1.00000
     58      -9.5261      1.00000
     59      -9.4973      1.00000
     60      -9.4690      1.00000
     61      -9.2889      1.00000
     62      -9.1077      1.00000
     63      -9.0834      1.00000
     64      -9.0267      1.00000
     65      -8.9838      1.00000
     66      -8.9321      1.00000
     67      -8.8328      1.00000
     68      -8.7427      1.00000
     69      -8.5350      1.00000
     70      -8.3405      1.00000
     71      -8.2936      1.00000
     72      -7.9491      1.00000
     73      -7.8847      1.00000
     74      -7.7584      1.00000
     75      -7.6586      1.00000
     76      -7.5188      1.00000
     77      -7.4482      1.00000
     78      -7.3010      1.00000
     79      -7.1480      1.00000
     80      -6.9358      1.00000
     81      -6.8383      1.00000
     82      -6.8304      1.00000
     83      -6.6850      1.00000
     84      -6.5637      1.00000
     85      -6.5095      1.00000
     86      -6.4399      1.00000
     87      -6.1684      1.00000
     88      -6.1231      1.00000
     89      -6.0634      1.00000
     90      -6.0042      1.00000
     91      -5.9035      1.00000
     92      -5.6802      1.00000
     93      -5.5730      1.00000
     94      -5.4633      1.00000
     95      -5.0524      1.00000
     96      -4.6945      1.00000
     97      -4.6119      1.00000
     98      -4.5037      1.00000
     99      -4.3020      1.00000
    100      -4.1862      1.00000
    101      -3.8184      1.00000
    102      -3.7213      1.00000
    103      -3.2449      1.00000
    104      -2.6343      0.61580
    105      -1.6617      0.00000
    106      -1.4158      0.00000
    107      -1.2413      0.00000
    108      -1.1228      0.00000
    109      -0.9903      0.00000
    110      -0.8527      0.00000
    111      -0.3602      0.00000
    112      -0.2685      0.00000
    113       0.2367      0.00000
    114       0.5266      0.00000
    115       0.7450      0.00000
    116       0.9787      0.00000
    117       1.1478      0.00000
    118       1.2734      0.00000
    119       1.3306      0.00000
    120       1.4462      0.00000
    121       1.5036      0.00000
    122       1.6721      0.00000
    123       1.7361      0.00000
    124       1.8027      0.00000
    125       1.8339      0.00000
    126       2.0209      0.00000
    127       2.0812      0.00000
    128       2.2548      0.00000
    129       2.3420      0.00000
    130       2.3464      0.00000
    131       2.4471      0.00000
    132       2.5091      0.00000
    133       2.5579      0.00000
    134       2.7271      0.00000
    135       2.7509      0.00000
    136       2.8104      0.00000
    137       2.8455      0.00000
    138       2.8817      0.00000
    139       2.9689      0.00000
    140       3.0891      0.00000
    141       3.1551      0.00000
    142       3.2700      0.00000
    143       3.2776      0.00000
    144       3.4546      0.00000
    145       3.4963      0.00000
    146       3.5223      0.00000
    147       3.6161      0.00000
    148       3.6524      0.00000
    149       3.7528      0.00000
    150       3.7934      0.00000
    151       3.9244      0.00000
    152       4.0576      0.00000
    153       4.0773      0.00000
    154       4.1119      0.00000
    155       4.1976      0.00000
    156       4.2568      0.00000
    157       4.2996      0.00000
    158       4.3636      0.00000
    159       4.4163      0.00000
    160       4.4431      0.00000
    161       4.5060      0.00000
    162       4.5651      0.00000
    163       4.6074      0.00000
    164       4.6654      0.00000
    165       4.7149      0.00000
    166       4.7414      0.00000
    167       4.8275      0.00000
    168       4.8506      0.00000
    169       4.8610      0.00000
    170       4.8739      0.00000
    171       4.9155      0.00000
    172       4.9582      0.00000
    173       4.9852      0.00000
    174       5.0438      0.00000
    175       5.0854      0.00000
    176       5.1151      0.00000
    177       5.1710      0.00000
    178       5.2396      0.00000
    179       5.2410      0.00000
    180       5.3104      0.00000
    181       5.3411      0.00000
    182       5.3958      0.00000
    183       5.4399      0.00000
    184       5.4788      0.00000
    185       5.6024      0.00000
    186       5.6150      0.00000
    187       5.6425      0.00000
    188       5.6772      0.00000
    189       5.6895      0.00000
    190       5.7027      0.00000
    191       5.7379      0.00000
    192       5.7571      0.00000
    193       5.7926      0.00000
    194       5.8347      0.00000
    195       5.8363      0.00000
    196       5.8671      0.00000
    197       5.9110      0.00000
    198       5.9413      0.00000
    199       5.9455      0.00000
    200       6.0033      0.00000
    201       6.0767      0.00000
    202       6.1123      0.00000
    203       6.1619      0.00000
    204       6.1908      0.00000
    205       6.2498      0.00000
    206       6.2831      0.00000
    207       6.3371      0.00000
    208       6.3604      0.00000
    209       6.3892      0.00000
    210       6.4277      0.00000
    211       6.4756      0.00000
    212       6.4929      0.00000
    213       6.5263      0.00000
    214       6.6007      0.00000
    215       6.6634      0.00000
    216       6.6705      0.00000
    217       6.7291      0.00000
    218       6.8484      0.00000
    219       6.8771      0.00000
    220       6.9571      0.00000
    221       7.0003      0.00000
    222       7.0349      0.00000
    223       7.1371      0.00000
    224       7.2345      0.00000
    225       7.2402      0.00000
    226       7.2957      0.00000
    227       7.3219      0.00000
    228       7.4066      0.00000
    229       7.5481      0.00000
    230       7.5572      0.00000
    231       7.6259      0.00000
    232       7.7460      0.00000
    233       7.7904      0.00000
    234       7.8070      0.00000
    235       7.8986      0.00000
    236       8.0510      0.00000
    237       8.1214      0.00000
    238       8.1398      0.00000
    239       8.1826      0.00000
    240       8.1958      0.00000
    241       8.3207      0.00000
    242       8.4151      0.00000
    243       8.4633      0.00000
    244       8.5223      0.00000
    245       8.5535      0.00000
    246       8.7420      0.00000
    247       8.8358      0.00000
    248       8.9404      0.00000
    249       8.9897      0.00000
    250       9.1172      0.00000
    251       9.4910      0.00000
    252       9.5644      0.00000
    253       9.6530      0.00000
    254       9.8556      0.00000
    255       9.9517      0.00000
    256      10.0546      0.00000

 k-point     5 :       0.2000    0.2000    0.0000
  band No.  band energies     occupation 
      1     -22.9604      1.00000
      2     -22.7489      1.00000
      3     -22.4802      1.00000
      4     -22.1905      1.00000
      5     -21.6592      1.00000
      6     -21.3371      1.00000
      7     -21.2063      1.00000
      8     -20.6401      1.00000
      9     -20.4832      1.00000
     10     -20.0603      1.00000
     11     -19.8983      1.00000
     12     -19.6662      1.00000
     13     -19.3803      1.00000
     14     -18.7912      1.00000
     15     -18.7530      1.00000
     16     -18.6629      1.00000
     17     -18.3467      1.00000
     18     -18.1139      1.00000
     19     -17.7169      1.00000
     20     -17.3841      1.00000
     21     -17.1616      1.00000
     22     -17.1374      1.00000
     23     -17.0127      1.00000
     24     -16.3745      1.00000
     25     -16.1132      1.00000
     26     -15.7039      1.00000
     27     -15.4394      1.00000
     28     -15.4094      1.00000
     29     -14.9321      1.00000
     30     -14.7579      1.00000
     31     -14.7308      1.00000
     32     -14.3957      1.00000
     33     -14.2054      1.00000
     34     -13.9145      1.00000
     35     -13.3088      1.00000
     36     -13.1520      1.00000
     37     -12.9404      1.00000
     38     -12.8577      1.00000
     39     -12.4856      1.00000
     40     -12.4046      1.00000
     41     -12.0545      1.00000
     42     -11.9337      1.00000
     43     -11.7285      1.00000
     44     -11.5843      1.00000
     45     -11.5679      1.00000
     46     -10.9028      1.00000
     47     -10.8849      1.00000
     48     -10.6789      1.00000
     49     -10.6318      1.00000
     50     -10.2884      1.00000
     51     -10.2618      1.00000
     52     -10.2212      1.00000
     53      -9.9314      1.00000
     54      -9.8552      1.00000
     55      -9.8074      1.00000
     56      -9.7597      1.00000
     57      -9.5616      1.00000
     58      -9.4764      1.00000
     59      -9.3185      1.00000
     60      -9.2834      1.00000
     61      -9.2544      1.00000
     62      -9.2324      1.00000
     63      -9.0735      1.00000
     64      -9.0449      1.00000
     65      -8.9259      1.00000
     66      -8.8607      1.00000
     67      -8.7742      1.00000
     68      -8.5500      1.00000
     69      -8.5310      1.00000
     70      -8.3299      1.00000
     71      -8.3281      1.00000
     72      -8.0847      1.00000
     73      -7.9809      1.00000
     74      -7.8239      1.00000
     75      -7.7198      1.00000
     76      -7.5322      1.00000
     77      -7.5316      1.00000
     78      -7.4940      1.00000
     79      -7.2574      1.00000
     80      -7.1303      1.00000
     81      -7.0118      1.00000
     82      -6.7763      1.00000
     83      -6.4722      1.00000
     84      -6.3486      1.00000
     85      -6.2913      1.00000
     86      -6.2587      1.00000
     87      -6.1656      1.00000
     88      -6.1153      1.00000
     89      -6.0555      1.00000
     90      -6.0395      1.00000
     91      -5.8147      1.00000
     92      -5.5884      1.00000
     93      -5.3469      1.00000
     94      -5.3261      1.00000
     95      -5.2561      1.00000
     96      -5.0273      1.00000
     97      -4.8223      1.00000
     98      -4.5805      1.00000
     99      -4.4646      1.00000
    100      -4.2670      1.00000
    101      -3.7380      1.00000
    102      -3.4052      1.00000
    103      -3.2518      1.00000
    104      -2.9298      1.00000
    105      -1.7781      0.00000
    106      -1.0727      0.00000
    107      -1.0502      0.00000
    108      -0.9862      0.00000
    109      -0.8297      0.00000
    110      -0.7936      0.00000
    111      -0.6441      0.00000
    112      -0.1704      0.00000
    113      -0.0423      0.00000
    114       0.3245      0.00000
    115       0.7406      0.00000
    116       0.7660      0.00000
    117       0.9310      0.00000
    118       1.1543      0.00000
    119       1.3460      0.00000
    120       1.3476      0.00000
    121       1.5751      0.00000
    122       1.7809      0.00000
    123       1.8000      0.00000
    124       1.8212      0.00000
    125       1.9585      0.00000
    126       1.9921      0.00000
    127       2.2242      0.00000
    128       2.3278      0.00000
    129       2.3357      0.00000
    130       2.4092      0.00000
    131       2.5769      0.00000
    132       2.6226      0.00000
    133       2.6323      0.00000
    134       2.7069      0.00000
    135       2.7551      0.00000
    136       2.8247      0.00000
    137       3.0374      0.00000
    138       3.0993      0.00000
    139       3.1423      0.00000
    140       3.1450      0.00000
    141       3.1783      0.00000
    142       3.2355      0.00000
    143       3.3691      0.00000
    144       3.4755      0.00000
    145       3.5051      0.00000
    146       3.5776      0.00000
    147       3.6294      0.00000
    148       3.6961      0.00000
    149       3.7591      0.00000
    150       3.8463      0.00000
    151       3.9177      0.00000
    152       3.9595      0.00000
    153       3.9715      0.00000
    154       3.9881      0.00000
    155       4.0728      0.00000
    156       4.0950      0.00000
    157       4.1395      0.00000
    158       4.1813      0.00000
    159       4.3503      0.00000
    160       4.4267      0.00000
    161       4.4380      0.00000
    162       4.4889      0.00000
    163       4.5654      0.00000
    164       4.6323      0.00000
    165       4.7467      0.00000
    166       4.7722      0.00000
    167       4.8155      0.00000
    168       4.8226      0.00000
    169       4.9225      0.00000
    170       4.9526      0.00000
    171       4.9849      0.00000
    172       5.0061      0.00000
    173       5.0099      0.00000
    174       5.0288      0.00000
    175       5.0702      0.00000
    176       5.0879      0.00000
    177       5.1319      0.00000
    178       5.2105      0.00000
    179       5.2140      0.00000
    180       5.2520      0.00000
    181       5.3090      0.00000
    182       5.3152      0.00000
    183       5.3558      0.00000
    184       5.4733      0.00000
    185       5.4871      0.00000
    186       5.4921      0.00000
    187       5.5041      0.00000
    188       5.5181      0.00000
    189       5.5963      0.00000
    190       5.6298      0.00000
    191       5.6797      0.00000
    192       5.6934      0.00000
    193       5.7953      0.00000
    194       5.8054      0.00000
    195       5.8107      0.00000
    196       5.8355      0.00000
    197       5.8935      0.00000
    198       5.9900      0.00000
    199       5.9962      0.00000
    200       6.0339      0.00000
    201       6.0452      0.00000
    202       6.0832      0.00000
    203       6.1415      0.00000
    204       6.1824      0.00000
    205       6.2640      0.00000
    206       6.2789      0.00000
    207       6.2808      0.00000
    208       6.2905      0.00000
    209       6.3305      0.00000
    210       6.4814      0.00000
    211       6.5352      0.00000
    212       6.5362      0.00000
    213       6.5375      0.00000
    214       6.5417      0.00000
    215       6.6154      0.00000
    216       6.6882      0.00000
    217       6.7593      0.00000
    218       6.7655      0.00000
    219       6.8069      0.00000
    220       6.8461      0.00000
    221       6.8915      0.00000
    222       6.9199      0.00000
    223       6.9278      0.00000
    224       6.9851      0.00000
    225       7.0434      0.00000
    226       7.1063      0.00000
    227       7.1259      0.00000
    228       7.1344      0.00000
    229       7.1455      0.00000
    230       7.2906      0.00000
    231       7.2983      0.00000
    232       7.3146      0.00000
    233       7.3499      0.00000
    234       7.4756      0.00000
    235       7.7040      0.00000
    236       7.7891      0.00000
    237       7.7914      0.00000
    238       7.8801      0.00000
    239       7.9363      0.00000
    240       7.9404      0.00000
    241       7.9680      0.00000
    242       7.9738      0.00000
    243       7.9933      0.00000
    244       8.2162      0.00000
    245       8.2913      0.00000
    246       8.3385      0.00000
    247       8.5882      0.00000
    248       8.6401      0.00000
    249       8.6635      0.00000
    250       8.6979      0.00000
    251       8.7827      0.00000
    252       8.9957      0.00000
    253       9.1018      0.00000
    254       9.3452      0.00000
    255       9.4169      0.00000
    256       9.4909      0.00000

 k-point     6 :       0.4000    0.2000    0.0000
  band No.  band energies     occupation 
      1     -22.9445      1.00000
      2     -22.7608      1.00000
      3     -22.5124      1.00000
      4     -22.1699      1.00000
      5     -21.6290      1.00000
      6     -21.4173      1.00000
      7     -21.1098      1.00000
      8     -20.5691      1.00000
      9     -20.4653      1.00000
     10     -20.1861      1.00000
     11     -19.8971      1.00000
     12     -19.8473      1.00000
     13     -19.4288      1.00000
     14     -18.8135      1.00000
     15     -18.6291      1.00000
     16     -18.3428      1.00000
     17     -18.1737      1.00000
     18     -18.0521      1.00000
     19     -17.8772      1.00000
     20     -17.4628      1.00000
     21     -17.3472      1.00000
     22     -17.2325      1.00000
     23     -17.0245      1.00000
     24     -16.3948      1.00000
     25     -15.9820      1.00000
     26     -15.9543      1.00000
     27     -15.6101      1.00000
     28     -15.4733      1.00000
     29     -14.7478      1.00000
     30     -14.5538      1.00000
     31     -14.4626      1.00000
     32     -14.0928      1.00000
     33     -13.9766      1.00000
     34     -13.8267      1.00000
     35     -13.7364      1.00000
     36     -13.5021      1.00000
     37     -13.1465      1.00000
     38     -12.8264      1.00000
     39     -12.4769      1.00000
     40     -12.2358      1.00000
     41     -12.1114      1.00000
     42     -11.9501      1.00000
     43     -11.7923      1.00000
     44     -11.7531      1.00000
     45     -11.3280      1.00000
     46     -11.2186      1.00000
     47     -10.8174      1.00000
     48     -10.7527      1.00000
     49     -10.3965      1.00000
     50     -10.1492      1.00000
     51     -10.1313      1.00000
     52     -10.0705      1.00000
     53     -10.0296      1.00000
     54      -9.9461      1.00000
     55      -9.8619      1.00000
     56      -9.8285      1.00000
     57      -9.7313      1.00000
     58      -9.5065      1.00000
     59      -9.3926      1.00000
     60      -9.3026      1.00000
     61      -9.2433      1.00000
     62      -9.1048      1.00000
     63      -8.9566      1.00000
     64      -8.8915      1.00000
     65      -8.8749      1.00000
     66      -8.7291      1.00000
     67      -8.7000      1.00000
     68      -8.5144      1.00000
     69      -8.5071      1.00000
     70      -8.4127      1.00000
     71      -8.3188      1.00000
     72      -8.0987      1.00000
     73      -8.0648      1.00000
     74      -7.9208      1.00000
     75      -7.8848      1.00000
     76      -7.6471      1.00000
     77      -7.4959      1.00000
     78      -7.4466      1.00000
     79      -7.2930      1.00000
     80      -7.2208      1.00000
     81      -6.9500      1.00000
     82      -6.7882      1.00000
     83      -6.5783      1.00000
     84      -6.3878      1.00000
     85      -6.3363      1.00000
     86      -6.2981      1.00000
     87      -6.1260      1.00000
     88      -6.0294      1.00000
     89      -5.7773      1.00000
     90      -5.6833      1.00000
     91      -5.6404      1.00000
     92      -5.5762      1.00000
     93      -5.5573      1.00000
     94      -5.3031      1.00000
     95      -5.1530      1.00000
     96      -5.0757      1.00000
     97      -5.0385      1.00000
     98      -4.9991      1.00000
     99      -4.4719      1.00000
    100      -4.2503      1.00000
    101      -3.7138      1.00000
    102      -3.3733      1.00000
    103      -3.2931      1.00000
    104      -2.7932      0.99448
    105      -1.8898      0.00000
    106      -1.1557      0.00000
    107      -1.0036      0.00000
    108      -0.9206      0.00000
    109      -0.8036      0.00000
    110      -0.5177      0.00000
    111      -0.3906      0.00000
    112      -0.2701      0.00000
    113      -0.0079      0.00000
    114       0.1303      0.00000
    115       0.2989      0.00000
    116       0.7962      0.00000
    117       0.8352      0.00000
    118       1.0026      0.00000
    119       1.2148      0.00000
    120       1.3899      0.00000
    121       1.6240      0.00000
    122       1.7690      0.00000
    123       1.8456      0.00000
    124       1.9641      0.00000
    125       2.0173      0.00000
    126       2.1012      0.00000
    127       2.2752      0.00000
    128       2.2816      0.00000
    129       2.3282      0.00000
    130       2.4760      0.00000
    131       2.5251      0.00000
    132       2.7164      0.00000
    133       2.8766      0.00000
    134       2.8850      0.00000
    135       2.9766      0.00000
    136       3.0097      0.00000
    137       3.0663      0.00000
    138       3.1147      0.00000
    139       3.1471      0.00000
    140       3.1702      0.00000
    141       3.2569      0.00000
    142       3.2853      0.00000
    143       3.3700      0.00000
    144       3.3810      0.00000
    145       3.3909      0.00000
    146       3.4176      0.00000
    147       3.5673      0.00000
    148       3.5947      0.00000
    149       3.6206      0.00000
    150       3.7022      0.00000
    151       3.8635      0.00000
    152       3.9277      0.00000
    153       3.9545      0.00000
    154       3.9679      0.00000
    155       4.1095      0.00000
    156       4.2251      0.00000
    157       4.2504      0.00000
    158       4.3216      0.00000
    159       4.3746      0.00000
    160       4.4019      0.00000
    161       4.4170      0.00000
    162       4.4605      0.00000
    163       4.5432      0.00000
    164       4.5921      0.00000
    165       4.6387      0.00000
    166       4.6537      0.00000
    167       4.6870      0.00000
    168       4.7235      0.00000
    169       4.7658      0.00000
    170       4.8642      0.00000
    171       4.9176      0.00000
    172       4.9520      0.00000
    173       5.0343      0.00000
    174       5.0753      0.00000
    175       5.1460      0.00000
    176       5.1780      0.00000
    177       5.1812      0.00000
    178       5.2071      0.00000
    179       5.2340      0.00000
    180       5.2520      0.00000
    181       5.2879      0.00000
    182       5.3353      0.00000
    183       5.3815      0.00000
    184       5.4349      0.00000
    185       5.4782      0.00000
    186       5.4944      0.00000
    187       5.5291      0.00000
    188       5.5578      0.00000
    189       5.6300      0.00000
    190       5.6682      0.00000
    191       5.6926      0.00000
    192       5.7087      0.00000
    193       5.7879      0.00000
    194       5.8177      0.00000
    195       5.8310      0.00000
    196       5.8549      0.00000
    197       5.8953      0.00000
    198       5.9277      0.00000
    199       5.9802      0.00000
    200       5.9893      0.00000
    201       6.0163      0.00000
    202       6.0625      0.00000
    203       6.0849      0.00000
    204       6.1489      0.00000
    205       6.1526      0.00000
    206       6.1854      0.00000
    207       6.2810      0.00000
    208       6.3006      0.00000
    209       6.3280      0.00000
    210       6.3754      0.00000
    211       6.4097      0.00000
    212       6.4183      0.00000
    213       6.4718      0.00000
    214       6.5022      0.00000
    215       6.5281      0.00000
    216       6.5370      0.00000
    217       6.5910      0.00000
    218       6.6278      0.00000
    219       6.6830      0.00000
    220       6.7501      0.00000
    221       6.7767      0.00000
    222       6.8340      0.00000
    223       6.8587      0.00000
    224       6.9187      0.00000
    225       6.9494      0.00000
    226       7.0231      0.00000
    227       7.0915      0.00000
    228       7.1060      0.00000
    229       7.1423      0.00000
    230       7.1991      0.00000
    231       7.2569      0.00000
    232       7.2772      0.00000
    233       7.3459      0.00000
    234       7.4344      0.00000
    235       7.4904      0.00000
    236       7.4907      0.00000
    237       7.5822      0.00000
    238       7.6099      0.00000
    239       7.7060      0.00000
    240       7.7586      0.00000
    241       7.8205      0.00000
    242       7.8226      0.00000
    243       7.8664      0.00000
    244       7.9342      0.00000
    245       7.9439      0.00000
    246       8.0729      0.00000
    247       8.1278      0.00000
    248       8.1408      0.00000
    249       8.2615      0.00000
    250       8.3406      0.00000
    251       8.3648      0.00000
    252       8.5251      0.00000
    253       8.6510      0.00000
    254       8.7808      0.00000
    255       9.0185      0.00000
    256       9.1842      0.00000

 k-point     7 :      -0.4000    0.2000    0.0000
  band No.  band energies     occupation 
      1     -22.9614      1.00000
      2     -22.7345      1.00000
      3     -22.5185      1.00000
      4     -22.1491      1.00000
      5     -21.6439      1.00000
      6     -21.4803      1.00000
      7     -21.0231      1.00000
      8     -20.7449      1.00000
      9     -20.3785      1.00000
     10     -20.1881      1.00000
     11     -19.8339      1.00000
     12     -19.7056      1.00000
     13     -19.3750      1.00000
     14     -18.8738      1.00000
     15     -18.8228      1.00000
     16     -18.5037      1.00000
     17     -18.2633      1.00000
     18     -17.8807      1.00000
     19     -17.7699      1.00000
     20     -17.5630      1.00000
     21     -17.4097      1.00000
     22     -17.0992      1.00000
     23     -16.9257      1.00000
     24     -16.5433      1.00000
     25     -15.9319      1.00000
     26     -15.6113      1.00000
     27     -15.4871      1.00000
     28     -15.3740      1.00000
     29     -14.9366      1.00000
     30     -14.7885      1.00000
     31     -14.6340      1.00000
     32     -14.4219      1.00000
     33     -14.2611      1.00000
     34     -13.6938      1.00000
     35     -13.3898      1.00000
     36     -13.1811      1.00000
     37     -13.0120      1.00000
     38     -12.8884      1.00000
     39     -12.7920      1.00000
     40     -12.4005      1.00000
     41     -11.9972      1.00000
     42     -11.9683      1.00000
     43     -11.7795      1.00000
     44     -11.4736      1.00000
     45     -11.1806      1.00000
     46     -11.1650      1.00000
     47     -10.6554      1.00000
     48     -10.5777      1.00000
     49     -10.5643      1.00000
     50     -10.4112      1.00000
     51     -10.2608      1.00000
     52     -10.2289      1.00000
     53     -10.0064      1.00000
     54      -9.8741      1.00000
     55      -9.8141      1.00000
     56      -9.7346      1.00000
     57      -9.6942      1.00000
     58      -9.5280      1.00000
     59      -9.4496      1.00000
     60      -9.4266      1.00000
     61      -9.2689      1.00000
     62      -9.1511      1.00000
     63      -9.1189      1.00000
     64      -8.9735      1.00000
     65      -8.8826      1.00000
     66      -8.7766      1.00000
     67      -8.6332      1.00000
     68      -8.5575      1.00000
     69      -8.5222      1.00000
     70      -8.3525      1.00000
     71      -8.2318      1.00000
     72      -8.0984      1.00000
     73      -7.8972      1.00000
     74      -7.8849      1.00000
     75      -7.8258      1.00000
     76      -7.6391      1.00000
     77      -7.3960      1.00000
     78      -7.3561      1.00000
     79      -7.2576      1.00000
     80      -7.1779      1.00000
     81      -6.8458      1.00000
     82      -6.8068      1.00000
     83      -6.7690      1.00000
     84      -6.5254      1.00000
     85      -6.3486      1.00000
     86      -6.3138      1.00000
     87      -6.1862      1.00000
     88      -6.1086      1.00000
     89      -5.9935      1.00000
     90      -5.7833      1.00000
     91      -5.7193      1.00000
     92      -5.5754      1.00000
     93      -5.4226      1.00000
     94      -5.3042      1.00000
     95      -5.0798      1.00000
     96      -5.0484      1.00000
     97      -5.0232      1.00000
     98      -4.5861      1.00000
     99      -4.4387      1.00000
    100      -4.2725      1.00000
    101      -3.7586      1.00000
    102      -3.6297      1.00000
    103      -3.2976      1.00000
    104      -2.4398      0.00693
    105      -1.8839      0.00000
    106      -1.1965      0.00000
    107      -1.0592      0.00000
    108      -1.0034      0.00000
    109      -0.8577      0.00000
    110      -0.7288      0.00000
    111      -0.6147      0.00000
    112      -0.4079      0.00000
    113       0.2221      0.00000
    114       0.3587      0.00000
    115       0.7214      0.00000
    116       0.7781      0.00000
    117       0.9520      0.00000
    118       1.1406      0.00000
    119       1.2156      0.00000
    120       1.3663      0.00000
    121       1.5932      0.00000
    122       1.7957      0.00000
    123       1.7976      0.00000
    124       1.8680      0.00000
    125       1.9717      0.00000
    126       1.9843      0.00000
    127       2.2120      0.00000
    128       2.2823      0.00000
    129       2.3348      0.00000
    130       2.3604      0.00000
    131       2.6169      0.00000
    132       2.6193      0.00000
    133       2.6813      0.00000
    134       2.7409      0.00000
    135       2.7489      0.00000
    136       2.8199      0.00000
    137       3.0349      0.00000
    138       3.1087      0.00000
    139       3.1389      0.00000
    140       3.1802      0.00000
    141       3.2222      0.00000
    142       3.2521      0.00000
    143       3.3725      0.00000
    144       3.4901      0.00000
    145       3.5300      0.00000
    146       3.5670      0.00000
    147       3.5850      0.00000
    148       3.6824      0.00000
    149       3.7067      0.00000
    150       3.7566      0.00000
    151       3.8665      0.00000
    152       3.9193      0.00000
    153       3.9724      0.00000
    154       3.9944      0.00000
    155       4.1064      0.00000
    156       4.1636      0.00000
    157       4.1714      0.00000
    158       4.2044      0.00000
    159       4.3326      0.00000
    160       4.4074      0.00000
    161       4.4623      0.00000
    162       4.4815      0.00000
    163       4.6115      0.00000
    164       4.6527      0.00000
    165       4.7399      0.00000
    166       4.7798      0.00000
    167       4.8026      0.00000
    168       4.8805      0.00000
    169       4.9377      0.00000
    170       4.9635      0.00000
    171       4.9948      0.00000
    172       5.0453      0.00000
    173       5.0811      0.00000
    174       5.1019      0.00000
    175       5.1031      0.00000
    176       5.1925      0.00000
    177       5.2403      0.00000
    178       5.2599      0.00000
    179       5.3023      0.00000
    180       5.3173      0.00000
    181       5.3426      0.00000
    182       5.4007      0.00000
    183       5.4098      0.00000
    184       5.4804      0.00000
    185       5.4986      0.00000
    186       5.5306      0.00000
    187       5.6184      0.00000
    188       5.6411      0.00000
    189       5.6727      0.00000
    190       5.7856      0.00000
    191       5.7915      0.00000
    192       5.8044      0.00000
    193       5.9157      0.00000
    194       5.9686      0.00000
    195       6.0415      0.00000
    196       6.0474      0.00000
    197       6.0615      0.00000
    198       6.1657      0.00000
    199       6.1862      0.00000
    200       6.2388      0.00000
    201       6.3731      0.00000
    202       6.4336      0.00000
    203       6.5002      0.00000
    204       6.5553      0.00000
    205       6.5999      0.00000
    206       6.6266      0.00000
    207       6.6853      0.00000
    208       6.7013      0.00000
    209       6.8038      0.00000
    210       6.8111      0.00000
    211       6.8179      0.00000
    212       6.8360      0.00000
    213       6.8868      0.00000
    214       7.0619      0.00000
    215       7.0909      0.00000
    216       7.1702      0.00000
    217       7.1743      0.00000
    218       7.2359      0.00000
    219       7.2590      0.00000
    220       7.2970      0.00000
    221       7.3352      0.00000
    222       7.4499      0.00000
    223       7.4702      0.00000
    224       7.4780      0.00000
    225       7.6304      0.00000
    226       7.6683      0.00000
    227       7.7054      0.00000
    228       7.8303      0.00000
    229       7.8928      0.00000
    230       7.9562      0.00000
    231       7.9783      0.00000
    232       8.0280      0.00000
    233       8.0590      0.00000
    234       8.0922      0.00000
    235       8.2164      0.00000
    236       8.3213      0.00000
    237       8.4535      0.00000
    238       8.4763      0.00000
    239       8.5463      0.00000
    240       8.5852      0.00000
    241       8.6408      0.00000
    242       8.6871      0.00000
    243       8.7504      0.00000
    244       9.0538      0.00000
    245       9.0892      0.00000
    246       9.3336      0.00000
    247       9.3784      0.00000
    248       9.4098      0.00000
    249       9.5548      0.00000
    250       9.6616      0.00000
    251       9.6779      0.00000
    252       9.6978      0.00000
    253       9.9115      0.00000
    254      10.8417      0.00000
    255      11.3913      0.00000
    256      11.6894      0.00000

 k-point     8 :      -0.2000    0.2000    0.0000
  band No.  band energies     occupation 
      1     -22.9827      1.00000
      2     -22.7112      1.00000
      3     -22.4933      1.00000
      4     -22.1530      1.00000
      5     -21.6796      1.00000
      6     -21.4748      1.00000
      7     -21.0183      1.00000
      8     -20.8986      1.00000
      9     -20.2317      1.00000
     10     -20.2202      1.00000
     11     -19.6604      1.00000
     12     -19.5529      1.00000
     13     -19.2710      1.00000
     14     -19.0078      1.00000
     15     -18.9557      1.00000
     16     -18.5856      1.00000
     17     -18.5797      1.00000
     18     -18.1168      1.00000
     19     -17.8223      1.00000
     20     -17.4353      1.00000
     21     -17.0273      1.00000
     22     -16.9106      1.00000
     23     -16.8271      1.00000
     24     -16.5833      1.00000
     25     -15.6901      1.00000
     26     -15.6202      1.00000
     27     -15.3389      1.00000
     28     -15.2316      1.00000
     29     -15.1648      1.00000
     30     -15.0436      1.00000
     31     -14.9508      1.00000
     32     -14.6816      1.00000
     33     -14.3071      1.00000
     34     -13.6831      1.00000
     35     -13.5508      1.00000
     36     -13.2880      1.00000
     37     -12.9358      1.00000
     38     -12.5931      1.00000
     39     -12.3386      1.00000
     40     -12.2829      1.00000
     41     -12.0387      1.00000
     42     -12.0227      1.00000
     43     -11.6641      1.00000
     44     -11.4149      1.00000
     45     -11.2564      1.00000
     46     -10.9567      1.00000
     47     -10.8994      1.00000
     48     -10.7946      1.00000
     49     -10.4577      1.00000
     50     -10.3472      1.00000
     51     -10.3272      1.00000
     52     -10.2487      1.00000
     53     -10.0931      1.00000
     54      -9.9197      1.00000
     55      -9.8148      1.00000
     56      -9.6893      1.00000
     57      -9.6846      1.00000
     58      -9.5589      1.00000
     59      -9.3519      1.00000
     60      -9.3155      1.00000
     61      -9.2103      1.00000
     62      -9.1821      1.00000
     63      -9.1410      1.00000
     64      -9.0983      1.00000
     65      -9.0834      1.00000
     66      -8.8883      1.00000
     67      -8.8065      1.00000
     68      -8.7213      1.00000
     69      -8.5770      1.00000
     70      -8.2990      1.00000
     71      -8.1638      1.00000
     72      -8.0493      1.00000
     73      -7.8152      1.00000
     74      -7.6886      1.00000
     75      -7.5854      1.00000
     76      -7.5764      1.00000
     77      -7.4770      1.00000
     78      -7.2840      1.00000
     79      -7.1147      1.00000
     80      -7.0262      1.00000
     81      -6.9191      1.00000
     82      -6.7826      1.00000
     83      -6.7479      1.00000
     84      -6.5791      1.00000
     85      -6.5231      1.00000
     86      -6.4177      1.00000
     87      -6.2171      1.00000
     88      -6.1776      1.00000
     89      -6.0621      1.00000
     90      -5.9863      1.00000
     91      -5.7187      1.00000
     92      -5.6717      1.00000
     93      -5.6053      1.00000
     94      -5.4968      1.00000
     95      -4.9850      1.00000
     96      -4.7713      1.00000
     97      -4.5789      1.00000
     98      -4.4709      1.00000
     99      -4.3009      1.00000
    100      -4.1161      1.00000
    101      -4.0990      1.00000
    102      -3.6814      1.00000
    103      -3.2439      1.00000
    104      -2.3723      0.00032
    105      -1.7685      0.00000
    106      -1.3668      0.00000
    107      -1.3537      0.00000
    108      -1.1003      0.00000
    109      -1.0168      0.00000
    110      -0.8535      0.00000
    111      -0.4627      0.00000
    112      -0.1349      0.00000
    113       0.1830      0.00000
    114       0.6777      0.00000
    115       0.8125      0.00000
    116       0.8201      0.00000
    117       1.1777      0.00000
    118       1.2533      0.00000
    119       1.3353      0.00000
    120       1.4570      0.00000
    121       1.4671      0.00000
    122       1.6142      0.00000
    123       1.6824      0.00000
    124       1.8091      0.00000
    125       1.9606      0.00000
    126       2.0038      0.00000
    127       2.0884      0.00000
    128       2.2639      0.00000
    129       2.3354      0.00000
    130       2.3575      0.00000
    131       2.4443      0.00000
    132       2.4782      0.00000
    133       2.5631      0.00000
    134       2.7266      0.00000
    135       2.7456      0.00000
    136       2.8270      0.00000
    137       2.8422      0.00000
    138       2.9481      0.00000
    139       2.9970      0.00000
    140       3.0968      0.00000
    141       3.1433      0.00000
    142       3.2709      0.00000
    143       3.2743      0.00000
    144       3.4392      0.00000
    145       3.4832      0.00000
    146       3.5247      0.00000
    147       3.6170      0.00000
    148       3.6463      0.00000
    149       3.6971      0.00000
    150       3.8048      0.00000
    151       3.9376      0.00000
    152       3.9936      0.00000
    153       4.0710      0.00000
    154       4.0791      0.00000
    155       4.1909      0.00000
    156       4.2131      0.00000
    157       4.3367      0.00000
    158       4.4050      0.00000
    159       4.4076      0.00000
    160       4.4855      0.00000
    161       4.5411      0.00000
    162       4.6244      0.00000
    163       4.6430      0.00000
    164       4.7228      0.00000
    165       4.7251      0.00000
    166       4.7502      0.00000
    167       4.7761      0.00000
    168       4.8516      0.00000
    169       4.8637      0.00000
    170       4.8735      0.00000
    171       4.9238      0.00000
    172       4.9483      0.00000
    173       5.0076      0.00000
    174       5.0403      0.00000
    175       5.1078      0.00000
    176       5.1493      0.00000
    177       5.2048      0.00000
    178       5.2377      0.00000
    179       5.2661      0.00000
    180       5.3031      0.00000
    181       5.3192      0.00000
    182       5.3870      0.00000
    183       5.4347      0.00000
    184       5.4366      0.00000
    185       5.5384      0.00000
    186       5.6184      0.00000
    187       5.6494      0.00000
    188       5.6646      0.00000
    189       5.6866      0.00000
    190       5.7263      0.00000
    191       5.7525      0.00000
    192       5.7569      0.00000
    193       5.7725      0.00000
    194       5.8826      0.00000
    195       5.8943      0.00000
    196       5.9211      0.00000
    197       5.9339      0.00000
    198       5.9951      0.00000
    199       6.0889      0.00000
    200       6.1175      0.00000
    201       6.1738      0.00000
    202       6.2080      0.00000
    203       6.2387      0.00000
    204       6.2393      0.00000
    205       6.4146      0.00000
    206       6.4270      0.00000
    207       6.4591      0.00000
    208       6.4680      0.00000
    209       6.4750      0.00000
    210       6.5362      0.00000
    211       6.5800      0.00000
    212       6.7197      0.00000
    213       6.7421      0.00000
    214       6.7566      0.00000
    215       6.7685      0.00000
    216       6.8853      0.00000
    217       6.9379      0.00000
    218       6.9827      0.00000
    219       7.0072      0.00000
    220       7.0870      0.00000
    221       7.1537      0.00000
    222       7.1838      0.00000
    223       7.2189      0.00000
    224       7.2663      0.00000
    225       7.4785      0.00000
    226       7.4910      0.00000
    227       7.5680      0.00000
    228       7.6545      0.00000
    229       7.6634      0.00000
    230       7.7150      0.00000
    231       7.7195      0.00000
    232       7.8309      0.00000
    233       7.9416      0.00000
    234       8.0628      0.00000
    235       8.1235      0.00000
    236       8.2513      0.00000
    237       8.2519      0.00000
    238       8.3206      0.00000
    239       8.3690      0.00000
    240       8.4215      0.00000
    241       8.4388      0.00000
    242       8.6483      0.00000
    243       8.7246      0.00000
    244       8.7770      0.00000
    245       8.8938      0.00000
    246       8.8983      0.00000
    247       9.0369      0.00000
    248       9.2518      0.00000
    249       9.2531      0.00000
    250       9.4331      0.00000
    251       9.5654      0.00000
    252       9.6156      0.00000
    253      10.0728      0.00000
    254      10.5581      0.00000
    255      10.6701      0.00000
    256      11.0394      0.00000

 k-point     9 :       0.0000    0.4000    0.0000
  band No.  band energies     occupation 
      1     -22.9539      1.00000
      2     -22.7566      1.00000
      3     -22.4849      1.00000
      4     -22.1918      1.00000
      5     -21.6263      1.00000
      6     -21.4255      1.00000
      7     -21.1012      1.00000
      8     -20.6594      1.00000
      9     -20.4492      1.00000
     10     -20.2361      1.00000
     11     -19.7566      1.00000
     12     -19.6559      1.00000
     13     -19.3053      1.00000
     14     -19.2423      1.00000
     15     -18.6558      1.00000
     16     -18.4267      1.00000
     17     -18.1189      1.00000
     18     -17.9774      1.00000
     19     -17.8158      1.00000
     20     -17.4968      1.00000
     21     -17.4326      1.00000
     22     -17.2650      1.00000
     23     -16.8144      1.00000
     24     -16.4153      1.00000
     25     -16.0416      1.00000
     26     -15.7644      1.00000
     27     -15.3248      1.00000
     28     -15.3071      1.00000
     29     -15.0868      1.00000
     30     -15.0085      1.00000
     31     -14.6337      1.00000
     32     -14.3024      1.00000
     33     -14.0736      1.00000
     34     -13.5236      1.00000
     35     -13.4523      1.00000
     36     -13.2734      1.00000
     37     -12.9286      1.00000
     38     -12.7549      1.00000
     39     -12.7363      1.00000
     40     -12.6575      1.00000
     41     -12.2550      1.00000
     42     -11.8039      1.00000
     43     -11.5335      1.00000
     44     -11.4966      1.00000
     45     -11.3135      1.00000
     46     -11.2722      1.00000
     47     -10.8945      1.00000
     48     -10.6909      1.00000
     49     -10.4987      1.00000
     50     -10.2492      1.00000
     51     -10.2203      1.00000
     52     -10.1275      1.00000
     53     -10.0118      1.00000
     54      -9.9011      1.00000
     55      -9.8260      1.00000
     56      -9.7246      1.00000
     57      -9.6027      1.00000
     58      -9.5571      1.00000
     59      -9.5176      1.00000
     60      -9.4484      1.00000
     61      -9.2038      1.00000
     62      -9.1848      1.00000
     63      -9.0494      1.00000
     64      -8.8269      1.00000
     65      -8.7881      1.00000
     66      -8.7180      1.00000
     67      -8.6045      1.00000
     68      -8.5393      1.00000
     69      -8.4725      1.00000
     70      -8.3542      1.00000
     71      -8.3286      1.00000
     72      -8.2470      1.00000
     73      -8.1921      1.00000
     74      -8.0289      1.00000
     75      -7.8140      1.00000
     76      -7.5516      1.00000
     77      -7.4905      1.00000
     78      -7.2692      1.00000
     79      -7.0628      1.00000
     80      -7.0475      1.00000
     81      -6.9307      1.00000
     82      -6.8878      1.00000
     83      -6.8004      1.00000
     84      -6.5939      1.00000
     85      -6.3324      1.00000
     86      -6.2654      1.00000
     87      -6.1789      1.00000
     88      -6.1249      1.00000
     89      -5.8374      1.00000
     90      -5.7088      1.00000
     91      -5.6204      1.00000
     92      -5.5159      1.00000
     93      -5.4551      1.00000
     94      -5.2751      1.00000
     95      -5.2093      1.00000
     96      -5.0866      1.00000
     97      -5.0287      1.00000
     98      -5.0044      1.00000
     99      -4.2622      1.00000
    100      -4.0915      1.00000
    101      -3.7292      1.00000
    102      -3.6196      1.00000
    103      -3.3095      1.00000
    104      -2.7466      0.97011
    105      -1.7272      0.00000
    106      -1.2845      0.00000
    107      -1.0352      0.00000
    108      -0.8836      0.00000
    109      -0.7523      0.00000
    110      -0.6306      0.00000
    111      -0.5771      0.00000
    112      -0.4650      0.00000
    113      -0.0394      0.00000
    114       0.2888      0.00000
    115       0.6899      0.00000
    116       0.7761      0.00000
    117       0.9560      0.00000
    118       1.1293      0.00000
    119       1.3990      0.00000
    120       1.5179      0.00000
    121       1.6003      0.00000
    122       1.6315      0.00000
    123       1.7208      0.00000
    124       1.8198      0.00000
    125       1.9499      0.00000
    126       2.1019      0.00000
    127       2.1171      0.00000
    128       2.1938      0.00000
    129       2.3396      0.00000
    130       2.4795      0.00000
    131       2.5193      0.00000
    132       2.6448      0.00000
    133       2.6685      0.00000
    134       2.7574      0.00000
    135       2.8495      0.00000
    136       2.8767      0.00000
    137       2.9830      0.00000
    138       3.0344      0.00000
    139       3.1479      0.00000
    140       3.2565      0.00000
    141       3.2747      0.00000
    142       3.3982      0.00000
    143       3.4660      0.00000
    144       3.4832      0.00000
    145       3.5179      0.00000
    146       3.5875      0.00000
    147       3.6574      0.00000
    148       3.6891      0.00000
    149       3.7030      0.00000
    150       3.7866      0.00000
    151       3.8528      0.00000
    152       3.8630      0.00000
    153       3.9183      0.00000
    154       3.9863      0.00000
    155       4.1784      0.00000
    156       4.1865      0.00000
    157       4.2013      0.00000
    158       4.2353      0.00000
    159       4.2861      0.00000
    160       4.3182      0.00000
    161       4.3954      0.00000
    162       4.5177      0.00000
    163       4.5505      0.00000
    164       4.5618      0.00000
    165       4.6193      0.00000
    166       4.6460      0.00000
    167       4.7059      0.00000
    168       4.7345      0.00000
    169       4.7809      0.00000
    170       4.9523      0.00000
    171       4.9764      0.00000
    172       5.0179      0.00000
    173       5.0497      0.00000
    174       5.0765      0.00000
    175       5.0996      0.00000
    176       5.1169      0.00000
    177       5.1345      0.00000
    178       5.2027      0.00000
    179       5.2671      0.00000
    180       5.2965      0.00000
    181       5.3301      0.00000
    182       5.4718      0.00000
    183       5.4995      0.00000
    184       5.5218      0.00000
    185       5.5421      0.00000
    186       5.5652      0.00000
    187       5.5710      0.00000
    188       5.5993      0.00000
    189       5.6101      0.00000
    190       5.6325      0.00000
    191       5.6554      0.00000
    192       5.6902      0.00000
    193       5.6995      0.00000
    194       5.8082      0.00000
    195       5.8195      0.00000
    196       5.8476      0.00000
    197       5.8780      0.00000
    198       5.8931      0.00000
    199       6.0008      0.00000
    200       6.0149      0.00000
    201       6.0579      0.00000
    202       6.0832      0.00000
    203       6.0865      0.00000
    204       6.1249      0.00000
    205       6.1715      0.00000
    206       6.2128      0.00000
    207       6.2557      0.00000
    208       6.3330      0.00000
    209       6.3635      0.00000
    210       6.3760      0.00000
    211       6.4887      0.00000
    212       6.5506      0.00000
    213       6.5921      0.00000
    214       6.6397      0.00000
    215       6.6543      0.00000
    216       6.7060      0.00000
    217       6.7337      0.00000
    218       6.8131      0.00000
    219       6.8863      0.00000
    220       6.9222      0.00000
    221       7.0205      0.00000
    222       7.0323      0.00000
    223       7.0662      0.00000
    224       7.0718      0.00000
    225       7.1613      0.00000
    226       7.2081      0.00000
    227       7.2207      0.00000
    228       7.2668      0.00000
    229       7.3067      0.00000
    230       7.3822      0.00000
    231       7.4152      0.00000
    232       7.5355      0.00000
    233       7.5548      0.00000
    234       7.6200      0.00000
    235       7.6871      0.00000
    236       7.7153      0.00000
    237       7.7398      0.00000
    238       7.8833      0.00000
    239       7.9251      0.00000
    240       7.9601      0.00000
    241       8.0835      0.00000
    242       8.1715      0.00000
    243       8.2329      0.00000
    244       8.2958      0.00000
    245       8.4036      0.00000
    246       8.4255      0.00000
    247       8.4488      0.00000
    248       8.4675      0.00000
    249       8.7306      0.00000
    250       8.7817      0.00000
    251       8.8896      0.00000
    252       8.9794      0.00000
    253       9.0885      0.00000
    254       9.2896      0.00000
    255       9.5298      0.00000
    256       9.7353      0.00000

 k-point    10 :       0.2000    0.4000    0.0000
  band No.  band energies     occupation 
      1     -22.9445      1.00000
      2     -22.7608      1.00000
      3     -22.5124      1.00000
      4     -22.1699      1.00000
      5     -21.6290      1.00000
      6     -21.4173      1.00000
      7     -21.1098      1.00000
      8     -20.5691      1.00000
      9     -20.4653      1.00000
     10     -20.1861      1.00000
     11     -19.8971      1.00000
     12     -19.8473      1.00000
     13     -19.4288      1.00000
     14     -18.8135      1.00000
     15     -18.6291      1.00000
     16     -18.3428      1.00000
     17     -18.1737      1.00000
     18     -18.0521      1.00000
     19     -17.8772      1.00000
     20     -17.4628      1.00000
     21     -17.3472      1.00000
     22     -17.2325      1.00000
     23     -17.0245      1.00000
     24     -16.3948      1.00000
     25     -15.9820      1.00000
     26     -15.9543      1.00000
     27     -15.6101      1.00000
     28     -15.4733      1.00000
     29     -14.7478      1.00000
     30     -14.5538      1.00000
     31     -14.4626      1.00000
     32     -14.0928      1.00000
     33     -13.9766      1.00000
     34     -13.8267      1.00000
     35     -13.7364      1.00000
     36     -13.5021      1.00000
     37     -13.1465      1.00000
     38     -12.8264      1.00000
     39     -12.4769      1.00000
     40     -12.2358      1.00000
     41     -12.1114      1.00000
     42     -11.9501      1.00000
     43     -11.7923      1.00000
     44     -11.7531      1.00000
     45     -11.3280      1.00000
     46     -11.2186      1.00000
     47     -10.8174      1.00000
     48     -10.7527      1.00000
     49     -10.3965      1.00000
     50     -10.1492      1.00000
     51     -10.1313      1.00000
     52     -10.0705      1.00000
     53     -10.0296      1.00000
     54      -9.9461      1.00000
     55      -9.8619      1.00000
     56      -9.8285      1.00000
     57      -9.7313      1.00000
     58      -9.5065      1.00000
     59      -9.3926      1.00000
     60      -9.3026      1.00000
     61      -9.2433      1.00000
     62      -9.1048      1.00000
     63      -8.9566      1.00000
     64      -8.8915      1.00000
     65      -8.8749      1.00000
     66      -8.7291      1.00000
     67      -8.7000      1.00000
     68      -8.5144      1.00000
     69      -8.5071      1.00000
     70      -8.4127      1.00000
     71      -8.3188      1.00000
     72      -8.0987      1.00000
     73      -8.0648      1.00000
     74      -7.9208      1.00000
     75      -7.8848      1.00000
     76      -7.6471      1.00000
     77      -7.4959      1.00000
     78      -7.4466      1.00000
     79      -7.2930      1.00000
     80      -7.2208      1.00000
     81      -6.9500      1.00000
     82      -6.7882      1.00000
     83      -6.5783      1.00000
     84      -6.3878      1.00000
     85      -6.3363      1.00000
     86      -6.2981      1.00000
     87      -6.1260      1.00000
     88      -6.0294      1.00000
     89      -5.7773      1.00000
     90      -5.6833      1.00000
     91      -5.6404      1.00000
     92      -5.5762      1.00000
     93      -5.5573      1.00000
     94      -5.3031      1.00000
     95      -5.1530      1.00000
     96      -5.0757      1.00000
     97      -5.0385      1.00000
     98      -4.9991      1.00000
     99      -4.4719      1.00000
    100      -4.2503      1.00000
    101      -3.7138      1.00000
    102      -3.3733      1.00000
    103      -3.2931      1.00000
    104      -2.7932      0.99448
    105      -1.8898      0.00000
    106      -1.1557      0.00000
    107      -1.0035      0.00000
    108      -0.9206      0.00000
    109      -0.8036      0.00000
    110      -0.5177      0.00000
    111      -0.3906      0.00000
    112      -0.2701      0.00000
    113      -0.0079      0.00000
    114       0.1303      0.00000
    115       0.2989      0.00000
    116       0.7962      0.00000
    117       0.8352      0.00000
    118       1.0026      0.00000
    119       1.2148      0.00000
    120       1.3899      0.00000
    121       1.6240      0.00000
    122       1.7690      0.00000
    123       1.8456      0.00000
    124       1.9641      0.00000
    125       2.0173      0.00000
    126       2.1012      0.00000
    127       2.2752      0.00000
    128       2.2816      0.00000
    129       2.3282      0.00000
    130       2.4760      0.00000
    131       2.5251      0.00000
    132       2.7164      0.00000
    133       2.8766      0.00000
    134       2.8850      0.00000
    135       2.9766      0.00000
    136       3.0097      0.00000
    137       3.0663      0.00000
    138       3.1147      0.00000
    139       3.1471      0.00000
    140       3.1702      0.00000
    141       3.2569      0.00000
    142       3.2853      0.00000
    143       3.3700      0.00000
    144       3.3810      0.00000
    145       3.3909      0.00000
    146       3.4176      0.00000
    147       3.5673      0.00000
    148       3.5947      0.00000
    149       3.6206      0.00000
    150       3.7022      0.00000
    151       3.8635      0.00000
    152       3.9277      0.00000
    153       3.9545      0.00000
    154       3.9679      0.00000
    155       4.1095      0.00000
    156       4.2251      0.00000
    157       4.2504      0.00000
    158       4.3216      0.00000
    159       4.3746      0.00000
    160       4.4019      0.00000
    161       4.4170      0.00000
    162       4.4605      0.00000
    163       4.5432      0.00000
    164       4.5921      0.00000
    165       4.6387      0.00000
    166       4.6537      0.00000
    167       4.6870      0.00000
    168       4.7235      0.00000
    169       4.7658      0.00000
    170       4.8642      0.00000
    171       4.9176      0.00000
    172       4.9520      0.00000
    173       5.0343      0.00000
    174       5.0753      0.00000
    175       5.1460      0.00000
    176       5.1780      0.00000
    177       5.1812      0.00000
    178       5.2071      0.00000
    179       5.2340      0.00000
    180       5.2520      0.00000
    181       5.2879      0.00000
    182       5.3353      0.00000
    183       5.3815      0.00000
    184       5.4349      0.00000
    185       5.4782      0.00000
    186       5.4944      0.00000
    187       5.5291      0.00000
    188       5.5578      0.00000
    189       5.6300      0.00000
    190       5.6682      0.00000
    191       5.6926      0.00000
    192       5.7087      0.00000
    193       5.7880      0.00000
    194       5.8177      0.00000
    195       5.8310      0.00000
    196       5.8549      0.00000
    197       5.8954      0.00000
    198       5.9277      0.00000
    199       5.9802      0.00000
    200       5.9893      0.00000
    201       6.0163      0.00000
    202       6.0625      0.00000
    203       6.0849      0.00000
    204       6.1489      0.00000
    205       6.1526      0.00000
    206       6.1854      0.00000
    207       6.2810      0.00000
    208       6.3006      0.00000
    209       6.3280      0.00000
    210       6.3754      0.00000
    211       6.4097      0.00000
    212       6.4183      0.00000
    213       6.4718      0.00000
    214       6.5022      0.00000
    215       6.5281      0.00000
    216       6.5370      0.00000
    217       6.5910      0.00000
    218       6.6278      0.00000
    219       6.6830      0.00000
    220       6.7500      0.00000
    221       6.7765      0.00000
    222       6.8338      0.00000
    223       6.8590      0.00000
    224       6.9189      0.00000
    225       6.9498      0.00000
    226       7.0233      0.00000
    227       7.0915      0.00000
    228       7.1056      0.00000
    229       7.1422      0.00000
    230       7.1990      0.00000
    231       7.2575      0.00000
    232       7.2775      0.00000
    233       7.3458      0.00000
    234       7.4346      0.00000
    235       7.4907      0.00000
    236       7.4907      0.00000
    237       7.5823      0.00000
    238       7.6098      0.00000
    239       7.7052      0.00000
    240       7.7585      0.00000
    241       7.8206      0.00000
    242       7.8226      0.00000
    243       7.8663      0.00000
    244       7.9338      0.00000
    245       7.9442      0.00000
    246       8.0731      0.00000
    247       8.1277      0.00000
    248       8.1407      0.00000
    249       8.2620      0.00000
    250       8.3411      0.00000
    251       8.3655      0.00000
    252       8.5232      0.00000
    253       8.6509      0.00000
    254       8.7815      0.00000
    255       9.0171      0.00000
    256       9.1841      0.00000

 k-point    11 :       0.4000    0.4000    0.0000
  band No.  band energies     occupation 
      1     -22.9466      1.00000
      2     -22.7408      1.00000
      3     -22.5541      1.00000
      4     -22.1235      1.00000
      5     -21.6512      1.00000
      6     -21.4630      1.00000
      7     -21.0472      1.00000
      8     -20.5824      1.00000
      9     -20.3920      1.00000
     10     -20.1492      1.00000
     11     -20.0265      1.00000
     12     -19.9584      1.00000
     13     -19.3079      1.00000
     14     -18.8176      1.00000
     15     -18.5584      1.00000
     16     -18.3871      1.00000
     17     -18.1847      1.00000
     18     -17.9647      1.00000
     19     -17.8679      1.00000
     20     -17.5107      1.00000
     21     -17.3009      1.00000
     22     -17.2688      1.00000
     23     -17.0711      1.00000
     24     -16.6314      1.00000
     25     -15.9932      1.00000
     26     -15.8367      1.00000
     27     -15.6302      1.00000
     28     -15.2548      1.00000
     29     -14.7903      1.00000
     30     -14.4796      1.00000
     31     -14.2504      1.00000
     32     -14.1978      1.00000
     33     -13.9675      1.00000
     34     -13.9638      1.00000
     35     -13.8133      1.00000
     36     -13.5116      1.00000
     37     -13.1741      1.00000
     38     -12.8101      1.00000
     39     -12.6613      1.00000
     40     -12.2783      1.00000
     41     -12.1497      1.00000
     42     -11.8444      1.00000
     43     -11.8259      1.00000
     44     -11.4333      1.00000
     45     -11.4279      1.00000
     46     -11.2500      1.00000
     47     -10.9215      1.00000
     48     -10.4690      1.00000
     49     -10.4058      1.00000
     50     -10.1042      1.00000
     51     -10.0832      1.00000
     52     -10.0710      1.00000
     53     -10.0408      1.00000
     54      -9.9650      1.00000
     55      -9.9112      1.00000
     56      -9.8612      1.00000
     57      -9.6985      1.00000
     58      -9.6869      1.00000
     59      -9.4782      1.00000
     60      -9.3363      1.00000
     61      -9.2452      1.00000
     62      -9.1571      1.00000
     63      -8.9554      1.00000
     64      -8.9005      1.00000
     65      -8.8457      1.00000
     66      -8.8172      1.00000
     67      -8.6883      1.00000
     68      -8.4528      1.00000
     69      -8.3854      1.00000
     70      -8.3423      1.00000
     71      -8.1798      1.00000
     72      -8.1183      1.00000
     73      -8.0527      1.00000
     74      -7.9907      1.00000
     75      -7.8258      1.00000
     76      -7.6489      1.00000
     77      -7.6354      1.00000
     78      -7.3756      1.00000
     79      -7.3706      1.00000
     80      -7.0686      1.00000
     81      -6.9698      1.00000
     82      -6.7337      1.00000
     83      -6.6581      1.00000
     84      -6.6031      1.00000
     85      -6.4512      1.00000
     86      -6.2002      1.00000
     87      -6.1434      1.00000
     88      -5.9503      1.00000
     89      -5.7520      1.00000
     90      -5.7336      1.00000
     91      -5.5771      1.00000
     92      -5.5751      1.00000
     93      -5.4899      1.00000
     94      -5.3031      1.00000
     95      -5.1737      1.00000
     96      -5.0456      1.00000
     97      -5.0099      1.00000
     98      -4.9961      1.00000
     99      -4.5848      1.00000
    100      -4.2558      1.00000
    101      -3.6954      1.00000
    102      -3.5350      1.00000
    103      -3.3357      1.00000
    104      -2.3277      0.00003
    105      -2.0823      0.00000
    106      -1.1097      0.00000
    107      -1.0697      0.00000
    108      -0.9626      0.00000
    109      -0.7552      0.00000
    110      -0.6207      0.00000
    111      -0.3381      0.00000
    112      -0.2936      0.00000
    113       0.0688      0.00000
    114       0.0911      0.00000
    115       0.2798      0.00000
    116       0.7431      0.00000
    117       0.8517      0.00000
    118       0.9833      0.00000
    119       1.3549      0.00000
    120       1.3630      0.00000
    121       1.6337      0.00000
    122       1.7621      0.00000
    123       1.8326      0.00000
    124       1.9611      0.00000
    125       2.0209      0.00000
    126       2.1061      0.00000
    127       2.2828      0.00000
    128       2.3109      0.00000
    129       2.3450      0.00000
    130       2.5047      0.00000
    131       2.6145      0.00000
    132       2.6364      0.00000
    133       2.7430      0.00000
    134       2.8974      0.00000
    135       3.0036      0.00000
    136       3.0046      0.00000
    137       3.0623      0.00000
    138       3.1008      0.00000
    139       3.1533      0.00000
    140       3.1758      0.00000
    141       3.2664      0.00000
    142       3.2679      0.00000
    143       3.3754      0.00000
    144       3.3808      0.00000
    145       3.3913      0.00000
    146       3.4307      0.00000
    147       3.5605      0.00000
    148       3.5944      0.00000
    149       3.6188      0.00000
    150       3.6751      0.00000
    151       3.8782      0.00000
    152       3.8924      0.00000
    153       3.9569      0.00000
    154       3.9647      0.00000
    155       4.1965      0.00000
    156       4.2047      0.00000
    157       4.2611      0.00000
    158       4.2773      0.00000
    159       4.3906      0.00000
    160       4.4007      0.00000
    161       4.4181      0.00000
    162       4.4525      0.00000
    163       4.5349      0.00000
    164       4.6335      0.00000
    165       4.6438      0.00000
    166       4.6501      0.00000
    167       4.7272      0.00000
    168       4.7614      0.00000
    169       4.8267      0.00000
    170       4.8864      0.00000
    171       4.8875      0.00000
    172       5.0286      0.00000
    173       5.0399      0.00000
    174       5.0959      0.00000
    175       5.1201      0.00000
    176       5.1289      0.00000
    177       5.1463      0.00000
    178       5.2071      0.00000
    179       5.2541      0.00000
    180       5.2620      0.00000
    181       5.3013      0.00000
    182       5.3532      0.00000
    183       5.3656      0.00000
    184       5.4111      0.00000
    185       5.4714      0.00000
    186       5.4952      0.00000
    187       5.5026      0.00000
    188       5.5355      0.00000
    189       5.5969      0.00000
    190       5.6334      0.00000
    191       5.6812      0.00000
    192       5.6957      0.00000
    193       5.7366      0.00000
    194       5.7760      0.00000
    195       5.8142      0.00000
    196       5.8764      0.00000
    197       5.9105      0.00000
    198       5.9545      0.00000
    199       5.9593      0.00000
    200       5.9637      0.00000
    201       5.9916      0.00000
    202       6.0268      0.00000
    203       6.0755      0.00000
    204       6.0886      0.00000
    205       6.1009      0.00000
    206       6.1456      0.00000
    207       6.1724      0.00000
    208       6.2773      0.00000
    209       6.3048      0.00000
    210       6.3565      0.00000
    211       6.3789      0.00000
    212       6.3924      0.00000
    213       6.4344      0.00000
    214       6.4867      0.00000
    215       6.5032      0.00000
    216       6.5368      0.00000
    217       6.5645      0.00000
    218       6.6082      0.00000
    219       6.6104      0.00000
    220       6.7020      0.00000
    221       6.7403      0.00000
    222       6.7805      0.00000
    223       6.8117      0.00000
    224       6.8153      0.00000
    225       6.8803      0.00000
    226       6.9165      0.00000
    227       6.9458      0.00000
    228       6.9628      0.00000
    229       7.0054      0.00000
    230       7.0903      0.00000
    231       7.1744      0.00000
    232       7.1768      0.00000
    233       7.2591      0.00000
    234       7.2730      0.00000
    235       7.3209      0.00000
    236       7.3984      0.00000
    237       7.4259      0.00000
    238       7.4419      0.00000
    239       7.5089      0.00000
    240       7.5399      0.00000
    241       7.5548      0.00000
    242       7.5729      0.00000
    243       7.5730      0.00000
    244       7.5881      0.00000
    245       7.6060      0.00000
    246       7.6938      0.00000
    247       7.7233      0.00000
    248       7.8750      0.00000
    249       7.9234      0.00000
    250       7.9260      0.00000
    251       7.9576      0.00000
    252       8.0006      0.00000
    253       8.0252      0.00000
    254       8.0974      0.00000
    255       8.3019      0.00000
    256       8.3401      0.00000

 k-point    12 :      -0.4000    0.4000    0.0000
  band No.  band energies     occupation 
      1     -22.9567      1.00000
      2     -22.7246      1.00000
      3     -22.5566      1.00000
      4     -22.1113      1.00000
      5     -21.6632      1.00000
      6     -21.4970      1.00000
      7     -20.9821      1.00000
      8     -20.6966      1.00000
      9     -20.3959      1.00000
     10     -20.1147      1.00000
     11     -20.0151      1.00000
     12     -19.8433      1.00000
     13     -19.1761      1.00000
     14     -18.8987      1.00000
     15     -18.8527      1.00000
     16     -18.4270      1.00000
     17     -18.1844      1.00000
     18     -17.7676      1.00000
     19     -17.7500      1.00000
     20     -17.5279      1.00000
     21     -17.4280      1.00000
     22     -17.3427      1.00000
     23     -16.9433      1.00000
     24     -16.7489      1.00000
     25     -15.9948      1.00000
     26     -15.4692      1.00000
     27     -15.4212      1.00000
     28     -15.1439      1.00000
     29     -15.0424      1.00000
     30     -14.8909      1.00000
     31     -14.5952      1.00000
     32     -14.2963      1.00000
     33     -14.1378      1.00000
     34     -13.6664      1.00000
     35     -13.5728      1.00000
     36     -13.1397      1.00000
     37     -12.9543      1.00000
     38     -12.9217      1.00000
     39     -12.7893      1.00000
     40     -12.5657      1.00000
     41     -12.5285      1.00000
     42     -11.7257      1.00000
     43     -11.5356      1.00000
     44     -11.2968      1.00000
     45     -11.2631      1.00000
     46     -11.0485      1.00000
     47     -10.9104      1.00000
     48     -10.7660      1.00000
     49     -10.4450      1.00000
     50     -10.2121      1.00000
     51     -10.1390      1.00000
     52     -10.1121      1.00000
     53      -9.9951      1.00000
     54      -9.9858      1.00000
     55      -9.8379      1.00000
     56      -9.8007      1.00000
     57      -9.7516      1.00000
     58      -9.5861      1.00000
     59      -9.4983      1.00000
     60      -9.4064      1.00000
     61      -9.3379      1.00000
     62      -9.2859      1.00000
     63      -8.9645      1.00000
     64      -8.9248      1.00000
     65      -8.8245      1.00000
     66      -8.7025      1.00000
     67      -8.6372      1.00000
     68      -8.5349      1.00000
     69      -8.4672      1.00000
     70      -8.3207      1.00000
     71      -8.2137      1.00000
     72      -8.1666      1.00000
     73      -8.0291      1.00000
     74      -7.9732      1.00000
     75      -7.6283      1.00000
     76      -7.6020      1.00000
     77      -7.4998      1.00000
     78      -7.3357      1.00000
     79      -7.2993      1.00000
     80      -7.0635      1.00000
     81      -6.9612      1.00000
     82      -6.7906      1.00000
     83      -6.7585      1.00000
     84      -6.5915      1.00000
     85      -6.4377      1.00000
     86      -6.4296      1.00000
     87      -6.3040      1.00000
     88      -5.9359      1.00000
     89      -5.7857      1.00000
     90      -5.7583      1.00000
     91      -5.5727      1.00000
     92      -5.4726      1.00000
     93      -5.4324      1.00000
     94      -5.2531      1.00000
     95      -5.2038      1.00000
     96      -5.0414      1.00000
     97      -5.0388      1.00000
     98      -4.9925      1.00000
     99      -4.2697      1.00000
    100      -4.1806      1.00000
    101      -3.9756      1.00000
    102      -3.6114      1.00000
    103      -3.3082      1.00000
    104      -2.1781      0.00000
    105      -1.8682      0.00000
    106      -1.5008      0.00000
    107      -1.0138      0.00000
    108      -0.9324      0.00000
    109      -0.6914      0.00000
    110      -0.6412      0.00000
    111      -0.5654      0.00000
    112      -0.4457      0.00000
    113      -0.0669      0.00000
    114       0.3765      0.00000
    115       0.4005      0.00000
    116       0.7962      0.00000
    117       1.1081      0.00000
    118       1.2643      0.00000
    119       1.3845      0.00000
    120       1.4963      0.00000
    121       1.5391      0.00000
    122       1.7059      0.00000
    123       1.7356      0.00000
    124       1.8180      0.00000
    125       1.9355      0.00000
    126       2.1062      0.00000
    127       2.1375      0.00000
    128       2.1732      0.00000
    129       2.3725      0.00000
    130       2.4447      0.00000
    131       2.5342      0.00000
    132       2.6416      0.00000
    133       2.6795      0.00000
    134       2.7603      0.00000
    135       2.8684      0.00000
    136       2.9231      0.00000
    137       2.9402      0.00000
    138       3.0443      0.00000
    139       3.1465      0.00000
    140       3.2499      0.00000
    141       3.2528      0.00000
    142       3.3259      0.00000
    143       3.4264      0.00000
    144       3.4743      0.00000
    145       3.5102      0.00000
    146       3.5979      0.00000
    147       3.6934      0.00000
    148       3.6973      0.00000
    149       3.7211      0.00000
    150       3.7638      0.00000
    151       3.8494      0.00000
    152       3.8677      0.00000
    153       3.9252      0.00000
    154       3.9629      0.00000
    155       4.1213      0.00000
    156       4.1927      0.00000
    157       4.2060      0.00000
    158       4.2190      0.00000
    159       4.2458      0.00000
    160       4.2904      0.00000
    161       4.5196      0.00000
    162       4.5288      0.00000
    163       4.5599      0.00000
    164       4.6325      0.00000
    165       4.6707      0.00000
    166       4.6741      0.00000
    167       4.7479      0.00000
    168       4.8000      0.00000
    169       4.9368      0.00000
    170       4.9677      0.00000
    171       5.0063      0.00000
    172       5.0446      0.00000
    173       5.0859      0.00000
    174       5.0961      0.00000
    175       5.1225      0.00000
    176       5.1263      0.00000
    177       5.1897      0.00000
    178       5.2282      0.00000
    179       5.2349      0.00000
    180       5.2979      0.00000
    181       5.3496      0.00000
    182       5.4126      0.00000
    183       5.4836      0.00000
    184       5.5058      0.00000
    185       5.5290      0.00000
    186       5.5525      0.00000
    187       5.5796      0.00000
    188       5.5943      0.00000
    189       5.6417      0.00000
    190       5.6641      0.00000
    191       5.6792      0.00000
    192       5.7462      0.00000
    193       5.7569      0.00000
    194       5.8227      0.00000
    195       5.8557      0.00000
    196       5.9514      0.00000
    197       5.9777      0.00000
    198       6.0153      0.00000
    199       6.0634      0.00000
    200       6.0855      0.00000
    201       6.1005      0.00000
    202       6.1618      0.00000
    203       6.2978      0.00000
    204       6.3091      0.00000
    205       6.4090      0.00000
    206       6.4470      0.00000
    207       6.4848      0.00000
    208       6.6176      0.00000
    209       6.6517      0.00000
    210       6.6520      0.00000
    211       6.7005      0.00000
    212       6.8004      0.00000
    213       6.8298      0.00000
    214       6.8559      0.00000
    215       6.9332      0.00000
    216       7.0365      0.00000
    217       7.1126      0.00000
    218       7.1193      0.00000
    219       7.1649      0.00000
    220       7.2219      0.00000
    221       7.2347      0.00000
    222       7.2916      0.00000
    223       7.3823      0.00000
    224       7.3962      0.00000
    225       7.4367      0.00000
    226       7.5514      0.00000
    227       7.5980      0.00000
    228       7.6673      0.00000
    229       7.7859      0.00000
    230       7.8302      0.00000
    231       7.9054      0.00000
    232       7.9870      0.00000
    233       8.0598      0.00000
    234       8.0796      0.00000
    235       8.1685      0.00000
    236       8.1721      0.00000
    237       8.2136      0.00000
    238       8.3333      0.00000
    239       8.5413      0.00000
    240       8.5738      0.00000
    241       8.5952      0.00000
    242       8.6455      0.00000
    243       8.7952      0.00000
    244       8.7960      0.00000
    245       8.8139      0.00000
    246       8.8799      0.00000
    247       8.8942      0.00000
    248       9.1443      0.00000
    249       9.2964      0.00000
    250       9.4138      0.00000
    251       9.5891      0.00000
    252       9.6145      0.00000
    253       9.8210      0.00000
    254      10.5017      0.00000
    255      10.7039      0.00000
    256      11.1618      0.00000

 k-point    13 :      -0.2000    0.4000    0.0000
  band No.  band energies     occupation 
      1     -22.9614      1.00000
      2     -22.7345      1.00000
      3     -22.5185      1.00000
      4     -22.1491      1.00000
      5     -21.6439      1.00000
      6     -21.4803      1.00000
      7     -21.0231      1.00000
      8     -20.7449      1.00000
      9     -20.3785      1.00000
     10     -20.1881      1.00000
     11     -19.8339      1.00000
     12     -19.7056      1.00000
     13     -19.3750      1.00000
     14     -18.8738      1.00000
     15     -18.8228      1.00000
     16     -18.5037      1.00000
     17     -18.2633      1.00000
     18     -17.8807      1.00000
     19     -17.7699      1.00000
     20     -17.5630      1.00000
     21     -17.4097      1.00000
     22     -17.0992      1.00000
     23     -16.9257      1.00000
     24     -16.5433      1.00000
     25     -15.9319      1.00000
     26     -15.6113      1.00000
     27     -15.4871      1.00000
     28     -15.3740      1.00000
     29     -14.9366      1.00000
     30     -14.7885      1.00000
     31     -14.6340      1.00000
     32     -14.4219      1.00000
     33     -14.2611      1.00000
     34     -13.6938      1.00000
     35     -13.3898      1.00000
     36     -13.1811      1.00000
     37     -13.0120      1.00000
     38     -12.8884      1.00000
     39     -12.7920      1.00000
     40     -12.4005      1.00000
     41     -11.9972      1.00000
     42     -11.9683      1.00000
     43     -11.7795      1.00000
     44     -11.4736      1.00000
     45     -11.1806      1.00000
     46     -11.1650      1.00000
     47     -10.6554      1.00000
     48     -10.5777      1.00000
     49     -10.5643      1.00000
     50     -10.4112      1.00000
     51     -10.2608      1.00000
     52     -10.2289      1.00000
     53     -10.0064      1.00000
     54      -9.8741      1.00000
     55      -9.8141      1.00000
     56      -9.7346      1.00000
     57      -9.6942      1.00000
     58      -9.5280      1.00000
     59      -9.4496      1.00000
     60      -9.4266      1.00000
     61      -9.2689      1.00000
     62      -9.1511      1.00000
     63      -9.1189      1.00000
     64      -8.9735      1.00000
     65      -8.8826      1.00000
     66      -8.7766      1.00000
     67      -8.6332      1.00000
     68      -8.5575      1.00000
     69      -8.5222      1.00000
     70      -8.3525      1.00000
     71      -8.2318      1.00000
     72      -8.0984      1.00000
     73      -7.8972      1.00000
     74      -7.8849      1.00000
     75      -7.8258      1.00000
     76      -7.6391      1.00000
     77      -7.3960      1.00000
     78      -7.3561      1.00000
     79      -7.2576      1.00000
     80      -7.1779      1.00000
     81      -6.8458      1.00000
     82      -6.8068      1.00000
     83      -6.7690      1.00000
     84      -6.5254      1.00000
     85      -6.3486      1.00000
     86      -6.3138      1.00000
     87      -6.1862      1.00000
     88      -6.1086      1.00000
     89      -5.9935      1.00000
     90      -5.7833      1.00000
     91      -5.7193      1.00000
     92      -5.5754      1.00000
     93      -5.4226      1.00000
     94      -5.3042      1.00000
     95      -5.0798      1.00000
     96      -5.0484      1.00000
     97      -5.0232      1.00000
     98      -4.5861      1.00000
     99      -4.4387      1.00000
    100      -4.2725      1.00000
    101      -3.7586      1.00000
    102      -3.6297      1.00000
    103      -3.2976      1.00000
    104      -2.4398      0.00703
    105      -1.8839      0.00000
    106      -1.1965      0.00000
    107      -1.0592      0.00000
    108      -1.0034      0.00000
    109      -0.8577      0.00000
    110      -0.7288      0.00000
    111      -0.6147      0.00000
    112      -0.4079      0.00000
    113       0.2221      0.00000
    114       0.3587      0.00000
    115       0.7214      0.00000
    116       0.7781      0.00000
    117       0.9520      0.00000
    118       1.1406      0.00000
    119       1.2156      0.00000
    120       1.3663      0.00000
    121       1.5932      0.00000
    122       1.7957      0.00000
    123       1.7976      0.00000
    124       1.8680      0.00000
    125       1.9717      0.00000
    126       1.9843      0.00000
    127       2.2120      0.00000
    128       2.2823      0.00000
    129       2.3348      0.00000
    130       2.3604      0.00000
    131       2.6169      0.00000
    132       2.6193      0.00000
    133       2.6813      0.00000
    134       2.7409      0.00000
    135       2.7489      0.00000
    136       2.8199      0.00000
    137       3.0349      0.00000
    138       3.1087      0.00000
    139       3.1389      0.00000
    140       3.1802      0.00000
    141       3.2222      0.00000
    142       3.2521      0.00000
    143       3.3725      0.00000
    144       3.4901      0.00000
    145       3.5300      0.00000
    146       3.5670      0.00000
    147       3.5850      0.00000
    148       3.6824      0.00000
    149       3.7067      0.00000
    150       3.7564      0.00000
    151       3.8665      0.00000
    152       3.9193      0.00000
    153       3.9722      0.00000
    154       3.9943      0.00000
    155       4.1055      0.00000
    156       4.1542      0.00000
    157       4.1788      0.00000
    158       4.2053      0.00000
    159       4.3324      0.00000
    160       4.4073      0.00000
    161       4.4622      0.00000
    162       4.4814      0.00000
    163       4.6114      0.00000
    164       4.6520      0.00000
    165       4.7382      0.00000
    166       4.7795      0.00000
    167       4.8025      0.00000
    168       4.8796      0.00000
    169       4.9304      0.00000
    170       4.9599      0.00000
    171       4.9805      0.00000
    172       5.0106      0.00000
    173       5.0432      0.00000
    174       5.0708      0.00000
    175       5.1010      0.00000
    176       5.1161      0.00000
    177       5.1897      0.00000
    178       5.2328      0.00000
    179       5.2620      0.00000
    180       5.3029      0.00000
    181       5.3314      0.00000
    182       5.3454      0.00000
    183       5.3592      0.00000
    184       5.4162      0.00000
    185       5.4698      0.00000
    186       5.4968      0.00000
    187       5.4970      0.00000
    188       5.5112      0.00000
    189       5.5238      0.00000
    190       5.6138      0.00000
    191       5.6801      0.00000
    192       5.7161      0.00000
    193       5.8075      0.00000
    194       5.8419      0.00000
    195       5.8712      0.00000
    196       5.9152      0.00000
    197       6.0127      0.00000
    198       6.0131      0.00000
    199       6.0292      0.00000
    200       6.0564      0.00000
    201       6.0827      0.00000
    202       6.0876      0.00000
    203       6.1064      0.00000
    204       6.1725      0.00000
    205       6.2447      0.00000
    206       6.2623      0.00000
    207       6.3649      0.00000
    208       6.4767      0.00000
    209       6.5227      0.00000
    210       6.5416      0.00000
    211       6.5577      0.00000
    212       6.6375      0.00000
    213       6.7104      0.00000
    214       6.7614      0.00000
    215       6.7757      0.00000
    216       6.8095      0.00000
    217       6.8397      0.00000
    218       6.9379      0.00000
    219       7.0379      0.00000
    220       7.0602      0.00000
    221       7.0770      0.00000
    222       7.1547      0.00000
    223       7.1936      0.00000
    224       7.2451      0.00000
    225       7.2683      0.00000
    226       7.3180      0.00000
    227       7.4148      0.00000
    228       7.5833      0.00000
    229       7.6637      0.00000
    230       7.6839      0.00000
    231       7.7621      0.00000
    232       7.8220      0.00000
    233       7.8454      0.00000
    234       7.8836      0.00000
    235       7.9325      0.00000
    236       7.9812      0.00000
    237       7.9829      0.00000
    238       8.0438      0.00000
    239       8.1530      0.00000
    240       8.1827      0.00000
    241       8.2619      0.00000
    242       8.3378      0.00000
    243       8.4282      0.00000
    244       8.5444      0.00000
    245       8.6005      0.00000
    246       8.6369      0.00000
    247       8.6394      0.00000
    248       8.6421      0.00000
    249       8.8684      0.00000
    250       9.1275      0.00000
    251       9.3404      0.00000
    252       9.4370      0.00000
    253       9.5519      0.00000
    254       9.9939      0.00000
    255      10.1666      0.00000
    256      10.2174      0.00000

 spin component 2

 k-point     1 :       0.0000    0.0000    0.0000
  band No.  band energies     occupation 
      1     -22.9965      1.00000
      2     -22.7022      1.00000
      3     -22.4533      1.00000
      4     -22.1782      1.00000
      5     -21.7174      1.00000
      6     -21.3110      1.00000
      7     -21.2898      1.00000
      8     -20.8423      1.00000
      9     -20.2702      1.00000
     10     -20.0835      1.00000
     11     -19.5403      1.00000
     12     -19.4304      1.00000
     13     -19.2213      1.00000
     14     -19.0939      1.00000
     15     -18.9099      1.00000
     16     -18.7781      1.00000
     17     -18.6333      1.00000
     18     -18.4839      1.00000
     19     -17.9519      1.00000
     20     -17.1656      1.00000
     21     -16.9961      1.00000
     22     -16.6880      1.00000
     23     -16.5364      1.00000
     24     -16.3794      1.00000
     25     -15.8729      1.00000
     26     -15.6121      1.00000
     27     -15.6032      1.00000
     28     -15.3997      1.00000
     29     -15.3914      1.00000
     30     -15.0707      1.00000
     31     -14.4748      1.00000
     32     -14.4245      1.00000
     33     -14.3654      1.00000
     34     -14.2545      1.00000
     35     -14.0528      1.00000
     36     -13.2166      1.00000
     37     -12.4763      1.00000
     38     -12.4256      1.00000
     39     -12.1999      1.00000
     40     -12.0684      1.00000
     41     -11.7457      1.00000
     42     -11.6685      1.00000
     43     -11.6287      1.00000
     44     -11.6092      1.00000
     45     -11.5785      1.00000
     46     -11.4373      1.00000
     47     -11.0904      1.00000
     48     -10.5609      1.00000
     49     -10.5609      1.00000
     50     -10.5090      1.00000
     51     -10.3870      1.00000
     52     -10.0829      1.00000
     53     -10.0197      1.00000
     54      -9.9953      1.00000
     55      -9.6819      1.00000
     56      -9.6742      1.00000
     57      -9.5800      1.00000
     58      -9.3939      1.00000
     59      -9.3731      1.00000
     60      -9.3095      1.00000
     61      -9.2402      1.00000
     62      -9.1757      1.00000
     63      -9.1243      1.00000
     64      -9.1012      1.00000
     65      -9.0660      1.00000
     66      -8.9774      1.00000
     67      -8.9346      1.00000
     68      -8.9152      1.00000
     69      -8.8273      1.00000
     70      -8.3102      1.00000
     71      -8.3078      1.00000
     72      -7.8019      1.00000
     73      -7.7890      1.00000
     74      -7.6689      1.00000
     75      -7.5115      1.00000
     76      -7.4137      1.00000
     77      -7.3288      1.00000
     78      -7.2295      1.00000
     79      -7.1272      1.00000
     80      -7.0435      1.00000
     81      -6.8100      1.00000
     82      -6.8060      1.00000
     83      -6.7874      1.00000
     84      -6.6937      1.00000
     85      -6.4140      1.00000
     86      -6.3550      1.00000
     87      -6.3030      1.00000
     88      -6.2481      1.00000
     89      -6.1246      1.00000
     90      -6.0684      1.00000
     91      -5.9395      1.00000
     92      -5.7349      1.00000
     93      -5.7081      1.00000
     94      -5.5204      1.00000
     95      -4.9666      1.00000
     96      -4.4973      1.00000
     97      -4.3838      1.00000
     98      -4.3273      1.00000
     99      -4.2606      1.00000
    100      -4.2300      1.00000
    101      -4.0150      1.00000
    102      -3.7215      1.00000
    103      -3.2099      1.00000
    104      -2.5400      0.14940
    105      -1.6434      0.00000
    106      -1.5512      0.00000
    107      -1.3916      0.00000
    108      -1.3764      0.00000
    109      -0.9773      0.00000
    110      -0.9384      0.00000
    111      -0.1019      0.00000
    112       0.3119      0.00000
    113       0.3353      0.00000
    114       0.3631      0.00000
    115       0.4820      0.00000
    116       0.7138      0.00000
    117       1.1465      0.00000
    118       1.3751      0.00000
    119       1.5860      0.00000
    120       1.6372      0.00000
    121       1.6410      0.00000
    122       1.6780      0.00000
    123       1.7780      0.00000
    124       1.7938      0.00000
    125       1.8054      0.00000
    126       2.0488      0.00000
    127       2.0663      0.00000
    128       2.1294      0.00000
    129       2.1687      0.00000
    130       2.4065      0.00000
    131       2.4822      0.00000
    132       2.4960      0.00000
    133       2.5132      0.00000
    134       2.5889      0.00000
    135       2.5914      0.00000
    136       2.6075      0.00000
    137       2.8316      0.00000
    138       2.9423      0.00000
    139       2.9527      0.00000
    140       2.9713      0.00000
    141       2.9715      0.00000
    142       2.9766      0.00000
    143       2.9968      0.00000
    144       3.3798      0.00000
    145       3.6056      0.00000
    146       3.6889      0.00000
    147       3.8595      0.00000
    148       3.8651      0.00000
    149       3.8676      0.00000
    150       3.8905      0.00000
    151       3.9777      0.00000
    152       4.0753      0.00000
    153       4.1298      0.00000
    154       4.2056      0.00000
    155       4.2308      0.00000
    156       4.2642      0.00000
    157       4.3037      0.00000
    158       4.3056      0.00000
    159       4.3143      0.00000
    160       4.3251      0.00000
    161       4.3421      0.00000
    162       4.3506      0.00000
    163       4.5590      0.00000
    164       4.5747      0.00000
    165       4.6433      0.00000
    166       4.6494      0.00000
    167       4.8537      0.00000
    168       4.8872      0.00000
    169       4.9490      0.00000
    170       4.9522      0.00000
    171       4.9589      0.00000
    172       5.0243      0.00000
    173       5.1069      0.00000
    174       5.1249      0.00000
    175       5.1428      0.00000
    176       5.1918      0.00000
    177       5.3016      0.00000
    178       5.3875      0.00000
    179       5.3981      0.00000
    180       5.4508      0.00000
    181       5.4775      0.00000
    182       5.5048      0.00000
    183       5.5148      0.00000
    184       5.5745      0.00000
    185       5.5927      0.00000
    186       5.6021      0.00000
    187       5.6040      0.00000
    188       5.6045      0.00000
    189       5.6057      0.00000
    190       5.6093      0.00000
    191       5.6101      0.00000
    192       5.6202      0.00000
    193       5.6278      0.00000
    194       5.6836      0.00000
    195       5.7374      0.00000
    196       5.7702      0.00000
    197       5.8560      0.00000
    198       5.8995      0.00000
    199       5.9224      0.00000
    200       5.9422      0.00000
    201       5.9914      0.00000
    202       5.9974      0.00000
    203       6.0122      0.00000
    204       6.0515      0.00000
    205       6.1652      0.00000
    206       6.2763      0.00000
    207       6.2852      0.00000
    208       6.3033      0.00000
    209       6.3747      0.00000
    210       6.3859      0.00000
    211       6.4106      0.00000
    212       6.4260      0.00000
    213       6.4348      0.00000
    214       6.4382      0.00000
    215       6.4396      0.00000
    216       6.4482      0.00000
    217       6.4508      0.00000
    218       6.4594      0.00000
    219       6.4609      0.00000
    220       6.5281      0.00000
    221       6.5825      0.00000
    222       6.5874      0.00000
    223       6.6392      0.00000
    224       6.6435      0.00000
    225       6.6581      0.00000
    226       6.8517      0.00000
    227       6.8635      0.00000
    228       6.9033      0.00000
    229       6.9199      0.00000
    230       6.9203      0.00000
    231       6.9225      0.00000
    232       6.9291      0.00000
    233       6.9313      0.00000
    234       6.9354      0.00000
    235       6.9381      0.00000
    236       6.9383      0.00000
    237       6.9414      0.00000
    238       7.2710      0.00000
    239       7.4540      0.00000
    240       7.6003      0.00000
    241       7.6111      0.00000
    242       7.6906      0.00000
    243       7.7541      0.00000
    244       7.7585      0.00000
    245       7.7634      0.00000
    246       7.7807      0.00000
    247       7.8412      0.00000
    248       7.8963      0.00000
    249       7.9846      0.00000
    250       8.0739      0.00000
    251       8.0928      0.00000
    252       8.0964      0.00000
    253       8.1049      0.00000
    254       8.1955      0.00000
    255       8.1971      0.00000
    256       8.2189      0.00000

 k-point     2 :       0.2000    0.0000    0.0000
  band No.  band energies     occupation 
      1     -22.9824      1.00000
      2     -22.7206      1.00000
      3     -22.4663      1.00000
      4     -22.1829      1.00000
      5     -21.6871      1.00000
      6     -21.3858      1.00000
      7     -21.1748      1.00000
      8     -20.8007      1.00000
      9     -20.3387      1.00000
     10     -20.1194      1.00000
     11     -19.7065      1.00000
     12     -19.4093      1.00000
     13     -19.2628      1.00000
     14     -19.1235      1.00000
     15     -18.9859      1.00000
     16     -18.6303      1.00000
     17     -18.3915      1.00000
     18     -18.2961      1.00000
     19     -17.8860      1.00000
     20     -17.2754      1.00000
     21     -17.0338      1.00000
     22     -16.9822      1.00000
     23     -16.7116      1.00000
     24     -16.4480      1.00000
     25     -16.0102      1.00000
     26     -15.5223      1.00000
     27     -15.4000      1.00000
     28     -15.2209      1.00000
     29     -15.1706      1.00000
     30     -15.0576      1.00000
     31     -14.8310      1.00000
     32     -14.7141      1.00000
     33     -14.2635      1.00000
     34     -13.9326      1.00000
     35     -13.5040      1.00000
     36     -13.1934      1.00000
     37     -12.7612      1.00000
     38     -12.5355      1.00000
     39     -12.4389      1.00000
     40     -12.1819      1.00000
     41     -12.1049      1.00000
     42     -11.9516      1.00000
     43     -11.6284      1.00000
     44     -11.4561      1.00000
     45     -11.3093      1.00000
     46     -11.2020      1.00000
     47     -11.0205      1.00000
     48     -10.6718      1.00000
     49     -10.5413      1.00000
     50     -10.3578      1.00000
     51     -10.3420      1.00000
     52     -10.1810      1.00000
     53      -9.8756      1.00000
     54      -9.8219      1.00000
     55      -9.7612      1.00000
     56      -9.7503      1.00000
     57      -9.6236      1.00000
     58      -9.5261      1.00000
     59      -9.4973      1.00000
     60      -9.4690      1.00000
     61      -9.2889      1.00000
     62      -9.1077      1.00000
     63      -9.0834      1.00000
     64      -9.0267      1.00000
     65      -8.9838      1.00000
     66      -8.9321      1.00000
     67      -8.8328      1.00000
     68      -8.7427      1.00000
     69      -8.5350      1.00000
     70      -8.3405      1.00000
     71      -8.2936      1.00000
     72      -7.9491      1.00000
     73      -7.8847      1.00000
     74      -7.7584      1.00000
     75      -7.6586      1.00000
     76      -7.5188      1.00000
     77      -7.4482      1.00000
     78      -7.3010      1.00000
     79      -7.1480      1.00000
     80      -6.9358      1.00000
     81      -6.8383      1.00000
     82      -6.8304      1.00000
     83      -6.6850      1.00000
     84      -6.5637      1.00000
     85      -6.5095      1.00000
     86      -6.4399      1.00000
     87      -6.1684      1.00000
     88      -6.1231      1.00000
     89      -6.0634      1.00000
     90      -6.0042      1.00000
     91      -5.9035      1.00000
     92      -5.6802      1.00000
     93      -5.5730      1.00000
     94      -5.4633      1.00000
     95      -5.0524      1.00000
     96      -4.6945      1.00000
     97      -4.6119      1.00000
     98      -4.5037      1.00000
     99      -4.3020      1.00000
    100      -4.1862      1.00000
    101      -3.8184      1.00000
    102      -3.7213      1.00000
    103      -3.2449      1.00000
    104      -2.6343      0.61602
    105      -1.6617      0.00000
    106      -1.4158      0.00000
    107      -1.2413      0.00000
    108      -1.1228      0.00000
    109      -0.9903      0.00000
    110      -0.8527      0.00000
    111      -0.3602      0.00000
    112      -0.2685      0.00000
    113       0.2367      0.00000
    114       0.5266      0.00000
    115       0.7450      0.00000
    116       0.9787      0.00000
    117       1.1478      0.00000
    118       1.2734      0.00000
    119       1.3306      0.00000
    120       1.4462      0.00000
    121       1.5036      0.00000
    122       1.6721      0.00000
    123       1.7361      0.00000
    124       1.8027      0.00000
    125       1.8339      0.00000
    126       2.0209      0.00000
    127       2.0812      0.00000
    128       2.2548      0.00000
    129       2.3420      0.00000
    130       2.3464      0.00000
    131       2.4471      0.00000
    132       2.5091      0.00000
    133       2.5579      0.00000
    134       2.7270      0.00000
    135       2.7509      0.00000
    136       2.8104      0.00000
    137       2.8455      0.00000
    138       2.8817      0.00000
    139       2.9689      0.00000
    140       3.0891      0.00000
    141       3.1551      0.00000
    142       3.2700      0.00000
    143       3.2776      0.00000
    144       3.4546      0.00000
    145       3.4962      0.00000
    146       3.5223      0.00000
    147       3.6161      0.00000
    148       3.6524      0.00000
    149       3.7528      0.00000
    150       3.7934      0.00000
    151       3.9244      0.00000
    152       4.0576      0.00000
    153       4.0773      0.00000
    154       4.1118      0.00000
    155       4.1976      0.00000
    156       4.2568      0.00000
    157       4.2995      0.00000
    158       4.3636      0.00000
    159       4.4163      0.00000
    160       4.4430      0.00000
    161       4.5059      0.00000
    162       4.5651      0.00000
    163       4.6069      0.00000
    164       4.6652      0.00000
    165       4.7137      0.00000
    166       4.7411      0.00000
    167       4.8270      0.00000
    168       4.8503      0.00000
    169       4.8609      0.00000
    170       4.8739      0.00000
    171       4.9132      0.00000
    172       4.9575      0.00000
    173       4.9710      0.00000
    174       5.0328      0.00000
    175       5.0566      0.00000
    176       5.1021      0.00000
    177       5.1533      0.00000
    178       5.1708      0.00000
    179       5.2387      0.00000
    180       5.2538      0.00000
    181       5.3234      0.00000
    182       5.3954      0.00000
    183       5.4311      0.00000
    184       5.4573      0.00000
    185       5.5292      0.00000
    186       5.5576      0.00000
    187       5.6111      0.00000
    188       5.6187      0.00000
    189       5.6657      0.00000
    190       5.6818      0.00000
    191       5.6951      0.00000
    192       5.7082      0.00000
    193       5.7424      0.00000
    194       5.7468      0.00000
    195       5.7933      0.00000
    196       5.8162      0.00000
    197       5.8766      0.00000
    198       5.9240      0.00000
    199       5.9471      0.00000
    200       5.9620      0.00000
    201       6.0326      0.00000
    202       6.0803      0.00000
    203       6.1134      0.00000
    204       6.1589      0.00000
    205       6.1803      0.00000
    206       6.1929      0.00000
    207       6.2318      0.00000
    208       6.2609      0.00000
    209       6.2901      0.00000
    210       6.3107      0.00000
    211       6.3474      0.00000
    212       6.4001      0.00000
    213       6.4258      0.00000
    214       6.4401      0.00000
    215       6.4477      0.00000
    216       6.4626      0.00000
    217       6.4765      0.00000
    218       6.4838      0.00000
    219       6.4988      0.00000
    220       6.5121      0.00000
    221       6.6607      0.00000
    222       6.6881      0.00000
    223       6.7650      0.00000
    224       6.7680      0.00000
    225       6.8703      0.00000
    226       6.9232      0.00000
    227       6.9570      0.00000
    228       7.0036      0.00000
    229       7.0270      0.00000
    230       7.0537      0.00000
    231       7.1410      0.00000
    232       7.2234      0.00000
    233       7.2468      0.00000
    234       7.2611      0.00000
    235       7.3076      0.00000
    236       7.3925      0.00000
    237       7.5418      0.00000
    238       7.5767      0.00000
    239       7.5772      0.00000
    240       7.6734      0.00000
    241       7.7230      0.00000
    242       7.7254      0.00000
    243       7.7974      0.00000
    244       7.8141      0.00000
    245       7.9715      0.00000
    246       8.0605      0.00000
    247       8.1174      0.00000
    248       8.1580      0.00000
    249       8.1800      0.00000
    250       8.2731      0.00000
    251       8.3028      0.00000
    252       8.3555      0.00000
    253       8.4211      0.00000
    254       8.5157      0.00000
    255       8.5941      0.00000
    256       8.9552      0.00000

 k-point     3 :       0.4000    0.0000    0.0000
  band No.  band energies     occupation 
      1     -22.9539      1.00000
      2     -22.7566      1.00000
      3     -22.4849      1.00000
      4     -22.1918      1.00000
      5     -21.6263      1.00000
      6     -21.4255      1.00000
      7     -21.1012      1.00000
      8     -20.6594      1.00000
      9     -20.4492      1.00000
     10     -20.2361      1.00000
     11     -19.7566      1.00000
     12     -19.6559      1.00000
     13     -19.3053      1.00000
     14     -19.2423      1.00000
     15     -18.6558      1.00000
     16     -18.4267      1.00000
     17     -18.1189      1.00000
     18     -17.9774      1.00000
     19     -17.8158      1.00000
     20     -17.4968      1.00000
     21     -17.4326      1.00000
     22     -17.2650      1.00000
     23     -16.8144      1.00000
     24     -16.4153      1.00000
     25     -16.0416      1.00000
     26     -15.7644      1.00000
     27     -15.3248      1.00000
     28     -15.3071      1.00000
     29     -15.0868      1.00000
     30     -15.0085      1.00000
     31     -14.6337      1.00000
     32     -14.3024      1.00000
     33     -14.0736      1.00000
     34     -13.5236      1.00000
     35     -13.4523      1.00000
     36     -13.2734      1.00000
     37     -12.9286      1.00000
     38     -12.7549      1.00000
     39     -12.7363      1.00000
     40     -12.6575      1.00000
     41     -12.2550      1.00000
     42     -11.8039      1.00000
     43     -11.5335      1.00000
     44     -11.4966      1.00000
     45     -11.3135      1.00000
     46     -11.2722      1.00000
     47     -10.8945      1.00000
     48     -10.6909      1.00000
     49     -10.4987      1.00000
     50     -10.2492      1.00000
     51     -10.2203      1.00000
     52     -10.1275      1.00000
     53     -10.0118      1.00000
     54      -9.9011      1.00000
     55      -9.8260      1.00000
     56      -9.7246      1.00000
     57      -9.6027      1.00000
     58      -9.5571      1.00000
     59      -9.5176      1.00000
     60      -9.4484      1.00000
     61      -9.2038      1.00000
     62      -9.1848      1.00000
     63      -9.0494      1.00000
     64      -8.8269      1.00000
     65      -8.7881      1.00000
     66      -8.7180      1.00000
     67      -8.6045      1.00000
     68      -8.5393      1.00000
     69      -8.4725      1.00000
     70      -8.3542      1.00000
     71      -8.3286      1.00000
     72      -8.2470      1.00000
     73      -8.1921      1.00000
     74      -8.0289      1.00000
     75      -7.8140      1.00000
     76      -7.5516      1.00000
     77      -7.4905      1.00000
     78      -7.2692      1.00000
     79      -7.0628      1.00000
     80      -7.0475      1.00000
     81      -6.9307      1.00000
     82      -6.8878      1.00000
     83      -6.8004      1.00000
     84      -6.5939      1.00000
     85      -6.3324      1.00000
     86      -6.2654      1.00000
     87      -6.1789      1.00000
     88      -6.1249      1.00000
     89      -5.8374      1.00000
     90      -5.7088      1.00000
     91      -5.6204      1.00000
     92      -5.5159      1.00000
     93      -5.4551      1.00000
     94      -5.2751      1.00000
     95      -5.2093      1.00000
     96      -5.0866      1.00000
     97      -5.0287      1.00000
     98      -5.0044      1.00000
     99      -4.2622      1.00000
    100      -4.0915      1.00000
    101      -3.7292      1.00000
    102      -3.6196      1.00000
    103      -3.3095      1.00000
    104      -2.7466      0.97011
    105      -1.7272      0.00000
    106      -1.2845      0.00000
    107      -1.0352      0.00000
    108      -0.8836      0.00000
    109      -0.7523      0.00000
    110      -0.6306      0.00000
    111      -0.5771      0.00000
    112      -0.4650      0.00000
    113      -0.0394      0.00000
    114       0.2888      0.00000
    115       0.6899      0.00000
    116       0.7761      0.00000
    117       0.9560      0.00000
    118       1.1293      0.00000
    119       1.3990      0.00000
    120       1.5179      0.00000
    121       1.6003      0.00000
    122       1.6315      0.00000
    123       1.7208      0.00000
    124       1.8198      0.00000
    125       1.9499      0.00000
    126       2.1019      0.00000
    127       2.1171      0.00000
    128       2.1938      0.00000
    129       2.3396      0.00000
    130       2.4795      0.00000
    131       2.5193      0.00000
    132       2.6448      0.00000
    133       2.6685      0.00000
    134       2.7574      0.00000
    135       2.8495      0.00000
    136       2.8767      0.00000
    137       2.9830      0.00000
    138       3.0344      0.00000
    139       3.1479      0.00000
    140       3.2565      0.00000
    141       3.2747      0.00000
    142       3.3982      0.00000
    143       3.4660      0.00000
    144       3.4832      0.00000
    145       3.5179      0.00000
    146       3.5875      0.00000
    147       3.6574      0.00000
    148       3.6891      0.00000
    149       3.7030      0.00000
    150       3.7866      0.00000
    151       3.8528      0.00000
    152       3.8630      0.00000
    153       3.9183      0.00000
    154       3.9863      0.00000
    155       4.1784      0.00000
    156       4.1865      0.00000
    157       4.2013      0.00000
    158       4.2353      0.00000
    159       4.2861      0.00000
    160       4.3182      0.00000
    161       4.3954      0.00000
    162       4.5177      0.00000
    163       4.5505      0.00000
    164       4.5618      0.00000
    165       4.6193      0.00000
    166       4.6460      0.00000
    167       4.7059      0.00000
    168       4.7344      0.00000
    169       4.7808      0.00000
    170       4.9523      0.00000
    171       4.9762      0.00000
    172       5.0175      0.00000
    173       5.0497      0.00000
    174       5.0765      0.00000
    175       5.0996      0.00000
    176       5.1167      0.00000
    177       5.1341      0.00000
    178       5.2010      0.00000
    179       5.2668      0.00000
    180       5.2964      0.00000
    181       5.3296      0.00000
    182       5.4447      0.00000
    183       5.4947      0.00000
    184       5.5199      0.00000
    185       5.5253      0.00000
    186       5.5492      0.00000
    187       5.5658      0.00000
    188       5.5832      0.00000
    189       5.6096      0.00000
    190       5.6293      0.00000
    191       5.6530      0.00000
    192       5.6825      0.00000
    193       5.6948      0.00000
    194       5.7399      0.00000
    195       5.8054      0.00000
    196       5.8087      0.00000
    197       5.8267      0.00000
    198       5.8672      0.00000
    199       5.8816      0.00000
    200       5.9688      0.00000
    201       6.0193      0.00000
    202       6.0589      0.00000
    203       6.0847      0.00000
    204       6.0973      0.00000
    205       6.1550      0.00000
    206       6.1934      0.00000
    207       6.2602      0.00000
    208       6.2974      0.00000
    209       6.3045      0.00000
    210       6.3571      0.00000
    211       6.4015      0.00000
    212       6.4698      0.00000
    213       6.4798      0.00000
    214       6.5617      0.00000
    215       6.6197      0.00000
    216       6.6401      0.00000
    217       6.6801      0.00000
    218       6.7110      0.00000
    219       6.7802      0.00000
    220       6.8012      0.00000
    221       6.8630      0.00000
    222       6.9155      0.00000
    223       6.9728      0.00000
    224       7.0546      0.00000
    225       7.1135      0.00000
    226       7.1311      0.00000
    227       7.1821      0.00000
    228       7.1973      0.00000
    229       7.2768      0.00000
    230       7.3435      0.00000
    231       7.3849      0.00000
    232       7.3871      0.00000
    233       7.4446      0.00000
    234       7.4739      0.00000
    235       7.5540      0.00000
    236       7.5649      0.00000
    237       7.6125      0.00000
    238       7.7558      0.00000
    239       7.7579      0.00000
    240       7.8356      0.00000
    241       7.8606      0.00000
    242       7.9439      0.00000
    243       8.0475      0.00000
    244       8.0740      0.00000
    245       8.1813      0.00000
    246       8.1981      0.00000
    247       8.2387      0.00000
    248       8.3158      0.00000
    249       8.5520      0.00000
    250       8.6318      0.00000
    251       8.6344      0.00000
    252       8.7432      0.00000
    253       8.8060      0.00000
    254       8.8721      0.00000
    255       9.0076      0.00000
    256       9.3830      0.00000

 k-point     4 :       0.0000    0.2000    0.0000
  band No.  band energies     occupation 
      1     -22.9824      1.00000
      2     -22.7206      1.00000
      3     -22.4663      1.00000
      4     -22.1829      1.00000
      5     -21.6871      1.00000
      6     -21.3858      1.00000
      7     -21.1748      1.00000
      8     -20.8007      1.00000
      9     -20.3387      1.00000
     10     -20.1194      1.00000
     11     -19.7065      1.00000
     12     -19.4093      1.00000
     13     -19.2628      1.00000
     14     -19.1235      1.00000
     15     -18.9859      1.00000
     16     -18.6303      1.00000
     17     -18.3915      1.00000
     18     -18.2961      1.00000
     19     -17.8860      1.00000
     20     -17.2754      1.00000
     21     -17.0338      1.00000
     22     -16.9822      1.00000
     23     -16.7116      1.00000
     24     -16.4480      1.00000
     25     -16.0102      1.00000
     26     -15.5223      1.00000
     27     -15.4000      1.00000
     28     -15.2209      1.00000
     29     -15.1706      1.00000
     30     -15.0576      1.00000
     31     -14.8310      1.00000
     32     -14.7141      1.00000
     33     -14.2635      1.00000
     34     -13.9326      1.00000
     35     -13.5040      1.00000
     36     -13.1934      1.00000
     37     -12.7612      1.00000
     38     -12.5355      1.00000
     39     -12.4389      1.00000
     40     -12.1819      1.00000
     41     -12.1049      1.00000
     42     -11.9516      1.00000
     43     -11.6284      1.00000
     44     -11.4561      1.00000
     45     -11.3093      1.00000
     46     -11.2020      1.00000
     47     -11.0205      1.00000
     48     -10.6718      1.00000
     49     -10.5413      1.00000
     50     -10.3578      1.00000
     51     -10.3420      1.00000
     52     -10.1810      1.00000
     53      -9.8756      1.00000
     54      -9.8219      1.00000
     55      -9.7612      1.00000
     56      -9.7503      1.00000
     57      -9.6236      1.00000
     58      -9.5261      1.00000
     59      -9.4973      1.00000
     60      -9.4690      1.00000
     61      -9.2889      1.00000
     62      -9.1077      1.00000
     63      -9.0834      1.00000
     64      -9.0267      1.00000
     65      -8.9838      1.00000
     66      -8.9321      1.00000
     67      -8.8328      1.00000
     68      -8.7427      1.00000
     69      -8.5350      1.00000
     70      -8.3405      1.00000
     71      -8.2936      1.00000
     72      -7.9491      1.00000
     73      -7.8847      1.00000
     74      -7.7584      1.00000
     75      -7.6586      1.00000
     76      -7.5188      1.00000
     77      -7.4482      1.00000
     78      -7.3010      1.00000
     79      -7.1480      1.00000
     80      -6.9358      1.00000
     81      -6.8383      1.00000
     82      -6.8304      1.00000
     83      -6.6850      1.00000
     84      -6.5637      1.00000
     85      -6.5095      1.00000
     86      -6.4399      1.00000
     87      -6.1684      1.00000
     88      -6.1231      1.00000
     89      -6.0634      1.00000
     90      -6.0042      1.00000
     91      -5.9035      1.00000
     92      -5.6802      1.00000
     93      -5.5730      1.00000
     94      -5.4633      1.00000
     95      -5.0524      1.00000
     96      -4.6945      1.00000
     97      -4.6119      1.00000
     98      -4.5037      1.00000
     99      -4.3020      1.00000
    100      -4.1862      1.00000
    101      -3.8184      1.00000
    102      -3.7213      1.00000
    103      -3.2449      1.00000
    104      -2.6343      0.61580
    105      -1.6617      0.00000
    106      -1.4158      0.00000
    107      -1.2413      0.00000
    108      -1.1228      0.00000
    109      -0.9903      0.00000
    110      -0.8527      0.00000
    111      -0.3602      0.00000
    112      -0.2685      0.00000
    113       0.2367      0.00000
    114       0.5266      0.00000
    115       0.7450      0.00000
    116       0.9787      0.00000
    117       1.1478      0.00000
    118       1.2734      0.00000
    119       1.3306      0.00000
    120       1.4462      0.00000
    121       1.5036      0.00000
    122       1.6721      0.00000
    123       1.7361      0.00000
    124       1.8027      0.00000
    125       1.8339      0.00000
    126       2.0209      0.00000
    127       2.0812      0.00000
    128       2.2548      0.00000
    129       2.3420      0.00000
    130       2.3464      0.00000
    131       2.4471      0.00000
    132       2.5091      0.00000
    133       2.5579      0.00000
    134       2.7271      0.00000
    135       2.7509      0.00000
    136       2.8104      0.00000
    137       2.8455      0.00000
    138       2.8817      0.00000
    139       2.9689      0.00000
    140       3.0891      0.00000
    141       3.1551      0.00000
    142       3.2700      0.00000
    143       3.2776      0.00000
    144       3.4546      0.00000
    145       3.4963      0.00000
    146       3.5223      0.00000
    147       3.6161      0.00000
    148       3.6524      0.00000
    149       3.7528      0.00000
    150       3.7934      0.00000
    151       3.9244      0.00000
    152       4.0576      0.00000
    153       4.0773      0.00000
    154       4.1119      0.00000
    155       4.1976      0.00000
    156       4.2568      0.00000
    157       4.2996      0.00000
    158       4.3636      0.00000
    159       4.4163      0.00000
    160       4.4431      0.00000
    161       4.5060      0.00000
    162       4.5651      0.00000
    163       4.6074      0.00000
    164       4.6654      0.00000
    165       4.7149      0.00000
    166       4.7414      0.00000
    167       4.8275      0.00000
    168       4.8506      0.00000
    169       4.8610      0.00000
    170       4.8739      0.00000
    171       4.9155      0.00000
    172       4.9582      0.00000
    173       4.9853      0.00000
    174       5.0439      0.00000
    175       5.0855      0.00000
    176       5.1152      0.00000
    177       5.1710      0.00000
    178       5.2396      0.00000
    179       5.2413      0.00000
    180       5.3112      0.00000
    181       5.3428      0.00000
    182       5.3957      0.00000
    183       5.4400      0.00000
    184       5.4790      0.00000
    185       5.6025      0.00000
    186       5.6154      0.00000
    187       5.6432      0.00000
    188       5.6773      0.00000
    189       5.6899      0.00000
    190       5.7030      0.00000
    191       5.7382      0.00000
    192       5.7574      0.00000
    193       5.7958      0.00000
    194       5.8355      0.00000
    195       5.8455      0.00000
    196       5.8699      0.00000
    197       5.9095      0.00000
    198       5.9394      0.00000
    199       5.9461      0.00000
    200       6.0121      0.00000
    201       6.0750      0.00000
    202       6.1129      0.00000
    203       6.1619      0.00000
    204       6.1906      0.00000
    205       6.2486      0.00000
    206       6.2835      0.00000
    207       6.3376      0.00000
    208       6.3600      0.00000
    209       6.3895      0.00000
    210       6.4282      0.00000
    211       6.4761      0.00000
    212       6.4945      0.00000
    213       6.5220      0.00000
    214       6.6044      0.00000
    215       6.6640      0.00000
    216       6.6731      0.00000
    217       6.7299      0.00000
    218       6.8549      0.00000
    219       6.8750      0.00000
    220       6.9585      0.00000
    221       7.0021      0.00000
    222       7.0372      0.00000
    223       7.1416      0.00000
    224       7.2366      0.00000
    225       7.2397      0.00000
    226       7.2965      0.00000
    227       7.3335      0.00000
    228       7.4027      0.00000
    229       7.5461      0.00000
    230       7.5562      0.00000
    231       7.6270      0.00000
    232       7.7461      0.00000
    233       7.7900      0.00000
    234       7.8073      0.00000
    235       7.8990      0.00000
    236       8.0505      0.00000
    237       8.1177      0.00000
    238       8.1372      0.00000
    239       8.1745      0.00000
    240       8.1955      0.00000
    241       8.3196      0.00000
    242       8.4150      0.00000
    243       8.4654      0.00000
    244       8.5226      0.00000
    245       8.5533      0.00000
    246       8.7422      0.00000
    247       8.8410      0.00000
    248       8.9283      0.00000
    249       8.9693      0.00000
    250       9.1152      0.00000
    251       9.4901      0.00000
    252       9.5674      0.00000
    253       9.6540      0.00000
    254       9.8559      0.00000
    255       9.9575      0.00000
    256      10.0914      0.00000

 k-point     5 :       0.2000    0.2000    0.0000
  band No.  band energies     occupation 
      1     -22.9604      1.00000
      2     -22.7489      1.00000
      3     -22.4802      1.00000
      4     -22.1905      1.00000
      5     -21.6592      1.00000
      6     -21.3371      1.00000
      7     -21.2063      1.00000
      8     -20.6401      1.00000
      9     -20.4832      1.00000
     10     -20.0603      1.00000
     11     -19.8983      1.00000
     12     -19.6662      1.00000
     13     -19.3803      1.00000
     14     -18.7912      1.00000
     15     -18.7530      1.00000
     16     -18.6629      1.00000
     17     -18.3467      1.00000
     18     -18.1139      1.00000
     19     -17.7169      1.00000
     20     -17.3841      1.00000
     21     -17.1616      1.00000
     22     -17.1374      1.00000
     23     -17.0127      1.00000
     24     -16.3745      1.00000
     25     -16.1132      1.00000
     26     -15.7039      1.00000
     27     -15.4394      1.00000
     28     -15.4094      1.00000
     29     -14.9321      1.00000
     30     -14.7579      1.00000
     31     -14.7308      1.00000
     32     -14.3957      1.00000
     33     -14.2054      1.00000
     34     -13.9145      1.00000
     35     -13.3088      1.00000
     36     -13.1520      1.00000
     37     -12.9404      1.00000
     38     -12.8577      1.00000
     39     -12.4856      1.00000
     40     -12.4046      1.00000
     41     -12.0545      1.00000
     42     -11.9337      1.00000
     43     -11.7285      1.00000
     44     -11.5843      1.00000
     45     -11.5679      1.00000
     46     -10.9028      1.00000
     47     -10.8849      1.00000
     48     -10.6789      1.00000
     49     -10.6318      1.00000
     50     -10.2884      1.00000
     51     -10.2618      1.00000
     52     -10.2212      1.00000
     53      -9.9314      1.00000
     54      -9.8552      1.00000
     55      -9.8074      1.00000
     56      -9.7597      1.00000
     57      -9.5616      1.00000
     58      -9.4764      1.00000
     59      -9.3185      1.00000
     60      -9.2834      1.00000
     61      -9.2544      1.00000
     62      -9.2324      1.00000
     63      -9.0735      1.00000
     64      -9.0449      1.00000
     65      -8.9259      1.00000
     66      -8.8607      1.00000
     67      -8.7742      1.00000
     68      -8.5500      1.00000
     69      -8.5310      1.00000
     70      -8.3299      1.00000
     71      -8.3281      1.00000
     72      -8.0847      1.00000
     73      -7.9809      1.00000
     74      -7.8239      1.00000
     75      -7.7198      1.00000
     76      -7.5322      1.00000
     77      -7.5316      1.00000
     78      -7.4940      1.00000
     79      -7.2574      1.00000
     80      -7.1303      1.00000
     81      -7.0118      1.00000
     82      -6.7763      1.00000
     83      -6.4722      1.00000
     84      -6.3486      1.00000
     85      -6.2913      1.00000
     86      -6.2587      1.00000
     87      -6.1656      1.00000
     88      -6.1153      1.00000
     89      -6.0555      1.00000
     90      -6.0395      1.00000
     91      -5.8147      1.00000
     92      -5.5884      1.00000
     93      -5.3469      1.00000
     94      -5.3261      1.00000
     95      -5.2561      1.00000
     96      -5.0273      1.00000
     97      -4.8223      1.00000
     98      -4.5805      1.00000
     99      -4.4646      1.00000
    100      -4.2670      1.00000
    101      -3.7380      1.00000
    102      -3.4052      1.00000
    103      -3.2518      1.00000
    104      -2.9298      1.00000
    105      -1.7781      0.00000
    106      -1.0727      0.00000
    107      -1.0502      0.00000
    108      -0.9862      0.00000
    109      -0.8297      0.00000
    110      -0.7936      0.00000
    111      -0.6441      0.00000
    112      -0.1704      0.00000
    113      -0.0423      0.00000
    114       0.3245      0.00000
    115       0.7406      0.00000
    116       0.7660      0.00000
    117       0.9310      0.00000
    118       1.1543      0.00000
    119       1.3460      0.00000
    120       1.3476      0.00000
    121       1.5751      0.00000
    122       1.7809      0.00000
    123       1.8000      0.00000
    124       1.8212      0.00000
    125       1.9585      0.00000
    126       1.9921      0.00000
    127       2.2242      0.00000
    128       2.3278      0.00000
    129       2.3357      0.00000
    130       2.4092      0.00000
    131       2.5769      0.00000
    132       2.6226      0.00000
    133       2.6323      0.00000
    134       2.7069      0.00000
    135       2.7551      0.00000
    136       2.8247      0.00000
    137       3.0374      0.00000
    138       3.0993      0.00000
    139       3.1423      0.00000
    140       3.1450      0.00000
    141       3.1783      0.00000
    142       3.2355      0.00000
    143       3.3691      0.00000
    144       3.4755      0.00000
    145       3.5051      0.00000
    146       3.5776      0.00000
    147       3.6294      0.00000
    148       3.6961      0.00000
    149       3.7591      0.00000
    150       3.8463      0.00000
    151       3.9177      0.00000
    152       3.9595      0.00000
    153       3.9715      0.00000
    154       3.9881      0.00000
    155       4.0728      0.00000
    156       4.0950      0.00000
    157       4.1395      0.00000
    158       4.1813      0.00000
    159       4.3503      0.00000
    160       4.4267      0.00000
    161       4.4380      0.00000
    162       4.4889      0.00000
    163       4.5654      0.00000
    164       4.6323      0.00000
    165       4.7467      0.00000
    166       4.7722      0.00000
    167       4.8155      0.00000
    168       4.8226      0.00000
    169       4.9225      0.00000
    170       4.9526      0.00000
    171       4.9849      0.00000
    172       5.0061      0.00000
    173       5.0099      0.00000
    174       5.0288      0.00000
    175       5.0702      0.00000
    176       5.0879      0.00000
    177       5.1319      0.00000
    178       5.2105      0.00000
    179       5.2140      0.00000
    180       5.2520      0.00000
    181       5.3090      0.00000
    182       5.3152      0.00000
    183       5.3558      0.00000
    184       5.4733      0.00000
    185       5.4870      0.00000
    186       5.4921      0.00000
    187       5.5040      0.00000
    188       5.5181      0.00000
    189       5.5963      0.00000
    190       5.6298      0.00000
    191       5.6797      0.00000
    192       5.6925      0.00000
    193       5.7953      0.00000
    194       5.8054      0.00000
    195       5.8107      0.00000
    196       5.8357      0.00000
    197       5.8935      0.00000
    198       5.9900      0.00000
    199       5.9966      0.00000
    200       6.0339      0.00000
    201       6.0453      0.00000
    202       6.0832      0.00000
    203       6.1412      0.00000
    204       6.1829      0.00000
    205       6.2639      0.00000
    206       6.2781      0.00000
    207       6.2808      0.00000
    208       6.2905      0.00000
    209       6.3302      0.00000
    210       6.4823      0.00000
    211       6.5348      0.00000
    212       6.5348      0.00000
    213       6.5376      0.00000
    214       6.5482      0.00000
    215       6.6149      0.00000
    216       6.6873      0.00000
    217       6.7605      0.00000
    218       6.7662      0.00000
    219       6.8067      0.00000
    220       6.8461      0.00000
    221       6.8922      0.00000
    222       6.9200      0.00000
    223       6.9280      0.00000
    224       6.9853      0.00000
    225       7.0456      0.00000
    226       7.1061      0.00000
    227       7.1251      0.00000
    228       7.1340      0.00000
    229       7.1463      0.00000
    230       7.2902      0.00000
    231       7.2976      0.00000
    232       7.3168      0.00000
    233       7.3499      0.00000
    234       7.4732      0.00000
    235       7.7041      0.00000
    236       7.7879      0.00000
    237       7.7897      0.00000
    238       7.8832      0.00000
    239       7.9158      0.00000
    240       7.9441      0.00000
    241       7.9671      0.00000
    242       7.9828      0.00000
    243       7.9937      0.00000
    244       8.2117      0.00000
    245       8.2930      0.00000
    246       8.3406      0.00000
    247       8.5951      0.00000
    248       8.6437      0.00000
    249       8.6595      0.00000
    250       8.6904      0.00000
    251       8.7777      0.00000
    252       9.0201      0.00000
    253       9.0932      0.00000
    254       9.3438      0.00000
    255       9.4159      0.00000
    256       9.5222      0.00000

 k-point     6 :       0.4000    0.2000    0.0000
  band No.  band energies     occupation 
      1     -22.9445      1.00000
      2     -22.7608      1.00000
      3     -22.5124      1.00000
      4     -22.1699      1.00000
      5     -21.6290      1.00000
      6     -21.4173      1.00000
      7     -21.1098      1.00000
      8     -20.5691      1.00000
      9     -20.4653      1.00000
     10     -20.1861      1.00000
     11     -19.8971      1.00000
     12     -19.8473      1.00000
     13     -19.4288      1.00000
     14     -18.8135      1.00000
     15     -18.6291      1.00000
     16     -18.3428      1.00000
     17     -18.1737      1.00000
     18     -18.0521      1.00000
     19     -17.8772      1.00000
     20     -17.4628      1.00000
     21     -17.3472      1.00000
     22     -17.2325      1.00000
     23     -17.0245      1.00000
     24     -16.3948      1.00000
     25     -15.9820      1.00000
     26     -15.9543      1.00000
     27     -15.6101      1.00000
     28     -15.4733      1.00000
     29     -14.7478      1.00000
     30     -14.5538      1.00000
     31     -14.4626      1.00000
     32     -14.0928      1.00000
     33     -13.9766      1.00000
     34     -13.8267      1.00000
     35     -13.7364      1.00000
     36     -13.5021      1.00000
     37     -13.1465      1.00000
     38     -12.8264      1.00000
     39     -12.4769      1.00000
     40     -12.2358      1.00000
     41     -12.1114      1.00000
     42     -11.9501      1.00000
     43     -11.7923      1.00000
     44     -11.7531      1.00000
     45     -11.3280      1.00000
     46     -11.2186      1.00000
     47     -10.8174      1.00000
     48     -10.7527      1.00000
     49     -10.3965      1.00000
     50     -10.1492      1.00000
     51     -10.1313      1.00000
     52     -10.0705      1.00000
     53     -10.0296      1.00000
     54      -9.9461      1.00000
     55      -9.8619      1.00000
     56      -9.8285      1.00000
     57      -9.7313      1.00000
     58      -9.5065      1.00000
     59      -9.3926      1.00000
     60      -9.3026      1.00000
     61      -9.2433      1.00000
     62      -9.1048      1.00000
     63      -8.9566      1.00000
     64      -8.8915      1.00000
     65      -8.8749      1.00000
     66      -8.7291      1.00000
     67      -8.7000      1.00000
     68      -8.5144      1.00000
     69      -8.5071      1.00000
     70      -8.4127      1.00000
     71      -8.3188      1.00000
     72      -8.0987      1.00000
     73      -8.0648      1.00000
     74      -7.9208      1.00000
     75      -7.8848      1.00000
     76      -7.6471      1.00000
     77      -7.4959      1.00000
     78      -7.4466      1.00000
     79      -7.2930      1.00000
     80      -7.2208      1.00000
     81      -6.9500      1.00000
     82      -6.7882      1.00000
     83      -6.5783      1.00000
     84      -6.3878      1.00000
     85      -6.3363      1.00000
     86      -6.2981      1.00000
     87      -6.1260      1.00000
     88      -6.0294      1.00000
     89      -5.7773      1.00000
     90      -5.6833      1.00000
     91      -5.6404      1.00000
     92      -5.5762      1.00000
     93      -5.5573      1.00000
     94      -5.3031      1.00000
     95      -5.1530      1.00000
     96      -5.0757      1.00000
     97      -5.0385      1.00000
     98      -4.9991      1.00000
     99      -4.4719      1.00000
    100      -4.2503      1.00000
    101      -3.7138      1.00000
    102      -3.3733      1.00000
    103      -3.2931      1.00000
    104      -2.7932      0.99448
    105      -1.8898      0.00000
    106      -1.1557      0.00000
    107      -1.0036      0.00000
    108      -0.9206      0.00000
    109      -0.8036      0.00000
    110      -0.5177      0.00000
    111      -0.3906      0.00000
    112      -0.2701      0.00000
    113      -0.0079      0.00000
    114       0.1303      0.00000
    115       0.2989      0.00000
    116       0.7962      0.00000
    117       0.8352      0.00000
    118       1.0026      0.00000
    119       1.2148      0.00000
    120       1.3899      0.00000
    121       1.6240      0.00000
    122       1.7690      0.00000
    123       1.8456      0.00000
    124       1.9641      0.00000
    125       2.0173      0.00000
    126       2.1012      0.00000
    127       2.2752      0.00000
    128       2.2816      0.00000
    129       2.3282      0.00000
    130       2.4760      0.00000
    131       2.5251      0.00000
    132       2.7164      0.00000
    133       2.8766      0.00000
    134       2.8850      0.00000
    135       2.9766      0.00000
    136       3.0097      0.00000
    137       3.0663      0.00000
    138       3.1147      0.00000
    139       3.1471      0.00000
    140       3.1702      0.00000
    141       3.2569      0.00000
    142       3.2853      0.00000
    143       3.3700      0.00000
    144       3.3810      0.00000
    145       3.3909      0.00000
    146       3.4176      0.00000
    147       3.5673      0.00000
    148       3.5947      0.00000
    149       3.6206      0.00000
    150       3.7022      0.00000
    151       3.8635      0.00000
    152       3.9277      0.00000
    153       3.9545      0.00000
    154       3.9679      0.00000
    155       4.1095      0.00000
    156       4.2251      0.00000
    157       4.2504      0.00000
    158       4.3216      0.00000
    159       4.3746      0.00000
    160       4.4019      0.00000
    161       4.4170      0.00000
    162       4.4605      0.00000
    163       4.5432      0.00000
    164       4.5921      0.00000
    165       4.6387      0.00000
    166       4.6537      0.00000
    167       4.6870      0.00000
    168       4.7235      0.00000
    169       4.7658      0.00000
    170       4.8642      0.00000
    171       4.9176      0.00000
    172       4.9520      0.00000
    173       5.0343      0.00000
    174       5.0753      0.00000
    175       5.1460      0.00000
    176       5.1780      0.00000
    177       5.1812      0.00000
    178       5.2071      0.00000
    179       5.2340      0.00000
    180       5.2520      0.00000
    181       5.2879      0.00000
    182       5.3353      0.00000
    183       5.3815      0.00000
    184       5.4349      0.00000
    185       5.4782      0.00000
    186       5.4944      0.00000
    187       5.5291      0.00000
    188       5.5578      0.00000
    189       5.6300      0.00000
    190       5.6682      0.00000
    191       5.6926      0.00000
    192       5.7087      0.00000
    193       5.7879      0.00000
    194       5.8177      0.00000
    195       5.8310      0.00000
    196       5.8549      0.00000
    197       5.8953      0.00000
    198       5.9277      0.00000
    199       5.9802      0.00000
    200       5.9893      0.00000
    201       6.0163      0.00000
    202       6.0625      0.00000
    203       6.0849      0.00000
    204       6.1490      0.00000
    205       6.1526      0.00000
    206       6.1854      0.00000
    207       6.2810      0.00000
    208       6.3006      0.00000
    209       6.3280      0.00000
    210       6.3754      0.00000
    211       6.4097      0.00000
    212       6.4183      0.00000
    213       6.4718      0.00000
    214       6.5022      0.00000
    215       6.5281      0.00000
    216       6.5370      0.00000
    217       6.5910      0.00000
    218       6.6278      0.00000
    219       6.6830      0.00000
    220       6.7502      0.00000
    221       6.7767      0.00000
    222       6.8340      0.00000
    223       6.8586      0.00000
    224       6.9187      0.00000
    225       6.9494      0.00000
    226       7.0230      0.00000
    227       7.0915      0.00000
    228       7.1060      0.00000
    229       7.1423      0.00000
    230       7.1990      0.00000
    231       7.2570      0.00000
    232       7.2771      0.00000
    233       7.3457      0.00000
    234       7.4345      0.00000
    235       7.4898      0.00000
    236       7.4905      0.00000
    237       7.5821      0.00000
    238       7.6097      0.00000
    239       7.7069      0.00000
    240       7.7590      0.00000
    241       7.8202      0.00000
    242       7.8226      0.00000
    243       7.8662      0.00000
    244       7.9340      0.00000
    245       7.9434      0.00000
    246       8.0726      0.00000
    247       8.1277      0.00000
    248       8.1406      0.00000
    249       8.2606      0.00000
    250       8.3413      0.00000
    251       8.3648      0.00000
    252       8.5254      0.00000
    253       8.6513      0.00000
    254       8.7814      0.00000
    255       9.0184      0.00000
    256       9.1834      0.00000

 k-point     7 :      -0.4000    0.2000    0.0000
  band No.  band energies     occupation 
      1     -22.9614      1.00000
      2     -22.7345      1.00000
      3     -22.5185      1.00000
      4     -22.1491      1.00000
      5     -21.6439      1.00000
      6     -21.4803      1.00000
      7     -21.0231      1.00000
      8     -20.7449      1.00000
      9     -20.3785      1.00000
     10     -20.1881      1.00000
     11     -19.8339      1.00000
     12     -19.7056      1.00000
     13     -19.3750      1.00000
     14     -18.8738      1.00000
     15     -18.8228      1.00000
     16     -18.5037      1.00000
     17     -18.2633      1.00000
     18     -17.8807      1.00000
     19     -17.7699      1.00000
     20     -17.5630      1.00000
     21     -17.4097      1.00000
     22     -17.0992      1.00000
     23     -16.9257      1.00000
     24     -16.5433      1.00000
     25     -15.9319      1.00000
     26     -15.6113      1.00000
     27     -15.4871      1.00000
     28     -15.3740      1.00000
     29     -14.9366      1.00000
     30     -14.7885      1.00000
     31     -14.6340      1.00000
     32     -14.4219      1.00000
     33     -14.2611      1.00000
     34     -13.6938      1.00000
     35     -13.3898      1.00000
     36     -13.1811      1.00000
     37     -13.0120      1.00000
     38     -12.8884      1.00000
     39     -12.7920      1.00000
     40     -12.4005      1.00000
     41     -11.9972      1.00000
     42     -11.9683      1.00000
     43     -11.7795      1.00000
     44     -11.4736      1.00000
     45     -11.1806      1.00000
     46     -11.1650      1.00000
     47     -10.6554      1.00000
     48     -10.5777      1.00000
     49     -10.5643      1.00000
     50     -10.4112      1.00000
     51     -10.2608      1.00000
     52     -10.2289      1.00000
     53     -10.0064      1.00000
     54      -9.8741      1.00000
     55      -9.8141      1.00000
     56      -9.7346      1.00000
     57      -9.6942      1.00000
     58      -9.5280      1.00000
     59      -9.4496      1.00000
     60      -9.4266      1.00000
     61      -9.2689      1.00000
     62      -9.1511      1.00000
     63      -9.1189      1.00000
     64      -8.9735      1.00000
     65      -8.8826      1.00000
     66      -8.7766      1.00000
     67      -8.6332      1.00000
     68      -8.5575      1.00000
     69      -8.5222      1.00000
     70      -8.3525      1.00000
     71      -8.2318      1.00000
     72      -8.0984      1.00000
     73      -7.8972      1.00000
     74      -7.8849      1.00000
     75      -7.8258      1.00000
     76      -7.6391      1.00000
     77      -7.3960      1.00000
     78      -7.3561      1.00000
     79      -7.2576      1.00000
     80      -7.1779      1.00000
     81      -6.8458      1.00000
     82      -6.8068      1.00000
     83      -6.7690      1.00000
     84      -6.5254      1.00000
     85      -6.3486      1.00000
     86      -6.3138      1.00000
     87      -6.1862      1.00000
     88      -6.1086      1.00000
     89      -5.9935      1.00000
     90      -5.7833      1.00000
     91      -5.7193      1.00000
     92      -5.5754      1.00000
     93      -5.4226      1.00000
     94      -5.3042      1.00000
     95      -5.0798      1.00000
     96      -5.0484      1.00000
     97      -5.0232      1.00000
     98      -4.5861      1.00000
     99      -4.4387      1.00000
    100      -4.2725      1.00000
    101      -3.7586      1.00000
    102      -3.6297      1.00000
    103      -3.2976      1.00000
    104      -2.4398      0.00693
    105      -1.8839      0.00000
    106      -1.1965      0.00000
    107      -1.0592      0.00000
    108      -1.0034      0.00000
    109      -0.8577      0.00000
    110      -0.7288      0.00000
    111      -0.6147      0.00000
    112      -0.4079      0.00000
    113       0.2221      0.00000
    114       0.3587      0.00000
    115       0.7214      0.00000
    116       0.7781      0.00000
    117       0.9520      0.00000
    118       1.1406      0.00000
    119       1.2156      0.00000
    120       1.3663      0.00000
    121       1.5932      0.00000
    122       1.7957      0.00000
    123       1.7976      0.00000
    124       1.8680      0.00000
    125       1.9717      0.00000
    126       1.9843      0.00000
    127       2.2120      0.00000
    128       2.2823      0.00000
    129       2.3348      0.00000
    130       2.3604      0.00000
    131       2.6169      0.00000
    132       2.6193      0.00000
    133       2.6813      0.00000
    134       2.7409      0.00000
    135       2.7489      0.00000
    136       2.8199      0.00000
    137       3.0349      0.00000
    138       3.1087      0.00000
    139       3.1389      0.00000
    140       3.1802      0.00000
    141       3.2222      0.00000
    142       3.2521      0.00000
    143       3.3725      0.00000
    144       3.4901      0.00000
    145       3.5300      0.00000
    146       3.5670      0.00000
    147       3.5850      0.00000
    148       3.6824      0.00000
    149       3.7067      0.00000
    150       3.7566      0.00000
    151       3.8665      0.00000
    152       3.9193      0.00000
    153       3.9724      0.00000
    154       3.9944      0.00000
    155       4.1064      0.00000
    156       4.1636      0.00000
    157       4.1713      0.00000
    158       4.2044      0.00000
    159       4.3325      0.00000
    160       4.4074      0.00000
    161       4.4623      0.00000
    162       4.4815      0.00000
    163       4.6115      0.00000
    164       4.6527      0.00000
    165       4.7399      0.00000
    166       4.7799      0.00000
    167       4.8026      0.00000
    168       4.8804      0.00000
    169       4.9378      0.00000
    170       4.9635      0.00000
    171       4.9945      0.00000
    172       5.0453      0.00000
    173       5.0805      0.00000
    174       5.1019      0.00000
    175       5.1040      0.00000
    176       5.1927      0.00000
    177       5.2410      0.00000
    178       5.2600      0.00000
    179       5.3026      0.00000
    180       5.3186      0.00000
    181       5.3426      0.00000
    182       5.4016      0.00000
    183       5.4086      0.00000
    184       5.4806      0.00000
    185       5.4994      0.00000
    186       5.5278      0.00000
    187       5.6181      0.00000
    188       5.6389      0.00000
    189       5.6410      0.00000
    190       5.7849      0.00000
    191       5.7940      0.00000
    192       5.8029      0.00000
    193       5.9154      0.00000
    194       5.9731      0.00000
    195       6.0414      0.00000
    196       6.0479      0.00000
    197       6.0615      0.00000
    198       6.1636      0.00000
    199       6.1818      0.00000
    200       6.2317      0.00000
    201       6.3773      0.00000
    202       6.4310      0.00000
    203       6.5013      0.00000
    204       6.5559      0.00000
    205       6.6021      0.00000
    206       6.6289      0.00000
    207       6.6919      0.00000
    208       6.7100      0.00000
    209       6.7879      0.00000
    210       6.7972      0.00000
    211       6.8073      0.00000
    212       6.8298      0.00000
    213       6.8944      0.00000
    214       7.0613      0.00000
    215       7.0936      0.00000
    216       7.1712      0.00000
    217       7.1781      0.00000
    218       7.2342      0.00000
    219       7.2580      0.00000
    220       7.2947      0.00000
    221       7.3399      0.00000
    222       7.4560      0.00000
    223       7.4703      0.00000
    224       7.4794      0.00000
    225       7.6289      0.00000
    226       7.6533      0.00000
    227       7.7063      0.00000
    228       7.8158      0.00000
    229       7.8953      0.00000
    230       7.9363      0.00000
    231       7.9945      0.00000
    232       8.0243      0.00000
    233       8.0586      0.00000
    234       8.0905      0.00000
    235       8.2181      0.00000
    236       8.3273      0.00000
    237       8.4548      0.00000
    238       8.4697      0.00000
    239       8.5557      0.00000
    240       8.5850      0.00000
    241       8.6331      0.00000
    242       8.6740      0.00000
    243       8.7435      0.00000
    244       9.0505      0.00000
    245       9.0686      0.00000
    246       9.3227      0.00000
    247       9.3314      0.00000
    248       9.4383      0.00000
    249       9.6205      0.00000
    250       9.6271      0.00000
    251       9.6575      0.00000
    252       9.6637      0.00000
    253       9.7989      0.00000
    254      10.7307      0.00000
    255      11.3419      0.00000
    256      11.7217      0.00000

 k-point     8 :      -0.2000    0.2000    0.0000
  band No.  band energies     occupation 
      1     -22.9827      1.00000
      2     -22.7112      1.00000
      3     -22.4933      1.00000
      4     -22.1530      1.00000
      5     -21.6796      1.00000
      6     -21.4748      1.00000
      7     -21.0183      1.00000
      8     -20.8986      1.00000
      9     -20.2317      1.00000
     10     -20.2202      1.00000
     11     -19.6604      1.00000
     12     -19.5529      1.00000
     13     -19.2710      1.00000
     14     -19.0078      1.00000
     15     -18.9557      1.00000
     16     -18.5856      1.00000
     17     -18.5797      1.00000
     18     -18.1168      1.00000
     19     -17.8223      1.00000
     20     -17.4353      1.00000
     21     -17.0273      1.00000
     22     -16.9106      1.00000
     23     -16.8271      1.00000
     24     -16.5833      1.00000
     25     -15.6901      1.00000
     26     -15.6202      1.00000
     27     -15.3389      1.00000
     28     -15.2316      1.00000
     29     -15.1648      1.00000
     30     -15.0436      1.00000
     31     -14.9508      1.00000
     32     -14.6816      1.00000
     33     -14.3071      1.00000
     34     -13.6831      1.00000
     35     -13.5508      1.00000
     36     -13.2880      1.00000
     37     -12.9358      1.00000
     38     -12.5931      1.00000
     39     -12.3386      1.00000
     40     -12.2829      1.00000
     41     -12.0387      1.00000
     42     -12.0227      1.00000
     43     -11.6641      1.00000
     44     -11.4149      1.00000
     45     -11.2564      1.00000
     46     -10.9567      1.00000
     47     -10.8994      1.00000
     48     -10.7946      1.00000
     49     -10.4577      1.00000
     50     -10.3472      1.00000
     51     -10.3272      1.00000
     52     -10.2487      1.00000
     53     -10.0931      1.00000
     54      -9.9197      1.00000
     55      -9.8148      1.00000
     56      -9.6893      1.00000
     57      -9.6846      1.00000
     58      -9.5589      1.00000
     59      -9.3519      1.00000
     60      -9.3155      1.00000
     61      -9.2103      1.00000
     62      -9.1821      1.00000
     63      -9.1410      1.00000
     64      -9.0983      1.00000
     65      -9.0834      1.00000
     66      -8.8883      1.00000
     67      -8.8065      1.00000
     68      -8.7213      1.00000
     69      -8.5770      1.00000
     70      -8.2990      1.00000
     71      -8.1638      1.00000
     72      -8.0493      1.00000
     73      -7.8152      1.00000
     74      -7.6886      1.00000
     75      -7.5854      1.00000
     76      -7.5764      1.00000
     77      -7.4770      1.00000
     78      -7.2840      1.00000
     79      -7.1147      1.00000
     80      -7.0262      1.00000
     81      -6.9191      1.00000
     82      -6.7826      1.00000
     83      -6.7479      1.00000
     84      -6.5791      1.00000
     85      -6.5231      1.00000
     86      -6.4177      1.00000
     87      -6.2171      1.00000
     88      -6.1776      1.00000
     89      -6.0621      1.00000
     90      -5.9863      1.00000
     91      -5.7187      1.00000
     92      -5.6717      1.00000
     93      -5.6053      1.00000
     94      -5.4968      1.00000
     95      -4.9850      1.00000
     96      -4.7713      1.00000
     97      -4.5789      1.00000
     98      -4.4709      1.00000
     99      -4.3009      1.00000
    100      -4.1161      1.00000
    101      -4.0990      1.00000
    102      -3.6814      1.00000
    103      -3.2439      1.00000
    104      -2.3723      0.00032
    105      -1.7685      0.00000
    106      -1.3668      0.00000
    107      -1.3537      0.00000
    108      -1.1003      0.00000
    109      -1.0168      0.00000
    110      -0.8535      0.00000
    111      -0.4627      0.00000
    112      -0.1349      0.00000
    113       0.1830      0.00000
    114       0.6777      0.00000
    115       0.8125      0.00000
    116       0.8201      0.00000
    117       1.1777      0.00000
    118       1.2533      0.00000
    119       1.3353      0.00000
    120       1.4570      0.00000
    121       1.4671      0.00000
    122       1.6142      0.00000
    123       1.6824      0.00000
    124       1.8091      0.00000
    125       1.9606      0.00000
    126       2.0038      0.00000
    127       2.0884      0.00000
    128       2.2639      0.00000
    129       2.3354      0.00000
    130       2.3575      0.00000
    131       2.4443      0.00000
    132       2.4782      0.00000
    133       2.5631      0.00000
    134       2.7266      0.00000
    135       2.7456      0.00000
    136       2.8270      0.00000
    137       2.8422      0.00000
    138       2.9481      0.00000
    139       2.9970      0.00000
    140       3.0968      0.00000
    141       3.1433      0.00000
    142       3.2709      0.00000
    143       3.2743      0.00000
    144       3.4392      0.00000
    145       3.4832      0.00000
    146       3.5247      0.00000
    147       3.6170      0.00000
    148       3.6463      0.00000
    149       3.6971      0.00000
    150       3.8048      0.00000
    151       3.9376      0.00000
    152       3.9936      0.00000
    153       4.0710      0.00000
    154       4.0791      0.00000
    155       4.1909      0.00000
    156       4.2131      0.00000
    157       4.3367      0.00000
    158       4.4050      0.00000
    159       4.4076      0.00000
    160       4.4855      0.00000
    161       4.5411      0.00000
    162       4.6244      0.00000
    163       4.6430      0.00000
    164       4.7228      0.00000
    165       4.7251      0.00000
    166       4.7502      0.00000
    167       4.7762      0.00000
    168       4.8516      0.00000
    169       4.8638      0.00000
    170       4.8735      0.00000
    171       4.9238      0.00000
    172       4.9482      0.00000
    173       5.0074      0.00000
    174       5.0404      0.00000
    175       5.1078      0.00000
    176       5.1493      0.00000
    177       5.2048      0.00000
    178       5.2377      0.00000
    179       5.2661      0.00000
    180       5.3032      0.00000
    181       5.3197      0.00000
    182       5.3870      0.00000
    183       5.4348      0.00000
    184       5.4366      0.00000
    185       5.5384      0.00000
    186       5.6185      0.00000
    187       5.6496      0.00000
    188       5.6644      0.00000
    189       5.6863      0.00000
    190       5.7262      0.00000
    191       5.7559      0.00000
    192       5.7566      0.00000
    193       5.7724      0.00000
    194       5.8826      0.00000
    195       5.8934      0.00000
    196       5.9206      0.00000
    197       5.9346      0.00000
    198       5.9951      0.00000
    199       6.0888      0.00000
    200       6.1185      0.00000
    201       6.1739      0.00000
    202       6.2074      0.00000
    203       6.2376      0.00000
    204       6.2405      0.00000
    205       6.4147      0.00000
    206       6.4276      0.00000
    207       6.4583      0.00000
    208       6.4673      0.00000
    209       6.4741      0.00000
    210       6.5337      0.00000
    211       6.5820      0.00000
    212       6.7200      0.00000
    213       6.7419      0.00000
    214       6.7579      0.00000
    215       6.7680      0.00000
    216       6.8853      0.00000
    217       6.9378      0.00000
    218       6.9807      0.00000
    219       7.0069      0.00000
    220       7.0768      0.00000
    221       7.1598      0.00000
    222       7.1840      0.00000
    223       7.2188      0.00000
    224       7.2690      0.00000
    225       7.4794      0.00000
    226       7.4910      0.00000
    227       7.5648      0.00000
    228       7.6510      0.00000
    229       7.6593      0.00000
    230       7.7194      0.00000
    231       7.7251      0.00000
    232       7.8338      0.00000
    233       7.9435      0.00000
    234       8.0644      0.00000
    235       8.1233      0.00000
    236       8.2520      0.00000
    237       8.2541      0.00000
    238       8.3201      0.00000
    239       8.3765      0.00000
    240       8.4201      0.00000
    241       8.4387      0.00000
    242       8.6529      0.00000
    243       8.7236      0.00000
    244       8.7752      0.00000
    245       8.8917      0.00000
    246       8.9012      0.00000
    247       9.0290      0.00000
    248       9.2498      0.00000
    249       9.2520      0.00000
    250       9.4255      0.00000
    251       9.6057      0.00000
    252       9.6150      0.00000
    253      10.0637      0.00000
    254      10.5416      0.00000
    255      10.6707      0.00000
    256      11.0242      0.00000

 k-point     9 :       0.0000    0.4000    0.0000
  band No.  band energies     occupation 
      1     -22.9539      1.00000
      2     -22.7566      1.00000
      3     -22.4849      1.00000
      4     -22.1918      1.00000
      5     -21.6263      1.00000
      6     -21.4255      1.00000
      7     -21.1012      1.00000
      8     -20.6594      1.00000
      9     -20.4492      1.00000
     10     -20.2361      1.00000
     11     -19.7566      1.00000
     12     -19.6559      1.00000
     13     -19.3053      1.00000
     14     -19.2423      1.00000
     15     -18.6558      1.00000
     16     -18.4267      1.00000
     17     -18.1189      1.00000
     18     -17.9774      1.00000
     19     -17.8158      1.00000
     20     -17.4968      1.00000
     21     -17.4326      1.00000
     22     -17.2650      1.00000
     23     -16.8144      1.00000
     24     -16.4153      1.00000
     25     -16.0416      1.00000
     26     -15.7644      1.00000
     27     -15.3248      1.00000
     28     -15.3071      1.00000
     29     -15.0868      1.00000
     30     -15.0085      1.00000
     31     -14.6337      1.00000
     32     -14.3024      1.00000
     33     -14.0736      1.00000
     34     -13.5236      1.00000
     35     -13.4523      1.00000
     36     -13.2734      1.00000
     37     -12.9286      1.00000
     38     -12.7549      1.00000
     39     -12.7363      1.00000
     40     -12.6575      1.00000
     41     -12.2550      1.00000
     42     -11.8039      1.00000
     43     -11.5335      1.00000
     44     -11.4966      1.00000
     45     -11.3135      1.00000
     46     -11.2722      1.00000
     47     -10.8945      1.00000
     48     -10.6909      1.00000
     49     -10.4987      1.00000
     50     -10.2492      1.00000
     51     -10.2203      1.00000
     52     -10.1275      1.00000
     53     -10.0118      1.00000
     54      -9.9011      1.00000
     55      -9.8260      1.00000
     56      -9.7246      1.00000
     57      -9.6027      1.00000
     58      -9.5571      1.00000
     59      -9.5176      1.00000
     60      -9.4484      1.00000
     61      -9.2038      1.00000
     62      -9.1848      1.00000
     63      -9.0494      1.00000
     64      -8.8269      1.00000
     65      -8.7881      1.00000
     66      -8.7180      1.00000
     67      -8.6045      1.00000
     68      -8.5393      1.00000
     69      -8.4725      1.00000
     70      -8.3542      1.00000
     71      -8.3286      1.00000
     72      -8.2470      1.00000
     73      -8.1921      1.00000
     74      -8.0289      1.00000
     75      -7.8140      1.00000
     76      -7.5516      1.00000
     77      -7.4905      1.00000
     78      -7.2692      1.00000
     79      -7.0628      1.00000
     80      -7.0475      1.00000
     81      -6.9307      1.00000
     82      -6.8878      1.00000
     83      -6.8004      1.00000
     84      -6.5939      1.00000
     85      -6.3324      1.00000
     86      -6.2654      1.00000
     87      -6.1789      1.00000
     88      -6.1249      1.00000
     89      -5.8374      1.00000
     90      -5.7088      1.00000
     91      -5.6204      1.00000
     92      -5.5159      1.00000
     93      -5.4551      1.00000
     94      -5.2751      1.00000
     95      -5.2093      1.00000
     96      -5.0866      1.00000
     97      -5.0287      1.00000
     98      -5.0044      1.00000
     99      -4.2622      1.00000
    100      -4.0915      1.00000
    101      -3.7292      1.00000
    102      -3.6196      1.00000
    103      -3.3095      1.00000
    104      -2.7466      0.97011
    105      -1.7272      0.00000
    106      -1.2845      0.00000
    107      -1.0352      0.00000
    108      -0.8836      0.00000
    109      -0.7523      0.00000
    110      -0.6306      0.00000
    111      -0.5771      0.00000
    112      -0.4650      0.00000
    113      -0.0394      0.00000
    114       0.2888      0.00000
    115       0.6899      0.00000
    116       0.7761      0.00000
    117       0.9560      0.00000
    118       1.1293      0.00000
    119       1.3990      0.00000
    120       1.5179      0.00000
    121       1.6003      0.00000
    122       1.6315      0.00000
    123       1.7208      0.00000
    124       1.8198      0.00000
    125       1.9499      0.00000
    126       2.1019      0.00000
    127       2.1171      0.00000
    128       2.1938      0.00000
    129       2.3396      0.00000
    130       2.4795      0.00000
    131       2.5193      0.00000
    132       2.6448      0.00000
    133       2.6685      0.00000
    134       2.7574      0.00000
    135       2.8495      0.00000
    136       2.8767      0.00000
    137       2.9830      0.00000
    138       3.0344      0.00000
    139       3.1479      0.00000
    140       3.2565      0.00000
    141       3.2747      0.00000
    142       3.3982      0.00000
    143       3.4660      0.00000
    144       3.4832      0.00000
    145       3.5179      0.00000
    146       3.5875      0.00000
    147       3.6574      0.00000
    148       3.6891      0.00000
    149       3.7030      0.00000
    150       3.7866      0.00000
    151       3.8528      0.00000
    152       3.8630      0.00000
    153       3.9183      0.00000
    154       3.9863      0.00000
    155       4.1784      0.00000
    156       4.1865      0.00000
    157       4.2013      0.00000
    158       4.2353      0.00000
    159       4.2861      0.00000
    160       4.3182      0.00000
    161       4.3954      0.00000
    162       4.5177      0.00000
    163       4.5505      0.00000
    164       4.5618      0.00000
    165       4.6193      0.00000
    166       4.6460      0.00000
    167       4.7059      0.00000
    168       4.7345      0.00000
    169       4.7809      0.00000
    170       4.9523      0.00000
    171       4.9764      0.00000
    172       5.0179      0.00000
    173       5.0497      0.00000
    174       5.0765      0.00000
    175       5.0996      0.00000
    176       5.1169      0.00000
    177       5.1345      0.00000
    178       5.2027      0.00000
    179       5.2671      0.00000
    180       5.2966      0.00000
    181       5.3301      0.00000
    182       5.4718      0.00000
    183       5.4995      0.00000
    184       5.5218      0.00000
    185       5.5422      0.00000
    186       5.5652      0.00000
    187       5.5710      0.00000
    188       5.5994      0.00000
    189       5.6102      0.00000
    190       5.6326      0.00000
    191       5.6554      0.00000
    192       5.6902      0.00000
    193       5.6995      0.00000
    194       5.8082      0.00000
    195       5.8196      0.00000
    196       5.8476      0.00000
    197       5.8781      0.00000
    198       5.8932      0.00000
    199       6.0008      0.00000
    200       6.0149      0.00000
    201       6.0581      0.00000
    202       6.0832      0.00000
    203       6.0865      0.00000
    204       6.1252      0.00000
    205       6.1718      0.00000
    206       6.2129      0.00000
    207       6.2556      0.00000
    208       6.3330      0.00000
    209       6.3636      0.00000
    210       6.3759      0.00000
    211       6.4888      0.00000
    212       6.5507      0.00000
    213       6.5922      0.00000
    214       6.6398      0.00000
    215       6.6541      0.00000
    216       6.7060      0.00000
    217       6.7338      0.00000
    218       6.8128      0.00000
    219       6.8864      0.00000
    220       6.9222      0.00000
    221       7.0183      0.00000
    222       7.0327      0.00000
    223       7.0648      0.00000
    224       7.0718      0.00000
    225       7.1613      0.00000
    226       7.2090      0.00000
    227       7.2205      0.00000
    228       7.2683      0.00000
    229       7.3068      0.00000
    230       7.3822      0.00000
    231       7.4157      0.00000
    232       7.5357      0.00000
    233       7.5555      0.00000
    234       7.6213      0.00000
    235       7.6872      0.00000
    236       7.7137      0.00000
    237       7.7378      0.00000
    238       7.8842      0.00000
    239       7.9250      0.00000
    240       7.9623      0.00000
    241       8.0844      0.00000
    242       8.1724      0.00000
    243       8.2290      0.00000
    244       8.2968      0.00000
    245       8.4049      0.00000
    246       8.4236      0.00000
    247       8.4523      0.00000
    248       8.4662      0.00000
    249       8.7328      0.00000
    250       8.7805      0.00000
    251       8.8890      0.00000
    252       8.9793      0.00000
    253       9.0862      0.00000
    254       9.2921      0.00000
    255       9.5306      0.00000
    256       9.7415      0.00000

 k-point    10 :       0.2000    0.4000    0.0000
  band No.  band energies     occupation 
      1     -22.9445      1.00000
      2     -22.7608      1.00000
      3     -22.5124      1.00000
      4     -22.1699      1.00000
      5     -21.6290      1.00000
      6     -21.4173      1.00000
      7     -21.1098      1.00000
      8     -20.5691      1.00000
      9     -20.4653      1.00000
     10     -20.1861      1.00000
     11     -19.8971      1.00000
     12     -19.8473      1.00000
     13     -19.4288      1.00000
     14     -18.8135      1.00000
     15     -18.6291      1.00000
     16     -18.3428      1.00000
     17     -18.1737      1.00000
     18     -18.0521      1.00000
     19     -17.8772      1.00000
     20     -17.4628      1.00000
     21     -17.3472      1.00000
     22     -17.2325      1.00000
     23     -17.0245      1.00000
     24     -16.3948      1.00000
     25     -15.9820      1.00000
     26     -15.9543      1.00000
     27     -15.6101      1.00000
     28     -15.4733      1.00000
     29     -14.7478      1.00000
     30     -14.5538      1.00000
     31     -14.4626      1.00000
     32     -14.0928      1.00000
     33     -13.9766      1.00000
     34     -13.8267      1.00000
     35     -13.7364      1.00000
     36     -13.5021      1.00000
     37     -13.1465      1.00000
     38     -12.8264      1.00000
     39     -12.4769      1.00000
     40     -12.2358      1.00000
     41     -12.1114      1.00000
     42     -11.9501      1.00000
     43     -11.7923      1.00000
     44     -11.7531      1.00000
     45     -11.3280      1.00000
     46     -11.2186      1.00000
     47     -10.8174      1.00000
     48     -10.7527      1.00000
     49     -10.3965      1.00000
     50     -10.1492      1.00000
     51     -10.1313      1.00000
     52     -10.0705      1.00000
     53     -10.0296      1.00000
     54      -9.9461      1.00000
     55      -9.8619      1.00000
     56      -9.8285      1.00000
     57      -9.7313      1.00000
     58      -9.5065      1.00000
     59      -9.3926      1.00000
     60      -9.3026      1.00000
     61      -9.2433      1.00000
     62      -9.1048      1.00000
     63      -8.9566      1.00000
     64      -8.8915      1.00000
     65      -8.8749      1.00000
     66      -8.7291      1.00000
     67      -8.7000      1.00000
     68      -8.5144      1.00000
     69      -8.5071      1.00000
     70      -8.4127      1.00000
     71      -8.3188      1.00000
     72      -8.0987      1.00000
     73      -8.0648      1.00000
     74      -7.9208      1.00000
     75      -7.8848      1.00000
     76      -7.6471      1.00000
     77      -7.4959      1.00000
     78      -7.4466      1.00000
     79      -7.2930      1.00000
     80      -7.2208      1.00000
     81      -6.9500      1.00000
     82      -6.7882      1.00000
     83      -6.5783      1.00000
     84      -6.3878      1.00000
     85      -6.3363      1.00000
     86      -6.2981      1.00000
     87      -6.1260      1.00000
     88      -6.0294      1.00000
     89      -5.7773      1.00000
     90      -5.6833      1.00000
     91      -5.6404      1.00000
     92      -5.5762      1.00000
     93      -5.5573      1.00000
     94      -5.3031      1.00000
     95      -5.1530      1.00000
     96      -5.0757      1.00000
     97      -5.0385      1.00000
     98      -4.9991      1.00000
     99      -4.4719      1.00000
    100      -4.2503      1.00000
    101      -3.7138      1.00000
    102      -3.3733      1.00000
    103      -3.2931      1.00000
    104      -2.7932      0.99448
    105      -1.8898      0.00000
    106      -1.1557      0.00000
    107      -1.0035      0.00000
    108      -0.9206      0.00000
    109      -0.8036      0.00000
    110      -0.5177      0.00000
    111      -0.3906      0.00000
    112      -0.2701      0.00000
    113      -0.0079      0.00000
    114       0.1303      0.00000
    115       0.2989      0.00000
    116       0.7962      0.00000
    117       0.8352      0.00000
    118       1.0026      0.00000
    119       1.2148      0.00000
    120       1.3899      0.00000
    121       1.6240      0.00000
    122       1.7690      0.00000
    123       1.8456      0.00000
    124       1.9641      0.00000
    125       2.0173      0.00000
    126       2.1012      0.00000
    127       2.2752      0.00000
    128       2.2816      0.00000
    129       2.3282      0.00000
    130       2.4760      0.00000
    131       2.5251      0.00000
    132       2.7164      0.00000
    133       2.8766      0.00000
    134       2.8850      0.00000
    135       2.9766      0.00000
    136       3.0097      0.00000
    137       3.0663      0.00000
    138       3.1147      0.00000
    139       3.1471      0.00000
    140       3.1702      0.00000
    141       3.2569      0.00000
    142       3.2853      0.00000
    143       3.3700      0.00000
    144       3.3810      0.00000
    145       3.3909      0.00000
    146       3.4176      0.00000
    147       3.5673      0.00000
    148       3.5947      0.00000
    149       3.6206      0.00000
    150       3.7022      0.00000
    151       3.8635      0.00000
    152       3.9277      0.00000
    153       3.9545      0.00000
    154       3.9679      0.00000
    155       4.1095      0.00000
    156       4.2251      0.00000
    157       4.2504      0.00000
    158       4.3216      0.00000
    159       4.3746      0.00000
    160       4.4019      0.00000
    161       4.4170      0.00000
    162       4.4605      0.00000
    163       4.5432      0.00000
    164       4.5921      0.00000
    165       4.6387      0.00000
    166       4.6537      0.00000
    167       4.6870      0.00000
    168       4.7235      0.00000
    169       4.7658      0.00000
    170       4.8642      0.00000
    171       4.9176      0.00000
    172       4.9520      0.00000
    173       5.0343      0.00000
    174       5.0753      0.00000
    175       5.1460      0.00000
    176       5.1780      0.00000
    177       5.1812      0.00000
    178       5.2071      0.00000
    179       5.2340      0.00000
    180       5.2520      0.00000
    181       5.2879      0.00000
    182       5.3353      0.00000
    183       5.3815      0.00000
    184       5.4349      0.00000
    185       5.4782      0.00000
    186       5.4944      0.00000
    187       5.5291      0.00000
    188       5.5578      0.00000
    189       5.6300      0.00000
    190       5.6682      0.00000
    191       5.6926      0.00000
    192       5.7087      0.00000
    193       5.7880      0.00000
    194       5.8177      0.00000
    195       5.8310      0.00000
    196       5.8549      0.00000
    197       5.8954      0.00000
    198       5.9277      0.00000
    199       5.9802      0.00000
    200       5.9893      0.00000
    201       6.0163      0.00000
    202       6.0625      0.00000
    203       6.0849      0.00000
    204       6.1490      0.00000
    205       6.1526      0.00000
    206       6.1854      0.00000
    207       6.2809      0.00000
    208       6.3005      0.00000
    209       6.3279      0.00000
    210       6.3754      0.00000
    211       6.4097      0.00000
    212       6.4183      0.00000
    213       6.4718      0.00000
    214       6.5022      0.00000
    215       6.5282      0.00000
    216       6.5370      0.00000
    217       6.5910      0.00000
    218       6.6278      0.00000
    219       6.6830      0.00000
    220       6.7502      0.00000
    221       6.7765      0.00000
    222       6.8338      0.00000
    223       6.8589      0.00000
    224       6.9188      0.00000
    225       6.9499      0.00000
    226       7.0232      0.00000
    227       7.0915      0.00000
    228       7.1055      0.00000
    229       7.1422      0.00000
    230       7.1989      0.00000
    231       7.2575      0.00000
    232       7.2774      0.00000
    233       7.3456      0.00000
    234       7.4347      0.00000
    235       7.4900      0.00000
    236       7.4905      0.00000
    237       7.5822      0.00000
    238       7.6097      0.00000
    239       7.7061      0.00000
    240       7.7589      0.00000
    241       7.8203      0.00000
    242       7.8226      0.00000
    243       7.8661      0.00000
    244       7.9336      0.00000
    245       7.9437      0.00000
    246       8.0728      0.00000
    247       8.1276      0.00000
    248       8.1406      0.00000
    249       8.2611      0.00000
    250       8.3417      0.00000
    251       8.3655      0.00000
    252       8.5236      0.00000
    253       8.6512      0.00000
    254       8.7820      0.00000
    255       9.0170      0.00000
    256       9.1834      0.00000

 k-point    11 :       0.4000    0.4000    0.0000
  band No.  band energies     occupation 
      1     -22.9466      1.00000
      2     -22.7408      1.00000
      3     -22.5541      1.00000
      4     -22.1235      1.00000
      5     -21.6512      1.00000
      6     -21.4630      1.00000
      7     -21.0472      1.00000
      8     -20.5824      1.00000
      9     -20.3920      1.00000
     10     -20.1492      1.00000
     11     -20.0265      1.00000
     12     -19.9584      1.00000
     13     -19.3079      1.00000
     14     -18.8176      1.00000
     15     -18.5584      1.00000
     16     -18.3871      1.00000
     17     -18.1847      1.00000
     18     -17.9647      1.00000
     19     -17.8679      1.00000
     20     -17.5107      1.00000
     21     -17.3009      1.00000
     22     -17.2688      1.00000
     23     -17.0711      1.00000
     24     -16.6314      1.00000
     25     -15.9932      1.00000
     26     -15.8367      1.00000
     27     -15.6302      1.00000
     28     -15.2548      1.00000
     29     -14.7903      1.00000
     30     -14.4796      1.00000
     31     -14.2504      1.00000
     32     -14.1978      1.00000
     33     -13.9675      1.00000
     34     -13.9638      1.00000
     35     -13.8133      1.00000
     36     -13.5116      1.00000
     37     -13.1741      1.00000
     38     -12.8101      1.00000
     39     -12.6613      1.00000
     40     -12.2783      1.00000
     41     -12.1497      1.00000
     42     -11.8444      1.00000
     43     -11.8259      1.00000
     44     -11.4333      1.00000
     45     -11.4279      1.00000
     46     -11.2500      1.00000
     47     -10.9215      1.00000
     48     -10.4690      1.00000
     49     -10.4058      1.00000
     50     -10.1042      1.00000
     51     -10.0832      1.00000
     52     -10.0710      1.00000
     53     -10.0408      1.00000
     54      -9.9650      1.00000
     55      -9.9112      1.00000
     56      -9.8612      1.00000
     57      -9.6985      1.00000
     58      -9.6869      1.00000
     59      -9.4782      1.00000
     60      -9.3363      1.00000
     61      -9.2452      1.00000
     62      -9.1571      1.00000
     63      -8.9554      1.00000
     64      -8.9005      1.00000
     65      -8.8457      1.00000
     66      -8.8172      1.00000
     67      -8.6883      1.00000
     68      -8.4528      1.00000
     69      -8.3854      1.00000
     70      -8.3423      1.00000
     71      -8.1798      1.00000
     72      -8.1183      1.00000
     73      -8.0527      1.00000
     74      -7.9907      1.00000
     75      -7.8258      1.00000
     76      -7.6489      1.00000
     77      -7.6354      1.00000
     78      -7.3756      1.00000
     79      -7.3706      1.00000
     80      -7.0686      1.00000
     81      -6.9698      1.00000
     82      -6.7337      1.00000
     83      -6.6581      1.00000
     84      -6.6031      1.00000
     85      -6.4512      1.00000
     86      -6.2002      1.00000
     87      -6.1434      1.00000
     88      -5.9503      1.00000
     89      -5.7520      1.00000
     90      -5.7336      1.00000
     91      -5.5771      1.00000
     92      -5.5751      1.00000
     93      -5.4899      1.00000
     94      -5.3031      1.00000
     95      -5.1737      1.00000
     96      -5.0456      1.00000
     97      -5.0099      1.00000
     98      -4.9961      1.00000
     99      -4.5848      1.00000
    100      -4.2558      1.00000
    101      -3.6954      1.00000
    102      -3.5350      1.00000
    103      -3.3357      1.00000
    104      -2.3277      0.00003
    105      -2.0823      0.00000
    106      -1.1097      0.00000
    107      -1.0697      0.00000
    108      -0.9626      0.00000
    109      -0.7552      0.00000
    110      -0.6207      0.00000
    111      -0.3381      0.00000
    112      -0.2936      0.00000
    113       0.0688      0.00000
    114       0.0911      0.00000
    115       0.2798      0.00000
    116       0.7431      0.00000
    117       0.8517      0.00000
    118       0.9833      0.00000
    119       1.3549      0.00000
    120       1.3630      0.00000
    121       1.6337      0.00000
    122       1.7621      0.00000
    123       1.8326      0.00000
    124       1.9611      0.00000
    125       2.0209      0.00000
    126       2.1061      0.00000
    127       2.2828      0.00000
    128       2.3109      0.00000
    129       2.3450      0.00000
    130       2.5047      0.00000
    131       2.6145      0.00000
    132       2.6364      0.00000
    133       2.7430      0.00000
    134       2.8974      0.00000
    135       3.0036      0.00000
    136       3.0046      0.00000
    137       3.0623      0.00000
    138       3.1008      0.00000
    139       3.1533      0.00000
    140       3.1758      0.00000
    141       3.2664      0.00000
    142       3.2679      0.00000
    143       3.3754      0.00000
    144       3.3808      0.00000
    145       3.3913      0.00000
    146       3.4307      0.00000
    147       3.5605      0.00000
    148       3.5944      0.00000
    149       3.6188      0.00000
    150       3.6751      0.00000
    151       3.8782      0.00000
    152       3.8924      0.00000
    153       3.9569      0.00000
    154       3.9647      0.00000
    155       4.1965      0.00000
    156       4.2047      0.00000
    157       4.2611      0.00000
    158       4.2773      0.00000
    159       4.3906      0.00000
    160       4.4007      0.00000
    161       4.4181      0.00000
    162       4.4525      0.00000
    163       4.5349      0.00000
    164       4.6335      0.00000
    165       4.6438      0.00000
    166       4.6501      0.00000
    167       4.7272      0.00000
    168       4.7614      0.00000
    169       4.8267      0.00000
    170       4.8864      0.00000
    171       4.8875      0.00000
    172       5.0286      0.00000
    173       5.0399      0.00000
    174       5.0959      0.00000
    175       5.1201      0.00000
    176       5.1289      0.00000
    177       5.1463      0.00000
    178       5.2071      0.00000
    179       5.2541      0.00000
    180       5.2620      0.00000
    181       5.3013      0.00000
    182       5.3532      0.00000
    183       5.3656      0.00000
    184       5.4111      0.00000
    185       5.4714      0.00000
    186       5.4952      0.00000
    187       5.5026      0.00000
    188       5.5355      0.00000
    189       5.5969      0.00000
    190       5.6334      0.00000
    191       5.6812      0.00000
    192       5.6957      0.00000
    193       5.7366      0.00000
    194       5.7760      0.00000
    195       5.8142      0.00000
    196       5.8764      0.00000
    197       5.9105      0.00000
    198       5.9545      0.00000
    199       5.9593      0.00000
    200       5.9637      0.00000
    201       5.9916      0.00000
    202       6.0268      0.00000
    203       6.0755      0.00000
    204       6.0886      0.00000
    205       6.1009      0.00000
    206       6.1456      0.00000
    207       6.1724      0.00000
    208       6.2773      0.00000
    209       6.3048      0.00000
    210       6.3565      0.00000
    211       6.3789      0.00000
    212       6.3924      0.00000
    213       6.4344      0.00000
    214       6.4867      0.00000
    215       6.5032      0.00000
    216       6.5368      0.00000
    217       6.5645      0.00000
    218       6.6082      0.00000
    219       6.6104      0.00000
    220       6.7020      0.00000
    221       6.7403      0.00000
    222       6.7805      0.00000
    223       6.8117      0.00000
    224       6.8153      0.00000
    225       6.8803      0.00000
    226       6.9165      0.00000
    227       6.9458      0.00000
    228       6.9628      0.00000
    229       7.0054      0.00000
    230       7.0903      0.00000
    231       7.1745      0.00000
    232       7.1768      0.00000
    233       7.2591      0.00000
    234       7.2728      0.00000
    235       7.3209      0.00000
    236       7.3986      0.00000
    237       7.4259      0.00000
    238       7.4420      0.00000
    239       7.5084      0.00000
    240       7.5399      0.00000
    241       7.5548      0.00000
    242       7.5725      0.00000
    243       7.5733      0.00000
    244       7.5881      0.00000
    245       7.6060      0.00000
    246       7.6938      0.00000
    247       7.7233      0.00000
    248       7.8748      0.00000
    249       7.9233      0.00000
    250       7.9260      0.00000
    251       7.9574      0.00000
    252       8.0007      0.00000
    253       8.0253      0.00000
    254       8.0974      0.00000
    255       8.3005      0.00000
    256       8.3402      0.00000

 k-point    12 :      -0.4000    0.4000    0.0000
  band No.  band energies     occupation 
      1     -22.9567      1.00000
      2     -22.7246      1.00000
      3     -22.5566      1.00000
      4     -22.1113      1.00000
      5     -21.6632      1.00000
      6     -21.4970      1.00000
      7     -20.9821      1.00000
      8     -20.6966      1.00000
      9     -20.3959      1.00000
     10     -20.1147      1.00000
     11     -20.0151      1.00000
     12     -19.8433      1.00000
     13     -19.1761      1.00000
     14     -18.8987      1.00000
     15     -18.8527      1.00000
     16     -18.4270      1.00000
     17     -18.1844      1.00000
     18     -17.7676      1.00000
     19     -17.7500      1.00000
     20     -17.5279      1.00000
     21     -17.4280      1.00000
     22     -17.3427      1.00000
     23     -16.9433      1.00000
     24     -16.7489      1.00000
     25     -15.9948      1.00000
     26     -15.4692      1.00000
     27     -15.4212      1.00000
     28     -15.1439      1.00000
     29     -15.0424      1.00000
     30     -14.8909      1.00000
     31     -14.5952      1.00000
     32     -14.2963      1.00000
     33     -14.1378      1.00000
     34     -13.6664      1.00000
     35     -13.5728      1.00000
     36     -13.1397      1.00000
     37     -12.9543      1.00000
     38     -12.9217      1.00000
     39     -12.7893      1.00000
     40     -12.5657      1.00000
     41     -12.5285      1.00000
     42     -11.7257      1.00000
     43     -11.5356      1.00000
     44     -11.2968      1.00000
     45     -11.2631      1.00000
     46     -11.0485      1.00000
     47     -10.9104      1.00000
     48     -10.7660      1.00000
     49     -10.4450      1.00000
     50     -10.2121      1.00000
     51     -10.1390      1.00000
     52     -10.1121      1.00000
     53      -9.9951      1.00000
     54      -9.9858      1.00000
     55      -9.8379      1.00000
     56      -9.8007      1.00000
     57      -9.7516      1.00000
     58      -9.5861      1.00000
     59      -9.4983      1.00000
     60      -9.4064      1.00000
     61      -9.3379      1.00000
     62      -9.2859      1.00000
     63      -8.9645      1.00000
     64      -8.9248      1.00000
     65      -8.8245      1.00000
     66      -8.7025      1.00000
     67      -8.6372      1.00000
     68      -8.5349      1.00000
     69      -8.4672      1.00000
     70      -8.3207      1.00000
     71      -8.2137      1.00000
     72      -8.1666      1.00000
     73      -8.0291      1.00000
     74      -7.9732      1.00000
     75      -7.6283      1.00000
     76      -7.6020      1.00000
     77      -7.4998      1.00000
     78      -7.3357      1.00000
     79      -7.2993      1.00000
     80      -7.0635      1.00000
     81      -6.9612      1.00000
     82      -6.7906      1.00000
     83      -6.7585      1.00000
     84      -6.5915      1.00000
     85      -6.4377      1.00000
     86      -6.4296      1.00000
     87      -6.3040      1.00000
     88      -5.9359      1.00000
     89      -5.7857      1.00000
     90      -5.7583      1.00000
     91      -5.5727      1.00000
     92      -5.4726      1.00000
     93      -5.4324      1.00000
     94      -5.2531      1.00000
     95      -5.2038      1.00000
     96      -5.0414      1.00000
     97      -5.0388      1.00000
     98      -4.9925      1.00000
     99      -4.2697      1.00000
    100      -4.1806      1.00000
    101      -3.9756      1.00000
    102      -3.6114      1.00000
    103      -3.3082      1.00000
    104      -2.1781      0.00000
    105      -1.8682      0.00000
    106      -1.5008      0.00000
    107      -1.0138      0.00000
    108      -0.9324      0.00000
    109      -0.6914      0.00000
    110      -0.6412      0.00000
    111      -0.5654      0.00000
    112      -0.4457      0.00000
    113      -0.0669      0.00000
    114       0.3765      0.00000
    115       0.4005      0.00000
    116       0.7962      0.00000
    117       1.1081      0.00000
    118       1.2643      0.00000
    119       1.3845      0.00000
    120       1.4963      0.00000
    121       1.5391      0.00000
    122       1.7059      0.00000
    123       1.7356      0.00000
    124       1.8180      0.00000
    125       1.9355      0.00000
    126       2.1062      0.00000
    127       2.1375      0.00000
    128       2.1732      0.00000
    129       2.3725      0.00000
    130       2.4447      0.00000
    131       2.5342      0.00000
    132       2.6416      0.00000
    133       2.6795      0.00000
    134       2.7603      0.00000
    135       2.8684      0.00000
    136       2.9231      0.00000
    137       2.9402      0.00000
    138       3.0443      0.00000
    139       3.1465      0.00000
    140       3.2499      0.00000
    141       3.2528      0.00000
    142       3.3259      0.00000
    143       3.4264      0.00000
    144       3.4743      0.00000
    145       3.5102      0.00000
    146       3.5979      0.00000
    147       3.6934      0.00000
    148       3.6973      0.00000
    149       3.7211      0.00000
    150       3.7638      0.00000
    151       3.8494      0.00000
    152       3.8677      0.00000
    153       3.9252      0.00000
    154       3.9629      0.00000
    155       4.1213      0.00000
    156       4.1928      0.00000
    157       4.2059      0.00000
    158       4.2191      0.00000
    159       4.2458      0.00000
    160       4.2903      0.00000
    161       4.5196      0.00000
    162       4.5288      0.00000
    163       4.5599      0.00000
    164       4.6325      0.00000
    165       4.6707      0.00000
    166       4.6741      0.00000
    167       4.7479      0.00000
    168       4.8000      0.00000
    169       4.9368      0.00000
    170       4.9677      0.00000
    171       5.0063      0.00000
    172       5.0446      0.00000
    173       5.0859      0.00000
    174       5.0961      0.00000
    175       5.1226      0.00000
    176       5.1264      0.00000
    177       5.1896      0.00000
    178       5.2282      0.00000
    179       5.2360      0.00000
    180       5.2980      0.00000
    181       5.3496      0.00000
    182       5.4127      0.00000
    183       5.4838      0.00000
    184       5.5062      0.00000
    185       5.5290      0.00000
    186       5.5534      0.00000
    187       5.5791      0.00000
    188       5.5948      0.00000
    189       5.6418      0.00000
    190       5.6640      0.00000
    191       5.6792      0.00000
    192       5.7461      0.00000
    193       5.7568      0.00000
    194       5.8226      0.00000
    195       5.8560      0.00000
    196       5.9513      0.00000
    197       5.9767      0.00000
    198       6.0129      0.00000
    199       6.0683      0.00000
    200       6.0908      0.00000
    201       6.1009      0.00000
    202       6.1604      0.00000
    203       6.3075      0.00000
    204       6.3103      0.00000
    205       6.4115      0.00000
    206       6.4464      0.00000
    207       6.4929      0.00000
    208       6.6221      0.00000
    209       6.6518      0.00000
    210       6.6542      0.00000
    211       6.7089      0.00000
    212       6.8048      0.00000
    213       6.8315      0.00000
    214       6.8634      0.00000
    215       6.9357      0.00000
    216       7.0396      0.00000
    217       7.1144      0.00000
    218       7.1196      0.00000
    219       7.1632      0.00000
    220       7.2258      0.00000
    221       7.2302      0.00000
    222       7.2900      0.00000
    223       7.3822      0.00000
    224       7.3962      0.00000
    225       7.4378      0.00000
    226       7.5497      0.00000
    227       7.5984      0.00000
    228       7.6678      0.00000
    229       7.7863      0.00000
    230       7.8314      0.00000
    231       7.9061      0.00000
    232       7.9766      0.00000
    233       8.0622      0.00000
    234       8.0836      0.00000
    235       8.1667      0.00000
    236       8.1705      0.00000
    237       8.2148      0.00000
    238       8.3205      0.00000
    239       8.5383      0.00000
    240       8.5862      0.00000
    241       8.6019      0.00000
    242       8.6385      0.00000
    243       8.8029      0.00000
    244       8.8041      0.00000
    245       8.8181      0.00000
    246       8.8764      0.00000
    247       8.8862      0.00000
    248       9.1460      0.00000
    249       9.2978      0.00000
    250       9.3991      0.00000
    251       9.5775      0.00000
    252       9.5862      0.00000
    253       9.8056      0.00000
    254      10.4894      0.00000
    255      10.6874      0.00000
    256      11.1448      0.00000

 k-point    13 :      -0.2000    0.4000    0.0000
  band No.  band energies     occupation 
      1     -22.9614      1.00000
      2     -22.7345      1.00000
      3     -22.5185      1.00000
      4     -22.1491      1.00000
      5     -21.6439      1.00000
      6     -21.4803      1.00000
      7     -21.0231      1.00000
      8     -20.7449      1.00000
      9     -20.3785      1.00000
     10     -20.1881      1.00000
     11     -19.8339      1.00000
     12     -19.7056      1.00000
     13     -19.3750      1.00000
     14     -18.8738      1.00000
     15     -18.8228      1.00000
     16     -18.5037      1.00000
     17     -18.2633      1.00000
     18     -17.8807      1.00000
     19     -17.7699      1.00000
     20     -17.5630      1.00000
     21     -17.4097      1.00000
     22     -17.0992      1.00000
     23     -16.9257      1.00000
     24     -16.5433      1.00000
     25     -15.9319      1.00000
     26     -15.6113      1.00000
     27     -15.4871      1.00000
     28     -15.3740      1.00000
     29     -14.9366      1.00000
     30     -14.7885      1.00000
     31     -14.6340      1.00000
     32     -14.4219      1.00000
     33     -14.2611      1.00000
     34     -13.6938      1.00000
     35     -13.3898      1.00000
     36     -13.1811      1.00000
     37     -13.0120      1.00000
     38     -12.8884      1.00000
     39     -12.7920      1.00000
     40     -12.4005      1.00000
     41     -11.9972      1.00000
     42     -11.9683      1.00000
     43     -11.7795      1.00000
     44     -11.4736      1.00000
     45     -11.1806      1.00000
     46     -11.1650      1.00000
     47     -10.6554      1.00000
     48     -10.5777      1.00000
     49     -10.5643      1.00000
     50     -10.4112      1.00000
     51     -10.2608      1.00000
     52     -10.2289      1.00000
     53     -10.0064      1.00000
     54      -9.8741      1.00000
     55      -9.8141      1.00000
     56      -9.7346      1.00000
     57      -9.6942      1.00000
     58      -9.5280      1.00000
     59      -9.4496      1.00000
     60      -9.4266      1.00000
     61      -9.2689      1.00000
     62      -9.1511      1.00000
     63      -9.1189      1.00000
     64      -8.9735      1.00000
     65      -8.8826      1.00000
     66      -8.7766      1.00000
     67      -8.6332      1.00000
     68      -8.5575      1.00000
     69      -8.5222      1.00000
     70      -8.3525      1.00000
     71      -8.2318      1.00000
     72      -8.0984      1.00000
     73      -7.8972      1.00000
     74      -7.8849      1.00000
     75      -7.8258      1.00000
     76      -7.6391      1.00000
     77      -7.3960      1.00000
     78      -7.3561      1.00000
     79      -7.2576      1.00000
     80      -7.1779      1.00000
     81      -6.8458      1.00000
     82      -6.8068      1.00000
     83      -6.7690      1.00000
     84      -6.5254      1.00000
     85      -6.3486      1.00000
     86      -6.3138      1.00000
     87      -6.1862      1.00000
     88      -6.1086      1.00000
     89      -5.9935      1.00000
     90      -5.7833      1.00000
     91      -5.7193      1.00000
     92      -5.5754      1.00000
     93      -5.4226      1.00000
     94      -5.3042      1.00000
     95      -5.0798      1.00000
     96      -5.0484      1.00000
     97      -5.0232      1.00000
     98      -4.5861      1.00000
     99      -4.4387      1.00000
    100      -4.2725      1.00000
    101      -3.7586      1.00000
    102      -3.6297      1.00000
    103      -3.2976      1.00000
    104      -2.4398      0.00703
    105      -1.8839      0.00000
    106      -1.1965      0.00000
    107      -1.0592      0.00000
    108      -1.0034      0.00000
    109      -0.8577      0.00000
    110      -0.7288      0.00000
    111      -0.6147      0.00000
    112      -0.4079      0.00000
    113       0.2221      0.00000
    114       0.3587      0.00000
    115       0.7214      0.00000
    116       0.7781      0.00000
    117       0.9520      0.00000
    118       1.1406      0.00000
    119       1.2156      0.00000
    120       1.3663      0.00000
    121       1.5932      0.00000
    122       1.7957      0.00000
    123       1.7976      0.00000
    124       1.8680      0.00000
    125       1.9717      0.00000
    126       1.9843      0.00000
    127       2.2120      0.00000
    128       2.2823      0.00000
    129       2.3348      0.00000
    130       2.3604      0.00000
    131       2.6169      0.00000
    132       2.6193      0.00000
    133       2.6813      0.00000
    134       2.7409      0.00000
    135       2.7489      0.00000
    136       2.8199      0.00000
    137       3.0349      0.00000
    138       3.1087      0.00000
    139       3.1389      0.00000
    140       3.1802      0.00000
    141       3.2222      0.00000
    142       3.2521      0.00000
    143       3.3725      0.00000
    144       3.4901      0.00000
    145       3.5300      0.00000
    146       3.5670      0.00000
    147       3.5850      0.00000
    148       3.6824      0.00000
    149       3.7067      0.00000
    150       3.7564      0.00000
    151       3.8665      0.00000
    152       3.9193      0.00000
    153       3.9722      0.00000
    154       3.9943      0.00000
    155       4.1055      0.00000
    156       4.1542      0.00000
    157       4.1788      0.00000
    158       4.2053      0.00000
    159       4.3324      0.00000
    160       4.4073      0.00000
    161       4.4622      0.00000
    162       4.4814      0.00000
    163       4.6114      0.00000
    164       4.6520      0.00000
    165       4.7382      0.00000
    166       4.7795      0.00000
    167       4.8025      0.00000
    168       4.8795      0.00000
    169       4.9304      0.00000
    170       4.9598      0.00000
    171       4.9803      0.00000
    172       5.0104      0.00000
    173       5.0432      0.00000
    174       5.0708      0.00000
    175       5.1009      0.00000
    176       5.1160      0.00000
    177       5.1896      0.00000
    178       5.2326      0.00000
    179       5.2620      0.00000
    180       5.3026      0.00000
    181       5.3313      0.00000
    182       5.3454      0.00000
    183       5.3586      0.00000
    184       5.4161      0.00000
    185       5.4692      0.00000
    186       5.4966      0.00000
    187       5.4967      0.00000
    188       5.5105      0.00000
    189       5.5236      0.00000
    190       5.6145      0.00000
    191       5.6802      0.00000
    192       5.7156      0.00000
    193       5.8074      0.00000
    194       5.8423      0.00000
    195       5.8715      0.00000
    196       5.9146      0.00000
    197       6.0099      0.00000
    198       6.0131      0.00000
    199       6.0305      0.00000
    200       6.0573      0.00000
    201       6.0828      0.00000
    202       6.0876      0.00000
    203       6.1064      0.00000
    204       6.1728      0.00000
    205       6.2473      0.00000
    206       6.2550      0.00000
    207       6.3658      0.00000
    208       6.4755      0.00000
    209       6.5230      0.00000
    210       6.5425      0.00000
    211       6.5568      0.00000
    212       6.6363      0.00000
    213       6.7101      0.00000
    214       6.7567      0.00000
    215       6.7797      0.00000
    216       6.8086      0.00000
    217       6.8399      0.00000
    218       6.9395      0.00000
    219       7.0502      0.00000
    220       7.0540      0.00000
    221       7.0769      0.00000
    222       7.1533      0.00000
    223       7.1930      0.00000
    224       7.2444      0.00000
    225       7.2678      0.00000
    226       7.3165      0.00000
    227       7.3975      0.00000
    228       7.5776      0.00000
    229       7.6584      0.00000
    230       7.6790      0.00000
    231       7.7626      0.00000
    232       7.8183      0.00000
    233       7.8422      0.00000
    234       7.8795      0.00000
    235       7.9273      0.00000
    236       7.9719      0.00000
    237       7.9778      0.00000
    238       8.0398      0.00000
    239       8.1455      0.00000
    240       8.1824      0.00000
    241       8.2650      0.00000
    242       8.3399      0.00000
    243       8.4221      0.00000
    244       8.5444      0.00000
    245       8.5968      0.00000
    246       8.6308      0.00000
    247       8.6382      0.00000
    248       8.6536      0.00000
    249       8.8628      0.00000
    250       9.1361      0.00000
    251       9.3406      0.00000
    252       9.4344      0.00000
    253       9.5551      0.00000
    254      10.0024      0.00000
    255      10.1827      0.00000
    256      10.2146      0.00000


--------------------------------------------------------------------------------------------------------


 soft charge-density along one line, spin component           1
         0         1         2         3         4         5         6         7         8         9
 total charge-density along one line
 
 soft charge-density along one line, spin component           2
         0         1         2         3         4         5         6         7         8         9
 total charge-density along one line
 
 pseudopotential strength for first ion, spin component:           1
 10.226   0.019   0.000  -0.000  -0.001   0.000  -0.000  -0.000
  0.019  -0.002  -0.000   0.000   0.000   0.000  -0.000  -0.000
  0.000  -0.000  -4.343  -0.000  -0.000  -0.019  -0.000  -0.000
 -0.000   0.000  -0.000  -4.322   0.000  -0.000  -0.014   0.000
 -0.001   0.000  -0.000   0.000  -4.343  -0.000   0.000  -0.019
  0.000   0.000  -0.019  -0.000  -0.000  -0.772  -0.000  -0.000
 -0.000  -0.000  -0.000  -0.014   0.000  -0.000  -0.772   0.000
 -0.000  -0.000  -0.000   0.000  -0.019  -0.000   0.000  -0.772
 pseudopotential strength for first ion, spin component:           2
 10.226   0.019   0.000  -0.000  -0.001   0.000  -0.000  -0.000
  0.019  -0.002  -0.000   0.000   0.000   0.000  -0.000  -0.000
  0.000  -0.000  -4.343  -0.000  -0.000  -0.019  -0.000  -0.000
 -0.000   0.000  -0.000  -4.322   0.000  -0.000  -0.014   0.000
 -0.001   0.000  -0.000   0.000  -4.343  -0.000   0.000  -0.019
  0.000   0.000  -0.019  -0.000  -0.000  -0.772  -0.000  -0.000
 -0.000  -0.000  -0.000  -0.014   0.000  -0.000  -0.772   0.000
 -0.000  -0.000  -0.000   0.000  -0.019  -0.000   0.000  -0.772
 total augmentation occupancy for first ion, spin component:           1
  1.473  -1.137  -0.006   0.002   0.010  -0.002   0.002   0.004
 -1.137   1.082   0.009  -0.007  -0.016   0.003  -0.002  -0.006
 -0.006   0.009   1.244   0.003   0.013   0.225   0.001   0.001
  0.002  -0.007   0.003   0.927  -0.005   0.001   0.104  -0.002
  0.010  -0.016   0.013  -0.005   1.230   0.001  -0.002   0.224
 -0.002   0.003   0.225   0.001   0.001   0.047   0.000  -0.000
  0.002  -0.002   0.001   0.104  -0.002   0.000   0.013  -0.001
  0.004  -0.006   0.001  -0.002   0.224  -0.000  -0.001   0.047
 total augmentation occupancy for first ion, spin component:           2
 -0.000   0.000   0.000  -0.000   0.000  -0.000  -0.000   0.000
  0.000   0.000   0.000  -0.000   0.000   0.000  -0.000   0.000
  0.000   0.000  -0.000  -0.000   0.000  -0.000   0.000   0.000
 -0.000  -0.000  -0.000  -0.000  -0.000  -0.000  -0.000  -0.000
  0.000   0.000   0.000  -0.000  -0.000  -0.000   0.000   0.000
 -0.000   0.000  -0.000  -0.000  -0.000  -0.000   0.000  -0.000
 -0.000  -0.000   0.000  -0.000   0.000   0.000   0.000   0.000
  0.000   0.000   0.000  -0.000   0.000  -0.000   0.000   0.000


------------------------ aborting loop because EDIFF is reached ----------------------------------------


    FORLOC:  cpu time    0.0094: real time    0.0168
    FORNL :  cpu time    4.7410: real time    4.7799
    STRESS:  cpu time   70.7234: real time   71.3051
    FORCOR:  cpu time    1.9905: real time    1.9974
    OFIELD:  cpu time    0.0013: real time    0.0056

 ---------------------------------------------------------------------------------------------

         DFTD3 V3.0 Rev 1        
 IVDW         = 11
 DF pbe       
 parameters
 VDW_S6       =    1.0000
 VDW_S8       =    0.7220
 VDW_SR       =    1.2170
 rs18     =    1.0000
 alpha6   =   14.0000
 alpha8   =   16.0000
 k1-k3    =   16.0000    1.3333   -4.0000
 VDW_RADIUS   =   50.2022 A
 VDW_CNRADIUS =   21.1671 A
 Edisp (eV)   -1.80888

 E6    (eV) :    -0.9835
 E8    (eV) :    -0.8254
 % E8        : 45.63
    FORVDW:  cpu time    0.0994: real time    0.1137

  FORCE on cell =-STRESS in cart. coord.  units (eV):
  Direction    XX          YY          ZZ          XY          YZ          ZX
  --------------------------------------------------------------------------------------
  Alpha Z    90.35584    90.35584    90.35584
  Ewald   40798.89699 40689.88300-47785.89664   -94.40889     0.05189    -0.08987
  Hartree 40410.67221 40372.28836-39691.02766   -33.24139     0.02379    -0.04121
  E(xc)    -785.42822  -785.92269  -813.63809    -0.42824     0.00009    -0.00015
  Local  -83416.69095-83284.81647 84857.69481   114.20539    -0.07318     0.12675
  n-local  -276.85942  -282.02845  -258.38450    -4.47606     0.00162    -0.00281
  augment    27.49356    27.97045    28.89964     0.41300    -0.00039     0.00068
  Kinetic  3149.79042  3188.44595  3571.66947    33.47787     0.00031    -0.00053
  Fock        0.00000     0.00000     0.00000     0.00000     0.00000     0.00000
  vdW        -0.50957    -0.49514     0.04052     0.01249    -0.00002     0.00003
  -------------------------------------------------------------------------------------
  Total      -2.27914    15.68085    -0.28661    15.55417     0.00411    -0.00711
  in kB      -1.39351     9.58759    -0.17524     9.51014     0.00251    -0.00435
  external pressure =        2.67 kB  Pullay stress =        0.00 kB


 VOLUME and BASIS-vectors are now :
 -----------------------------------------------------------------------------
  energy-cutoff  :      520.00
  volume of cell :     2620.42
      direct lattice vectors                 reciprocal lattice vectors
    12.300000000  0.000000000  0.000000000     0.081300813  0.046939046  0.000000000
    -6.150000000 10.652112467  0.000000000     0.000000000  0.093878093  0.000000000
     0.000000000  0.000000000 20.000000000     0.000000000  0.000000000  0.050000000

  length of vectors
    12.300000000 12.300000000 20.000000000     0.093878093  0.093878093  0.050000000


 FORCES acting on ions:
    Electron-Ion                     Ewald-Force                    Non-Local-Force
 -----------------------------------------------------------------------------------------------
   0.751E+01 -.434E+01 0.320E+02   -.756E+01 0.436E+01 -.320E+02   -.602E-01 0.347E-01 0.505E-01
   0.226E+01 0.485E+01 0.376E+02   -.218E+01 -.504E+01 -.378E+02   -.285E-01 0.189E+00 0.849E-01
   0.304E+01 0.440E+01 0.376E+02   -.323E+01 -.442E+01 -.377E+02   0.190E+00 0.697E-01 0.887E-01
   0.365E+01 0.192E+02 0.359E+02   -.400E+01 -.192E+02 -.360E+02   0.323E+00 -.168E-01 0.149E+00
   -.169E+01 0.155E+02 0.198E+02   0.169E+01 -.157E+02 -.198E+02   0.109E-01 0.164E+00 -.620E-01
   -.153E+02 0.103E+02 0.135E+02   0.156E+02 -.100E+02 -.136E+02   -.315E+00 -.319E+00 0.105E+00
   -.207E+01 0.305E+01 0.106E+02   0.225E+01 -.311E+01 -.106E+02   -.196E+00 0.435E-01 0.242E-01
   -.437E+01 -.391E+01 0.805E+01   0.443E+01 0.402E+01 -.797E+01   -.177E-01 -.139E+00 -.811E-01
   0.518E+01 -.526E+01 0.164E+02   -.528E+01 0.553E+01 -.165E+02   0.447E-01 -.262E+00 0.443E-01
   0.246E+00 -.142E+00 0.212E+02   -.168E+00 0.969E-01 -.212E+02   0.141E-01 -.816E-02 -.187E-01
   0.715E+01 -.186E+01 0.164E+02   -.743E+01 0.181E+01 -.165E+02   0.249E+00 0.923E-01 0.443E-01
   0.142E+02 0.629E+01 0.203E+02   -.143E+02 -.637E+01 -.203E+02   0.146E+00 0.918E-01 -.530E-01
   0.148E+02 0.126E+02 0.362E+02   -.147E+02 -.129E+02 -.364E+02   -.181E+00 0.274E+00 0.155E+00
   0.131E+01 0.466E+02 0.339E+02   -.120E+01 -.496E+02 -.342E+02   -.849E-01 0.299E+01 0.328E+00
   0.398E+02 0.244E+02 0.340E+02   -.424E+02 -.258E+02 -.343E+02   0.264E+01 0.142E+01 0.338E+00
   -.482E+02 0.159E+02 0.794E+01   0.509E+02 -.170E+02 -.821E+01   -.278E+01 0.118E+01 0.291E+00
   -.124E+02 0.715E+01 0.575E-01   0.118E+02 -.681E+01 -.228E-01   0.612E+00 -.353E+00 -.107E-01
   -.268E+01 0.155E+01 0.519E+01   0.225E+01 -.130E+01 -.523E+01   0.410E+00 -.237E+00 0.402E-01
   0.120E+01 0.574E+01 0.805E+01   -.127E+01 -.585E+01 -.797E+01   0.112E+00 0.851E-01 -.811E-01
   -.368E+01 0.264E+00 0.106E+02   0.382E+01 -.390E+00 -.106E+02   -.136E+00 0.148E+00 0.242E-01
   0.358E+01 -.269E+00 0.106E+02   -.371E+01 0.392E+00 -.106E+02   0.138E+00 -.152E+00 0.235E-01
   0.165E+02 -.819E+01 0.138E+02   -.164E+02 0.861E+01 -.139E+02   -.121E+00 -.428E+00 0.103E+00
   0.379E+02 -.338E+02 0.829E+01   -.403E+02 0.356E+02 -.857E+01   0.241E+01 -.181E+01 0.303E+00
   -.378E+02 0.338E+02 0.794E+01   0.402E+02 -.356E+02 -.821E+01   -.241E+01 0.181E+01 0.291E+00
   -.166E+02 0.807E+01 0.135E+02   0.164E+02 -.849E+01 -.136E+02   0.119E+00 0.432E+00 0.105E+00
   -.143E+02 -.630E+01 0.198E+02   0.144E+02 0.637E+01 -.198E+02   -.136E+00 -.914E-01 -.620E-01
   -.718E+01 0.188E+01 0.165E+02   0.746E+01 -.183E+01 -.165E+02   -.243E+00 -.904E-01 0.627E-01
   -.125E+01 -.577E+01 0.781E+01   0.132E+01 0.588E+01 -.772E+01   -.111E+00 -.870E-01 -.897E-01
   0.258E+01 -.149E+01 0.509E+01   -.214E+01 0.124E+01 -.513E+01   -.410E+00 0.237E+00 0.487E-01
   0.125E+02 -.721E+01 -.233E+00   -.119E+02 0.688E+01 0.277E+00   -.620E+00 0.358E+00 -.320E-01
   0.483E+02 -.159E+02 0.829E+01   -.510E+02 0.171E+02 -.857E+01   0.277E+01 -.118E+01 0.303E+00
   -.397E+02 -.245E+02 0.339E+02   0.424E+02 0.259E+02 -.342E+02   -.263E+01 -.142E+01 0.328E+00
   -.127E+01 -.466E+02 0.340E+02   0.116E+01 0.496E+02 -.343E+02   0.917E-01 -.299E+01 0.338E+00
   -.148E+02 -.128E+02 0.359E+02   0.146E+02 0.131E+02 -.360E+02   0.176E+00 -.271E+00 0.149E+00
   -.229E+01 -.483E+01 0.376E+02   0.222E+01 0.501E+01 -.377E+02   0.345E-01 -.199E+00 0.887E-01
   -.751E+01 0.434E+01 0.318E+02   0.755E+01 -.436E+01 -.319E+02   0.489E-01 -.282E-01 0.536E-01
   -.266E+00 0.154E+00 0.206E+02   0.189E+00 -.109E+00 -.206E+02   -.219E-01 0.126E-01 -.371E-01
   -.521E+01 0.528E+01 0.165E+02   0.531E+01 -.554E+01 -.165E+02   -.433E-01 0.256E+00 0.626E-01
   0.437E+01 0.397E+01 0.781E+01   -.443E+01 -.409E+01 -.772E+01   0.199E-01 0.139E+00 -.897E-01
   0.202E+01 -.296E+01 0.106E+02   -.219E+01 0.302E+01 -.106E+02   0.200E+00 -.436E-01 0.235E-01
   0.153E+02 -.102E+02 0.138E+02   -.157E+02 0.989E+01 -.139E+02   0.310E+00 0.319E+00 0.103E+00
   0.165E+01 -.154E+02 0.203E+02   -.165E+01 0.156E+02 -.203E+02   -.645E-02 -.173E+00 -.530E-01
   -.353E+01 -.192E+02 0.362E+02   0.387E+01 0.192E+02 -.364E+02   -.328E+00 0.192E-01 0.155E+00
   -.307E+01 -.439E+01 0.376E+02   0.328E+01 0.441E+01 -.378E+02   -.178E+00 -.700E-01 0.849E-01
   -.221E+02 -.457E+02 0.191E+02   0.224E+02 0.747E+02 -.174E+02   -.232E+00 -.291E+02 -.167E+01
   -.286E+02 -.421E+02 0.189E+02   0.536E+02 0.568E+02 -.172E+02   -.251E+02 -.147E+02 -.171E+01
   0.285E+02 0.420E+02 0.191E+02   -.535E+02 -.567E+02 -.174E+02   0.251E+02 0.147E+02 -.167E+01
   0.221E+02 0.458E+02 0.189E+02   -.224E+02 -.749E+02 -.172E+02   0.223E+00 0.291E+02 -.171E+01
   0.171E+00 -.989E-01 -.934E+03   -.167E+00 0.966E-01 0.926E+03   -.657E-02 0.379E-02 0.793E+01
 -----------------------------------------------------------------------------------------------
   0.236E-01 -.136E-01 -.489E+01   0.121E-12 -.653E-12 0.000E+00   -.226E-01 0.131E-01 0.489E+01
 
 
 POSITION                                       TOTAL-FORCE (eV/Angst)
 -----------------------------------------------------------------------------------
     12.28996      0.00580     14.87449        -0.110159      0.063564     -0.018174
      1.22029      0.69511     14.87254         0.056581      0.004659     -0.022714
     -3.69855     10.63630     14.87305        -0.004372      0.049592     -0.019828
      3.68114      0.68113     14.92951        -0.032969     -0.014300     -0.015158
     -1.23107     10.62749     14.95900         0.021761      0.000291     -0.013418
      6.12992      0.70252     15.00693        -0.007255     -0.017098      0.001065
      7.36930      0.00304     14.99345        -0.017196     -0.013269      0.004663
      8.57969      0.73737     14.99115         0.040834     -0.024300     -0.001789
      9.81897      0.02775     14.94907        -0.052964      0.006887     -0.008036
     11.05052      0.72139     14.91880         0.091396     -0.052775     -0.013485
     11.03546      2.13476     14.94907        -0.032419      0.042438     -0.008014
     -0.02126      2.82738     14.95723         0.006435      0.015138     -0.006136
      1.20925      2.10820     14.92824        -0.010298     -0.018440     -0.010850
      2.41799      2.82780     15.03614         0.034467     -0.010395      0.010289
      3.69979      2.08785     15.03621        -0.017068      0.020604      0.018700
      6.06251      2.13095     15.08960        -0.029078      0.019949      0.009124
      7.29800      2.88791     15.08360         0.017970     -0.010415      0.025372
      8.54171      2.16985     15.02050        -0.024322      0.014025      0.006625
      9.80126      2.85320     14.99115         0.041469     -0.023206     -0.001795
      9.83202      4.26859     14.99346         0.002881      0.021576      0.004672
     -1.22224      4.96340     14.99343         0.006700     -0.027973      0.003539
      0.00340      4.23951     15.00577        -0.014047     -0.002733      0.000774
      1.27458      4.89527     15.08864         0.015385     -0.010281      0.018518
      7.33580      4.33635     15.08960        -0.031786      0.015232      0.009118
      8.60656      4.99219     15.00693         0.011190      0.014789      0.001073
     -3.66921      6.40450     14.95900         0.010635     -0.018976     -0.013415
     -2.42583      7.09712     14.94988         0.038772     -0.044805      0.004062
     -1.19148      6.37874     14.99198        -0.040115      0.023601     -0.006216
      0.06819      7.06204     15.02101         0.033210     -0.019156      0.010174
      1.31239      6.34370     15.08398        -0.035166      0.020344      0.013051
      2.54786      7.10065     15.08864         0.016590     -0.008222      0.018525
      4.91005      7.14417     15.03614         0.026209     -0.024734      0.010279
      6.19177      6.40408     15.03621        -0.026320      0.004544      0.018711
      7.40069      7.12358     14.92951        -0.004045      0.035664     -0.015153
     -4.91058      8.53700     14.87305        -0.045100     -0.020979     -0.019832
     -3.67988      9.22599     14.87545         0.092810     -0.053548     -0.015365
     -2.44052      8.51044     14.92055        -0.098111      0.056652     -0.025394
     -1.20920      9.20438     14.94988         0.058190     -0.011206      0.004039
      0.03011      8.49460     14.99198        -0.040498      0.022929     -0.006211
      1.24046      9.22890     14.99343         0.027526      0.008169      0.003532
      2.48018      8.52941     15.00577        -0.004615      0.013545      0.000767
      3.69079      9.25683     14.95723        -0.009902     -0.013154     -0.006140
      4.92887      8.55077     14.92824         0.010881      0.018108     -0.010855
      6.15816      9.24775     14.87255         0.024245     -0.051376     -0.022711
      4.85922      2.75223     15.16382         0.026224     -0.017458      0.023241
      2.41398      4.16396     15.16371        -0.025293      0.014636      0.023013
      6.19611      5.06779     15.16382         0.028246     -0.014073      0.023282
      3.75090      6.47956     15.16371        -0.025235      0.014620      0.022973
      4.30561      4.61556     16.44293        -0.002275      0.001314     -0.008491
 -----------------------------------------------------------------------------------
    total drift:                                0.000970     -0.000558      0.001198


--------------------------------------------------------------------------------------------------------



  FREE ENERGIE OF THE ION-ELECTRON SYSTEM (eV)
  ---------------------------------------------------
  free  energy   TOTEN  =      -439.38468078 eV

  energy  without entropy=     -439.37237525  energy(sigma->0) =     -439.37852802
 


--------------------------------------------------------------------------------------------------------


    POTLOK:  cpu time    3.0124: real time    3.0268


--------------------------------------------------------------------------------------------------------


 stress matrix after NEB project (eV)
     -2.27914     15.55417     -0.00711
     15.55417     15.68085      0.00411
     -0.00711      0.00411     -0.28661
  FORCES: max atom, RMS     0.128474    0.049093
  FORCE total and by dimension    0.343650    0.110159
  Stress total and by dimension   27.111444   15.680847
 writing wavefunctions
     LOOP+:  cpu time 1995.3695: real time 2061.5401
    4ORBIT:  cpu time    0.0000: real time    0.0000

 total amount of memory used by VASP MPI-rank0   696067. kBytes
=======================================================================

   base      :      30000. kBytes
   nonl-proj :     452198. kBytes
   fftplans  :       7547. kBytes
   grid      :     115983. kBytes
   one-center:       1524. kBytes
   wavefun   :      88815. kBytes
 
  
  
 General timing and accounting informations for this job:
 ========================================================
  
                  Total CPU time used (sec):     2142.598
                            User time (sec):     2049.163
                          System time (sec):       93.435
                         Elapsed time (sec):     2213.509
  
                   Maximum memory used (kb):      871956.
                   Average memory used (kb):           0.
  
                          Minor page faults:       191039
                          Major page faults:            4
                 Voluntary context switches:        10409
