C  N  Ba                                
   1.00000000000000     
    12.3000000000000007    0.0000000000000000    0.0000000000000000
    -6.1499999999999977   10.6521124665485960    0.0000000000000000
     0.0000000000000000    0.0000000000000000   20.0000000000000000
   C    N    Ba
    44     4     1
Direct
  0.9994241037649374  0.0005758791515689  0.7411473880045065
  0.1321400176588696  0.0654111616465158  0.7420478758589226
  0.1987372216903367  0.9988234265305778  0.7420382569154640
  0.3314810274237701  0.0647380925446654  0.7457208618906890
  0.3987542162485838  0.9982163685848704  0.7449953266820231
  0.5318984264365270  0.0663557543922977  0.7470137549170346
  0.5994200730951178  0.0004271724138789  0.7451099795271858
  0.7326366215493678  0.0688603939093255  0.7453189463242467
  0.7996916117067912  0.0019172272763868  0.7434129499841617
  0.9326056279544588  0.0673942721255969  0.7423769845427941
  0.9980829291029778  0.2003080789630829  0.7434129440868844
  0.1315457243143499  0.2654316943085391  0.7449969416792257
  0.1980829499749248  0.1981406900805567  0.7457356176188839
  0.3301042158241856  0.2651135701851075  0.7537285840724053
  0.3984236138509587  0.1967792976559366  0.7537308348730463
  0.5938594290995454  0.2000810783509195  0.7542600019978778
  0.7296418562607556  0.2703582481132685  0.7537690161406516
  0.7970599649796313  0.2029398534123459  0.7479303300915703
  0.9311396009533581  0.2673634702825467  0.7453189580240149
  0.9995726562231297  0.4005794207209803  0.7451099814097617
  0.1337754912094340  0.4661121875773446  0.7451103418120795
  0.1996848142075294  0.3985509394385929  0.7470124315375060
  0.3334228445292311  0.4605210054449458  0.7542594011754744
  0.7999188899652125  0.4061405678331198  0.7542600046804750
  0.9336442483923335  0.4681014811719137  0.7470137526236655
  0.0017836508427465  0.6012457990871951  0.7449953259665492
  0.1352480836138525  0.6663750250843634  0.7434118618245478
  0.2021928453051771  0.5993086424735878  0.7453257787206127
  0.3362667186836887  0.6637332759899905  0.7479335791903310
  0.4036873315681291  0.5963126718980760  0.7537751449722663
  0.5394789938323896  0.6665771526993680  0.7542594015478699
  0.7348864331898639  0.6698957817485933  0.7537285840008892
  0.8032207036225074  0.6015763957693778  0.7537308351316767
  0.9352619098041757  0.6685189722326186  0.7457208616496445
  0.0011765816057050  0.8012627755660162  0.7420382577512541
  0.1339195636122170  0.8660804327059282  0.7411563108714887
  0.2007241902592725  0.7992758208802186  0.7423795174493932
  0.3336249654438888  0.8647519087918170  0.7434118616433949
  0.4006913769540006  0.7978071673787142  0.7453257793649826
  0.5338877894707181  0.8662244340016656  0.7451103422670684
  0.6014490312253358  0.8003151908577237  0.7470124313362447
  0.7345683517422898  0.8684543379875223  0.7449969419443079
  0.8018593187331007  0.8019170477401190  0.7457356166687603
  0.9345888310743007  0.8678599853249693  0.7420478765430190
  0.5258063210513839  0.2588823996318865  0.7621059170821027
  0.3922135225280030  0.3924787667030074  0.7621060899623018
  0.7411176063932103  0.4741936732128735  0.7621059176232023
  0.6075212333575237  0.6077864790407261  0.7621060895099703
  0.5666654696702338  0.4333345310787351  0.8456472105076429
 
  0.00000000E+00  0.00000000E+00  0.00000000E+00
  0.00000000E+00  0.00000000E+00  0.00000000E+00
  0.00000000E+00  0.00000000E+00  0.00000000E+00
  0.00000000E+00  0.00000000E+00  0.00000000E+00
  0.00000000E+00  0.00000000E+00  0.00000000E+00
  0.00000000E+00  0.00000000E+00  0.00000000E+00
  0.00000000E+00  0.00000000E+00  0.00000000E+00
  0.00000000E+00  0.00000000E+00  0.00000000E+00
  0.00000000E+00  0.00000000E+00  0.00000000E+00
  0.00000000E+00  0.00000000E+00  0.00000000E+00
  0.00000000E+00  0.00000000E+00  0.00000000E+00
  0.00000000E+00  0.00000000E+00  0.00000000E+00
  0.00000000E+00  0.00000000E+00  0.00000000E+00
  0.00000000E+00  0.00000000E+00  0.00000000E+00
  0.00000000E+00  0.00000000E+00  0.00000000E+00
  0.00000000E+00  0.00000000E+00  0.00000000E+00
  0.00000000E+00  0.00000000E+00  0.00000000E+00
  0.00000000E+00  0.00000000E+00  0.00000000E+00
  0.00000000E+00  0.00000000E+00  0.00000000E+00
  0.00000000E+00  0.00000000E+00  0.00000000E+00
  0.00000000E+00  0.00000000E+00  0.00000000E+00
  0.00000000E+00  0.00000000E+00  0.00000000E+00
  0.00000000E+00  0.00000000E+00  0.00000000E+00
  0.00000000E+00  0.00000000E+00  0.00000000E+00
  0.00000000E+00  0.00000000E+00  0.00000000E+00
  0.00000000E+00  0.00000000E+00  0.00000000E+00
  0.00000000E+00  0.00000000E+00  0.00000000E+00
  0.00000000E+00  0.00000000E+00  0.00000000E+00
  0.00000000E+00  0.00000000E+00  0.00000000E+00
  0.00000000E+00  0.00000000E+00  0.00000000E+00
  0.00000000E+00  0.00000000E+00  0.00000000E+00
  0.00000000E+00  0.00000000E+00  0.00000000E+00
  0.00000000E+00  0.00000000E+00  0.00000000E+00
  0.00000000E+00  0.00000000E+00  0.00000000E+00
  0.00000000E+00  0.00000000E+00  0.00000000E+00
  0.00000000E+00  0.00000000E+00  0.00000000E+00
  0.00000000E+00  0.00000000E+00  0.00000000E+00
  0.00000000E+00  0.00000000E+00  0.00000000E+00
  0.00000000E+00  0.00000000E+00  0.00000000E+00
  0.00000000E+00  0.00000000E+00  0.00000000E+00
  0.00000000E+00  0.00000000E+00  0.00000000E+00
  0.00000000E+00  0.00000000E+00  0.00000000E+00
  0.00000000E+00  0.00000000E+00  0.00000000E+00
  0.00000000E+00  0.00000000E+00  0.00000000E+00
  0.00000000E+00  0.00000000E+00  0.00000000E+00
  0.00000000E+00  0.00000000E+00  0.00000000E+00
  0.00000000E+00  0.00000000E+00  0.00000000E+00
  0.00000000E+00  0.00000000E+00  0.00000000E+00
  0.00000000E+00  0.00000000E+00  0.00000000E+00
