       N       E                     dE             d eps       ncg     rms          ort
SDA:   1    -0.333797498225E+03   -0.33380E+03    0.00000E+00  3328   0.128E+03 0.000E+00
CGA:   2    -0.407360096033E+03   -0.73563E+02   -0.92533E+02  3328   0.915E+02-0.313E+02
CGA:   3    -0.424813686869E+03   -0.17454E+02   -0.17390E+02  3328   0.321E+02 0.133E+01
CGA:   4    -0.434981658633E+03   -0.10168E+02   -0.10129E+02  3328   0.133E+02 0.286E+00
CGA:   5    -0.438514381485E+03   -0.35327E+01   -0.35261E+01  3328   0.546E+01 0.990E-01
CGA:   6    -0.439895358413E+03   -0.13810E+01   -0.13819E+01  3328   0.209E+01-0.263E-01
CGA:   7    -0.440453352814E+03   -0.55799E+00   -0.55728E+00  3328   0.712E+00 0.136E-01
CGA:   8    -0.440664014159E+03   -0.21066E+00   -0.21073E+00  3328   0.264E+00-0.598E-03
CGA:   9    -0.440747108029E+03   -0.83094E-01   -0.83134E-01  3328   0.106E+00-0.364E-03
CGA:  10    -0.440782408098E+03   -0.35300E-01   -0.35319E-01  3328   0.418E-01-0.168E-03
CGA:  11    -0.440796346508E+03   -0.13938E-01   -0.13945E-01  3328   0.145E-01-0.752E-04
CGA:  12    -0.440801074379E+03   -0.47279E-02   -0.47303E-02  3328   0.459E-02-0.283E-04
CGA:  13    -0.440802623665E+03   -0.15493E-02   -0.15502E-02  3328   0.153E-02-0.105E-04
CGA:  14    -0.440803185469E+03   -0.56180E-03   -0.56251E-03  3328   0.599E-03-0.642E-05
CGA:  15    -0.440803417769E+03   -0.23230E-03   -0.23272E-03  3328   0.246E-03-0.343E-05
CGA:  16    -0.440803512855E+03   -0.95086E-04   -0.95252E-04  3328   0.897E-04-0.138E-05
CGA:  17    -0.440803546201E+03   -0.33346E-04   -0.33407E-04  3328   0.289E-04-0.592E-06
CGA:  18    -0.440803557014E+03   -0.10813E-04   -0.10830E-04  3328   0.960E-05-0.168E-06
CGA:  19    -0.440803560770E+03   -0.37556E-05   -0.37479E-05  3328   0.355E-05 0.714E-07
   1 F= -.44254460E+03 E0= -.44253998E+03  d E =-.925007E-02  mag=    -0.0000
