C  N  Nd                                
   1.00000000000000     
    12.3000000000000007    0.0000000000000000    0.0000000000000000
    -6.1499999999999977   10.6521124665485960    0.0000000000000000
     0.0000000000000000    0.0000000000000000   20.0000000000000000
   C    N    Nd
    44     4     1
Direct
  0.9994134591025414  0.0005526687625803  0.7448313153554338
  0.1321495364275904  0.0656037368459934  0.7455633327247142
  0.1989596132635398  0.9988177414027035  0.7456225658946920
  0.3310086623787498  0.0642303154585306  0.7479316560060383
  0.3986987065523167  0.9981395844497953  0.7468412507630831
  0.5323064399843531  0.0667467583669179  0.7472471873134978
  0.5997741838832482  0.0005958195318811  0.7458215586220334
  0.7325739558376654  0.0685018740818819  0.7462245064382174
  0.7997205900216642  0.0012720464291647  0.7457195206181169
  0.9328095826971747  0.0671637303780557  0.7453669667666816
  0.9986860875204400  0.2002490124165348  0.7457233948992652
  0.1314130732316698  0.2653344534564397  0.7468971697423399
  0.1975128146782339  0.1976323794399377  0.7479120490681908
  0.3301157736473357  0.2644176236252207  0.7529367960075675
  0.3977455415786437  0.1968755755131966  0.7528586177283003
  0.5951464655916610  0.2000607899988580  0.7515916579141759
  0.7299900378643329  0.2700425022550093  0.7509200658822053
  0.7976292019311515  0.2023686479113920  0.7475267122775762
  0.9314847482731636  0.2674196359287038  0.7461956294868273
  0.9994134687955807  0.4002303235751157  0.7457793903866587
  0.1339027008543496  0.4664415062327336  0.7457744987515014
  0.1999929826665792  0.3989315827303130  0.7473173678944320
  0.3332837960009556  0.4618100436254977  0.7517757814983312
  0.8000349400347773  0.4048756371003961  0.7517741000530904
  0.9333221399961218  0.4677248894077977  0.7473224632819964
  0.0019106754299045  0.6013331224990353  0.7469158194147312
  0.1346527101666553  0.6663932366191716  0.7457279434959929
  0.2018351856701059  0.5992360068273612  0.7461691420329473
  0.3356856377438859  0.6643172472595538  0.7475415034192494
  0.4033189933019727  0.5966542750247470  0.7509880300227820
  0.5381720761344440  0.6666340289270423  0.7516666725642835
  0.7355659015295046  0.6698136461714626  0.7528793280491612
  0.8032051346411109  0.6022833481085215  0.7530317498067873
  0.9358191815949723  0.6690207920787827  0.7480154760183524
  0.0012095556712026  0.8010593969481334  0.7456176291843661
  0.1339461157917725  0.8660862112619938  0.7449126825088399
  0.2005471991108152  0.7994858190446692  0.7454079838544061
  0.3336401018863242  0.8653890672887030  0.7457296732515175
  0.4007720884141435  0.7981747178249847  0.7461999658010612
  0.5335563904511389  0.8660927397371765  0.7458233971029742
  0.6010451140517503  0.7999496121438412  0.7472688084977506
  0.7346406413760889  0.8685343586524255  0.7468339616153585
  0.8023391134198548  0.8024225231410540  0.7478322097430734
  0.9343811885951894  0.8678243904878542  0.7455370218315096
  0.5266803599244412  0.2601404556109159  0.7581106171081302
  0.3932900547053464  0.3933129324887119  0.7583722937417789
  0.7400473400162255  0.4733775104246476  0.7584769711509836
  0.6066501566257472  0.6065739215430170  0.7582287399276950
  0.5665895809335240  0.4332627609615258  0.8202338244812921
 
  0.00000000E+00  0.00000000E+00  0.00000000E+00
  0.00000000E+00  0.00000000E+00  0.00000000E+00
  0.00000000E+00  0.00000000E+00  0.00000000E+00
  0.00000000E+00  0.00000000E+00  0.00000000E+00
  0.00000000E+00  0.00000000E+00  0.00000000E+00
  0.00000000E+00  0.00000000E+00  0.00000000E+00
  0.00000000E+00  0.00000000E+00  0.00000000E+00
  0.00000000E+00  0.00000000E+00  0.00000000E+00
  0.00000000E+00  0.00000000E+00  0.00000000E+00
  0.00000000E+00  0.00000000E+00  0.00000000E+00
  0.00000000E+00  0.00000000E+00  0.00000000E+00
  0.00000000E+00  0.00000000E+00  0.00000000E+00
  0.00000000E+00  0.00000000E+00  0.00000000E+00
  0.00000000E+00  0.00000000E+00  0.00000000E+00
  0.00000000E+00  0.00000000E+00  0.00000000E+00
  0.00000000E+00  0.00000000E+00  0.00000000E+00
  0.00000000E+00  0.00000000E+00  0.00000000E+00
  0.00000000E+00  0.00000000E+00  0.00000000E+00
  0.00000000E+00  0.00000000E+00  0.00000000E+00
  0.00000000E+00  0.00000000E+00  0.00000000E+00
  0.00000000E+00  0.00000000E+00  0.00000000E+00
  0.00000000E+00  0.00000000E+00  0.00000000E+00
  0.00000000E+00  0.00000000E+00  0.00000000E+00
  0.00000000E+00  0.00000000E+00  0.00000000E+00
  0.00000000E+00  0.00000000E+00  0.00000000E+00
  0.00000000E+00  0.00000000E+00  0.00000000E+00
  0.00000000E+00  0.00000000E+00  0.00000000E+00
  0.00000000E+00  0.00000000E+00  0.00000000E+00
  0.00000000E+00  0.00000000E+00  0.00000000E+00
  0.00000000E+00  0.00000000E+00  0.00000000E+00
  0.00000000E+00  0.00000000E+00  0.00000000E+00
  0.00000000E+00  0.00000000E+00  0.00000000E+00
  0.00000000E+00  0.00000000E+00  0.00000000E+00
  0.00000000E+00  0.00000000E+00  0.00000000E+00
  0.00000000E+00  0.00000000E+00  0.00000000E+00
  0.00000000E+00  0.00000000E+00  0.00000000E+00
  0.00000000E+00  0.00000000E+00  0.00000000E+00
  0.00000000E+00  0.00000000E+00  0.00000000E+00
  0.00000000E+00  0.00000000E+00  0.00000000E+00
  0.00000000E+00  0.00000000E+00  0.00000000E+00
  0.00000000E+00  0.00000000E+00  0.00000000E+00
  0.00000000E+00  0.00000000E+00  0.00000000E+00
  0.00000000E+00  0.00000000E+00  0.00000000E+00
  0.00000000E+00  0.00000000E+00  0.00000000E+00
  0.00000000E+00  0.00000000E+00  0.00000000E+00
  0.00000000E+00  0.00000000E+00  0.00000000E+00
  0.00000000E+00  0.00000000E+00  0.00000000E+00
  0.00000000E+00  0.00000000E+00  0.00000000E+00
  0.00000000E+00  0.00000000E+00  0.00000000E+00
