       N       E                     dE             d eps       ncg     rms          ort
SDA:   1    -0.338320485683E+03   -0.33832E+03    0.00000E+00  3328   0.135E+03 0.000E+00
CGA:   2    -0.414015503479E+03   -0.75695E+02   -0.73556E+02  3328   0.722E+02 0.302E+01
CGA:   3    -0.432432930442E+03   -0.18417E+02   -0.18368E+02  3328   0.303E+02 0.586E+00
CGA:   4    -0.440926290456E+03   -0.84934E+01   -0.84587E+01  3328   0.155E+02 0.328E+00
CGA:   5    -0.443900885148E+03   -0.29746E+01   -0.29802E+01  3328   0.664E+01 0.474E-01
CGA:   6    -0.445298111102E+03   -0.13972E+01   -0.13980E+01  3328   0.228E+01 0.332E-01
CGA:   7    -0.445909056982E+03   -0.61095E+00   -0.61098E+00  3328   0.824E+00-0.318E-02
CGA:   8    -0.446123207970E+03   -0.21415E+00   -0.21418E+00  3328   0.344E+00-0.543E-03
CGA:   9    -0.446211039009E+03   -0.87831E-01   -0.87824E-01  3328   0.117E+00 0.199E-03
CGA:  10    -0.446249075949E+03   -0.38037E-01   -0.38020E-01  3328   0.490E-01 0.148E-03
CGA:  11    -0.446265248037E+03   -0.16172E-01   -0.16173E-01  3328   0.223E-01-0.101E-04
CGA:  12    -0.446273254433E+03   -0.80064E-02   -0.80084E-02  3328   0.960E-02-0.795E-05
CGA:  13    -0.446276854527E+03   -0.36001E-02   -0.36019E-02  3328   0.421E-02 0.102E-04
CGA:  14    -0.446278484313E+03   -0.16298E-02   -0.16225E-02  3328   0.212E-02 0.701E-04
CGA:  15    -0.446279304773E+03   -0.82046E-03   -0.81362E-03  3328   0.134E-02 0.593E-04
CGA:  16    -0.446279819357E+03   -0.51458E-03   -0.50828E-03  3328   0.885E-03 0.644E-04
CGA:  17    -0.446280207327E+03   -0.38797E-03   -0.38077E-03  3328   0.599E-03 0.546E-04
CGA:  18    -0.446280492923E+03   -0.28560E-03   -0.27653E-03  3328   0.392E-03 0.569E-04
CGA:  19    -0.446280685562E+03   -0.19264E-03   -0.18674E-03  3328   0.283E-03 0.362E-04
CGA:  20    -0.446280810046E+03   -0.12448E-03   -0.12191E-03  3328   0.215E-03 0.228E-04
CGA:  21    -0.446280899502E+03   -0.89456E-04   -0.88574E-04  3328   0.150E-03 0.108E-04
CGA:  22    -0.446280964033E+03   -0.64532E-04   -0.63580E-04  3328   0.968E-04 0.979E-05
CGA:  23    -0.446281009417E+03   -0.45384E-04   -0.44725E-04  3328   0.691E-04 0.540E-05
CGA:  24    -0.446281038554E+03   -0.29137E-04   -0.28797E-04  3328   0.523E-04 0.408E-05
CGA:  25    -0.446281061164E+03   -0.22610E-04   -0.22505E-04  3328   0.395E-04 0.153E-05
CGA:  26    -0.446281078902E+03   -0.17738E-04   -0.17562E-04  3328   0.310E-04 0.190E-05
CGA:  27    -0.446281094713E+03   -0.15811E-04   -0.15646E-04  3328   0.279E-04 0.140E-05
CGA:  28    -0.446281108404E+03   -0.13691E-04   -0.13436E-04  3328   0.260E-04 0.218E-05
CGA:  29    -0.446281122617E+03   -0.14213E-04   -0.13989E-04  3328   0.256E-04 0.159E-05
CGA:  30    -0.446281136048E+03   -0.13432E-04   -0.13179E-04  3328   0.248E-04 0.205E-05
CGA:  31    -0.446281136196E+03   -0.14794E-06   -0.25126E-09  3328   0.246E-04 0.265E-04
   1 F= -.44803862E+03 E0= -.44802924E+03  d E =-.187559E-01  mag=     2.9989
