       N       E                     dE             d eps       ncg     rms          ort
SDA:   1    -0.331768260994E+03   -0.33177E+03    0.00000E+00  3328   0.130E+03 0.000E+00
CGA:   2    -0.408794841132E+03   -0.77027E+02   -0.84513E+02  3328   0.679E+02-0.148E+02
CGA:   3    -0.426949254912E+03   -0.18154E+02   -0.18021E+02  3328   0.240E+02 0.990E+00
CGA:   4    -0.434574055018E+03   -0.76248E+01   -0.76297E+01  3328   0.992E+01-0.920E-01
CGA:   5    -0.437059523363E+03   -0.24855E+01   -0.24840E+01  3328   0.336E+01 0.120E-01
CGA:   6    -0.437994144304E+03   -0.93462E+00   -0.93476E+00  3328   0.110E+01-0.417E-02
CGA:   7    -0.438299026854E+03   -0.30488E+00   -0.30488E+00  3328   0.328E+00-0.482E-04
CGA:   8    -0.438398620423E+03   -0.99594E-01   -0.99610E-01  3328   0.101E+00-0.256E-03
CGA:   9    -0.438432118084E+03   -0.33498E-01   -0.33515E-01  3328   0.363E-01-0.180E-03
CGA:  10    -0.438445175334E+03   -0.13057E-01   -0.13067E-01  3328   0.131E-01-0.790E-04
CGA:  11    -0.438449945333E+03   -0.47700E-02   -0.47750E-02  3328   0.422E-02-0.397E-04
CGA:  12    -0.438451435731E+03   -0.14904E-02   -0.14919E-02  3328   0.118E-02-0.129E-04
CGA:  13    -0.438451864814E+03   -0.42908E-03   -0.42948E-03  3328   0.345E-03-0.343E-05
CGA:  14    -0.438451999784E+03   -0.13497E-03   -0.13523E-03  3328   0.116E-03-0.206E-05
CGA:  15    -0.438452048705E+03   -0.48922E-04   -0.49186E-04  3328   0.420E-04-0.173E-05
CGA:  16    -0.438452066254E+03   -0.17549E-04   -0.17740E-04  3328   0.137E-04-0.128E-05
CGA:  17    -0.438452071823E+03   -0.55690E-05   -0.56637E-05  3328   0.417E-05-0.679E-06
   1 F= -.44025646E+03 E0= -.44025004E+03  d E =-.128326E-01  mag=    -0.0000
