C  N  Ho                                
   1.00000000000000     
    12.3000000000000007    0.0000000000000000    0.0000000000000000
    -6.1499999999999977   10.6521124665485960    0.0000000000000000
     0.0000000000000000    0.0000000000000000   20.0000000000000000
   C    N    Ho
    44     4     1
Direct
  0.9995067396717019  0.0005645035556654  0.7435908340645767
  0.1321845944483826  0.0654641919348435  0.7440661833573188
  0.1987844121533655  0.9989028148949828  0.7440864321413798
  0.3315619277129258  0.0648314429328849  0.7467507197629288
  0.3988410331328467  0.9983152716623209  0.7466482961552003
  0.5320009146529330  0.0662663461021040  0.7479930988271022
  0.5995082810015191  0.0003151303442124  0.7469449800201673
  0.7327273748906222  0.0686950033777407  0.7472663819541481
  0.7998001250662909  0.0017896885967019  0.7457873991626940
  0.9326944508410193  0.0673260592813065  0.7449071623624093
  0.9982226600605202  0.2002277431973809  0.7457904941235611
  0.1315982879116220  0.2654993483434467  0.7465615604725357
  0.1981227329354596  0.1982351269557938  0.7466914596240315
  0.3304654957457842  0.2653563337839344  0.7519487465508163
  0.3986319877717861  0.1971775644588689  0.7519746200530051
  0.5943122683973456  0.2001514497482617  0.7529124703046080
  0.7298056270828397  0.2702652126092957  0.7528897241734001
  0.7973132473506226  0.2027379027066516  0.7490538800640749
  0.9313185385224969  0.2673159307815425  0.7472416433460083
  0.9996018692984521  0.4005430581881271  0.7468793468779111
  0.1336974719719066  0.4662230487815080  0.7468346840736970
  0.1995833106630229  0.3986481374071431  0.7478312141826251
  0.3334480353468052  0.4609891118286313  0.7526315691942855
  0.7997936989384300  0.4057950324222404  0.7531182982642690
  0.9336739110053216  0.4680830036213663  0.7480053171205654
  0.0017691216744069  0.6012481038583033  0.7466517441431364
  0.1351547644441737  0.6664935243270591  0.7458318987977890
  0.2020524654060054  0.5994177915199685  0.7471990325406637
  0.3360720440993177  0.6639637102513021  0.7488717375251497
  0.4035397208978253  0.5964185194483349  0.7524079446710203
  0.5390890630692624  0.6662427859374063  0.7525092924780523
  0.7347670233362393  0.6696029606536840  0.7518469599441815
  0.8030764257280936  0.6016011552496039  0.7521264011726458
  0.9353429467482286  0.6685837773427821  0.7467138148631420
  0.0012452566967198  0.8013618832288572  0.7440384884897711
  0.1339178861962935  0.8662190092605186  0.7435979599258573
  0.2006844848270859  0.7994064893787396  0.7448887945360596
  0.3335875414416591  0.8649108396582363  0.7458381085257457
  0.4006393881856098  0.7979724695212767  0.7472137503636063
  0.5338386724170405  0.8661956143439795  0.7468796265752644
  0.6013804485486389  0.8002328875002362  0.7477911101875208
  0.7345223836625863  0.8683765541141852  0.7464914895875552
  0.8018311216081173  0.8019268229445657  0.7465816770891465
  0.9346246857401042  0.8678942435782417  0.7440390391866103
  0.5266787897449490  0.2599466437326470  0.7583547229657910
  0.3932979165446540  0.3934487166519531  0.7582617087289236
  0.7402019680835252  0.4736479428956031  0.7589187844002865
  0.6066976497534924  0.6063776153078635  0.7580179413221302
  0.5653822345719846  0.4321984817777249  0.8175214557466788
 
  0.00000000E+00  0.00000000E+00  0.00000000E+00
  0.00000000E+00  0.00000000E+00  0.00000000E+00
  0.00000000E+00  0.00000000E+00  0.00000000E+00
  0.00000000E+00  0.00000000E+00  0.00000000E+00
  0.00000000E+00  0.00000000E+00  0.00000000E+00
  0.00000000E+00  0.00000000E+00  0.00000000E+00
  0.00000000E+00  0.00000000E+00  0.00000000E+00
  0.00000000E+00  0.00000000E+00  0.00000000E+00
  0.00000000E+00  0.00000000E+00  0.00000000E+00
  0.00000000E+00  0.00000000E+00  0.00000000E+00
  0.00000000E+00  0.00000000E+00  0.00000000E+00
  0.00000000E+00  0.00000000E+00  0.00000000E+00
  0.00000000E+00  0.00000000E+00  0.00000000E+00
  0.00000000E+00  0.00000000E+00  0.00000000E+00
  0.00000000E+00  0.00000000E+00  0.00000000E+00
  0.00000000E+00  0.00000000E+00  0.00000000E+00
  0.00000000E+00  0.00000000E+00  0.00000000E+00
  0.00000000E+00  0.00000000E+00  0.00000000E+00
  0.00000000E+00  0.00000000E+00  0.00000000E+00
  0.00000000E+00  0.00000000E+00  0.00000000E+00
  0.00000000E+00  0.00000000E+00  0.00000000E+00
  0.00000000E+00  0.00000000E+00  0.00000000E+00
  0.00000000E+00  0.00000000E+00  0.00000000E+00
  0.00000000E+00  0.00000000E+00  0.00000000E+00
  0.00000000E+00  0.00000000E+00  0.00000000E+00
  0.00000000E+00  0.00000000E+00  0.00000000E+00
  0.00000000E+00  0.00000000E+00  0.00000000E+00
  0.00000000E+00  0.00000000E+00  0.00000000E+00
  0.00000000E+00  0.00000000E+00  0.00000000E+00
  0.00000000E+00  0.00000000E+00  0.00000000E+00
  0.00000000E+00  0.00000000E+00  0.00000000E+00
  0.00000000E+00  0.00000000E+00  0.00000000E+00
  0.00000000E+00  0.00000000E+00  0.00000000E+00
  0.00000000E+00  0.00000000E+00  0.00000000E+00
  0.00000000E+00  0.00000000E+00  0.00000000E+00
  0.00000000E+00  0.00000000E+00  0.00000000E+00
  0.00000000E+00  0.00000000E+00  0.00000000E+00
  0.00000000E+00  0.00000000E+00  0.00000000E+00
  0.00000000E+00  0.00000000E+00  0.00000000E+00
  0.00000000E+00  0.00000000E+00  0.00000000E+00
  0.00000000E+00  0.00000000E+00  0.00000000E+00
  0.00000000E+00  0.00000000E+00  0.00000000E+00
  0.00000000E+00  0.00000000E+00  0.00000000E+00
  0.00000000E+00  0.00000000E+00  0.00000000E+00
  0.00000000E+00  0.00000000E+00  0.00000000E+00
  0.00000000E+00  0.00000000E+00  0.00000000E+00
  0.00000000E+00  0.00000000E+00  0.00000000E+00
  0.00000000E+00  0.00000000E+00  0.00000000E+00
  0.00000000E+00  0.00000000E+00  0.00000000E+00
