C  N  Sb                                
   1.00000000000000     
    12.3000000000000007    0.0000000000000000    0.0000000000000000
    -6.1499999999999977   10.6521124665485960    0.0000000000000000
     0.0000000000000000    0.0000000000000000   20.0000000000000000
   C    N    Sb
    44     4     1
Direct
  0.9991172003731208  0.0008828638398342  0.7387637227850519
  0.1315755418041675  0.0650126944568612  0.7386010263737219
  0.1983227347945231  0.9982570488429445  0.7386939201377629
  0.3303730345442162  0.0631673909879922  0.7436742635338476
  0.3983448229232991  0.9975196962660817  0.7466678200614183
  0.5318800996864539  0.0675412090026413  0.7508037821128397
  0.5995134594931883  0.0008616819453380  0.7501180349894767
  0.7322616683407404  0.0692358065274021  0.7498976273608946
  0.7994550773974112  0.0018709104256303  0.7460568144415873
  0.9324363570811869  0.0675636900972236  0.7430752246799273
  0.9981289984935628  0.2005449004672855  0.7460568160719347
  0.1308522553183806  0.2650259302610749  0.7465776674722235
  0.1965017326795433  0.1970434760473267  0.7435652691649537
  0.3276781909456616  0.2611146991118218  0.7499231776535566
  0.3944472065888291  0.1943427444661125  0.7499724583920795
  0.5940192643910436  0.2011831984118189  0.7558568425393801
  0.7288234668028650  0.2711765191512328  0.7564075785614648
  0.7968435248279633  0.2031564214943344  0.7522264545515185
  0.9307641692043802  0.2677383475948432  0.7498976289585499
  0.9991383011701060  0.4004865229387065  0.7501180348966585
  0.1342173812607612  0.4662010749478327  0.7500557985170815
  0.2008781048174271  0.3985365801438050  0.7506879616154691
  0.3345437851181714  0.4606807325591760  0.7556600596402774
  0.7988168136240930  0.4059806847709027  0.7558568428387460
  0.9324588279621295  0.4681198880436668  0.7508037799768914
  0.0024803702045375  0.6016551538390473  0.7466678164792100
  0.1352021359249278  0.6661320372181763  0.7460804697305008
  0.2025750669161326  0.5989424121787437  0.7497647820461211
  0.3364994645878880  0.6635005318284399  0.7519780781386416
  0.4045223443399664  0.5954777203535428  0.7561179003174914
  0.5393193378861270  0.6654562019803976  0.7556600554028634
  0.7388854874250299  0.6723217952818246  0.7499231850838655
  0.8056574112791424  0.6055527640358846  0.7499724816234732
  0.9368327888253418  0.6696269926198610  0.7436742617942542
  0.0017430972827981  0.8016773402756883  0.7386939127078094
  0.1341998643681706  0.8658002542220373  0.7389178623117232
  0.2008767190177920  0.7991233515666067  0.7431485976031027
  0.3338679625172176  0.8647978962640579  0.7460804724498971
  0.4010576185979176  0.7974249717840962  0.7497647814327379
  0.5337989527400282  0.8657826007805909  0.7500557964347152
  0.6014635058000550  0.7991218843310719  0.7506879564696405
  0.7349741823293598  0.8691476896369466  0.7465776671910689
  0.8029567035926561  0.8034982449573391  0.7435652861708633
  0.9349875116604807  0.8684245359062714  0.7386010260198717
  0.5225513037861873  0.2600989748162092  0.7590413030000462
  0.3934408637730868  0.3892272987561256  0.7589541338534076
  0.7399011311986570  0.4774487033918362  0.7590413083830896
  0.6107728516621265  0.6065591753728086  0.7589541182056152
  0.5666333046411154  0.4333667558005345  0.8090561398226583
 
  0.00000000E+00  0.00000000E+00  0.00000000E+00
  0.00000000E+00  0.00000000E+00  0.00000000E+00
  0.00000000E+00  0.00000000E+00  0.00000000E+00
  0.00000000E+00  0.00000000E+00  0.00000000E+00
  0.00000000E+00  0.00000000E+00  0.00000000E+00
  0.00000000E+00  0.00000000E+00  0.00000000E+00
  0.00000000E+00  0.00000000E+00  0.00000000E+00
  0.00000000E+00  0.00000000E+00  0.00000000E+00
  0.00000000E+00  0.00000000E+00  0.00000000E+00
  0.00000000E+00  0.00000000E+00  0.00000000E+00
  0.00000000E+00  0.00000000E+00  0.00000000E+00
  0.00000000E+00  0.00000000E+00  0.00000000E+00
  0.00000000E+00  0.00000000E+00  0.00000000E+00
  0.00000000E+00  0.00000000E+00  0.00000000E+00
  0.00000000E+00  0.00000000E+00  0.00000000E+00
  0.00000000E+00  0.00000000E+00  0.00000000E+00
  0.00000000E+00  0.00000000E+00  0.00000000E+00
  0.00000000E+00  0.00000000E+00  0.00000000E+00
  0.00000000E+00  0.00000000E+00  0.00000000E+00
  0.00000000E+00  0.00000000E+00  0.00000000E+00
  0.00000000E+00  0.00000000E+00  0.00000000E+00
  0.00000000E+00  0.00000000E+00  0.00000000E+00
  0.00000000E+00  0.00000000E+00  0.00000000E+00
  0.00000000E+00  0.00000000E+00  0.00000000E+00
  0.00000000E+00  0.00000000E+00  0.00000000E+00
  0.00000000E+00  0.00000000E+00  0.00000000E+00
  0.00000000E+00  0.00000000E+00  0.00000000E+00
  0.00000000E+00  0.00000000E+00  0.00000000E+00
  0.00000000E+00  0.00000000E+00  0.00000000E+00
  0.00000000E+00  0.00000000E+00  0.00000000E+00
  0.00000000E+00  0.00000000E+00  0.00000000E+00
  0.00000000E+00  0.00000000E+00  0.00000000E+00
  0.00000000E+00  0.00000000E+00  0.00000000E+00
  0.00000000E+00  0.00000000E+00  0.00000000E+00
  0.00000000E+00  0.00000000E+00  0.00000000E+00
  0.00000000E+00  0.00000000E+00  0.00000000E+00
  0.00000000E+00  0.00000000E+00  0.00000000E+00
  0.00000000E+00  0.00000000E+00  0.00000000E+00
  0.00000000E+00  0.00000000E+00  0.00000000E+00
  0.00000000E+00  0.00000000E+00  0.00000000E+00
  0.00000000E+00  0.00000000E+00  0.00000000E+00
  0.00000000E+00  0.00000000E+00  0.00000000E+00
  0.00000000E+00  0.00000000E+00  0.00000000E+00
  0.00000000E+00  0.00000000E+00  0.00000000E+00
  0.00000000E+00  0.00000000E+00  0.00000000E+00
  0.00000000E+00  0.00000000E+00  0.00000000E+00
  0.00000000E+00  0.00000000E+00  0.00000000E+00
  0.00000000E+00  0.00000000E+00  0.00000000E+00
  0.00000000E+00  0.00000000E+00  0.00000000E+00
