       N       E                     dE             d eps       ncg     rms          ort
SDA:   1    -0.335485750257E+03   -0.33549E+03    0.00000E+00  3328   0.130E+03 0.000E+00
CGA:   2    -0.412302394803E+03   -0.76817E+02   -0.76741E+02  3328   0.544E+02 0.490E-01
CGA:   3    -0.430005234276E+03   -0.17703E+02   -0.17576E+02  3328   0.211E+02 0.793E+00
CGA:   4    -0.436924271005E+03   -0.69190E+01   -0.69301E+01  3328   0.778E+01-0.113E+00
CGA:   5    -0.439112154962E+03   -0.21879E+01   -0.21972E+01  3328   0.246E+01-0.118E+00
CGA:   6    -0.439817145837E+03   -0.70499E+00   -0.70496E+00  3328   0.690E+00-0.493E-03
CGA:   7    -0.440026700819E+03   -0.20955E+00   -0.20967E+00  3328   0.194E+00-0.143E-02
CGA:   8    -0.440089873534E+03   -0.63173E-01   -0.63357E-01  3328   0.576E-01-0.164E-02
CGA:   9    -0.440110364419E+03   -0.20491E-01   -0.20530E-01  3328   0.190E-01-0.270E-03
CGA:  10    -0.440117666892E+03   -0.73025E-02   -0.73052E-02  3328   0.631E-02-0.207E-04
CGA:  11    -0.440120124667E+03   -0.24578E-02   -0.24600E-02  3328   0.184E-02-0.159E-04
CGA:  12    -0.440120819424E+03   -0.69476E-03   -0.69546E-03  3328   0.473E-03-0.526E-05
CGA:  13    -0.440121002805E+03   -0.18338E-03   -0.18355E-03  3328   0.125E-03-0.129E-05
CGA:  14    -0.440121055640E+03   -0.52835E-04   -0.52904E-04  3328   0.387E-04-0.454E-06
CGA:  15    -0.440121073111E+03   -0.17471E-04   -0.17562E-04  3328   0.125E-04-0.534E-06
CGA:  16    -0.440121078749E+03   -0.56378E-05   -0.57116E-05  3328   0.372E-05-0.432E-06
   1 F= -.44185668E+03 E0= -.44183561E+03  d E =-.421488E-01  mag=    -0.0000
