C  N  Sb                                
   1.00000000000000     
    12.3000000000000007    0.0000000000000000    0.0000000000000000
    -6.1499999999999977   10.6521124665485960    0.0000000000000000
     0.0000000000000000    0.0000000000000000   20.0000000000000000
   C    N    Sb
    44     4     1
Direct
  0.9991172003731180  0.0008828638398360  0.7387637227850543
  0.1315755418041685  0.0650126944568640  0.7386010263737242
  0.1983227347945250  0.9982570488429413  0.7386939201377662
  0.3303730345442152  0.0631673909879951  0.7436742635338460
  0.3983448229232980  0.9975196962660782  0.7466678200614190
  0.5318800996864511  0.0675412090026385  0.7508037821128418
  0.5995134594931849  0.0008616819453359  0.7501180349894787
  0.7322616683407372  0.0692358065274006  0.7498976273608954
  0.7994550773974126  0.0018709104256328  0.7460568144415858
  0.9324363570811899  0.0675636900972256  0.7430752246799307
  0.9981289984935663  0.2005449004672864  0.7460568160719342
  0.1308522553183771  0.2650259302610717  0.7465776674722215
  0.1965017326795464  0.1970434760473262  0.7435652691649565
  0.3276781909456649  0.2611146991118253  0.7499231776535579
  0.3944472065888276  0.1943427444661117  0.7499724583920766
  0.5940192643910415  0.2011831984118174  0.7558568425393770
  0.7288234668028676  0.2711765191512318  0.7564075785614673
  0.7968435248279638  0.2031564214943317  0.7522264545515163
  0.9307641692043790  0.2677383475948451  0.7498976289585505
  0.9991383011701079  0.4004865229387076  0.7501180348966555
  0.1342173812607646  0.4662010749478359  0.7500557985170841
  0.2008781048174286  0.3985365801438051  0.7506879616154722
  0.3345437851181718  0.4606807325591792  0.7556600596402776
  0.7988168136240925  0.4059806847709014  0.7558568428387440
  0.9324588279621304  0.4681198880436689  0.7508037799768924
  0.0024803702045376  0.6016551538390487  0.7466678164792081
  0.1352021359249246  0.6661320372181749  0.7460804697305007
  0.2025750669161356  0.5989424121787456  0.7497647820461197
  0.3364994645878859  0.6635005318284380  0.7519780781386404
  0.4045223443399630  0.5954777203535460  0.7561179003174947
  0.5393193378861268  0.6654562019803989  0.7556600554028636
  0.7388854874250271  0.6723217952818271  0.7499231850838667
  0.8056574112791427  0.6055527640358881  0.7499724816234715
  0.9368327888253446  0.6696269926198620  0.7436742617942541
  0.0017430972827955  0.8016773402756905  0.7386939127078059
  0.1341998643681731  0.8658002542220377  0.7389178623117224
  0.2008767190177912  0.7991233515666087  0.7431485976031051
  0.3338679625172157  0.8647978962640548  0.7460804724498948
  0.4010576185979192  0.7974249717840998  0.7497647814327407
  0.5337989527400302  0.8657826007805900  0.7500557964347132
  0.6014635058000538  0.7991218843310718  0.7506879564696433
  0.7349741823293569  0.8691476896369448  0.7465776671910713
  0.8029567035926584  0.8034982449573389  0.7435652861708609
  0.9349875116604806  0.8684245359062697  0.7386010260198704
  0.5225513037861879  0.2600989748162123  0.7590413030000460
  0.3934408637730888  0.3892272987561243  0.7589541338534103
  0.7399011311986597  0.4774487033918355  0.7590413083830923
  0.6107728516621247  0.6065591753728079  0.7589541182056181
  0.5666333046411127  0.4333667558005320  0.8090561398226558
 
  0.00000000E+00  0.00000000E+00  0.00000000E+00
  0.00000000E+00  0.00000000E+00  0.00000000E+00
  0.00000000E+00  0.00000000E+00  0.00000000E+00
  0.00000000E+00  0.00000000E+00  0.00000000E+00
  0.00000000E+00  0.00000000E+00  0.00000000E+00
  0.00000000E+00  0.00000000E+00  0.00000000E+00
  0.00000000E+00  0.00000000E+00  0.00000000E+00
  0.00000000E+00  0.00000000E+00  0.00000000E+00
  0.00000000E+00  0.00000000E+00  0.00000000E+00
  0.00000000E+00  0.00000000E+00  0.00000000E+00
  0.00000000E+00  0.00000000E+00  0.00000000E+00
  0.00000000E+00  0.00000000E+00  0.00000000E+00
  0.00000000E+00  0.00000000E+00  0.00000000E+00
  0.00000000E+00  0.00000000E+00  0.00000000E+00
  0.00000000E+00  0.00000000E+00  0.00000000E+00
  0.00000000E+00  0.00000000E+00  0.00000000E+00
  0.00000000E+00  0.00000000E+00  0.00000000E+00
  0.00000000E+00  0.00000000E+00  0.00000000E+00
  0.00000000E+00  0.00000000E+00  0.00000000E+00
  0.00000000E+00  0.00000000E+00  0.00000000E+00
  0.00000000E+00  0.00000000E+00  0.00000000E+00
  0.00000000E+00  0.00000000E+00  0.00000000E+00
  0.00000000E+00  0.00000000E+00  0.00000000E+00
  0.00000000E+00  0.00000000E+00  0.00000000E+00
  0.00000000E+00  0.00000000E+00  0.00000000E+00
  0.00000000E+00  0.00000000E+00  0.00000000E+00
  0.00000000E+00  0.00000000E+00  0.00000000E+00
  0.00000000E+00  0.00000000E+00  0.00000000E+00
  0.00000000E+00  0.00000000E+00  0.00000000E+00
  0.00000000E+00  0.00000000E+00  0.00000000E+00
  0.00000000E+00  0.00000000E+00  0.00000000E+00
  0.00000000E+00  0.00000000E+00  0.00000000E+00
  0.00000000E+00  0.00000000E+00  0.00000000E+00
  0.00000000E+00  0.00000000E+00  0.00000000E+00
  0.00000000E+00  0.00000000E+00  0.00000000E+00
  0.00000000E+00  0.00000000E+00  0.00000000E+00
  0.00000000E+00  0.00000000E+00  0.00000000E+00
  0.00000000E+00  0.00000000E+00  0.00000000E+00
  0.00000000E+00  0.00000000E+00  0.00000000E+00
  0.00000000E+00  0.00000000E+00  0.00000000E+00
  0.00000000E+00  0.00000000E+00  0.00000000E+00
  0.00000000E+00  0.00000000E+00  0.00000000E+00
  0.00000000E+00  0.00000000E+00  0.00000000E+00
  0.00000000E+00  0.00000000E+00  0.00000000E+00
  0.00000000E+00  0.00000000E+00  0.00000000E+00
  0.00000000E+00  0.00000000E+00  0.00000000E+00
  0.00000000E+00  0.00000000E+00  0.00000000E+00
  0.00000000E+00  0.00000000E+00  0.00000000E+00
  0.00000000E+00  0.00000000E+00  0.00000000E+00
