       N       E                     dE             d eps       ncg     rms          ort
DAV:   1     0.965382411742E+03    0.96538E+03   -0.88227E+04  3328   0.674E+02
DAV:   2    -0.367159567841E+03   -0.13325E+04   -0.13324E+04  3328   0.947E+01
DAV:   3    -0.444482309007E+03   -0.77323E+02   -0.77240E+02  3328   0.361E+01
DAV:   4    -0.445506371337E+03   -0.10241E+01   -0.10241E+01  3328   0.458E+00
DAV:   5    -0.445506646847E+03   -0.27551E-03   -0.27551E-03  3328   0.751E-02
SDA:   6    -0.445506646847E+03    0.00000E+00   -0.27551E-03  3328   0.142E-04 0.000E+00
   1 F= -.44723874E+03 E0= -.44723719E+03  d E =-.309962E-02  mag=     0.0000
