C  N  Y                                 
   1.00000000000000     
    12.3000000000000007    0.0000000000000000    0.0000000000000000
    -6.1499999999999977   10.6521124665485960    0.0000000000000000
     0.0000000000000000    0.0000000000000000   20.0000000000000000
   C    N    Y 
    44     4     1
Direct
  0.9993463662202942  0.0006536421189907  0.7451045990670053
  0.1319370177346073  0.0654306324196057  0.7458704841763151
  0.1987503925833636  0.9986190305858571  0.7458749021887030
  0.3307032462201676  0.0638055898339474  0.7481460638006325
  0.3985493326226930  0.9978617000677730  0.7471300521027828
  0.5321815683280064  0.0667509964383015  0.7476738585033402
  0.5996880759369816  0.0006155910746699  0.7460716686218589
  0.7324573530211964  0.0687015149883123  0.7463332208039120
  0.7996513125355662  0.0014567727621184  0.7458119603193367
  0.9327076940985890  0.0672922768215898  0.7454576138472291
  0.9985432473613045  0.2003487860040707  0.7458119595958905
  0.1311838066205127  0.2652302947156997  0.7471272359786099
  0.1971416762214133  0.1973615872912831  0.7481395020498027
  0.3295116976596688  0.2637037602973891  0.7529195900530965
  0.3970216210183111  0.1961961422735854  0.7529213741916081
  0.5948975070813916  0.2000324656916135  0.7519765830426905
  0.7297365262091660  0.2702635231083192  0.7511739858262700
  0.7974320469643672  0.2025680806238626  0.7476766225583944
  0.9312985986599429  0.2675431331789397  0.7463332210809597
  0.9993843821830879  0.4003117571203489  0.7460716649450418
  0.1339619181642249  0.4663829411534905  0.7460755326187538
  0.2000814137967666  0.3988363956033751  0.7476741762119943
  0.3333718866417357  0.4615627112808554  0.7519733880055597
  0.7999674407463857  0.4051024212186789  0.7519765838475791
  0.9332488762160338  0.4678187682771693  0.7476738633152706
  0.0021383093140415  0.6014507683353116  0.7471300531074547
  0.1347994578238314  0.6663140312634965  0.7458204437525637
  0.2020371029628123  0.5991202761009973  0.7463350225556837
  0.3358913144716240  0.6641086982432469  0.7476806422689819
  0.4035957783738695  0.5964042287027951  0.7511684379812706
  0.5384372877833812  0.6666280969544900  0.7519733882898336
  0.7362962349162530  0.6704882914957722  0.7529195900703272
  0.8038038535104164  0.6029783844570744  0.7529213745114589
  0.9361944200590315  0.6692967497220792  0.7481460635627570
  0.0013809747920135  0.8012496110709790  0.7458749021782296
  0.1339914840264100  0.8660085062926086  0.7451052956767725
  0.2006180385599663  0.7993819744159651  0.7454559500529570
  0.3336859488946970  0.8652005112408148  0.7458204433149760
  0.4008797510306579  0.7979629693656420  0.7463350224528540
  0.5336172495468290  0.8660380794528351  0.7460755334451790
  0.6011635756544180  0.7999185321115760  0.7476741765090864
  0.7347696956059977  0.8688161923542239  0.7471272361981249
  0.8026384245992446  0.8028583324193548  0.7481395014971639
  0.9345693560865911  0.8680629780582052  0.7458704842573951
  0.5260585609656658  0.2600233128051883  0.7581842797405898
  0.3933535712356928  0.3927293431440617  0.7581847026844670
  0.7399767005551894  0.4739414375787661  0.7581842792705586
  0.6072706568487263  0.6066464288748961  0.7581847015130592
  0.5666652475368679  0.4333347505897933  0.8116927683556412
 
  0.00000000E+00  0.00000000E+00  0.00000000E+00
  0.00000000E+00  0.00000000E+00  0.00000000E+00
  0.00000000E+00  0.00000000E+00  0.00000000E+00
  0.00000000E+00  0.00000000E+00  0.00000000E+00
  0.00000000E+00  0.00000000E+00  0.00000000E+00
  0.00000000E+00  0.00000000E+00  0.00000000E+00
  0.00000000E+00  0.00000000E+00  0.00000000E+00
  0.00000000E+00  0.00000000E+00  0.00000000E+00
  0.00000000E+00  0.00000000E+00  0.00000000E+00
  0.00000000E+00  0.00000000E+00  0.00000000E+00
  0.00000000E+00  0.00000000E+00  0.00000000E+00
  0.00000000E+00  0.00000000E+00  0.00000000E+00
  0.00000000E+00  0.00000000E+00  0.00000000E+00
  0.00000000E+00  0.00000000E+00  0.00000000E+00
  0.00000000E+00  0.00000000E+00  0.00000000E+00
  0.00000000E+00  0.00000000E+00  0.00000000E+00
  0.00000000E+00  0.00000000E+00  0.00000000E+00
  0.00000000E+00  0.00000000E+00  0.00000000E+00
  0.00000000E+00  0.00000000E+00  0.00000000E+00
  0.00000000E+00  0.00000000E+00  0.00000000E+00
  0.00000000E+00  0.00000000E+00  0.00000000E+00
  0.00000000E+00  0.00000000E+00  0.00000000E+00
  0.00000000E+00  0.00000000E+00  0.00000000E+00
  0.00000000E+00  0.00000000E+00  0.00000000E+00
  0.00000000E+00  0.00000000E+00  0.00000000E+00
  0.00000000E+00  0.00000000E+00  0.00000000E+00
  0.00000000E+00  0.00000000E+00  0.00000000E+00
  0.00000000E+00  0.00000000E+00  0.00000000E+00
  0.00000000E+00  0.00000000E+00  0.00000000E+00
  0.00000000E+00  0.00000000E+00  0.00000000E+00
  0.00000000E+00  0.00000000E+00  0.00000000E+00
  0.00000000E+00  0.00000000E+00  0.00000000E+00
  0.00000000E+00  0.00000000E+00  0.00000000E+00
  0.00000000E+00  0.00000000E+00  0.00000000E+00
  0.00000000E+00  0.00000000E+00  0.00000000E+00
  0.00000000E+00  0.00000000E+00  0.00000000E+00
  0.00000000E+00  0.00000000E+00  0.00000000E+00
  0.00000000E+00  0.00000000E+00  0.00000000E+00
  0.00000000E+00  0.00000000E+00  0.00000000E+00
  0.00000000E+00  0.00000000E+00  0.00000000E+00
  0.00000000E+00  0.00000000E+00  0.00000000E+00
  0.00000000E+00  0.00000000E+00  0.00000000E+00
  0.00000000E+00  0.00000000E+00  0.00000000E+00
  0.00000000E+00  0.00000000E+00  0.00000000E+00
  0.00000000E+00  0.00000000E+00  0.00000000E+00
  0.00000000E+00  0.00000000E+00  0.00000000E+00
  0.00000000E+00  0.00000000E+00  0.00000000E+00
  0.00000000E+00  0.00000000E+00  0.00000000E+00
  0.00000000E+00  0.00000000E+00  0.00000000E+00
