C  N  Nb                                
   1.00000000000000     
    12.3000000000000007    0.0000000000000000    0.0000000000000000
    -6.1499999999999977   10.6521124665485960    0.0000000000000000
     0.0000000000000000    0.0000000000000000   20.0000000000000000
   C    N    Nb
    44     4     1
Direct
  0.9992272864701945  0.0007727354768008  0.7395783512111507
  0.1317811757143517  0.0651609491103642  0.7397951029801391
  0.1984839480481284  0.9984471580679894  0.7397813256220189
  0.3306740755721052  0.0635945106546316  0.7444003854158296
  0.3985180519840128  0.9977864103231369  0.7464366784854377
  0.5320184069673388  0.0674449593484212  0.7498692615796472
  0.5995588834817056  0.0007597479989343  0.7488474998584849
  0.7323299620033126  0.0690230289345521  0.7486557845742610
  0.7994920287302065  0.0017133406551082  0.7455351498934562
  0.9325350015121145  0.0674650047446121  0.7430291084540244
  0.9982866519510907  0.2005079750725969  0.7455351508824108
  0.1310995577059089  0.2651813706911170  0.7464822209903872
  0.1969038703877644  0.1973357163644707  0.7444601386223368
  0.3282454225861784  0.2618260746138077  0.7512624621135018
  0.3951255716724233  0.1949350288839895  0.7512483527561784
  0.5943236507091143  0.2008266081436574  0.7555580413215068
  0.7291234501151109  0.2708765452834854  0.7551855569327799
  0.7970042263676618  0.2029957641832425  0.7507127548217625
  0.9309769590728294  0.2676700362087203  0.7486557833620324
  0.9992402353410910  0.4004411153646501  0.7488474980801669
  0.1340752581311406  0.4662069890915603  0.7488423367666499
  0.2007620632482912  0.3986625591043804  0.7498854539066002
  0.3341631584881952  0.4610051789083727  0.7555729077341624
  0.7991733831306931  0.4056763472746994  0.7555580408449956
  0.9325550301334644  0.4679815973004864  0.7498692583816720
  0.0022135826544982  0.6014819555409758  0.7464366731662437
  0.1350384240568516  0.6661372364498135  0.7455555391597954
  0.2023513042954548  0.5989758193723134  0.7486217995241944
  0.3363331057203922  0.6636668830599177  0.7506773372054809
  0.4042039644876070  0.5957960281464167  0.7551953993279454
  0.5389948161305256  0.6658368302627125  0.7555729060782497
  0.7381739255175788  0.6717545759627583  0.7512624566721939
  0.8050649695312941  0.6048744299782527  0.7512483514095720
  0.9364054920400662  0.6693259404958241  0.7444003860714830
  0.0015528625626757  0.8015160741855709  0.7397813264537589
  0.1341252801005055  0.8658747419928261  0.7396021903723735
  0.2008094516068937  0.7991905559078489  0.7430914107421671
  0.3338627685701852  0.8649615696614958  0.7455555434113563
  0.4010241777680221  0.7976486825654447  0.7486218002369540
  0.5337930087056506  0.8659247246135919  0.7488423353580487
  0.6013374425190037  0.7992379242161078  0.7498854510423953
  0.7348186346181578  0.8689004341004392  0.7464822188416491
  0.8026642982798293  0.8030961326726285  0.7444601357825178
  0.9348390724739488  0.8682188457813211  0.7397951035917316
  0.5236149986713201  0.2601097600968316  0.7624225553072606
  0.3934569669763590  0.3903218575630376  0.7624317865879746
  0.7398902326653243  0.4763849993506142  0.7624225535365170
  0.6096781394391186  0.6065430250498096  0.7624317826178384
  0.5666647710842767  0.4333352211696919  0.8025943519106917
 
  0.00000000E+00  0.00000000E+00  0.00000000E+00
  0.00000000E+00  0.00000000E+00  0.00000000E+00
  0.00000000E+00  0.00000000E+00  0.00000000E+00
  0.00000000E+00  0.00000000E+00  0.00000000E+00
  0.00000000E+00  0.00000000E+00  0.00000000E+00
  0.00000000E+00  0.00000000E+00  0.00000000E+00
  0.00000000E+00  0.00000000E+00  0.00000000E+00
  0.00000000E+00  0.00000000E+00  0.00000000E+00
  0.00000000E+00  0.00000000E+00  0.00000000E+00
  0.00000000E+00  0.00000000E+00  0.00000000E+00
  0.00000000E+00  0.00000000E+00  0.00000000E+00
  0.00000000E+00  0.00000000E+00  0.00000000E+00
  0.00000000E+00  0.00000000E+00  0.00000000E+00
  0.00000000E+00  0.00000000E+00  0.00000000E+00
  0.00000000E+00  0.00000000E+00  0.00000000E+00
  0.00000000E+00  0.00000000E+00  0.00000000E+00
  0.00000000E+00  0.00000000E+00  0.00000000E+00
  0.00000000E+00  0.00000000E+00  0.00000000E+00
  0.00000000E+00  0.00000000E+00  0.00000000E+00
  0.00000000E+00  0.00000000E+00  0.00000000E+00
  0.00000000E+00  0.00000000E+00  0.00000000E+00
  0.00000000E+00  0.00000000E+00  0.00000000E+00
  0.00000000E+00  0.00000000E+00  0.00000000E+00
  0.00000000E+00  0.00000000E+00  0.00000000E+00
  0.00000000E+00  0.00000000E+00  0.00000000E+00
  0.00000000E+00  0.00000000E+00  0.00000000E+00
  0.00000000E+00  0.00000000E+00  0.00000000E+00
  0.00000000E+00  0.00000000E+00  0.00000000E+00
  0.00000000E+00  0.00000000E+00  0.00000000E+00
  0.00000000E+00  0.00000000E+00  0.00000000E+00
  0.00000000E+00  0.00000000E+00  0.00000000E+00
  0.00000000E+00  0.00000000E+00  0.00000000E+00
  0.00000000E+00  0.00000000E+00  0.00000000E+00
  0.00000000E+00  0.00000000E+00  0.00000000E+00
  0.00000000E+00  0.00000000E+00  0.00000000E+00
  0.00000000E+00  0.00000000E+00  0.00000000E+00
  0.00000000E+00  0.00000000E+00  0.00000000E+00
  0.00000000E+00  0.00000000E+00  0.00000000E+00
  0.00000000E+00  0.00000000E+00  0.00000000E+00
  0.00000000E+00  0.00000000E+00  0.00000000E+00
  0.00000000E+00  0.00000000E+00  0.00000000E+00
  0.00000000E+00  0.00000000E+00  0.00000000E+00
  0.00000000E+00  0.00000000E+00  0.00000000E+00
  0.00000000E+00  0.00000000E+00  0.00000000E+00
  0.00000000E+00  0.00000000E+00  0.00000000E+00
  0.00000000E+00  0.00000000E+00  0.00000000E+00
  0.00000000E+00  0.00000000E+00  0.00000000E+00
  0.00000000E+00  0.00000000E+00  0.00000000E+00
  0.00000000E+00  0.00000000E+00  0.00000000E+00
