       N       E                     dE             d eps       ncg     rms          ort
SDA:   1    -0.338408336796E+03   -0.33841E+03    0.00000E+00  3328   0.135E+03 0.000E+00
CGA:   2    -0.415175692863E+03   -0.76767E+02   -0.75842E+02  3328   0.693E+02 0.148E+01
CGA:   3    -0.432081808708E+03   -0.16906E+02   -0.16864E+02  3328   0.359E+02 0.688E+00
CGA:   4    -0.440283361275E+03   -0.82016E+01   -0.82006E+01  3328   0.186E+02-0.744E-01
CGA:   5    -0.443431196682E+03   -0.31478E+01   -0.31513E+01  3328   0.975E+01-0.120E-01
CGA:   6    -0.445079970927E+03   -0.16488E+01   -0.16487E+01  3328   0.363E+01-0.202E-01
CGA:   7    -0.445799760631E+03   -0.71979E+00   -0.71990E+00  3328   0.148E+01-0.134E-02
CGA:   8    -0.446098192444E+03   -0.29843E+00   -0.29840E+00  3328   0.600E+00-0.190E-02
CGA:   9    -0.446221615316E+03   -0.12342E+00   -0.12343E+00  3328   0.215E+00 0.544E-03
CGA:  10    -0.446274738862E+03   -0.53124E-01   -0.53124E-01  3328   0.904E-01-0.341E-04
CGA:  11    -0.446296549564E+03   -0.21811E-01   -0.21814E-01  3328   0.359E-01-0.656E-04
CGA:  12    -0.446307099421E+03   -0.10550E-01   -0.10552E-01  3328   0.163E-01-0.270E-04
CGA:  13    -0.446311698742E+03   -0.45993E-02   -0.46024E-02  3328   0.679E-02-0.480E-04
CGA:  14    -0.446313760774E+03   -0.20620E-02   -0.20639E-02  3328   0.252E-02-0.198E-04
CGA:  15    -0.446314507960E+03   -0.74719E-03   -0.74759E-03  3328   0.914E-03-0.405E-05
CGA:  16    -0.446314798597E+03   -0.29064E-03   -0.29112E-03  3328   0.345E-03-0.506E-05
CGA:  17    -0.446314915361E+03   -0.11676E-03   -0.11676E-03  3328   0.146E-03 0.306E-06
CGA:  18    -0.446314970260E+03   -0.54900E-04   -0.55032E-04  3328   0.710E-04-0.934E-06
CGA:  19    -0.446314997444E+03   -0.27183E-04   -0.27290E-04  3328   0.335E-04-0.643E-06
CGA:  20    -0.446315009951E+03   -0.12507E-04   -0.12447E-04  3328   0.151E-04 0.515E-06
CGA:  21    -0.446315016086E+03   -0.61353E-05   -0.61799E-05  3328   0.745E-05-0.280E-06
   1 F= -.44804963E+03 E0= -.44803197E+03  d E =-.353033E-01  mag=     2.3320
