C  N  Tm                                
   1.00000000000000     
    12.3000000000000007    0.0000000000000000    0.0000000000000000
    -6.1499999999999977   10.6521124665485960    0.0000000000000000
     0.0000000000000000    0.0000000000000000   20.0000000000000000
   C    N    Tm
    44     4     1
Direct
  0.9993852454477903  0.0006412737492951  0.7535602462594326
  0.1318738070549159  0.0652225263983937  0.7532718445038213
  0.1985482890171468  0.9985344826107010  0.7532939670823637
  0.3309094880022982  0.0639517859575705  0.7520283758046631
  0.3986009472014800  0.9979199457369461  0.7526791606816161
  0.5320360455284003  0.0666037420945571  0.7523430252770780
  0.5995725172702393  0.0004710191419974  0.7533669961272054
  0.7325340860766616  0.0687597605367145  0.7527784020600663
  0.7997158149434043  0.0017092224460100  0.7531493254633119
  0.9326471818891378  0.0673702512517806  0.7532283223574012
  0.9982982153439934  0.2003118648596356  0.7531424909083739
  0.1312565821403311  0.2652653082519407  0.7526895546126795
  0.1973073021506053  0.1975851680450944  0.7520983284095522
  0.3295864308121494  0.2640225180088223  0.7487579325686653
  0.3973380398110820  0.1962454573499102  0.7486819596535454
  0.5944548832128049  0.2002605017928332  0.7486804032190193
  0.7296057934947910  0.2703885550435885  0.7489986424637678
  0.7972843986806595  0.2027226291736497  0.7516329998030145
  0.9312292955723720  0.2674867677517128  0.7527729321465415
  0.9994826256150233  0.4004603265044224  0.7533725815370929
  0.1338541795945005  0.4662643810990659  0.7535309450079879
  0.1999763831106947  0.3987011233305537  0.7525378380883296
  0.3336330798597373  0.4611495817361799  0.7489615724618091
  0.7996887621685218  0.4055414542540134  0.7485270341812438
  0.9333287897377360  0.4679830885935061  0.7522968424098835
  0.0020636883044318  0.6014321567361591  0.7526503702262275
  0.1350443053903092  0.6663720691893076  0.7533911184199127
  0.2021190270895659  0.5992056905232488  0.7531160733263391
  0.3360591474652352  0.6639424319999492  0.7520247122344585
  0.4037326609092133  0.5962813857698848  0.7493794324663057
  0.5388784434114129  0.6663593300751316  0.7488999869537949
  0.7359951028632494  0.6704343609830303  0.7487038001500324
  0.8037454526625680  0.6026877325061690  0.7485163897129823
  0.9360219634196199  0.6690989310328916  0.7520181383494631
  0.0014726059423325  0.8014637275646024  0.7533409800785265
  0.1339754880955581  0.8660314712957984  0.7536846594498741
  0.2007091977282940  0.7993101718157334  0.7534904096053765
  0.3336461025733968  0.8649372769904318  0.7533869755664711
  0.4008203028231350  0.7978784411057589  0.7530965561586669
  0.5337578378257462  0.8661114561024661  0.7535103534559511
  0.6013282980750745  0.8000083045937316  0.7525141591789648
  0.7347534742939246  0.8687351993594561  0.7527009086882188
  0.8024459197048159  0.8027011287142898  0.7521511230310338
  0.9348051976969174  0.8681508506326523  0.7533238478080833
  0.5260382807976782  0.2604394603077793  0.7438025480012556
  0.3938316360289065  0.3927633474909413  0.7438857214137329
  0.7395252639539649  0.4739732782249604  0.7433381668511458
  0.6073054175919452  0.6062414048939218  0.7437703624670391
  0.5663670016162357  0.4332776563727876  0.6899214833176472
 
  0.00000000E+00  0.00000000E+00  0.00000000E+00
  0.00000000E+00  0.00000000E+00  0.00000000E+00
  0.00000000E+00  0.00000000E+00  0.00000000E+00
  0.00000000E+00  0.00000000E+00  0.00000000E+00
  0.00000000E+00  0.00000000E+00  0.00000000E+00
  0.00000000E+00  0.00000000E+00  0.00000000E+00
  0.00000000E+00  0.00000000E+00  0.00000000E+00
  0.00000000E+00  0.00000000E+00  0.00000000E+00
  0.00000000E+00  0.00000000E+00  0.00000000E+00
  0.00000000E+00  0.00000000E+00  0.00000000E+00
  0.00000000E+00  0.00000000E+00  0.00000000E+00
  0.00000000E+00  0.00000000E+00  0.00000000E+00
  0.00000000E+00  0.00000000E+00  0.00000000E+00
  0.00000000E+00  0.00000000E+00  0.00000000E+00
  0.00000000E+00  0.00000000E+00  0.00000000E+00
  0.00000000E+00  0.00000000E+00  0.00000000E+00
  0.00000000E+00  0.00000000E+00  0.00000000E+00
  0.00000000E+00  0.00000000E+00  0.00000000E+00
  0.00000000E+00  0.00000000E+00  0.00000000E+00
  0.00000000E+00  0.00000000E+00  0.00000000E+00
  0.00000000E+00  0.00000000E+00  0.00000000E+00
  0.00000000E+00  0.00000000E+00  0.00000000E+00
  0.00000000E+00  0.00000000E+00  0.00000000E+00
  0.00000000E+00  0.00000000E+00  0.00000000E+00
  0.00000000E+00  0.00000000E+00  0.00000000E+00
  0.00000000E+00  0.00000000E+00  0.00000000E+00
  0.00000000E+00  0.00000000E+00  0.00000000E+00
  0.00000000E+00  0.00000000E+00  0.00000000E+00
  0.00000000E+00  0.00000000E+00  0.00000000E+00
  0.00000000E+00  0.00000000E+00  0.00000000E+00
  0.00000000E+00  0.00000000E+00  0.00000000E+00
  0.00000000E+00  0.00000000E+00  0.00000000E+00
  0.00000000E+00  0.00000000E+00  0.00000000E+00
  0.00000000E+00  0.00000000E+00  0.00000000E+00
  0.00000000E+00  0.00000000E+00  0.00000000E+00
  0.00000000E+00  0.00000000E+00  0.00000000E+00
  0.00000000E+00  0.00000000E+00  0.00000000E+00
  0.00000000E+00  0.00000000E+00  0.00000000E+00
  0.00000000E+00  0.00000000E+00  0.00000000E+00
  0.00000000E+00  0.00000000E+00  0.00000000E+00
  0.00000000E+00  0.00000000E+00  0.00000000E+00
  0.00000000E+00  0.00000000E+00  0.00000000E+00
  0.00000000E+00  0.00000000E+00  0.00000000E+00
  0.00000000E+00  0.00000000E+00  0.00000000E+00
  0.00000000E+00  0.00000000E+00  0.00000000E+00
  0.00000000E+00  0.00000000E+00  0.00000000E+00
  0.00000000E+00  0.00000000E+00  0.00000000E+00
  0.00000000E+00  0.00000000E+00  0.00000000E+00
  0.00000000E+00  0.00000000E+00  0.00000000E+00
