C  N  K                                 
   1.00000000000000     
    12.3000000000000007    0.0000000000000000    0.0000000000000000
    -6.1499999999999977   10.6521124665485960    0.0000000000000000
     0.0000000000000000    0.0000000000000000   20.0000000000000000
   C    N    K 
    44     4     1
Direct
  0.9995281340324951  0.0004717576277642  0.7416338284768287
  0.1321898035469928  0.0656034574716031  0.7421511387504864
  0.1988980728664416  0.9988950199188480  0.7421430152368558
  0.3317904887667211  0.0648152082319058  0.7453525595819599
  0.3988442526543565  0.9980860602466919  0.7456501663001234
  0.5314864535763704  0.0661649359001757  0.7479222080381689
  0.5993109849166132  0.0002737409290390  0.7467584527508890
  0.7322182572283324  0.0689915466763367  0.7467707314246681
  0.7996276817410646  0.0023328831312455  0.7446531335841584
  0.9323709633583590  0.0676287470697332  0.7433328786421498
  0.9976673406019785  0.2003719223990572  0.7446531411389188
  0.1314172185519169  0.2655375074728568  0.7456385120641542
  0.1981518564118829  0.1984803676483509  0.7453816673363605
  0.3307546896832889  0.2669874806917676  0.7518423261890916
  0.4003095581790959  0.1974178391408046  0.7518435820649216
  0.5929487807165899  0.2002293249459299  0.7533459437635344
  0.7291750559568584  0.2708250154858760  0.7532743782868323
  0.7964664942509998  0.2035335576270541  0.7488296652867845
  0.9310083912458609  0.2677813616732010  0.7467707674089183
  0.9997261293686179  0.4006885279014938  0.7467584617850491
  0.1336613618302849  0.4660218380136882  0.7467275470086605
  0.1995298008212529  0.3981693847238574  0.7478669269087561
  0.3335991511998841  0.4595929375623413  0.7533155800060314
  0.7997708238569885  0.4070513615811961  0.7533459395818483
  0.9338351215587579  0.4685132770167542  0.7479221978499737
  0.0019139496394374  0.6011555933379000  0.7456501532273947
  0.1356746163335316  0.6663044140190237  0.7446620256978420
  0.2023555541515165  0.5989003498195373  0.7467501445634355
  0.3368797068065632  0.6631203409967057  0.7488247309168017
  0.4041849894927694  0.5958150436678693  0.7532488146771783
  0.5404070985594700  0.6664008858955413  0.7533155758224410
  0.7330125602665305  0.6692453656757635  0.7518423123998588
  0.8025822084327956  0.5996904752857759  0.7518435700894273
  0.9351848451950175  0.6682095546819085  0.7453525481156476
  0.0011050278132956  0.8011019736848795  0.7421430104998521
  0.1337814191130065  0.8662186612416463  0.7416569209813204
  0.2009413851564048  0.7990586414526604  0.7433413242751783
  0.3336956964270712  0.8643254707477226  0.7446620389582108
  0.4010996203240680  0.7976443849883239  0.7467501546185602
  0.5339780097315554  0.8663385783055091  0.7467275485754854
  0.6018307791867414  0.8004702456901995  0.7478669220421850
  0.7344624628822700  0.8685830326615900  0.7456385057628836
  0.8015197039479176  0.8018482946169883  0.7453816546275220
  0.9343966369224859  0.8678102286248617  0.7421511321661001
  0.5257289568971686  0.2598799575796704  0.7583954402953239
  0.3932409877389205  0.3923963737699765  0.7583848019503492
  0.7401200703369852  0.4742711436717499  0.7583954363743857
  0.6076036755022685  0.6067590558696523  0.7583847917848416
  0.5666011722202384  0.4333988726269524  0.8497506921116482
 
  0.00000000E+00  0.00000000E+00  0.00000000E+00
  0.00000000E+00  0.00000000E+00  0.00000000E+00
  0.00000000E+00  0.00000000E+00  0.00000000E+00
  0.00000000E+00  0.00000000E+00  0.00000000E+00
  0.00000000E+00  0.00000000E+00  0.00000000E+00
  0.00000000E+00  0.00000000E+00  0.00000000E+00
  0.00000000E+00  0.00000000E+00  0.00000000E+00
  0.00000000E+00  0.00000000E+00  0.00000000E+00
  0.00000000E+00  0.00000000E+00  0.00000000E+00
  0.00000000E+00  0.00000000E+00  0.00000000E+00
  0.00000000E+00  0.00000000E+00  0.00000000E+00
  0.00000000E+00  0.00000000E+00  0.00000000E+00
  0.00000000E+00  0.00000000E+00  0.00000000E+00
  0.00000000E+00  0.00000000E+00  0.00000000E+00
  0.00000000E+00  0.00000000E+00  0.00000000E+00
  0.00000000E+00  0.00000000E+00  0.00000000E+00
  0.00000000E+00  0.00000000E+00  0.00000000E+00
  0.00000000E+00  0.00000000E+00  0.00000000E+00
  0.00000000E+00  0.00000000E+00  0.00000000E+00
  0.00000000E+00  0.00000000E+00  0.00000000E+00
  0.00000000E+00  0.00000000E+00  0.00000000E+00
  0.00000000E+00  0.00000000E+00  0.00000000E+00
  0.00000000E+00  0.00000000E+00  0.00000000E+00
  0.00000000E+00  0.00000000E+00  0.00000000E+00
  0.00000000E+00  0.00000000E+00  0.00000000E+00
  0.00000000E+00  0.00000000E+00  0.00000000E+00
  0.00000000E+00  0.00000000E+00  0.00000000E+00
  0.00000000E+00  0.00000000E+00  0.00000000E+00
  0.00000000E+00  0.00000000E+00  0.00000000E+00
  0.00000000E+00  0.00000000E+00  0.00000000E+00
  0.00000000E+00  0.00000000E+00  0.00000000E+00
  0.00000000E+00  0.00000000E+00  0.00000000E+00
  0.00000000E+00  0.00000000E+00  0.00000000E+00
  0.00000000E+00  0.00000000E+00  0.00000000E+00
  0.00000000E+00  0.00000000E+00  0.00000000E+00
  0.00000000E+00  0.00000000E+00  0.00000000E+00
  0.00000000E+00  0.00000000E+00  0.00000000E+00
  0.00000000E+00  0.00000000E+00  0.00000000E+00
  0.00000000E+00  0.00000000E+00  0.00000000E+00
  0.00000000E+00  0.00000000E+00  0.00000000E+00
  0.00000000E+00  0.00000000E+00  0.00000000E+00
  0.00000000E+00  0.00000000E+00  0.00000000E+00
  0.00000000E+00  0.00000000E+00  0.00000000E+00
  0.00000000E+00  0.00000000E+00  0.00000000E+00
  0.00000000E+00  0.00000000E+00  0.00000000E+00
  0.00000000E+00  0.00000000E+00  0.00000000E+00
  0.00000000E+00  0.00000000E+00  0.00000000E+00
  0.00000000E+00  0.00000000E+00  0.00000000E+00
  0.00000000E+00  0.00000000E+00  0.00000000E+00
