       N       E                     dE             d eps       ncg     rms          ort
DAV:   1     0.973122542539E+03    0.97312E+03   -0.87057E+04  3328   0.666E+02
DAV:   2    -0.362131998040E+03   -0.13353E+04   -0.13348E+04  3328   0.973E+01
DAV:   3    -0.437639864910E+03   -0.75508E+02   -0.75507E+02  3328   0.357E+01
DAV:   4    -0.438634415591E+03   -0.99455E+00   -0.99454E+00  3328   0.458E+00
DAV:   5    -0.438634628753E+03   -0.21316E-03   -0.21316E-03  3328   0.702E-02
SDA:   6    -0.438634628753E+03    0.00000E+00   -0.21316E-03  3328   0.587E-05 0.000E+00
   1 F= -.44038049E+03 E0= -.44037830E+03  d E =-.437532E-02  mag=     0.0000
