       N       E                     dE             d eps       ncg     rms          ort
SDA:   1    -0.333649509539E+03   -0.33365E+03    0.00000E+00  3328   0.129E+03 0.000E+00
CGA:   2    -0.408424121406E+03   -0.74775E+02   -0.83062E+02  3328   0.725E+02-0.160E+02
CGA:   3    -0.426430573335E+03   -0.18006E+02   -0.17877E+02  3328   0.252E+02 0.120E+01
CGA:   4    -0.434508676562E+03   -0.80781E+01   -0.80824E+01  3328   0.108E+02-0.870E-01
CGA:   5    -0.437000717792E+03   -0.24920E+01   -0.24919E+01  3328   0.432E+01 0.293E-01
CGA:   6    -0.438055978831E+03   -0.10553E+01   -0.10552E+01  3328   0.145E+01-0.974E-03
CGA:   7    -0.438437083181E+03   -0.38110E+00   -0.38108E+00  3328   0.464E+00 0.390E-03
CGA:   8    -0.438565675375E+03   -0.12859E+00   -0.12859E+00  3328   0.149E+00 0.145E-04
CGA:   9    -0.438610560741E+03   -0.44885E-01   -0.44895E-01  3328   0.547E-01-0.155E-03
CGA:  10    -0.438628488751E+03   -0.17928E-01   -0.17939E-01  3328   0.213E-01-0.108E-03
CGA:  11    -0.438635796312E+03   -0.73076E-02   -0.73145E-02  3328   0.758E-02-0.623E-04
CGA:  12    -0.438638381676E+03   -0.25854E-02   -0.25883E-02  3328   0.240E-02-0.280E-04
CGA:  13    -0.438639201662E+03   -0.81999E-03   -0.82082E-03  3328   0.752E-03-0.802E-05
CGA:  14    -0.438639479334E+03   -0.27767E-03   -0.27802E-03  3328   0.274E-03-0.290E-05
CGA:  15    -0.438639590986E+03   -0.11165E-03   -0.11200E-03  3328   0.117E-03-0.236E-05
CGA:  16    -0.438639641216E+03   -0.50230E-04   -0.50574E-04  3328   0.501E-04-0.209E-05
CGA:  17    -0.438639662502E+03   -0.21286E-04   -0.21530E-04  3328   0.205E-04-0.152E-05
CGA:  18    -0.438639671397E+03   -0.88953E-05   -0.90413E-05  3328   0.910E-05-0.854E-06
   1 F= -.44038553E+03 E0= -.44037937E+03  d E =-.123289E-01  mag=     0.0000
