C  N  Sm                                
   1.00000000000000     
    12.3000001907000005    0.0000000000000000    0.0000000000000000
    -6.1500000954000003   10.6521126316999997    0.0000000000000000
     0.0000000000000000    0.0000000000000000   20.0000000000000000
   C    N    Sm
    44     4     1
Direct
  0.9994195018256846  0.0005804981743154  0.7428879542808886
  0.1320795791387326  0.0654271962462190  0.7435841557825640
  0.1987529196135611  0.9987470286946447  0.7437134603973234
  0.3312025217959302  0.0643881953942511  0.7467805267302623
  0.3986959089506072  0.9981152918638756  0.7466223088347022
  0.5320458652522220  0.0665468493371435  0.7479147485795110
  0.5995638908639478  0.0004714680917388  0.7466223321209711
  0.7325931022224097  0.0687100431743772  0.7467236645762299
  0.7997138373999775  0.0016824162317519  0.7452305348384058
  0.9326666911152515  0.0673333088847627  0.7441797647717721
  0.9983175837682552  0.2002861626000154  0.7452305348384058
  0.1314523634218716  0.2653767682445292  0.7463775724702089
  0.1977264705822250  0.1978839404781496  0.7466130106634736
  0.3300612566722805  0.2646664835904531  0.7522844924105954
  0.3979928135291146  0.1967344992794082  0.7523148104307111
  0.5945174322036380  0.2001811953479233  0.7528333035886945
  0.7297640369349665  0.2702359630650335  0.7524425661587557
  0.7973200904948641  0.2026799095051430  0.7484594870930081
  0.9312899568256299  0.2674068977775761  0.7467236645762299
  0.9995285319082612  0.4004361091360664  0.7466223321209711
  0.1338060013939995  0.4662426637277903  0.7466818254308620
  0.1998843129537349  0.3987220284505142  0.7478579698155059
  0.3335114365794496  0.4611832449845110  0.7528879172553786
  0.7998188046520838  0.4054825677963620  0.7528333035886945
  0.9334531506628565  0.4679541347477709  0.7479147485795110
  0.0018847081361173  0.6013040910493928  0.7466223088347022
  0.1350152308652568  0.6663933008152227  0.7456053248032575
  0.2020395362879839  0.5992693950907864  0.7470097001384630
  0.3360073021480900  0.6639926978519171  0.7487320105628115
  0.4035673798159749  0.5964326201840180  0.7525865180066802
  0.5388167550154819  0.6664885634205646  0.7528879172553786
  0.7353335164095469  0.6699387433277266  0.7522844924105954
  0.8032655007205776  0.6020071864708783  0.7523148104307111
  0.9356118046057347  0.6687974782040769  0.7467805267302623
  0.0012529713053553  0.8012470803864389  0.7437134603973234
  0.1339097413759305  0.8660902586240553  0.7431572807442137
  0.2006587298656299  0.7993412701343772  0.7446007077626575
  0.3336066991847844  0.8649847691347503  0.7456053248032575
  0.4007306049092207  0.7979604637120161  0.7470097001384630
  0.5337573362722026  0.8661939986060005  0.7466818254308620
  0.6012779715494929  0.8001156870462651  0.7478579698155059
  0.7346232317554708  0.8685476365781284  0.7463775724702089
  0.8021160595218575  0.8022735294177750  0.7466130106634736
  0.9345728037537882  0.8679204208612816  0.7435841557825640
  0.5262187779879639  0.2598691765770056  0.7589420632444899
  0.3932000876310866  0.3928806107265927  0.7589810559960597
  0.7401308234230015  0.4737812220120503  0.7589420632444899
  0.6071193892734286  0.6067999123688992  0.7589810559960597
  0.5666949774245253  0.4333050225754747  0.8227921544038352
 
  0.00000000E+00  0.00000000E+00  0.00000000E+00
  0.00000000E+00  0.00000000E+00  0.00000000E+00
  0.00000000E+00  0.00000000E+00  0.00000000E+00
  0.00000000E+00  0.00000000E+00  0.00000000E+00
  0.00000000E+00  0.00000000E+00  0.00000000E+00
  0.00000000E+00  0.00000000E+00  0.00000000E+00
  0.00000000E+00  0.00000000E+00  0.00000000E+00
  0.00000000E+00  0.00000000E+00  0.00000000E+00
  0.00000000E+00  0.00000000E+00  0.00000000E+00
  0.00000000E+00  0.00000000E+00  0.00000000E+00
  0.00000000E+00  0.00000000E+00  0.00000000E+00
  0.00000000E+00  0.00000000E+00  0.00000000E+00
  0.00000000E+00  0.00000000E+00  0.00000000E+00
  0.00000000E+00  0.00000000E+00  0.00000000E+00
  0.00000000E+00  0.00000000E+00  0.00000000E+00
  0.00000000E+00  0.00000000E+00  0.00000000E+00
  0.00000000E+00  0.00000000E+00  0.00000000E+00
  0.00000000E+00  0.00000000E+00  0.00000000E+00
  0.00000000E+00  0.00000000E+00  0.00000000E+00
  0.00000000E+00  0.00000000E+00  0.00000000E+00
  0.00000000E+00  0.00000000E+00  0.00000000E+00
  0.00000000E+00  0.00000000E+00  0.00000000E+00
  0.00000000E+00  0.00000000E+00  0.00000000E+00
  0.00000000E+00  0.00000000E+00  0.00000000E+00
  0.00000000E+00  0.00000000E+00  0.00000000E+00
  0.00000000E+00  0.00000000E+00  0.00000000E+00
  0.00000000E+00  0.00000000E+00  0.00000000E+00
  0.00000000E+00  0.00000000E+00  0.00000000E+00
  0.00000000E+00  0.00000000E+00  0.00000000E+00
  0.00000000E+00  0.00000000E+00  0.00000000E+00
  0.00000000E+00  0.00000000E+00  0.00000000E+00
  0.00000000E+00  0.00000000E+00  0.00000000E+00
  0.00000000E+00  0.00000000E+00  0.00000000E+00
  0.00000000E+00  0.00000000E+00  0.00000000E+00
  0.00000000E+00  0.00000000E+00  0.00000000E+00
  0.00000000E+00  0.00000000E+00  0.00000000E+00
  0.00000000E+00  0.00000000E+00  0.00000000E+00
  0.00000000E+00  0.00000000E+00  0.00000000E+00
  0.00000000E+00  0.00000000E+00  0.00000000E+00
  0.00000000E+00  0.00000000E+00  0.00000000E+00
  0.00000000E+00  0.00000000E+00  0.00000000E+00
  0.00000000E+00  0.00000000E+00  0.00000000E+00
  0.00000000E+00  0.00000000E+00  0.00000000E+00
  0.00000000E+00  0.00000000E+00  0.00000000E+00
  0.00000000E+00  0.00000000E+00  0.00000000E+00
  0.00000000E+00  0.00000000E+00  0.00000000E+00
  0.00000000E+00  0.00000000E+00  0.00000000E+00
  0.00000000E+00  0.00000000E+00  0.00000000E+00
  0.00000000E+00  0.00000000E+00  0.00000000E+00
