       N       E                     dE             d eps       ncg     rms          rms(c)
RMM:   1     0.204746493899E+04    0.20475E+04   -0.50205E+04  4608   0.470E+02
RMM:   2     0.990826761752E+03   -0.10566E+04   -0.22339E+04  4608   0.143E+02
RMM:   3     0.288459241084E+03   -0.70237E+03   -0.93750E+03  4608   0.997E+01
RMM:   4    -0.273769865265E+03   -0.56223E+03   -0.38572E+03  4608   0.783E+01
RMM:   5    -0.403233084634E+03   -0.12946E+03   -0.92760E+02  4608   0.491E+01
RMM:   6    -0.432941706505E+03   -0.29709E+02   -0.18684E+02  4608   0.291E+01
RMM:   7    -0.445031634096E+03   -0.12090E+02   -0.72116E+01  4608   0.181E+01
RMM:   8    -0.449277525585E+03   -0.42459E+01   -0.22116E+01  4608   0.116E+01
RMM:   9    -0.452539091202E+03   -0.32616E+01   -0.25024E+01 13142   0.728E+00
RMM:  10    -0.452839874653E+03   -0.30078E+00   -0.23626E+00 15006   0.157E+00
RMM:  11    -0.452947724765E+03   -0.10785E+00   -0.10795E+00 15584   0.673E-01
RMM:  12    -0.453028750701E+03   -0.81026E-01   -0.79395E-01 16573   0.426E-01    0.522E+01
RMM:  13    -0.453834965309E+03   -0.80621E+00   -0.28270E+00 13302   0.210E+00    0.522E+01
RMM:  14    -0.452966877533E+03    0.86809E+00   -0.16514E+00 14025   0.221E+00    0.381E+01
RMM:  15    -0.448793238899E+03    0.41736E+01   -0.34516E+01 14590   0.881E+00    0.112E+01
RMM:  16    -0.449446822772E+03   -0.65358E+00   -0.22538E+00 14175   0.522E+00    0.106E+01
RMM:  17    -0.449505566462E+03   -0.58744E-01   -0.31514E+00 15462   0.374E+00    0.753E+00
RMM:  18    -0.449288924242E+03    0.21664E+00   -0.57399E-01 15024   0.167E+00    0.620E+00
RMM:  19    -0.449083218798E+03    0.20571E+00   -0.75070E-01 15435   0.133E+00    0.436E+00
RMM:  20    -0.449113586329E+03   -0.30368E-01   -0.75985E-02 15807   0.469E-01    0.409E+00
RMM:  21    -0.449094377119E+03    0.19209E-01   -0.33091E-02 17229   0.222E-01    0.402E+00
RMM:  22    -0.449116120707E+03   -0.21744E-01   -0.19101E-02 17163   0.134E-01    0.418E+00
RMM:  23    -0.449133166167E+03   -0.17045E-01   -0.13735E-02 17184   0.980E-02    0.427E+00
RMM:  24    -0.449199343463E+03   -0.66177E-01   -0.98167E-03 16507   0.104E-01    0.456E+00
RMM:  25    -0.449806558495E+03   -0.60722E+00   -0.41911E-01 14512   0.112E+00    0.385E+00
RMM:  26    -0.449230921309E+03    0.57564E+00   -0.63548E-01 15153   0.135E+00    0.223E+00
RMM:  27    -0.449649253105E+03   -0.41833E+00   -0.21778E-01 14192   0.797E-01    0.368E+00
RMM:  28    -0.449640524769E+03    0.87283E-02   -0.25313E-02 14967   0.316E-01    0.340E+00
RMM:  29    -0.449505291402E+03    0.13523E+00   -0.22530E-02 14584   0.345E-01    0.103E+00
RMM:  30    -0.449533654580E+03   -0.28363E-01   -0.84599E-03 14479   0.147E-01    0.993E-01
RMM:  31    -0.449554372920E+03   -0.20718E-01   -0.55315E-02 14672   0.323E-01    0.194E-01
RMM:  32    -0.449556708878E+03   -0.23360E-02   -0.61597E-03 15401   0.113E-01    0.274E-01
RMM:  33    -0.449558352789E+03   -0.16439E-02   -0.23317E-03 15524   0.593E-02    0.264E-01
RMM:  34    -0.449560860901E+03   -0.25081E-02   -0.52977E-03 14459   0.957E-02    0.344E-01
RMM:  35    -0.449561722756E+03   -0.86186E-03   -0.19961E-03 15014   0.532E-02    0.391E-01
RMM:  36    -0.449561737785E+03   -0.15029E-04   -0.11482E-03 14145   0.356E-02    0.282E-01
RMM:  37    -0.449561569189E+03    0.16860E-03   -0.68722E-04 12642   0.259E-02    0.956E-02
RMM:  38    -0.449561679549E+03   -0.11036E-03   -0.42429E-04 11285   0.201E-02    0.110E-01
RMM:  39    -0.449561780631E+03   -0.10108E-03   -0.46044E-04 12705   0.205E-02    0.109E-01
RMM:  40    -0.449561857634E+03   -0.77003E-04   -0.33872E-04 11886   0.186E-02    0.841E-02
RMM:  41    -0.449561912711E+03   -0.55077E-04   -0.31514E-04 11001   0.143E-02    0.441E-02
RMM:  42    -0.449561985298E+03   -0.72587E-04   -0.36994E-04 11545   0.190E-02    0.118E-02
RMM:  43    -0.449562013109E+03   -0.27811E-04   -0.17169E-04 10951   0.129E-02    0.893E-03
RMM:  44    -0.449562038825E+03   -0.25716E-04   -0.17499E-04 11223   0.994E-03    0.230E-02
RMM:  45    -0.449562056495E+03   -0.17670E-04   -0.15737E-04 10717   0.112E-02    0.207E-02
RMM:  46    -0.449562073605E+03   -0.17110E-04   -0.11658E-04 10807   0.878E-03    0.335E-02
RMM:  47    -0.449562078630E+03   -0.50251E-05   -0.96208E-05 10990   0.800E-03
   1 F= -.45132280E+03 E0= -.45131442E+03  d E =-.167485E-01  mag=     5.8801
