C  N  Sm                                
   1.00000000000000     
    12.3000001907000005    0.0000000000000000    0.0000000000000000
    -6.1500000954000003   10.6521126316999997    0.0000000000000000
     0.0000000000000000    0.0000000000000000   20.0000000000000000
   C    N    Sm
    44     4     1
Direct
  0.9994195018256812  0.0005804981743161  0.7428879542808891
  0.1320795791387296  0.0654271962462204  0.7435841557825645
  0.1987529196135641  0.9987470286946435  0.7437134603973258
  0.3312025217959283  0.0643881953942519  0.7467805267302653
  0.3986959089506096  0.9981152918638785  0.7466223088347029
  0.5320458652522230  0.0665468493371450  0.7479147485795112
  0.5995638908639449  0.0004714680917390  0.7466223321209693
  0.7325931022224113  0.0687100431743752  0.7467236645762302
  0.7997138373999761  0.0016824162317495  0.7452305348384026
  0.9326666911152487  0.0673333088847618  0.7441797647717755
  0.9983175837682534  0.2002861626000160  0.7452305348384026
  0.1314523634218741  0.2653767682445283  0.7463775724702096
  0.1977264705822253  0.1978839404781494  0.7466130106634703
  0.3300612566722769  0.2646664835904534  0.7522844924105935
  0.3979928135291128  0.1967344992794064  0.7523148104307126
  0.5945174322036392  0.2001811953479208  0.7528333035886936
  0.7297640369349636  0.2702359630650332  0.7524425661587538
  0.7973200904948615  0.2026799095051460  0.7484594870930099
  0.9312899568256302  0.2674068977775783  0.7467236645762302
  0.9995285319082633  0.4004361091360650  0.7466223321209693
  0.1338060013939984  0.4662426637277876  0.7466818254308649
  0.1998843129537378  0.3987220284505162  0.7478579698155057
  0.3335114365794462  0.4611832449845075  0.7528879172553762
  0.7998188046520834  0.4054825677963589  0.7528333035886936
  0.9334531506628598  0.4679541347477702  0.7479147485795112
  0.0018847081361182  0.6013040910493893  0.7466223088347029
  0.1350152308652540  0.6663933008152260  0.7456053248032595
  0.2020395362879809  0.5992693950907840  0.7470097001384640
  0.3360073021480880  0.6639926978519174  0.7487320105628122
  0.4035673798159763  0.5964326201840162  0.7525865180066788
  0.5388167550154831  0.6664885634205615  0.7528879172553762
  0.7353335164095494  0.6699387433277263  0.7522844924105935
  0.8032655007205743  0.6020071864708781  0.7523148104307126
  0.9356118046057377  0.6687974782040798  0.7467805267302653
  0.0012529713053556  0.8012470803864392  0.7437134603973258
  0.1339097413759328  0.8660902586240568  0.7431572807442165
  0.2006587298656287  0.7993412701343761  0.7446007077626576
  0.3336066991847872  0.8649847691347526  0.7456053248032595
  0.4007306049092231  0.7979604637120168  0.7470097001384640
  0.5337573362722003  0.8661939986060021  0.7466818254308649
  0.6012779715494939  0.8001156870462636  0.7478579698155057
  0.7346232317554708  0.8685476365781251  0.7463775724702096
  0.8021160595218576  0.8022735294177719  0.7466130106634703
  0.9345728037537878  0.8679204208612809  0.7435841557825645
  0.5262187779879628  0.2598691765770034  0.7589420632444928
  0.3932000876310854  0.3928806107265916  0.7589810559960626
  0.7401308234230023  0.4737812220120498  0.7589420632444928
  0.6071193892734282  0.6067999123688957  0.7589810559960626
  0.5666949774245249  0.4333050225754773  0.8227921544038356
 
  0.00000000E+00  0.00000000E+00  0.00000000E+00
  0.00000000E+00  0.00000000E+00  0.00000000E+00
  0.00000000E+00  0.00000000E+00  0.00000000E+00
  0.00000000E+00  0.00000000E+00  0.00000000E+00
  0.00000000E+00  0.00000000E+00  0.00000000E+00
  0.00000000E+00  0.00000000E+00  0.00000000E+00
  0.00000000E+00  0.00000000E+00  0.00000000E+00
  0.00000000E+00  0.00000000E+00  0.00000000E+00
  0.00000000E+00  0.00000000E+00  0.00000000E+00
  0.00000000E+00  0.00000000E+00  0.00000000E+00
  0.00000000E+00  0.00000000E+00  0.00000000E+00
  0.00000000E+00  0.00000000E+00  0.00000000E+00
  0.00000000E+00  0.00000000E+00  0.00000000E+00
  0.00000000E+00  0.00000000E+00  0.00000000E+00
  0.00000000E+00  0.00000000E+00  0.00000000E+00
  0.00000000E+00  0.00000000E+00  0.00000000E+00
  0.00000000E+00  0.00000000E+00  0.00000000E+00
  0.00000000E+00  0.00000000E+00  0.00000000E+00
  0.00000000E+00  0.00000000E+00  0.00000000E+00
  0.00000000E+00  0.00000000E+00  0.00000000E+00
  0.00000000E+00  0.00000000E+00  0.00000000E+00
  0.00000000E+00  0.00000000E+00  0.00000000E+00
  0.00000000E+00  0.00000000E+00  0.00000000E+00
  0.00000000E+00  0.00000000E+00  0.00000000E+00
  0.00000000E+00  0.00000000E+00  0.00000000E+00
  0.00000000E+00  0.00000000E+00  0.00000000E+00
  0.00000000E+00  0.00000000E+00  0.00000000E+00
  0.00000000E+00  0.00000000E+00  0.00000000E+00
  0.00000000E+00  0.00000000E+00  0.00000000E+00
  0.00000000E+00  0.00000000E+00  0.00000000E+00
  0.00000000E+00  0.00000000E+00  0.00000000E+00
  0.00000000E+00  0.00000000E+00  0.00000000E+00
  0.00000000E+00  0.00000000E+00  0.00000000E+00
  0.00000000E+00  0.00000000E+00  0.00000000E+00
  0.00000000E+00  0.00000000E+00  0.00000000E+00
  0.00000000E+00  0.00000000E+00  0.00000000E+00
  0.00000000E+00  0.00000000E+00  0.00000000E+00
  0.00000000E+00  0.00000000E+00  0.00000000E+00
  0.00000000E+00  0.00000000E+00  0.00000000E+00
  0.00000000E+00  0.00000000E+00  0.00000000E+00
  0.00000000E+00  0.00000000E+00  0.00000000E+00
  0.00000000E+00  0.00000000E+00  0.00000000E+00
  0.00000000E+00  0.00000000E+00  0.00000000E+00
  0.00000000E+00  0.00000000E+00  0.00000000E+00
  0.00000000E+00  0.00000000E+00  0.00000000E+00
  0.00000000E+00  0.00000000E+00  0.00000000E+00
  0.00000000E+00  0.00000000E+00  0.00000000E+00
  0.00000000E+00  0.00000000E+00  0.00000000E+00
  0.00000000E+00  0.00000000E+00  0.00000000E+00
