       N       E                     dE             d eps       ncg     rms          ort
SDA:   1    -0.334156403765E+03   -0.33416E+03    0.00000E+00  3328   0.143E+03 0.000E+00
CGA:   2    -0.379851054240E+03   -0.45695E+02   -0.60986E+02  3328   0.563E+03-0.382E+02
CGA:   3    -0.408769649829E+03   -0.28919E+02   -0.30909E+02  3328   0.164E+03-0.248E+01
CGA:   4    -0.420393700121E+03   -0.11624E+02   -0.14368E+02  3328   0.908E+02-0.811E+01
CGA:   5    -0.429303191141E+03   -0.89095E+01   -0.91707E+01  3328   0.439E+02 0.132E+01
CGA:   6    -0.434991317561E+03   -0.56881E+01   -0.57211E+01  3328   0.344E+02 0.327E+00
CGA:   7    -0.439026555441E+03   -0.40352E+01   -0.40681E+01  3328   0.145E+02 0.562E-01
CGA:   8    -0.441051258612E+03   -0.20247E+01   -0.20383E+01  3328   0.102E+02 0.158E+00
CGA:   9    -0.442375700626E+03   -0.13244E+01   -0.13254E+01  3328   0.447E+01 0.595E-01
CGA:  10    -0.443079225860E+03   -0.70353E+00   -0.70400E+00  3328   0.273E+01 0.277E-02
CGA:  11    -0.443452241668E+03   -0.37302E+00   -0.37461E+00  3328   0.144E+01 0.199E-01
CGA:  12    -0.443728974924E+03   -0.27673E+00   -0.27669E+00  3328   0.686E+00 0.429E-02
CGA:  13    -0.443826714240E+03   -0.97739E-01   -0.96538E-01  3328   0.485E+00-0.762E-02
CGA:  14    -0.443913697339E+03   -0.86983E-01   -0.86986E-01  3328   0.228E+00-0.864E-03
CGA:  15    -0.443949170529E+03   -0.35473E-01   -0.35501E-01  3328   0.161E+00 0.682E-03
CGA:  16    -0.443975589080E+03   -0.26419E-01   -0.26418E-01  3328   0.662E-01 0.806E-05
CGA:  17    -0.443989441181E+03   -0.13852E-01   -0.13868E-01  3328   0.613E-01-0.423E-03
CGA:  18    -0.443998037885E+03   -0.85967E-02   -0.85897E-02  3328   0.210E-01-0.238E-03
CGA:  19    -0.444003095277E+03   -0.50574E-02   -0.50629E-02  3328   0.181E-01-0.700E-04
CGA:  20    -0.444005588650E+03   -0.24934E-02   -0.24942E-02  3328   0.752E-02 0.503E-04
CGA:  21    -0.444007572002E+03   -0.19834E-02   -0.19844E-02  3328   0.509E-02-0.122E-04
CGA:  22    -0.444008310264E+03   -0.73826E-03   -0.73727E-03  3328   0.276E-02-0.444E-04
CGA:  23    -0.444009022150E+03   -0.71189E-03   -0.71197E-03  3328   0.142E-02-0.873E-06
CGA:  24    -0.444009282909E+03   -0.26076E-03   -0.26075E-03  3328   0.111E-02 0.203E-04
CGA:  25    -0.444009514761E+03   -0.23185E-03   -0.23216E-03  3328   0.406E-03-0.136E-04
CGA:  26    -0.444009628856E+03   -0.11409E-03   -0.11534E-03  3328   0.405E-03-0.121E-04
CGA:  27    -0.444009686193E+03   -0.57338E-04   -0.57719E-04  3328   0.145E-03 0.925E-05
CGA:  28    -0.444009730911E+03   -0.44718E-04   -0.44218E-04  3328   0.121E-03 0.456E-05
CGA:  29    -0.444009751373E+03   -0.20462E-04   -0.20297E-04  3328   0.687E-04-0.552E-05
CGA:  30    -0.444009769419E+03   -0.18046E-04   -0.17876E-04  3328   0.319E-04 0.209E-05
CGA:  31    -0.444009776034E+03   -0.66148E-05   -0.65974E-05  3328   0.271E-04 0.332E-05
   1 F= -.44577308E+03 E0= -.44575952E+03  d E =-.271090E-01  mag=     0.0879
