       N       E                     dE             d eps       ncg     rms          ort
DAV:   1     0.983104589897E+03    0.98310E+03   -0.86699E+04  3328   0.666E+02
DAV:   2    -0.360531313022E+03   -0.13436E+04   -0.13432E+04  3328   0.945E+01
DAV:   3    -0.437487351262E+03   -0.76956E+02   -0.76955E+02  3328   0.360E+01
DAV:   4    -0.438446777811E+03   -0.95943E+00   -0.95941E+00  3328   0.459E+00
DAV:   5    -0.438446900252E+03   -0.12244E-03   -0.12244E-03  3328   0.629E-02
SDA:   6    -0.438446900252E+03    0.00000E+00   -0.12244E-03  3328   0.214E-05 0.000E+00
   1 F= -.44025129E+03 E0= -.44024909E+03  d E =-.439354E-02  mag=    -0.0000
