 vasp.5.4.4.18Apr17-6-g9f103f2a35 (build Nov 21 2023 15:34:30) complex          
  
 executed on             LinuxIFC date 2026.09.24  00:44:17
 running on  256 total cores
 distrk:  each k-point on  256 cores,    1 groups
 distr:  one band on NCORES_PER_BAND=   1 cores,  256 groups


--------------------------------------------------------------------------------------------------------


 INCAR:
 POTCAR:   PAW_PBE C 08Apr2002                    
 POTCAR:   PAW_PBE N 08Apr2002                    
 POTCAR:   PAW_PBE Cs_sv 08Apr2002                

 ----------------------------------------------------------------------------- 
|                                                                             |
|           W    W    AA    RRRRR   N    N  II  N    N   GGGG   !!!           |
|           W    W   A  A   R    R  NN   N  II  NN   N  G    G  !!!           |
|           W    W  A    A  R    R  N N  N  II  N N  N  G       !!!           |
|           W WW W  AAAAAA  RRRRR   N  N N  II  N  N N  G  GGG   !            |
|           WW  WW  A    A  R   R   N   NN  II  N   NN  G    G                |
|           W    W  A    A  R    R  N    N  II  N    N   GGGG   !!!           |
|                                                                             |
|      For optimal performance we recommend to set                            |
|        NCORE= 4 - approx SQRT( number of cores)                             |
|      NCORE specifies how many cores store one orbital (NPAR=cpu/NCORE).     |
|      This setting can  greatly improve the performance of VASP for DFT.     |
|      The default,   NCORE=1            might be grossly inefficient         |
|      on modern multi-core architectures or massively parallel machines.     |
|      Do your own testing !!!!                                               |
|      Unfortunately you need to use the default for GW and RPA calculations. |
|      (for HF NCORE is supported but not extensively tested yet)             |
|                                                                             |
 ----------------------------------------------------------------------------- 

 POTCAR:   PAW_PBE C 08Apr2002                    
   VRHFIN =C: s2p2                                                              
   LEXCH  = PE                                                                  
   EATOM  =   147.1560 eV,   10.8157 Ry                                         
                                                                                
   TITEL  = PAW_PBE C 08Apr2002                                                 
   LULTRA =        F    use ultrasoft PP ?                                      
   IUNSCR =        0    unscreen: 0-lin 1-nonlin 2-no                           
   RPACOR =     .000    partial core radius                                     
   POMASS =   12.011; ZVAL   =    4.000    mass and valenz                      
   RCORE  =    1.500    outmost cutoff radius                                   
   RWIGS  =    1.630; RWIGS  =     .863    wigner-seitz radius (au A)           
   ENMAX  =  400.000; ENMIN  =  300.000 eV                                      
   ICORE  =        2    local potential                                         
   LCOR   =        T    correct aug charges                                     
   LPAW   =        T    paw PP                                                  
   EAUG   =  644.873                                                            
   DEXC   =     .000                                                            
   RMAX   =    2.266    core radius for proj-oper                               
   RAUG   =    1.300    factor for augmentation sphere                          
   RDEP   =    1.501    radius for radial grids                                 
   RDEPT  =    1.300    core radius for aug-charge                              
   QCUT   =   -5.516; QGAM   =   11.032    optimization parameters              
                                                                                
   Description                                                                  
     l     E      TYP  RCUT    TYP  RCUT                                        
     0   .000     23  1.200                                                     
     0   .000     23  1.200                                                     
     1   .000     23  1.500                                                     
     1  2.500     23  1.500                                                     
     2   .000      7  1.500                                                     
  local pseudopotential read in
  atomic valenz-charges read in
  non local Contribution for L=           0  read in
    real space projection operators read in
  non local Contribution for L=           0  read in
    real space projection operators read in
  non local Contribution for L=           1  read in
    real space projection operators read in
  non local Contribution for L=           1  read in
    real space projection operators read in
    PAW grid and wavefunctions read in
 
   number of l-projection  operators is LMAX  =           4
   number of lm-projection operators is LMMAX =           8
 
 POTCAR:   PAW_PBE N 08Apr2002                    
   VRHFIN =N: s2p3                                                              
   LEXCH  = PE                                                                  
   EATOM  =   264.5486 eV,   19.4438 Ry                                         
                                                                                
   TITEL  = PAW_PBE N 08Apr2002                                                 
   LULTRA =        F    use ultrasoft PP ?                                      
   IUNSCR =        0    unscreen: 0-lin 1-nonlin 2-no                           
   RPACOR =     .000    partial core radius                                     
   POMASS =   14.001; ZVAL   =    5.000    mass and valenz                      
   RCORE  =    1.500    outmost cutoff radius                                   
   RWIGS  =    1.400; RWIGS  =     .741    wigner-seitz radius (au A)           
   ENMAX  =  400.000; ENMIN  =  300.000 eV                                      
   ICORE  =        2    local potential                                         
   LCOR   =        T    correct aug charges                                     
   LPAW   =        T    paw PP                                                  
   EAUG   =  627.112                                                            
   DEXC   =     .000                                                            
   RMAX   =    2.247    core radius for proj-oper                               
   RAUG   =    1.300    factor for augmentation sphere                          
   RDEP   =    1.514    radius for radial grids                                 
   QCUT   =   -5.562; QGAM   =   11.124    optimization parameters              
                                                                                
   Description                                                                  
     l     E      TYP  RCUT    TYP  RCUT                                        
     0   .000     23  1.200                                                     
     0   .000     23  1.200                                                     
     1   .000     23  1.500                                                     
     1   .700     23  1.500                                                     
     2   .000      7  1.500                                                     
  local pseudopotential read in
  atomic valenz-charges read in
  non local Contribution for L=           0  read in
    real space projection operators read in
  non local Contribution for L=           0  read in
    real space projection operators read in
  non local Contribution for L=           1  read in
    real space projection operators read in
  non local Contribution for L=           1  read in
    real space projection operators read in
    PAW grid and wavefunctions read in
 
   number of l-projection  operators is LMAX  =           4
   number of lm-projection operators is LMMAX =           8
 
 POTCAR:   PAW_PBE Cs_sv 08Apr2002                
   VRHFIN =Cs: 5s5p6s                                                           
   LEXCH  = PE                                                                  
   EATOM  =   555.6835 eV,   40.8416 Ry                                         
                                                                                
   TITEL  = PAW_PBE Cs_sv 08Apr2002                                             
   LULTRA =        F    use ultrasoft PP ?                                      
   IUNSCR =        1    unscreen: 0-lin 1-nonlin 2-no                           
   RPACOR =    2.200    partial core radius                                     
   POMASS =  132.900; ZVAL   =    9.000    mass and valenz                      
   RCORE  =    2.500    outmost cutoff radius                                   
   RWIGS  =    2.500; RWIGS  =    1.323    wigner-seitz radius (au A)           
   ENMAX  =  220.318; ENMIN  =  165.238 eV                                      
   RCLOC  =    2.207    cutoff for local pot                                    
   LCOR   =        T    correct aug charges                                     
   LPAW   =        T    paw PP                                                  
   EAUG   =  407.933                                                            
   DEXC   =    -.004                                                            
   RMAX   =    3.106    core radius for proj-oper                               
   RAUG   =    1.300    factor for augmentation sphere                          
   RDEP   =    2.590    radius for radial grids                                 
   QCUT   =   -4.024; QGAM   =    8.048    optimization parameters              
                                                                                
   Description                                                                  
     l     E      TYP  RCUT    TYP  RCUT                                        
     0   .000     23  1.900                                                     
     0   .000     23  1.900                                                     
     0   .000     23  1.900                                                     
     0   .000     23  1.900                                                     
     1   .000     23  2.500                                                     
     1  -.200     23  2.500                                                     
     2   .000     23  2.500                                                     
  local pseudopotential read in
  partial core-charges read in
  atomic valenz-charges read in
  non local Contribution for L=           0  read in
    real space projection operators read in
  non local Contribution for L=           0  read in
    real space projection operators read in
  non local Contribution for L=           1  read in
    real space projection operators read in
  non local Contribution for L=           1  read in
    real space projection operators read in
  non local Contribution for L=           2  read in
    real space projection operators read in
    PAW grid and wavefunctions read in
 
   number of l-projection  operators is LMAX  =           5
   number of lm-projection operators is LMMAX =          13
 

 ----------------------------------------------------------------------------- 
|                                                                             |
|  ADVICE TO THIS USER RUNNING 'VASP/VAMP'   (HEAR YOUR MASTER'S VOICE ...):  |
|                                                                             |
|      You have a (more or less) 'large supercell' and for larger cells       |
|      it might be more efficient to use real space projection operators      |
|      So try LREAL= Auto  in the INCAR   file.                               |
|      Mind: If you want to do a very accurate calculations keep the          |
|      reciprocal projection scheme          (i.e. LREAL=.FALSE.)             |
|                                                                             |
 ----------------------------------------------------------------------------- 

 PAW_PBE C 08Apr2002                    :
 energy of atom  1       EATOM= -147.1560
 kinetic energy error for atom=    0.0071 (will be added to EATOM!!)
 PAW_PBE N 08Apr2002                    :
 energy of atom  2       EATOM= -264.5486
 kinetic energy error for atom=    0.0125 (will be added to EATOM!!)
 PAW_PBE Cs_sv 08Apr2002                :
 energy of atom  3       EATOM= -555.6835
 kinetic energy error for atom=    0.0016 (will be added to EATOM!!)
 
 
 POSCAR: C  N  Cs                                
  positions in direct lattice
  velocities in cartesian coordinates
 exchange correlation table for  LEXCH =        8
   RHO(1)=    0.500       N(1)  =     2000
   RHO(2)=  100.500       N(2)  =     4000

 VTST: version 3.2, (02/03/18)

 CHAIN: initializing optimizer
 
 OPT: Using VASP Dynamics algorithm
 CHAIN: Read ICHAIN            0
 
 POSCAR: C  N  Cs                                
  positions in direct lattice
  velocities in cartesian coordinates
 


--------------------------------------------------------------------------------------------------------


 ion  position               nearest neighbor table
   1  1.000  0.000  0.743-  44 1.41   2 1.41  10 1.43
   2  0.132  0.066  0.743-   1 1.41  13 1.42   3 1.42
   3  0.199  0.999  0.743-  36 1.41   4 1.42   2 1.42
   4  0.332  0.065  0.745-   3 1.42  15 1.42   5 1.42
   5  0.399  0.998  0.746-   6 1.41   4 1.42  38 1.43
   6  0.531  0.066  0.747-   5 1.41   7 1.42  16 1.43
   7  0.599  0.000  0.747-   8 1.42   6 1.42  40 1.43
   8  0.732  0.069  0.747-   7 1.42   9 1.43  18 1.43
   9  0.800  0.002  0.745-  10 1.41  42 1.42   8 1.43
  10  0.932  0.068  0.744-  11 1.41   9 1.41   1 1.43
  11  0.998  0.200  0.745-  10 1.41  12 1.42  19 1.43
  12  0.131  0.266  0.746-  22 1.41  11 1.42  13 1.42
  13  0.198  0.199  0.745-   2 1.42  14 1.42  12 1.42
  14  0.331  0.267  0.750-  46 1.34  13 1.42  15 1.48
  15  0.401  0.198  0.750-  45 1.34   4 1.42  14 1.48
  16  0.593  0.200  0.752-  45 1.35   6 1.43  17 1.45
  17  0.729  0.271  0.752-  18 1.44  16 1.45  24 1.45
  18  0.796  0.204  0.749-   8 1.43  19 1.43  17 1.44
  19  0.931  0.268  0.747-  20 1.42  11 1.43  18 1.43
  20  1.000  0.401  0.747-  19 1.42  25 1.42  21 1.43
  21  0.134  0.466  0.747-  28 1.42  22 1.42  20 1.43
  22  0.200  0.398  0.747-  12 1.41  21 1.42  23 1.43
  23  0.334  0.460  0.752-  46 1.35  22 1.43  30 1.45
  24  0.800  0.407  0.752-  47 1.35  25 1.43  17 1.45
  25  0.934  0.469  0.747-  26 1.41  20 1.42  24 1.43
  26  0.002  0.601  0.746-  25 1.41  34 1.42  27 1.43
  27  0.136  0.666  0.745-  37 1.41  26 1.43  28 1.43
  28  0.202  0.599  0.747-  21 1.42  27 1.43  29 1.43
  29  0.337  0.663  0.749-  28 1.43  39 1.43  30 1.44
  30  0.404  0.596  0.752-  29 1.44  23 1.45  31 1.45
  31  0.540  0.666  0.752-  48 1.35  41 1.43  30 1.45
  32  0.733  0.669  0.750-  48 1.34  43 1.42  33 1.48
  33  0.802  0.599  0.750-  47 1.34  34 1.42  32 1.48
  34  0.935  0.668  0.745-  35 1.42  33 1.42  26 1.42
  35  0.001  0.801  0.743-  36 1.41  34 1.42  44 1.42
  36  0.134  0.866  0.743-   3 1.41  35 1.41  37 1.43
  37  0.201  0.799  0.744-  27 1.41  38 1.41  36 1.43
  38  0.334  0.864  0.745-  37 1.41   5 1.43  39 1.43
  39  0.401  0.798  0.747-  40 1.42  38 1.43  29 1.43
  40  0.534  0.866  0.747-  39 1.42  41 1.42   7 1.43
  41  0.602  0.800  0.747-  42 1.41  40 1.42  31 1.43
  42  0.734  0.869  0.746-  41 1.41   9 1.42  43 1.42
  43  0.801  0.802  0.745-  44 1.42  32 1.42  42 1.42
  44  0.934  0.868  0.743-   1 1.41  43 1.42  35 1.42
  45  0.526  0.260  0.756-  15 1.34  16 1.35
  46  0.394  0.393  0.756-  14 1.34  23 1.35
  47  0.740  0.474  0.756-  33 1.34  24 1.35
  48  0.607  0.606  0.756-  32 1.34  31 1.35
  49  0.567  0.433  0.867-
 

IMPORTANT INFORMATION: All symmetrisations will be switched off!
NOSYMM: (Re-)initialisation of all symmetry stuff for point group C_1.

 
 
 KPOINTS: K-POINTS                                

Automatic generation of k-mesh.
Space group operators:
 irot       det(A)        alpha          n_x          n_y          n_z        tau_x        tau_y        tau_z
    1     1.000000     0.000000     1.000000     0.000000     0.000000     0.000000     0.000000     0.000000
 
 Subroutine IBZKPT returns following result:
 ===========================================
 
 Found     13 irreducible k-points:
 
 Following reciprocal coordinates:
            Coordinates               Weight
  0.000000  0.000000  0.000000      1.000000
  0.200000  0.000000  0.000000      2.000000
  0.400000  0.000000  0.000000      2.000000
  0.000000  0.200000  0.000000      2.000000
  0.200000  0.200000  0.000000      2.000000
  0.400000  0.200000  0.000000      2.000000
 -0.400000  0.200000  0.000000      2.000000
 -0.200000  0.200000  0.000000      2.000000
  0.000000  0.400000  0.000000      2.000000
  0.200000  0.400000  0.000000      2.000000
  0.400000  0.400000  0.000000      2.000000
 -0.400000  0.400000  0.000000      2.000000
 -0.200000  0.400000  0.000000      2.000000
 
 Following cartesian coordinates:
            Coordinates               Weight
  0.000000  0.000000  0.000000      1.000000
  0.016260  0.009388  0.000000      2.000000
  0.032520  0.018776  0.000000      2.000000
  0.000000  0.018776  0.000000      2.000000
  0.016260  0.028163  0.000000      2.000000
  0.032520  0.037551  0.000000      2.000000
 -0.032520  0.000000  0.000000      2.000000
 -0.016260  0.009388  0.000000      2.000000
  0.000000  0.037551  0.000000      2.000000
  0.016260  0.046939  0.000000      2.000000
  0.032520  0.056327  0.000000      2.000000
 -0.032520  0.018776  0.000000      2.000000
 -0.016260  0.028163  0.000000      2.000000
 


--------------------------------------------------------------------------------------------------------




 Dimension of arrays:
   k-points           NKPTS =     13   k-points in BZ     NKDIM =     13   number of bands    NBANDS=    256
   number of dos      NEDOS =   2000   number of ions     NIONS =     49
   non local maximal  LDIM  =      5   non local SUM 2l+1 LMDIM =     13
   total plane-waves  NPLWV = ******
   max r-space proj   IRMAX =      1   max aug-charges    IRDMAX=  26572
   dimension x,y,z NGX =    96 NGY =   96 NGZ =  150
   dimension x,y,z NGXF=   192 NGYF=  192 NGZF=  300
   support grid    NGXF=   192 NGYF=  192 NGZF=  300
   ions per type =              44   4   1
   NGX,Y,Z   is equivalent  to a cutoff of  12.98, 12.98, 12.47 a.u.
   NGXF,Y,Z  is equivalent  to a cutoff of  25.95, 25.95, 24.94 a.u.

 SYSTEM =  Cs-N-C                                  
 POSCAR =  C  N  Cs                                

 Startparameter for this run:
   NWRITE =      2    write-flag & timer
   PREC   = accura    normal or accurate (medium, high low for compatibility)
   ISTART =      0    job   : 0-new  1-cont  2-samecut
   ICHARG =     11    charge: 1-file 2-atom 10-const
   ISPIN  =      2    spin polarized calculation?
   LNONCOLLINEAR =      F non collinear calculations
   LSORBIT =      F    spin-orbit coupling
   INIWAV =      1    electr: 0-lowe 1-rand  2-diag
   LASPH  =      T    aspherical Exc in radial PAW
   METAGGA=      F    non-selfconsistent MetaGGA calc.

 Electronic Relaxation 1
   ENCUT  =  520.0 eV  38.22 Ry    6.18 a.u.  22.87 22.87 37.19*2*pi/ulx,y,z
   ENINI  =  520.0     initial cutoff
   ENAUG  =  644.9 eV  augmentation charge cutoff
   NELM   =    200;   NELMIN=  2; NELMDL= -5     # of ELM steps 
   EDIFF  = 0.1E-04   stopping-criterion for ELM
   LREAL  =      F    real-space projection
   NLSPLINE    = F    spline interpolate recip. space projectors
   LCOMPAT=      F    compatible to vasp.4.4
   GGA_COMPAT  = T    GGA compatible to vasp.4.4-vasp.4.6
   LMAXPAW     = -100 max onsite density
   LMAXMIX     =    2 max onsite mixed and CHGCAR
   VOSKOWN=      0    Vosko Wilk Nusair interpolation
   ROPT   =    0.00000   0.00000   0.00000
 Ionic relaxation
   EDIFFG = 0.1E-03   stopping-criterion for IOM
   NSW    =      0    number of steps for IOM
   NBLOCK =      1;   KBLOCK =      1    inner block; outer block 
   IBRION =     -1    ionic relax: 0-MD 1-quasi-New 2-CG
   NFREE  =      0    steps in history (QN), initial steepest desc. (CG)
   ISIF   =      2    stress and relaxation
   IWAVPR =     10    prediction:  0-non 1-charg 2-wave 3-comb
   ISYM   =      0    0-nonsym 1-usesym 2-fastsym
   LCORR  =      T    Harris-Foulkes like correction to forces

   POTIM  = 0.5000    time-step for ionic-motion
   TEIN   =    0.0    initial temperature
   TEBEG  =    0.0;   TEEND  =   0.0 temperature during run
   SMASS  =  -3.00    Nose mass-parameter (am)
   estimated Nose-frequenzy (Omega)   =  0.10E-29 period in steps =****** mass=  -0.346E-26a.u.
   SCALEE = 1.0000    scale energy and forces
   NPACO  =    256;   APACO  = 16.0  distance and # of slots for P.C.
   PSTRESS=    0.0 pullay stress

  Mass of Ions in am
   POMASS =  12.01 14.00132.90
  Ionic Valenz
   ZVAL   =   4.00  5.00  9.00
  Atomic Wigner-Seitz radii
   RWIGS  =  -1.00 -1.00 -1.00
  virtual crystal weights 
   VCA    =   1.00  1.00  1.00
   NELECT =     205.0000    total number of electrons
   NUPDOWN=      -1.0000    fix difference up-down

 DOS related values:
   EMIN   =  10.00;   EMAX   =-10.00  energy-range for DOS
   EFERMI =   0.00
   ISMEAR =     0;   SIGMA  =   0.05  broadening in eV -4-tet -1-fermi 0-gaus

 Electronic relaxation 2 (details)
   IALGO  =     58    algorithm
   LDIAG  =      T    sub-space diagonalisation (order eigenvalues)
   LSUBROT=      F    optimize rotation matrix (better conditioning)
   TURBO    =      0    0=normal 1=particle mesh
   IRESTART =      0    0=no restart 2=restart with 2 vectors
   NREBOOT  =      0    no. of reboots
   NMIN     =      0    reboot dimension
   EREF     =   0.00    reference energy to select bands
   IMIX   =      4    mixing-type and parameters
     AMIX     =   0.40;   BMIX     =  1.00
     AMIX_MAG =   1.60;   BMIX_MAG =  1.00
     AMIN     =   0.10
     WC   =   100.;   INIMIX=   1;  MIXPRE=   1;  MAXMIX= -45

 Intra band minimization:
   WEIMIN = 0.0000     energy-eigenvalue tresh-hold
   EBREAK =  0.98E-08  absolut break condition
   DEPER  =   0.30     relativ break condition  

   TIME   =   0.40     timestep for ELM

  volume/ion in A,a.u.               =      53.48       360.89
  Fermi-wavevector in a.u.,A,eV,Ry     =   0.700168  1.323126  6.670063  0.490236
  Thomas-Fermi vector in A             =   1.784248
 
 Write flags
   LWAVE        =      F    write WAVECAR
   LDOWNSAMPLE  =      F    k-point downsampling of WAVECAR
   LCHARG       =      F    write CHGCAR
   LVTOT        =      F    write LOCPOT, total local potential
   LVHAR        =      F    write LOCPOT, Hartree potential only
   LELF         =      F    write electronic localiz. function (ELF)
   LORBIT       =     11    0 simple, 1 ext, 2 COOP (PROOUT), +10 PAW based schemes


 Dipole corrections
   LMONO  =      F    monopole corrections only (constant potential shift)
   LDIPOL =      F    correct potential (dipole corrections)
   IDIPOL =      0    1-x, 2-y, 3-z, 4-all directions 
   EPSILON=  1.0000000 bulk dielectric constant

 Exchange correlation treatment:
   GGA     =    --    GGA type
   LEXCH   =     8    internal setting for exchange type
   VOSKOWN=      0    Vosko Wilk Nusair interpolation
   LHFCALC =     F    Hartree Fock is set to
   LHFONE  =     F    Hartree Fock one center treatment
   AEXX    =    0.0000 exact exchange contribution

 Linear response parameters
   LEPSILON=     F    determine dielectric tensor
   LRPA    =     F    only Hartree local field effects (RPA)
   LNABLA  =     F    use nabla operator in PAW spheres
   LVEL    =     F    velocity operator in full k-point grid
   LINTERFAST=   F  fast interpolation
   KINTER  =     0    interpolate to denser k-point grid
   CSHIFT  =0.1000    complex shift for real part using Kramers Kronig
   OMEGAMAX=  -1.0    maximum frequency
   DEG_THRESHOLD= 0.2000000E-02 threshold for treating states as degnerate
   RTIME   =   -0.100 relaxation time in fs
  (WPLASMAI=    0.000 imaginary part of plasma frequency in eV, 0.658/RTIME)
   DFIELD  = 0.0000000 0.0000000 0.0000000 field for delta impulse in time
 
 Orbital magnetization related:
   ORBITALMAG=     F  switch on orbital magnetization
   LCHIMAG   =     F  perturbation theory with respect to B field
   DQ        =  0.001000  dq finite difference perturbation B field
   LLRAUG    =     F  two centre corrections for induced B field



--------------------------------------------------------------------------------------------------------


 Static calculation
 charge density and potential remain constant during run
 spin polarized calculation
 Conjugate gradient for all bands (Freysoldt, et al. PRB 79, 241103 (2009))
 preconditioned conjugated gradient   charged. constant during bandupdate  
 perform sub-space diagonalisation
    before iterative eigenvector-optimisation
 no mixing
 using additional bands          153
 reciprocal scheme for non local part
 use partial core corrections
 calculate Harris-corrections to forces 
   (improved forces if not selfconsistent)
 use gradient corrections 
 WARNING: stress and forces are not correct
  (second derivative of E(xc) not defined)
 use of overlap-Matrix (Vanderbilt PP)
 Gauss-broadening in eV      SIGMA  =   0.05


--------------------------------------------------------------------------------------------------------


  energy-cutoff  :      520.00
  volume of cell :     2620.42
      direct lattice vectors                 reciprocal lattice vectors
    12.300000000  0.000000000  0.000000000     0.081300813  0.046939046  0.000000000
    -6.150000000 10.652112467  0.000000000     0.000000000  0.093878093  0.000000000
     0.000000000  0.000000000 20.000000000     0.000000000  0.000000000  0.050000000

  length of vectors
    12.300000000 12.300000000 20.000000000     0.093878093  0.093878093  0.050000000


 
 k-points in units of 2pi/SCALE and weight: K-POINTS                                
   0.00000000  0.00000000  0.00000000       0.040
   0.01626016  0.00938781  0.00000000       0.080
   0.03252033  0.01877562  0.00000000       0.080
   0.00000000  0.01877562  0.00000000       0.080
   0.01626016  0.02816343  0.00000000       0.080
   0.03252033  0.03755124  0.00000000       0.080
  -0.03252033  0.00000000  0.00000000       0.080
  -0.01626016  0.00938781  0.00000000       0.080
   0.00000000  0.03755124  0.00000000       0.080
   0.01626016  0.04693905  0.00000000       0.080
   0.03252033  0.05632686  0.00000000       0.080
  -0.03252033  0.01877562  0.00000000       0.080
  -0.01626016  0.02816343  0.00000000       0.080
 
 k-points in reciprocal lattice and weights: K-POINTS                                
   0.00000000  0.00000000  0.00000000       0.040
   0.20000000  0.00000000  0.00000000       0.080
   0.40000000  0.00000000  0.00000000       0.080
   0.00000000  0.20000000  0.00000000       0.080
   0.20000000  0.20000000  0.00000000       0.080
   0.40000000  0.20000000  0.00000000       0.080
  -0.40000000  0.20000000  0.00000000       0.080
  -0.20000000  0.20000000  0.00000000       0.080
   0.00000000  0.40000000  0.00000000       0.080
   0.20000000  0.40000000  0.00000000       0.080
   0.40000000  0.40000000  0.00000000       0.080
  -0.40000000  0.40000000  0.00000000       0.080
  -0.20000000  0.40000000  0.00000000       0.080
 
 position of ions in fractional coordinates (direct lattice) 
   0.99955400  0.00044600  0.74262200
   0.13220200  0.06557100  0.74283200
   0.19890500  0.99889200  0.74285600
   0.33182300  0.06482500  0.74516100
   0.39885000  0.99809600  0.74567500
   0.53149600  0.06619700  0.74729500
   0.59932200  0.00029200  0.74655900
   0.73223800  0.06897600  0.74680400
   0.79964800  0.00232100  0.74511300
   0.93240900  0.06759100  0.74412100
   0.99767900  0.20035200  0.74511300
   0.13142700  0.26553600  0.74556200
   0.19816300  0.19850400  0.74515200
   0.33102400  0.26721300  0.75005700
   0.40053100  0.19769500  0.75003600
   0.59292500  0.20044000  0.75164800
   0.72913800  0.27086200  0.75200300
   0.79646300  0.20353700  0.74858800
   0.93102400  0.26776200  0.74680400
   0.99970800  0.40067800  0.74655900
   0.13364700  0.46601300  0.74662700
   0.19955500  0.39816700  0.74730100
   0.33377300  0.45959400  0.75172700
   0.79956000  0.40707500  0.75164800
   0.93380300  0.46850500  0.74729500
   0.00190400  0.60115000  0.74567500
   0.13566900  0.66633700  0.74542600
   0.20232400  0.59890900  0.74709700
   0.33686700  0.66313300  0.74889400
   0.40420400  0.59579600  0.75216900
   0.54040600  0.66622700  0.75172700
   0.73278700  0.66897600  0.75005700
   0.80230500  0.59946900  0.75003600
   0.93517500  0.66817700  0.74516100
   0.00110800  0.80109500  0.74285600
   0.13377700  0.86622400  0.74271600
   0.20091200  0.79908800  0.74441700
   0.33366300  0.86433100  0.74542600
   0.40109100  0.79767600  0.74709700
   0.53398700  0.86635300  0.74662700
   0.60183300  0.80044500  0.74730100
   0.73446400  0.86857300  0.74556200
   0.80149600  0.80183700  0.74515200
   0.93442900  0.86779800  0.74283200
   0.52600800  0.26042500  0.75554500
   0.39374700  0.39266900  0.75558200
   0.73957500  0.47399200  0.75554500
   0.60733100  0.60625300  0.75558200
   0.56666300  0.43333700  0.86735900
 
 position of ions in cartesian coordinates  (Angst):
  12.29177130  0.00475084 14.85244000
   1.22282295  0.69846967 14.85664000
  -3.69665430 10.64030993 14.85712000
   3.68274915  0.69052319 14.90322000
  -1.23243540 10.63183084 14.91350000
   6.13028925  0.70513789 14.94590000
   7.36986480  0.00311042 14.93118000
   8.58232500  0.73474011 14.93608000
   9.82139625  0.02472355 14.90226000
  11.05294605  0.71998693 14.88242000
  11.03928690  2.13417204 14.90226000
  -0.01649430  2.82851934 14.91124000
   1.21660530  2.11448693 14.90304000
   2.42823525  2.84638293 15.00114000
   3.71070705  2.10586937 15.00072000
   6.06027150  2.13510942 15.03296000
   7.30259610  2.88525249 15.04006000
   8.54474235  2.16809902 14.97176000
   9.80485890  2.85223094 14.93608000
   9.83223870  4.26806712 14.93118000
  -1.22212185  4.96402289 14.93254000
   0.00579945  4.24131966 14.94602000
   1.27890480  4.89564698 15.03454000
   7.33107675  4.33620868 15.03296000
   8.60447115  4.99056795 14.94590000
  -3.67365330  6.40351741 14.91350000
  -2.42924385  7.09789666 14.90852000
  -1.19470515  6.37964603 14.94194000
   0.06519615  7.06376730 14.97788000
   1.30756380  6.34648600 15.04338000
   2.54969775  7.09672493 15.03454000
   4.89907770  7.12600759 15.00114000
   6.18161715  6.38561121 15.00072000
   7.39336395  7.11749655 14.90322000
  -4.91310585  8.53335404 14.85712000
  -3.68182050  9.22711547 14.85432000
  -2.44317360  8.51197525 14.88834000
  -1.21158075  9.20695102 14.90852000
   0.02771190  8.49693446 14.94194000
   1.23996915  9.22848959 14.93254000
   2.47980915  8.52643016 14.94602000
   3.69218325  9.25213728 14.91124000
   4.92710325  8.54125790 14.90304000
   6.15651900  9.24388189 14.85664000
   4.86828465  2.77407639 15.11090000
   2.42817375  4.18275435 15.11164000
   6.18172170  5.04901609 15.11090000
   3.74171535  6.45787514 15.11164000
   4.30493235  4.61595446 17.34718000
 


--------------------------------------------------------------------------------------------------------


 k-point  1 :   0.0000 0.0000 0.0000  plane waves:   70503
 k-point  2 :   0.2000 0.0000 0.0000  plane waves:   70568
 k-point  3 :   0.4000 0.0000 0.0000  plane waves:   70572
 k-point  4 :   0.0000 0.2000 0.0000  plane waves:   70568
 k-point  5 :   0.2000 0.2000 0.0000  plane waves:   70519
 k-point  6 :   0.4000 0.2000 0.0000  plane waves:   70609
 k-point  7 :  -0.4000 0.2000 0.0000  plane waves:   70519
 k-point  8 :  -0.2000 0.2000 0.0000  plane waves:   70568
 k-point  9 :   0.0000 0.4000 0.0000  plane waves:   70572
 k-point 10 :   0.2000 0.4000 0.0000  plane waves:   70609
 k-point 11 :   0.4000 0.4000 0.0000  plane waves:   70609
 k-point 12 :  -0.4000 0.4000 0.0000  plane waves:   70572
 k-point 13 :  -0.2000 0.4000 0.0000  plane waves:   70519

 maximum and minimum number of plane-waves per node :     70609    70503

 maximum number of plane-waves:     70609
 maximum index in each direction: 
   IXMAX=   23   IYMAX=   22   IZMAX=   37
   IXMIN=  -23   IYMIN=  -23   IZMIN=  -37


 serial   3D FFT for wavefunctions
 parallel 3D FFT for charge:
    minimum data exchange during FFTs selected (reduces bandwidth)


 total amount of memory used by VASP MPI-rank0   585114. kBytes
=======================================================================

   base      :      30000. kBytes
   nonl-proj :     341975. kBytes
   fftplans  :       7547. kBytes
   grid      :     115983. kBytes
   one-center:        794. kBytes
   wavefun   :      88815. kBytes
 
     INWAV:  cpu time    0.0000: real time    0.0000
 initial charge density was supplied:
 number of electron     204.9999997 magnetization      -0.0000000
 keeping initial charge density in first step


--------------------------------------------------------------------------------------------------------


 Maximum index for augmentation-charges          362 (set IRDMAX)


--------------------------------------------------------------------------------------------------------


 First call to EWALD:  gamma=   0.129
 Maximum number of real-space cells 3x 3x 2
 Maximum number of reciprocal cells 3x 3x 4

    FEWALD:  cpu time    0.0118: real time    0.0122


--------------------------------------- Iteration      1(   1)  ---------------------------------------


    POTLOK:  cpu time    2.5138: real time    2.5430
    SETDIJ:  cpu time    0.3522: real time    0.3696
    TRIAL :  cpu time  150.5666: real time  151.0648
    CORREC:  cpu time    0.0618: real time    0.0618
    --------------------------------------------
      LOOP:  cpu time  153.5687: real time  154.1442

 eigenvalue-minimisations  : 13312
 total energy-change (2. order) : 0.9831046E+03  (-0.8669900E+04)
 number of electron     204.9999997 magnetization      -0.0000000
 augmentation part      204.9999997 magnetization      -0.0000000

 Free energy of the ion-electron system (eV)
  ---------------------------------------------------
  alpha Z        PSCENC =        92.47935356
  Ewald energy   TEWEN  =     32491.99611862
  -Hartree energ DENC   =    -39421.28186442
  -exchange      EXHF   =         0.00000000
  -V(xc)+E(xc)   XCENC  =       726.74189186
  PAW double counting   =      3997.45542400    -4053.85818584
  entropy T*S    EENTRO =        -0.03255500
  eigenvalues    EBANDS =      -938.77310962
  atomic energy  EATOM  =      8088.37751673
  ---------------------------------------------------
  free energy    TOTEN  =       983.10458990 eV

  energy without entropy =      983.13714490  energy(sigma->0) =      983.12086740


--------------------------------------------------------------------------------------------------------




--------------------------------------- Iteration      1(   2)  ---------------------------------------


    TRIAL :  cpu time  240.1227: real time  240.6472
    CORREC:  cpu time    0.0623: real time    0.0635
    --------------------------------------------
      LOOP:  cpu time  240.1981: real time  240.7503

 eigenvalue-minimisations  : 19968
 total energy-change (2. order) :-0.1343636E+04  (-0.1343158E+04)
 number of electron     204.9999997 magnetization      -0.0000000
 augmentation part      204.9999997 magnetization      -0.0000000

 Free energy of the ion-electron system (eV)
  ---------------------------------------------------
  alpha Z        PSCENC =        92.47935356
  Ewald energy   TEWEN  =     32491.99611862
  -Hartree energ DENC   =    -39421.28186442
  -exchange      EXHF   =         0.00000000
  -V(xc)+E(xc)   XCENC  =       726.74189186
  PAW double counting   =      3997.45542400    -4053.85818584
  entropy T*S    EENTRO =        -0.00379428
  eigenvalues    EBANDS =     -2282.43777326
  atomic energy  EATOM  =      8088.37751673
  ---------------------------------------------------
  free energy    TOTEN  =      -360.53131302 eV

  energy without entropy =     -360.52751874  energy(sigma->0) =     -360.52941588


--------------------------------------------------------------------------------------------------------




--------------------------------------- Iteration      1(   3)  ---------------------------------------


    TRIAL :  cpu time  167.6289: real time  167.8830
    CORREC:  cpu time    0.0711: real time    0.0712
    --------------------------------------------
      LOOP:  cpu time  167.7063: real time  167.9612

 eigenvalue-minimisations  : 14336
 total energy-change (2. order) :-0.7695604E+02  (-0.7695502E+02)
 number of electron     204.9999997 magnetization      -0.0000000
 augmentation part      204.9999997 magnetization      -0.0000000

 Free energy of the ion-electron system (eV)
  ---------------------------------------------------
  alpha Z        PSCENC =        92.47935356
  Ewald energy   TEWEN  =     32491.99611862
  -Hartree energ DENC   =    -39421.28186442
  -exchange      EXHF   =         0.00000000
  -V(xc)+E(xc)   XCENC  =       726.74189186
  PAW double counting   =      3997.45542400    -4053.85818584
  entropy T*S    EENTRO =        -0.00453008
  eigenvalues    EBANDS =     -2359.39307570
  atomic energy  EATOM  =      8088.37751673
  ---------------------------------------------------
  free energy    TOTEN  =      -437.48735126 eV

  energy without entropy =     -437.48282118  energy(sigma->0) =     -437.48508622


--------------------------------------------------------------------------------------------------------




--------------------------------------- Iteration      1(   4)  ---------------------------------------


    TRIAL :  cpu time  335.2334: real time  335.9419
    CORREC:  cpu time    0.0624: real time    0.0624
    --------------------------------------------
      LOOP:  cpu time  335.3032: real time  336.0124

 eigenvalue-minimisations  : 25600
 total energy-change (2. order) :-0.9594265E+00  (-0.9594108E+00)
 number of electron     204.9999997 magnetization      -0.0000000
 augmentation part      204.9999997 magnetization      -0.0000000

 Free energy of the ion-electron system (eV)
  ---------------------------------------------------
  alpha Z        PSCENC =        92.47935356
  Ewald energy   TEWEN  =     32491.99611862
  -Hartree energ DENC   =    -39421.28186442
  -exchange      EXHF   =         0.00000000
  -V(xc)+E(xc)   XCENC  =       726.74189186
  PAW double counting   =      3997.45542400    -4053.85818584
  entropy T*S    EENTRO =        -0.00439353
  eigenvalues    EBANDS =     -2360.35263880
  atomic energy  EATOM  =      8088.37751673
  ---------------------------------------------------
  free energy    TOTEN  =      -438.44677781 eV

  energy without entropy =     -438.44238429  energy(sigma->0) =     -438.44458105


--------------------------------------------------------------------------------------------------------




--------------------------------------- Iteration      1(   5)  ---------------------------------------


    TRIAL :  cpu time  165.6713: real time  166.0707
    CORREC:  cpu time    0.0616: real time    0.0616
    --------------------------------------------
      LOOP:  cpu time  165.7395: real time  166.1391

 eigenvalue-minimisations  : 14336
 total energy-change (2. order) :-0.1224408E-03  (-0.1224405E-03)
 number of electron     204.9999997 magnetization      -0.0000000
 augmentation part      204.9999997 magnetization      -0.0000000

 Free energy of the ion-electron system (eV)
  ---------------------------------------------------
  alpha Z        PSCENC =        92.47935356
  Ewald energy   TEWEN  =     32491.99611862
  -Hartree energ DENC   =    -39421.28186442
  -exchange      EXHF   =         0.00000000
  -V(xc)+E(xc)   XCENC  =       726.74189186
  PAW double counting   =      3997.45542400    -4053.85818584
  entropy T*S    EENTRO =        -0.00439354
  eigenvalues    EBANDS =     -2360.35276123
  atomic energy  EATOM  =      8088.37751673
  ---------------------------------------------------
  free energy    TOTEN  =      -438.44690025 eV

  energy without entropy =     -438.44250671  energy(sigma->0) =     -438.44470348


--------------------------------------------------------------------------------------------------------




--------------------------------------- Iteration      1(   6)  ---------------------------------------


    TRIAL :  cpu time   63.4409: real time   64.8887
    CORREC:  cpu time   22.2896: real time   23.5572
    EDDIAG:  cpu time   21.9592: real time   21.9781
    --------------------------------------------
      LOOP:  cpu time  107.6984: real time  110.4327

 eigenvalue-minimisations  :     0
 total energy-change (2. order) : 0.0000000E+00  (-0.6093750E-06)
 number of electron     204.9999997 magnetization      -0.0000000
 augmentation part      204.9999997 magnetization      -0.0000000

 Free energy of the ion-electron system (eV)
  ---------------------------------------------------
  alpha Z        PSCENC =        92.47935356
  Ewald energy   TEWEN  =     32491.99611862
  -Hartree energ DENC   =    -39421.28186442
  -exchange      EXHF   =         0.00000000
  -V(xc)+E(xc)   XCENC  =       726.74189186
  PAW double counting   =      3997.45542400    -4053.85818584
  entropy T*S    EENTRO =        -0.00439354
  eigenvalues    EBANDS =     -2360.35276123
  atomic energy  EATOM  =      8088.37751673
  ---------------------------------------------------
  free energy    TOTEN  =      -438.44690025 eV

  energy without entropy =     -438.44250671  energy(sigma->0) =     -438.44470348


--------------------------------------------------------------------------------------------------------


  average scaling for gradient   1.0071


 average (electrostatic) potential at core
  the test charge radii are     0.6991  0.7089  1.1312
  (the norm of the test charge is              1.0000)
       1 -57.7015       2 -57.6348       3 -57.6347       4 -57.6504       5 -57.8272
       6 -57.7296       7 -57.7382       8 -57.7387       9 -57.7131      10 -57.6891
      11 -57.7131      12 -57.8275      13 -57.6504      14 -58.1838      15 -58.1835
      16 -58.2600      17 -57.5667      18 -57.8109      19 -57.7387      20 -57.7382
      21 -57.7383      22 -57.7299      23 -58.2603      24 -58.2600      25 -57.7296
      26 -57.8271      27 -57.7129      28 -57.7386      29 -57.8109      30 -57.5668
      31 -58.2603      32 -58.1838      33 -58.1835      34 -57.6504      35 -57.6347
      36 -57.7014      37 -57.6887      38 -57.7129      39 -57.7386      40 -57.7383
      41 -57.7299      42 -57.8275      43 -57.6504      44 -57.6348      45 -71.4191
      46 -71.4198      47 -71.4191      48 -71.4198      49 -53.9053
 
 
 
 E-fermi :  -2.1109     XC(G=0):  -2.2558     alpha+bet : -1.9766


 spin component 1

 k-point     1 :       0.0000    0.0000    0.0000
  band No.  band energies     occupation 
      1     -24.2045      1.00000
      2     -22.4344      1.00000
      3     -22.1345      1.00000
      4     -21.9138      1.00000
      5     -21.6389      1.00000
      6     -21.2601      1.00000
      7     -20.8729      1.00000
      8     -20.8689      1.00000
      9     -20.3831      1.00000
     10     -19.8114      1.00000
     11     -19.6277      1.00000
     12     -19.0747      1.00000
     13     -18.9762      1.00000
     14     -18.7902      1.00000
     15     -18.6492      1.00000
     16     -18.4538      1.00000
     17     -18.3479      1.00000
     18     -18.1683      1.00000
     19     -18.0472      1.00000
     20     -17.4925      1.00000
     21     -16.7095      1.00000
     22     -16.5140      1.00000
     23     -16.2285      1.00000
     24     -16.0715      1.00000
     25     -15.9325      1.00000
     26     -15.4266      1.00000
     27     -15.1701      1.00000
     28     -15.1406      1.00000
     29     -14.9337      1.00000
     30     -14.9329      1.00000
     31     -14.6156      1.00000
     32     -14.0254      1.00000
     33     -13.9446      1.00000
     34     -13.8980      1.00000
     35     -13.7760      1.00000
     36     -13.5848      1.00000
     37     -12.7740      1.00000
     38     -12.0549      1.00000
     39     -11.9022      1.00000
     40     -11.7205      1.00000
     41     -11.5559      1.00000
     42     -11.2838      1.00000
     43     -11.2552      1.00000
     44     -11.2153      1.00000
     45     -11.1920      1.00000
     46     -11.1715      1.00000
     47     -11.1222      1.00000
     48     -11.1134      1.00000
     49     -11.0407      1.00000
     50     -10.9231      1.00000
     51     -10.6000      1.00000
     52     -10.0698      1.00000
     53     -10.0454      1.00000
     54     -10.0239      1.00000
     55      -9.8617      1.00000
     56      -9.5981      1.00000
     57      -9.5551      1.00000
     58      -9.4826      1.00000
     59      -9.1926      1.00000
     60      -9.1794      1.00000
     61      -9.0442      1.00000
     62      -8.9400      1.00000
     63      -8.9202      1.00000
     64      -8.8336      1.00000
     65      -8.8154      1.00000
     66      -8.7453      1.00000
     67      -8.6452      1.00000
     68      -8.6277      1.00000
     69      -8.5281      1.00000
     70      -8.4918      1.00000
     71      -8.4555      1.00000
     72      -8.3966      1.00000
     73      -8.3822      1.00000
     74      -7.7844      1.00000
     75      -7.7722      1.00000
     76      -7.2197      1.00000
     77      -7.1737      1.00000
     78      -7.1527      1.00000
     79      -6.9991      1.00000
     80      -6.9470      1.00000
     81      -6.9003      1.00000
     82      -6.7037      1.00000
     83      -6.6769      1.00000
     84      -6.6130      1.00000
     85      -6.3138      1.00000
     86      -6.1514      1.00000
     87      -5.8870      1.00000
     88      -5.8766      1.00000
     89      -5.8672      1.00000
     90      -5.8640      1.00000
     91      -5.7882      1.00000
     92      -5.7229      1.00000
     93      -4.9372      1.00000
     94      -4.8269      1.00000
     95      -4.7523      1.00000
     96      -4.2002      1.00000
     97      -3.9722      1.00000
     98      -3.8498      1.00000
     99      -3.8174      1.00000
    100      -3.5604      1.00000
    101      -3.5059      1.00000
    102      -3.1398      1.00000
    103      -2.0304      0.01137
    104      -1.1773      0.00000
    105      -1.1592      0.00000
    106      -1.0083      0.00000
    107      -0.9955      0.00000
    108      -0.4941      0.00000
    109       0.1830      0.00000
    110       0.2679      0.00000
    111       0.7373      0.00000
    112       0.7523      0.00000
    113       0.7703      0.00000
    114       0.8517      0.00000
    115       1.1320      0.00000
    116       1.4398      0.00000
    117       1.4815      0.00000
    118       1.5179      0.00000
    119       1.6146      0.00000
    120       1.6518      0.00000
    121       1.6613      0.00000
    122       1.7324      0.00000
    123       1.9615      0.00000
    124       2.0114      0.00000
    125       2.1224      0.00000
    126       2.4128      0.00000
    127       2.4494      0.00000
    128       2.4652      0.00000
    129       2.5152      0.00000
    130       2.5247      0.00000
    131       2.5781      0.00000
    132       2.5915      0.00000
    133       2.6153      0.00000
    134       2.6698      0.00000
    135       2.7334      0.00000
    136       2.8309      0.00000
    137       2.8583      0.00000
    138       2.8592      0.00000
    139       2.8763      0.00000
    140       2.8808      0.00000
    141       2.9435      0.00000
    142       2.9515      0.00000
    143       3.0530      0.00000
    144       3.1196      0.00000
    145       3.3641      0.00000
    146       3.4239      0.00000
    147       3.4382      0.00000
    148       3.8057      0.00000
    149       3.8058      0.00000
    150       3.9020      0.00000
    151       3.9036      0.00000
    152       3.9093      0.00000
    153       3.9236      0.00000
    154       4.2880      0.00000
    155       4.3015      0.00000
    156       4.3229      0.00000
    157       4.3254      0.00000
    158       4.3772      0.00000
    159       4.4512      0.00000
    160       4.5155      0.00000
    161       4.5906      0.00000
    162       4.5943      0.00000
    163       4.7552      0.00000
    164       4.8467      0.00000
    165       4.8489      0.00000
    166       4.8542      0.00000
    167       4.9410      0.00000
    168       5.0116      0.00000
    169       5.0516      0.00000
    170       5.0545      0.00000
    171       5.2530      0.00000
    172       5.2727      0.00000
    173       5.2769      0.00000
    174       5.2932      0.00000
    175       5.3009      0.00000
    176       5.3755      0.00000
    177       5.3801      0.00000
    178       5.4576      0.00000
    179       5.4770      0.00000
    180       5.4897      0.00000
    181       5.5289      0.00000
    182       5.5477      0.00000
    183       5.5487      0.00000
    184       5.5526      0.00000
    185       5.5632      0.00000
    186       5.5669      0.00000
    187       5.5816      0.00000
    188       5.6479      0.00000
    189       5.8162      0.00000
    190       5.8198      0.00000
    191       5.8948      0.00000
    192       5.9450      0.00000
    193       5.9527      0.00000
    194       5.9636      0.00000
    195       5.9787      0.00000
    196       5.9851      0.00000
    197       5.9869      0.00000
    198       6.0141      0.00000
    199       6.0435      0.00000
    200       6.1353      0.00000
    201       6.1607      0.00000
    202       6.1657      0.00000
    203       6.2133      0.00000
    204       6.2252      0.00000
    205       6.2792      0.00000
    206       6.2864      0.00000
    207       6.3528      0.00000
    208       6.3755      0.00000
    209       6.3771      0.00000
    210       6.3916      0.00000
    211       6.4217      0.00000
    212       6.4745      0.00000
    213       6.4751      0.00000
    214       6.4822      0.00000
    215       6.5409      0.00000
    216       6.5822      0.00000
    217       6.6394      0.00000
    218       6.6396      0.00000
    219       6.6445      0.00000
    220       6.6698      0.00000
    221       6.6831      0.00000
    222       6.6958      0.00000
    223       6.7125      0.00000
    224       6.7348      0.00000
    225       6.7440      0.00000
    226       6.7492      0.00000
    227       6.7876      0.00000
    228       6.8437      0.00000
    229       6.8867      0.00000
    230       6.8896      0.00000
    231       6.8896      0.00000
    232       6.8919      0.00000
    233       6.9041      0.00000
    234       6.9220      0.00000
    235       6.9230      0.00000
    236       6.9560      0.00000
    237       7.0212      0.00000
    238       7.0700      0.00000
    239       7.1099      0.00000
    240       7.1152      0.00000
    241       7.2324      0.00000
    242       7.6315      0.00000
    243       7.7180      0.00000
    244       7.7605      0.00000
    245       7.7682      0.00000
    246       7.8060      0.00000
    247       7.8483      0.00000
    248       7.8565      0.00000
    249       8.0353      0.00000
    250       8.0648      0.00000
    251       8.0961      0.00000
    252       8.1744      0.00000
    253       8.2500      0.00000
    254       8.2613      0.00000
    255       8.2786      0.00000
    256       8.2896      0.00000

 k-point     2 :       0.2000    0.0000    0.0000
  band No.  band energies     occupation 
      1     -24.2045      1.00000
      2     -22.4173      1.00000
      3     -22.1572      1.00000
      4     -21.9297      1.00000
      5     -21.6471      1.00000
      6     -21.2285      1.00000
      7     -20.9460      1.00000
      8     -20.7355      1.00000
      9     -20.3547      1.00000
     10     -19.8823      1.00000
     11     -19.6654      1.00000
     12     -19.2483      1.00000
     13     -18.9725      1.00000
     14     -18.8180      1.00000
     15     -18.6777      1.00000
     16     -18.5133      1.00000
     17     -18.1859      1.00000
     18     -17.9542      1.00000
     19     -17.8392      1.00000
     20     -17.4330      1.00000
     21     -16.8061      1.00000
     22     -16.5839      1.00000
     23     -16.5251      1.00000
     24     -16.2530      1.00000
     25     -15.9872      1.00000
     26     -15.5580      1.00000
     27     -15.0639      1.00000
     28     -14.9381      1.00000
     29     -14.7648      1.00000
     30     -14.7075      1.00000
     31     -14.6043      1.00000
     32     -14.3556      1.00000
     33     -14.2508      1.00000
     34     -13.8013      1.00000
     35     -13.4739      1.00000
     36     -13.0264      1.00000
     37     -12.7377      1.00000
     38     -12.2791      1.00000
     39     -12.0578      1.00000
     40     -11.9783      1.00000
     41     -11.7376      1.00000
     42     -11.6572      1.00000
     43     -11.5014      1.00000
     44     -11.2323      1.00000
     45     -11.1863      1.00000
     46     -11.1213      1.00000
     47     -11.0298      1.00000
     48     -10.9303      1.00000
     49     -10.8610      1.00000
     50     -10.6962      1.00000
     51     -10.4749      1.00000
     52     -10.1936      1.00000
     53     -10.0712      1.00000
     54      -9.8981      1.00000
     55      -9.8451      1.00000
     56      -9.6757      1.00000
     57      -9.3922      1.00000
     58      -9.3290      1.00000
     59      -9.2837      1.00000
     60      -9.2332      1.00000
     61      -9.1768      1.00000
     62      -9.0476      1.00000
     63      -9.0171      1.00000
     64      -8.9857      1.00000
     65      -8.8125      1.00000
     66      -8.6571      1.00000
     67      -8.6195      1.00000
     68      -8.5606      1.00000
     69      -8.4872      1.00000
     70      -8.4780      1.00000
     71      -8.2889      1.00000
     72      -8.2587      1.00000
     73      -8.0334      1.00000
     74      -7.8462      1.00000
     75      -7.7425      1.00000
     76      -7.3964      1.00000
     77      -7.3642      1.00000
     78      -7.2616      1.00000
     79      -7.1666      1.00000
     80      -6.9966      1.00000
     81      -6.8863      1.00000
     82      -6.8062      1.00000
     83      -6.6669      1.00000
     84      -6.4354      1.00000
     85      -6.3214      1.00000
     86      -6.1217      1.00000
     87      -6.0702      1.00000
     88      -6.0001      1.00000
     89      -5.8782      1.00000
     90      -5.6935      1.00000
     91      -5.5144      1.00000
     92      -5.3952      1.00000
     93      -4.8895      1.00000
     94      -4.8246      1.00000
     95      -4.7817      1.00000
     96      -4.3492      1.00000
     97      -4.1953      1.00000
     98      -4.0913      1.00000
     99      -3.7977      1.00000
    100      -3.5215      1.00000
    101      -3.3653      1.00000
    102      -3.1908      1.00000
    103      -2.1219      0.62239
    104      -1.2354      0.00000
    105      -1.0002      0.00000
    106      -0.8121      0.00000
    107      -0.7470      0.00000
    108      -0.4810      0.00000
    109       0.0431      0.00000
    110       0.1109      0.00000
    111       0.2619      0.00000
    112       0.6448      0.00000
    113       0.9413      0.00000
    114       1.0699      0.00000
    115       1.3196      0.00000
    116       1.3573      0.00000
    117       1.4358      0.00000
    118       1.5145      0.00000
    119       1.5451      0.00000
    120       1.5869      0.00000
    121       1.6741      0.00000
    122       1.8009      0.00000
    123       1.9028      0.00000
    124       2.0225      0.00000
    125       2.1761      0.00000
    126       2.2157      0.00000
    127       2.2398      0.00000
    128       2.2889      0.00000
    129       2.3402      0.00000
    130       2.4455      0.00000
    131       2.5392      0.00000
    132       2.6668      0.00000
    133       2.6847      0.00000
    134       2.7868      0.00000
    135       2.7974      0.00000
    136       2.8749      0.00000
    137       2.9048      0.00000
    138       2.9348      0.00000
    139       3.0734      0.00000
    140       3.1388      0.00000
    141       3.1899      0.00000
    142       3.2334      0.00000
    143       3.2639      0.00000
    144       3.2990      0.00000
    145       3.4310      0.00000
    146       3.5052      0.00000
    147       3.5458      0.00000
    148       3.5933      0.00000
    149       3.6472      0.00000
    150       3.7929      0.00000
    151       3.9310      0.00000
    152       4.0119      0.00000
    153       4.0439      0.00000
    154       4.1464      0.00000
    155       4.1645      0.00000
    156       4.2141      0.00000
    157       4.3102      0.00000
    158       4.3518      0.00000
    159       4.4637      0.00000
    160       4.5432      0.00000
    161       4.5930      0.00000
    162       4.6737      0.00000
    163       4.7121      0.00000
    164       4.7552      0.00000
    165       4.8041      0.00000
    166       4.8078      0.00000
    167       4.8221      0.00000
    168       4.8828      0.00000
    169       4.9106      0.00000
    170       5.0211      0.00000
    171       5.0894      0.00000
    172       5.1728      0.00000
    173       5.2008      0.00000
    174       5.2775      0.00000
    175       5.3220      0.00000
    176       5.3566      0.00000
    177       5.4134      0.00000
    178       5.4299      0.00000
    179       5.4443      0.00000
    180       5.4677      0.00000
    181       5.5022      0.00000
    182       5.5459      0.00000
    183       5.5753      0.00000
    184       5.5980      0.00000
    185       5.6066      0.00000
    186       5.6075      0.00000
    187       5.6092      0.00000
    188       5.6855      0.00000
    189       5.7441      0.00000
    190       5.7834      0.00000
    191       5.7894      0.00000
    192       5.8083      0.00000
    193       5.8641      0.00000
    194       5.9089      0.00000
    195       5.9457      0.00000
    196       5.9677      0.00000
    197       5.9982      0.00000
    198       6.0524      0.00000
    199       6.0911      0.00000
    200       6.1379      0.00000
    201       6.1451      0.00000
    202       6.1672      0.00000
    203       6.1828      0.00000
    204       6.1928      0.00000
    205       6.2221      0.00000
    206       6.2268      0.00000
    207       6.3013      0.00000
    208       6.3325      0.00000
    209       6.3378      0.00000
    210       6.3657      0.00000
    211       6.3901      0.00000
    212       6.4113      0.00000
    213       6.4253      0.00000
    214       6.4550      0.00000
    215       6.4777      0.00000
    216       6.4836      0.00000
    217       6.5323      0.00000
    218       6.5535      0.00000
    219       6.6339      0.00000
    220       6.6865      0.00000
    221       6.7316      0.00000
    222       6.7893      0.00000
    223       6.8201      0.00000
    224       6.8367      0.00000
    225       6.8619      0.00000
    226       6.9231      0.00000
    227       6.9675      0.00000
    228       7.0316      0.00000
    229       7.0746      0.00000
    230       7.1083      0.00000
    231       7.1312      0.00000
    232       7.1362      0.00000
    233       7.1582      0.00000
    234       7.2349      0.00000
    235       7.2965      0.00000
    236       7.3201      0.00000
    237       7.3256      0.00000
    238       7.3664      0.00000
    239       7.3876      0.00000
    240       7.4568      0.00000
    241       7.4912      0.00000
    242       7.4986      0.00000
    243       7.5814      0.00000
    244       7.6522      0.00000
    245       7.6800      0.00000
    246       7.7116      0.00000
    247       7.7246      0.00000
    248       7.7777      0.00000
    249       7.7886      0.00000
    250       7.8197      0.00000
    251       7.8337      0.00000
    252       7.9181      0.00000
    253       7.9744      0.00000
    254       8.0141      0.00000
    255       8.0853      0.00000
    256       8.1520      0.00000

 k-point     3 :       0.4000    0.0000    0.0000
  band No.  band energies     occupation 
      1     -24.2045      1.00000
      2     -22.3802      1.00000
      3     -22.2045      1.00000
      4     -21.9517      1.00000
      5     -21.6617      1.00000
      6     -21.1676      1.00000
      7     -20.9642      1.00000
      8     -20.6565      1.00000
      9     -20.2235      1.00000
     10     -19.9945      1.00000
     11     -19.7997      1.00000
     12     -19.2992      1.00000
     13     -19.2061      1.00000
     14     -18.8644      1.00000
     15     -18.7901      1.00000
     16     -18.1780      1.00000
     17     -17.9752      1.00000
     18     -17.6683      1.00000
     19     -17.5228      1.00000
     20     -17.3664      1.00000
     21     -17.0397      1.00000
     22     -16.9971      1.00000
     23     -16.8232      1.00000
     24     -16.3492      1.00000
     25     -15.9523      1.00000
     26     -15.5811      1.00000
     27     -15.3039      1.00000
     28     -14.8608      1.00000
     29     -14.8470      1.00000
     30     -14.6150      1.00000
     31     -14.5400      1.00000
     32     -14.1848      1.00000
     33     -13.8401      1.00000
     34     -13.6061      1.00000
     35     -13.0675      1.00000
     36     -12.9720      1.00000
     37     -12.8060      1.00000
     38     -12.4575      1.00000
     39     -12.3102      1.00000
     40     -12.2720      1.00000
     41     -12.1946      1.00000
     42     -11.8018      1.00000
     43     -11.4103      1.00000
     44     -11.2427      1.00000
     45     -11.1568      1.00000
     46     -11.0706      1.00000
     47     -11.0158      1.00000
     48     -10.9220      1.00000
     49     -10.7726      1.00000
     50     -10.7518      1.00000
     51     -10.4348      1.00000
     52     -10.2095      1.00000
     53     -10.0067      1.00000
     54      -9.7686      1.00000
     55      -9.7308      1.00000
     56      -9.6783      1.00000
     57      -9.5002      1.00000
     58      -9.4259      1.00000
     59      -9.3746      1.00000
     60      -9.2702      1.00000
     61      -9.1231      1.00000
     62      -9.0625      1.00000
     63      -9.0394      1.00000
     64      -8.9743      1.00000
     65      -8.7307      1.00000
     66      -8.6995      1.00000
     67      -8.5271      1.00000
     68      -8.3367      1.00000
     69      -8.3117      1.00000
     70      -8.2231      1.00000
     71      -8.1156      1.00000
     72      -8.0420      1.00000
     73      -7.9796      1.00000
     74      -7.8876      1.00000
     75      -7.7916      1.00000
     76      -7.7584      1.00000
     77      -7.7197      1.00000
     78      -7.5074      1.00000
     79      -7.2782      1.00000
     80      -7.0294      1.00000
     81      -6.8594      1.00000
     82      -6.7092      1.00000
     83      -6.5629      1.00000
     84      -6.4996      1.00000
     85      -6.4039      1.00000
     86      -6.3320      1.00000
     87      -6.2910      1.00000
     88      -5.9289      1.00000
     89      -5.4908      1.00000
     90      -5.3379      1.00000
     91      -5.1792      1.00000
     92      -5.0100      1.00000
     93      -4.8772      1.00000
     94      -4.8601      1.00000
     95      -4.7528      1.00000
     96      -4.6720      1.00000
     97      -4.6400      1.00000
     98      -4.5584      1.00000
     99      -3.7068      1.00000
    100      -3.5322      1.00000
    101      -3.2870      1.00000
    102      -3.1783      1.00000
    103      -2.2349      0.99977
    104      -1.2951      0.00000
    105      -0.8217      0.00000
    106      -0.5870      0.00000
    107      -0.3531      0.00000
    108      -0.2671      0.00000
    109      -0.1641      0.00000
    110      -0.0794      0.00000
    111       0.3197      0.00000
    112       0.3705      0.00000
    113       0.6866      0.00000
    114       0.8812      0.00000
    115       1.1254      0.00000
    116       1.3000      0.00000
    117       1.3353      0.00000
    118       1.3676      0.00000
    119       1.5368      0.00000
    120       1.6690      0.00000
    121       1.8117      0.00000
    122       1.9147      0.00000
    123       2.0010      0.00000
    124       2.0189      0.00000
    125       2.0300      0.00000
    126       2.1583      0.00000
    127       2.2058      0.00000
    128       2.3447      0.00000
    129       2.4316      0.00000
    130       2.5462      0.00000
    131       2.5746      0.00000
    132       2.5938      0.00000
    133       2.6694      0.00000
    134       2.7588      0.00000
    135       2.8313      0.00000
    136       2.9127      0.00000
    137       3.0666      0.00000
    138       3.1373      0.00000
    139       3.2728      0.00000
    140       3.3260      0.00000
    141       3.3489      0.00000
    142       3.4284      0.00000
    143       3.5198      0.00000
    144       3.5524      0.00000
    145       3.5759      0.00000
    146       3.6113      0.00000
    147       3.6425      0.00000
    148       3.6895      0.00000
    149       3.7678      0.00000
    150       3.8068      0.00000
    151       3.9075      0.00000
    152       3.9816      0.00000
    153       4.0065      0.00000
    154       4.0986      0.00000
    155       4.1057      0.00000
    156       4.1622      0.00000
    157       4.2219      0.00000
    158       4.2438      0.00000
    159       4.2873      0.00000
    160       4.3105      0.00000
    161       4.3492      0.00000
    162       4.5700      0.00000
    163       4.5873      0.00000
    164       4.6633      0.00000
    165       4.7538      0.00000
    166       4.8219      0.00000
    167       4.8444      0.00000
    168       4.8703      0.00000
    169       4.9679      0.00000
    170       4.9857      0.00000
    171       5.0139      0.00000
    172       5.0264      0.00000
    173       5.1016      0.00000
    174       5.1089      0.00000
    175       5.1109      0.00000
    176       5.1357      0.00000
    177       5.2229      0.00000
    178       5.2485      0.00000
    179       5.3094      0.00000
    180       5.4353      0.00000
    181       5.4570      0.00000
    182       5.4969      0.00000
    183       5.5096      0.00000
    184       5.5814      0.00000
    185       5.6143      0.00000
    186       5.6364      0.00000
    187       5.6632      0.00000
    188       5.7007      0.00000
    189       5.7090      0.00000
    190       5.7373      0.00000
    191       5.7536      0.00000
    192       5.7812      0.00000
    193       5.8320      0.00000
    194       5.8564      0.00000
    195       5.8719      0.00000
    196       5.9343      0.00000
    197       5.9424      0.00000
    198       6.0328      0.00000
    199       6.0481      0.00000
    200       6.0587      0.00000
    201       6.1097      0.00000
    202       6.1650      0.00000
    203       6.2000      0.00000
    204       6.2607      0.00000
    205       6.2852      0.00000
    206       6.2977      0.00000
    207       6.3740      0.00000
    208       6.3974      0.00000
    209       6.4586      0.00000
    210       6.5085      0.00000
    211       6.5268      0.00000
    212       6.5727      0.00000
    213       6.6095      0.00000
    214       6.6275      0.00000
    215       6.6625      0.00000
    216       6.6938      0.00000
    217       6.7118      0.00000
    218       6.7650      0.00000
    219       6.8225      0.00000
    220       6.8822      0.00000
    221       6.9016      0.00000
    222       6.9195      0.00000
    223       6.9540      0.00000
    224       6.9897      0.00000
    225       7.0121      0.00000
    226       7.0455      0.00000
    227       7.0776      0.00000
    228       7.1081      0.00000
    229       7.1186      0.00000
    230       7.1513      0.00000
    231       7.2121      0.00000
    232       7.2174      0.00000
    233       7.2382      0.00000
    234       7.2783      0.00000
    235       7.2846      0.00000
    236       7.3451      0.00000
    237       7.3520      0.00000
    238       7.3577      0.00000
    239       7.4009      0.00000
    240       7.4526      0.00000
    241       7.5011      0.00000
    242       7.5243      0.00000
    243       7.5560      0.00000
    244       7.6765      0.00000
    245       7.7080      0.00000
    246       7.7655      0.00000
    247       7.7922      0.00000
    248       7.8429      0.00000
    249       7.8717      0.00000
    250       7.8830      0.00000
    251       7.9087      0.00000
    252       7.9470      0.00000
    253       7.9588      0.00000
    254       7.9944      0.00000
    255       8.0074      0.00000
    256       8.0706      0.00000

 k-point     4 :       0.0000    0.2000    0.0000
  band No.  band energies     occupation 
      1     -24.2045      1.00000
      2     -22.4173      1.00000
      3     -22.1572      1.00000
      4     -21.9297      1.00000
      5     -21.6471      1.00000
      6     -21.2285      1.00000
      7     -20.9460      1.00000
      8     -20.7355      1.00000
      9     -20.3547      1.00000
     10     -19.8823      1.00000
     11     -19.6654      1.00000
     12     -19.2483      1.00000
     13     -18.9725      1.00000
     14     -18.8180      1.00000
     15     -18.6777      1.00000
     16     -18.5133      1.00000
     17     -18.1859      1.00000
     18     -17.9542      1.00000
     19     -17.8392      1.00000
     20     -17.4330      1.00000
     21     -16.8061      1.00000
     22     -16.5839      1.00000
     23     -16.5250      1.00000
     24     -16.2530      1.00000
     25     -15.9872      1.00000
     26     -15.5580      1.00000
     27     -15.0639      1.00000
     28     -14.9381      1.00000
     29     -14.7648      1.00000
     30     -14.7075      1.00000
     31     -14.6043      1.00000
     32     -14.3556      1.00000
     33     -14.2508      1.00000
     34     -13.8013      1.00000
     35     -13.4739      1.00000
     36     -13.0264      1.00000
     37     -12.7377      1.00000
     38     -12.2791      1.00000
     39     -12.0578      1.00000
     40     -11.9783      1.00000
     41     -11.7376      1.00000
     42     -11.6572      1.00000
     43     -11.5014      1.00000
     44     -11.2323      1.00000
     45     -11.1863      1.00000
     46     -11.1213      1.00000
     47     -11.0298      1.00000
     48     -10.9303      1.00000
     49     -10.8610      1.00000
     50     -10.6962      1.00000
     51     -10.4749      1.00000
     52     -10.1936      1.00000
     53     -10.0712      1.00000
     54      -9.8981      1.00000
     55      -9.8451      1.00000
     56      -9.6757      1.00000
     57      -9.3922      1.00000
     58      -9.3290      1.00000
     59      -9.2837      1.00000
     60      -9.2332      1.00000
     61      -9.1768      1.00000
     62      -9.0476      1.00000
     63      -9.0171      1.00000
     64      -8.9857      1.00000
     65      -8.8125      1.00000
     66      -8.6571      1.00000
     67      -8.6195      1.00000
     68      -8.5606      1.00000
     69      -8.4872      1.00000
     70      -8.4780      1.00000
     71      -8.2889      1.00000
     72      -8.2587      1.00000
     73      -8.0334      1.00000
     74      -7.8462      1.00000
     75      -7.7425      1.00000
     76      -7.3964      1.00000
     77      -7.3642      1.00000
     78      -7.2616      1.00000
     79      -7.1666      1.00000
     80      -6.9966      1.00000
     81      -6.8863      1.00000
     82      -6.8062      1.00000
     83      -6.6669      1.00000
     84      -6.4354      1.00000
     85      -6.3214      1.00000
     86      -6.1217      1.00000
     87      -6.0702      1.00000
     88      -6.0001      1.00000
     89      -5.8782      1.00000
     90      -5.6935      1.00000
     91      -5.5144      1.00000
     92      -5.3952      1.00000
     93      -4.8895      1.00000
     94      -4.8246      1.00000
     95      -4.7817      1.00000
     96      -4.3492      1.00000
     97      -4.1953      1.00000
     98      -4.0913      1.00000
     99      -3.7978      1.00000
    100      -3.5215      1.00000
    101      -3.3653      1.00000
    102      -3.1908      1.00000
    103      -2.1219      0.62237
    104      -1.2354      0.00000
    105      -1.0002      0.00000
    106      -0.8121      0.00000
    107      -0.7470      0.00000
    108      -0.4810      0.00000
    109       0.0431      0.00000
    110       0.1109      0.00000
    111       0.2619      0.00000
    112       0.6448      0.00000
    113       0.9413      0.00000
    114       1.0699      0.00000
    115       1.3196      0.00000
    116       1.3573      0.00000
    117       1.4358      0.00000
    118       1.5145      0.00000
    119       1.5451      0.00000
    120       1.5869      0.00000
    121       1.6741      0.00000
    122       1.8009      0.00000
    123       1.9028      0.00000
    124       2.0225      0.00000
    125       2.1761      0.00000
    126       2.2157      0.00000
    127       2.2398      0.00000
    128       2.2889      0.00000
    129       2.3402      0.00000
    130       2.4455      0.00000
    131       2.5392      0.00000
    132       2.6668      0.00000
    133       2.6847      0.00000
    134       2.7868      0.00000
    135       2.7974      0.00000
    136       2.8749      0.00000
    137       2.9048      0.00000
    138       2.9348      0.00000
    139       3.0734      0.00000
    140       3.1388      0.00000
    141       3.1899      0.00000
    142       3.2334      0.00000
    143       3.2639      0.00000
    144       3.2990      0.00000
    145       3.4310      0.00000
    146       3.5052      0.00000
    147       3.5458      0.00000
    148       3.5933      0.00000
    149       3.6472      0.00000
    150       3.7929      0.00000
    151       3.9310      0.00000
    152       4.0119      0.00000
    153       4.0439      0.00000
    154       4.1464      0.00000
    155       4.1645      0.00000
    156       4.2141      0.00000
    157       4.3102      0.00000
    158       4.3518      0.00000
    159       4.4637      0.00000
    160       4.5432      0.00000
    161       4.5930      0.00000
    162       4.6737      0.00000
    163       4.7121      0.00000
    164       4.7552      0.00000
    165       4.8041      0.00000
    166       4.8078      0.00000
    167       4.8221      0.00000
    168       4.8828      0.00000
    169       4.9106      0.00000
    170       5.0211      0.00000
    171       5.0894      0.00000
    172       5.1728      0.00000
    173       5.2008      0.00000
    174       5.2775      0.00000
    175       5.3220      0.00000
    176       5.3566      0.00000
    177       5.4134      0.00000
    178       5.4299      0.00000
    179       5.4443      0.00000
    180       5.4677      0.00000
    181       5.5022      0.00000
    182       5.5459      0.00000
    183       5.5753      0.00000
    184       5.5980      0.00000
    185       5.6066      0.00000
    186       5.6075      0.00000
    187       5.6092      0.00000
    188       5.6855      0.00000
    189       5.7441      0.00000
    190       5.7834      0.00000
    191       5.7894      0.00000
    192       5.8083      0.00000
    193       5.8641      0.00000
    194       5.9089      0.00000
    195       5.9457      0.00000
    196       5.9677      0.00000
    197       5.9982      0.00000
    198       6.0524      0.00000
    199       6.0911      0.00000
    200       6.1379      0.00000
    201       6.1451      0.00000
    202       6.1672      0.00000
    203       6.1828      0.00000
    204       6.1928      0.00000
    205       6.2221      0.00000
    206       6.2268      0.00000
    207       6.3013      0.00000
    208       6.3325      0.00000
    209       6.3378      0.00000
    210       6.3657      0.00000
    211       6.3901      0.00000
    212       6.4113      0.00000
    213       6.4253      0.00000
    214       6.4550      0.00000
    215       6.4778      0.00000
    216       6.4836      0.00000
    217       6.5324      0.00000
    218       6.5536      0.00000
    219       6.6339      0.00000
    220       6.6865      0.00000
    221       6.7316      0.00000
    222       6.7893      0.00000
    223       6.8201      0.00000
    224       6.8367      0.00000
    225       6.8619      0.00000
    226       6.9231      0.00000
    227       6.9675      0.00000
    228       7.0316      0.00000
    229       7.0747      0.00000
    230       7.1083      0.00000
    231       7.1312      0.00000
    232       7.1362      0.00000
    233       7.1583      0.00000
    234       7.2350      0.00000
    235       7.2965      0.00000
    236       7.3202      0.00000
    237       7.3256      0.00000
    238       7.3664      0.00000
    239       7.3876      0.00000
    240       7.4572      0.00000
    241       7.4913      0.00000
    242       7.4986      0.00000
    243       7.5815      0.00000
    244       7.6522      0.00000
    245       7.6800      0.00000
    246       7.7118      0.00000
    247       7.7245      0.00000
    248       7.7776      0.00000
    249       7.7887      0.00000
    250       7.8198      0.00000
    251       7.8336      0.00000
    252       7.9183      0.00000
    253       7.9755      0.00000
    254       8.0149      0.00000
    255       8.0843      0.00000
    256       8.1524      0.00000

 k-point     5 :       0.2000    0.2000    0.0000
  band No.  band energies     occupation 
      1     -24.2045      1.00000
      2     -22.3895      1.00000
      3     -22.1922      1.00000
      4     -21.9489      1.00000
      5     -21.6569      1.00000
      6     -21.2022      1.00000
      7     -20.8756      1.00000
      8     -20.7649      1.00000
      9     -20.2051      1.00000
     10     -20.0323      1.00000
     11     -19.6126      1.00000
     12     -19.4425      1.00000
     13     -19.2235      1.00000
     14     -18.9353      1.00000
     15     -18.3452      1.00000
     16     -18.2934      1.00000
     17     -18.1834      1.00000
     18     -17.8879      1.00000
     19     -17.6748      1.00000
     20     -17.2803      1.00000
     21     -16.9452      1.00000
     22     -16.6944      1.00000
     23     -16.6812      1.00000
     24     -16.5566      1.00000
     25     -15.9165      1.00000
     26     -15.6487      1.00000
     27     -15.2485      1.00000
     28     -14.9576      1.00000
     29     -14.9567      1.00000
     30     -14.4807      1.00000
     31     -14.2762      1.00000
     32     -14.2757      1.00000
     33     -13.9126      1.00000
     34     -13.7601      1.00000
     35     -13.4656      1.00000
     36     -12.8336      1.00000
     37     -12.6724      1.00000
     38     -12.4696      1.00000
     39     -12.4073      1.00000
     40     -12.0395      1.00000
     41     -11.9357      1.00000
     42     -11.6015      1.00000
     43     -11.4882      1.00000
     44     -11.3277      1.00000
     45     -11.2201      1.00000
     46     -11.1766      1.00000
     47     -11.1379      1.00000
     48     -10.9686      1.00000
     49     -10.9624      1.00000
     50     -10.3842      1.00000
     51     -10.3711      1.00000
     52     -10.1779      1.00000
     53     -10.1671      1.00000
     54      -9.8067      1.00000
     55      -9.7865      1.00000
     56      -9.7529      1.00000
     57      -9.4850      1.00000
     58      -9.3723      1.00000
     59      -9.3108      1.00000
     60      -9.2866      1.00000
     61      -9.0517      1.00000
     62      -9.0135      1.00000
     63      -8.8460      1.00000
     64      -8.8305      1.00000
     65      -8.7872      1.00000
     66      -8.7545      1.00000
     67      -8.5831      1.00000
     68      -8.5512      1.00000
     69      -8.4388      1.00000
     70      -8.4168      1.00000
     71      -8.2216      1.00000
     72      -8.0974      1.00000
     73      -8.0520      1.00000
     74      -7.7972      1.00000
     75      -7.7326      1.00000
     76      -7.6065      1.00000
     77      -7.3805      1.00000
     78      -7.3661      1.00000
     79      -7.2556      1.00000
     80      -7.0841      1.00000
     81      -7.0048      1.00000
     82      -6.8673      1.00000
     83      -6.7912      1.00000
     84      -6.6083      1.00000
     85      -6.2104      1.00000
     86      -6.1611      1.00000
     87      -5.9220      1.00000
     88      -5.8530      1.00000
     89      -5.7344      1.00000
     90      -5.5815      1.00000
     91      -5.3379      1.00000
     92      -5.1598      1.00000
     93      -4.8801      1.00000
     94      -4.8394      1.00000
     95      -4.7649      1.00000
     96      -4.6387      1.00000
     97      -4.3809      1.00000
     98      -4.1867      1.00000
     99      -4.0607      1.00000
    100      -3.5444      1.00000
    101      -3.2804      1.00000
    102      -2.9187      1.00000
    103      -2.4344      1.00000
    104      -1.3080      0.00000
    105      -0.6869      0.00000
    106      -0.6422      0.00000
    107      -0.4323      0.00000
    108      -0.4096      0.00000
    109      -0.2514      0.00000
    110       0.2529      0.00000
    111       0.2976      0.00000
    112       0.3509      0.00000
    113       0.7218      0.00000
    114       0.9539      0.00000
    115       1.1188      0.00000
    116       1.1975      0.00000
    117       1.3008      0.00000
    118       1.3936      0.00000
    119       1.6406      0.00000
    120       1.6550      0.00000
    121       1.7909      0.00000
    122       1.8022      0.00000
    123       1.8686      0.00000
    124       2.0392      0.00000
    125       2.0972      0.00000
    126       2.2139      0.00000
    127       2.2763      0.00000
    128       2.3134      0.00000
    129       2.4367      0.00000
    130       2.4995      0.00000
    131       2.6216      0.00000
    132       2.6279      0.00000
    133       2.8015      0.00000
    134       2.8445      0.00000
    135       2.9690      0.00000
    136       2.9827      0.00000
    137       3.0423      0.00000
    138       3.0668      0.00000
    139       3.0735      0.00000
    140       3.1692      0.00000
    141       3.2549      0.00000
    142       3.2611      0.00000
    143       3.3883      0.00000
    144       3.4305      0.00000
    145       3.4978      0.00000
    146       3.6366      0.00000
    147       3.6810      0.00000
    148       3.8013      0.00000
    149       3.8351      0.00000
    150       3.8409      0.00000
    151       3.8885      0.00000
    152       3.9298      0.00000
    153       3.9977      0.00000
    154       4.0481      0.00000
    155       4.0819      0.00000
    156       4.1257      0.00000
    157       4.1917      0.00000
    158       4.2352      0.00000
    159       4.3450      0.00000
    160       4.4850      0.00000
    161       4.5623      0.00000
    162       4.5993      0.00000
    163       4.6245      0.00000
    164       4.6759      0.00000
    165       4.7155      0.00000
    166       4.8028      0.00000
    167       4.8302      0.00000
    168       4.8852      0.00000
    169       4.9077      0.00000
    170       4.9548      0.00000
    171       4.9884      0.00000
    172       5.0435      0.00000
    173       5.0826      0.00000
    174       5.1428      0.00000
    175       5.2544      0.00000
    176       5.2755      0.00000
    177       5.2912      0.00000
    178       5.3147      0.00000
    179       5.3651      0.00000
    180       5.3853      0.00000
    181       5.4274      0.00000
    182       5.4594      0.00000
    183       5.4687      0.00000
    184       5.4920      0.00000
    185       5.5039      0.00000
    186       5.5902      0.00000
    187       5.6050      0.00000
    188       5.6248      0.00000
    189       5.6891      0.00000
    190       5.7304      0.00000
    191       5.7956      0.00000
    192       5.8577      0.00000
    193       5.8739      0.00000
    194       5.8993      0.00000
    195       5.9695      0.00000
    196       6.0043      0.00000
    197       6.0283      0.00000
    198       6.0921      0.00000
    199       6.1011      0.00000
    200       6.1669      0.00000
    201       6.1811      0.00000
    202       6.2090      0.00000
    203       6.2216      0.00000
    204       6.2361      0.00000
    205       6.2991      0.00000
    206       6.3302      0.00000
    207       6.3561      0.00000
    208       6.3723      0.00000
    209       6.3968      0.00000
    210       6.3991      0.00000
    211       6.4799      0.00000
    212       6.5106      0.00000
    213       6.5157      0.00000
    214       6.5484      0.00000
    215       6.5803      0.00000
    216       6.7032      0.00000
    217       6.7277      0.00000
    218       6.7437      0.00000
    219       6.7530      0.00000
    220       6.7849      0.00000
    221       6.8415      0.00000
    222       6.8866      0.00000
    223       6.8956      0.00000
    224       6.9394      0.00000
    225       6.9626      0.00000
    226       6.9907      0.00000
    227       7.0062      0.00000
    228       7.0192      0.00000
    229       7.0861      0.00000
    230       7.1393      0.00000
    231       7.1441      0.00000
    232       7.1966      0.00000
    233       7.2487      0.00000
    234       7.3397      0.00000
    235       7.3510      0.00000
    236       7.3676      0.00000
    237       7.3782      0.00000
    238       7.4431      0.00000
    239       7.4822      0.00000
    240       7.4887      0.00000
    241       7.5816      0.00000
    242       7.5947      0.00000
    243       7.6579      0.00000
    244       7.6614      0.00000
    245       7.6898      0.00000
    246       7.7475      0.00000
    247       7.7999      0.00000
    248       7.8178      0.00000
    249       7.9042      0.00000
    250       7.9052      0.00000
    251       7.9259      0.00000
    252       7.9589      0.00000
    253       7.9687      0.00000
    254       7.9705      0.00000
    255       8.0541      0.00000
    256       8.0944      0.00000

 k-point     6 :       0.4000    0.2000    0.0000
  band No.  band energies     occupation 
      1     -24.2045      1.00000
      2     -22.3668      1.00000
      3     -22.2100      1.00000
      4     -21.9883      1.00000
      5     -21.6314      1.00000
      6     -21.1760      1.00000
      7     -20.9491      1.00000
      8     -20.6674      1.00000
      9     -20.1279      1.00000
     10     -20.0190      1.00000
     11     -19.7513      1.00000
     12     -19.4378      1.00000
     13     -19.4021      1.00000
     14     -18.9776      1.00000
     15     -18.3625      1.00000
     16     -18.1631      1.00000
     17     -17.8791      1.00000
     18     -17.7068      1.00000
     19     -17.6150      1.00000
     20     -17.4225      1.00000
     21     -17.0306      1.00000
     22     -16.8976      1.00000
     23     -16.7813      1.00000
     24     -16.5723      1.00000
     25     -15.9309      1.00000
     26     -15.5136      1.00000
     27     -15.4900      1.00000
     28     -15.1443      1.00000
     29     -15.0161      1.00000
     30     -14.2993      1.00000
     31     -14.0761      1.00000
     32     -13.9961      1.00000
     33     -13.6273      1.00000
     34     -13.5109      1.00000
     35     -13.3459      1.00000
     36     -13.2874      1.00000
     37     -13.0533      1.00000
     38     -12.6711      1.00000
     39     -12.3664      1.00000
     40     -12.0162      1.00000
     41     -11.7689      1.00000
     42     -11.6737      1.00000
     43     -11.4981      1.00000
     44     -11.3692      1.00000
     45     -11.3263      1.00000
     46     -11.1460      1.00000
     47     -11.1033      1.00000
     48     -10.9914      1.00000
     49     -10.8374      1.00000
     50     -10.7361      1.00000
     51     -10.3180      1.00000
     52     -10.2510      1.00000
     53      -9.9031      1.00000
     54      -9.6844      1.00000
     55      -9.6391      1.00000
     56      -9.5781      1.00000
     57      -9.5452      1.00000
     58      -9.4936      1.00000
     59      -9.3932      1.00000
     60      -9.3491      1.00000
     61      -9.2912      1.00000
     62      -9.0288      1.00000
     63      -8.8939      1.00000
     64      -8.7773      1.00000
     65      -8.7640      1.00000
     66      -8.6174      1.00000
     67      -8.4530      1.00000
     68      -8.4247      1.00000
     69      -8.4116      1.00000
     70      -8.2424      1.00000
     71      -8.2142      1.00000
     72      -8.0782      1.00000
     73      -8.0244      1.00000
     74      -7.8215      1.00000
     75      -7.8005      1.00000
     76      -7.6387      1.00000
     77      -7.5378      1.00000
     78      -7.4116      1.00000
     79      -7.3884      1.00000
     80      -7.1382      1.00000
     81      -7.0588      1.00000
     82      -6.8340      1.00000
     83      -6.7094      1.00000
     84      -6.5968      1.00000
     85      -6.4259      1.00000
     86      -6.0614      1.00000
     87      -6.0043      1.00000
     88      -5.8815      1.00000
     89      -5.4677      1.00000
     90      -5.2913      1.00000
     91      -5.2376      1.00000
     92      -5.0822      1.00000
     93      -4.8935      1.00000
     94      -4.8281      1.00000
     95      -4.7253      1.00000
     96      -4.6793      1.00000
     97      -4.6376      1.00000
     98      -4.5583      1.00000
     99      -4.0614      1.00000
    100      -3.5076      1.00000
    101      -3.3252      1.00000
    102      -2.8777      1.00000
    103      -2.3458      1.00000
    104      -1.3875      0.00000
    105      -0.6937      0.00000
    106      -0.6133      0.00000
    107      -0.4045      0.00000
    108      -0.1702      0.00000
    109      -0.0022      0.00000
    110       0.1443      0.00000
    111       0.3537      0.00000
    112       0.4003      0.00000
    113       0.5182      0.00000
    114       0.7175      0.00000
    115       0.8927      0.00000
    116       1.0657      0.00000
    117       1.1793      0.00000
    118       1.4678      0.00000
    119       1.6041      0.00000
    120       1.6732      0.00000
    121       1.7642      0.00000
    122       1.8673      0.00000
    123       1.9438      0.00000
    124       1.9577      0.00000
    125       1.9723      0.00000
    126       2.1780      0.00000
    127       2.3662      0.00000
    128       2.4336      0.00000
    129       2.4579      0.00000
    130       2.5498      0.00000
    131       2.7191      0.00000
    132       2.7555      0.00000
    133       2.8794      0.00000
    134       2.9164      0.00000
    135       2.9965      0.00000
    136       3.0272      0.00000
    137       3.0373      0.00000
    138       3.1478      0.00000
    139       3.1992      0.00000
    140       3.2720      0.00000
    141       3.3840      0.00000
    142       3.4003      0.00000
    143       3.4859      0.00000
    144       3.5105      0.00000
    145       3.5324      0.00000
    146       3.5569      0.00000
    147       3.6661      0.00000
    148       3.7182      0.00000
    149       3.7378      0.00000
    150       3.8000      0.00000
    151       3.8859      0.00000
    152       3.8985      0.00000
    153       3.9143      0.00000
    154       4.0955      0.00000
    155       4.1668      0.00000
    156       4.2200      0.00000
    157       4.2692      0.00000
    158       4.3408      0.00000
    159       4.3747      0.00000
    160       4.3879      0.00000
    161       4.4165      0.00000
    162       4.4958      0.00000
    163       4.5369      0.00000
    164       4.5653      0.00000
    165       4.6052      0.00000
    166       4.6522      0.00000
    167       4.7232      0.00000
    168       4.7467      0.00000
    169       4.9203      0.00000
    170       4.9479      0.00000
    171       5.0354      0.00000
    172       5.0491      0.00000
    173       5.0618      0.00000
    174       5.0780      0.00000
    175       5.1447      0.00000
    176       5.1580      0.00000
    177       5.1853      0.00000
    178       5.2175      0.00000
    179       5.2654      0.00000
    180       5.2962      0.00000
    181       5.3188      0.00000
    182       5.4802      0.00000
    183       5.5024      0.00000
    184       5.5105      0.00000
    185       5.6084      0.00000
    186       5.6443      0.00000
    187       5.6703      0.00000
    188       5.7040      0.00000
    189       5.7180      0.00000
    190       5.7580      0.00000
    191       5.7681      0.00000
    192       5.8638      0.00000
    193       5.8989      0.00000
    194       5.9132      0.00000
    195       5.9157      0.00000
    196       5.9836      0.00000
    197       6.0452      0.00000
    198       6.0667      0.00000
    199       6.0829      0.00000
    200       6.1121      0.00000
    201       6.1449      0.00000
    202       6.1597      0.00000
    203       6.2333      0.00000
    204       6.2602      0.00000
    205       6.3326      0.00000
    206       6.3828      0.00000
    207       6.4203      0.00000
    208       6.4385      0.00000
    209       6.4709      0.00000
    210       6.5131      0.00000
    211       6.5288      0.00000
    212       6.5658      0.00000
    213       6.5943      0.00000
    214       6.6141      0.00000
    215       6.6640      0.00000
    216       6.7013      0.00000
    217       6.7139      0.00000
    218       6.7557      0.00000
    219       6.7862      0.00000
    220       6.8154      0.00000
    221       6.8368      0.00000
    222       6.8883      0.00000
    223       6.9500      0.00000
    224       7.0034      0.00000
    225       7.0093      0.00000
    226       7.0796      0.00000
    227       7.1173      0.00000
    228       7.1622      0.00000
    229       7.1683      0.00000
    230       7.2175      0.00000
    231       7.2313      0.00000
    232       7.2884      0.00000
    233       7.3513      0.00000
    234       7.3791      0.00000
    235       7.3858      0.00000
    236       7.4233      0.00000
    237       7.4460      0.00000
    238       7.4882      0.00000
    239       7.5050      0.00000
    240       7.5479      0.00000
    241       7.5498      0.00000
    242       7.6049      0.00000
    243       7.6166      0.00000
    244       7.6231      0.00000
    245       7.6380      0.00000
    246       7.6746      0.00000
    247       7.7283      0.00000
    248       7.7757      0.00000
    249       7.7881      0.00000
    250       7.8295      0.00000
    251       7.8687      0.00000
    252       7.9204      0.00000
    253       7.9795      0.00000
    254       8.0179      0.00000
    255       8.0455      0.00000
    256       8.0780      0.00000

 k-point     7 :      -0.4000    0.2000    0.0000
  band No.  band energies     occupation 
      1     -24.2045      1.00000
      2     -22.3897      1.00000
      3     -22.1758      1.00000
      4     -21.9939      1.00000
      5     -21.6049      1.00000
      6     -21.1928      1.00000
      7     -21.0253      1.00000
      8     -20.5780      1.00000
      9     -20.3115      1.00000
     10     -19.9223      1.00000
     11     -19.7385      1.00000
     12     -19.3781      1.00000
     13     -19.2609      1.00000
     14     -18.9297      1.00000
     15     -18.4086      1.00000
     16     -18.3707      1.00000
     17     -18.0711      1.00000
     18     -17.8138      1.00000
     19     -17.4070      1.00000
     20     -17.3151      1.00000
     21     -17.0961      1.00000
     22     -16.9649      1.00000
     23     -16.6568      1.00000
     24     -16.4810      1.00000
     25     -16.0744      1.00000
     26     -15.4734      1.00000
     27     -15.1439      1.00000
     28     -15.0348      1.00000
     29     -14.9034      1.00000
     30     -14.4792      1.00000
     31     -14.3313      1.00000
     32     -14.1803      1.00000
     33     -13.9575      1.00000
     34     -13.7877      1.00000
     35     -13.2377      1.00000
     36     -12.9067      1.00000
     37     -12.7059      1.00000
     38     -12.5475      1.00000
     39     -12.4269      1.00000
     40     -12.3220      1.00000
     41     -11.9411      1.00000
     42     -11.5509      1.00000
     43     -11.5253      1.00000
     44     -11.3496      1.00000
     45     -11.2120      1.00000
     46     -11.1499      1.00000
     47     -11.0620      1.00000
     48     -10.8906      1.00000
     49     -10.6844      1.00000
     50     -10.6342      1.00000
     51     -10.1872      1.00000
     52     -10.1196      1.00000
     53     -10.0903      1.00000
     54      -9.9394      1.00000
     55      -9.7933      1.00000
     56      -9.7341      1.00000
     57      -9.5434      1.00000
     58      -9.4169      1.00000
     59      -9.2914      1.00000
     60      -9.2326      1.00000
     61      -9.1653      1.00000
     62      -9.0347      1.00000
     63      -8.9930      1.00000
     64      -8.9683      1.00000
     65      -8.7839      1.00000
     66      -8.6625      1.00000
     67      -8.6178      1.00000
     68      -8.5184      1.00000
     69      -8.3816      1.00000
     70      -8.3232      1.00000
     71      -8.0958      1.00000
     72      -8.0875      1.00000
     73      -8.0333      1.00000
     74      -7.8457      1.00000
     75      -7.6981      1.00000
     76      -7.6315      1.00000
     77      -7.4266      1.00000
     78      -7.3441      1.00000
     79      -7.3210      1.00000
     80      -7.1177      1.00000
     81      -6.8782      1.00000
     82      -6.8029      1.00000
     83      -6.7866      1.00000
     84      -6.6542      1.00000
     85      -6.2071      1.00000
     86      -6.1790      1.00000
     87      -5.9784      1.00000
     88      -5.9053      1.00000
     89      -5.7599      1.00000
     90      -5.6767      1.00000
     91      -5.2148      1.00000
     92      -4.9574      1.00000
     93      -4.9149      1.00000
     94      -4.8102      1.00000
     95      -4.7519      1.00000
     96      -4.6582      1.00000
     97      -4.5996      1.00000
     98      -4.1830      1.00000
     99      -4.0233      1.00000
    100      -3.4900      1.00000
    101      -3.2988      1.00000
    102      -3.2096      1.00000
    103      -1.9525      0.00000
    104      -1.4115      0.00000
    105      -0.7520      0.00000
    106      -0.6510      0.00000
    107      -0.5715      0.00000
    108      -0.3451      0.00000
    109      -0.2308      0.00000
    110       0.0177      0.00000
    111       0.3139      0.00000
    112       0.6067      0.00000
    113       0.7693      0.00000
    114       0.9696      0.00000
    115       1.1068      0.00000
    116       1.1975      0.00000
    117       1.3417      0.00000
    118       1.3949      0.00000
    119       1.5975      0.00000
    120       1.6613      0.00000
    121       1.6981      0.00000
    122       1.8229      0.00000
    123       1.9036      0.00000
    124       2.0161      0.00000
    125       2.1393      0.00000
    126       2.2364      0.00000
    127       2.2430      0.00000
    128       2.2858      0.00000
    129       2.4451      0.00000
    130       2.4755      0.00000
    131       2.5918      0.00000
    132       2.6411      0.00000
    133       2.7673      0.00000
    134       2.8055      0.00000
    135       2.9762      0.00000
    136       3.0335      0.00000
    137       3.0488      0.00000
    138       3.0633      0.00000
    139       3.0676      0.00000
    140       3.1945      0.00000
    141       3.2559      0.00000
    142       3.3006      0.00000
    143       3.4019      0.00000
    144       3.4350      0.00000
    145       3.5242      0.00000
    146       3.6399      0.00000
    147       3.7330      0.00000
    148       3.8041      0.00000
    149       3.8377      0.00000
    150       3.8461      0.00000
    151       3.9050      0.00000
    152       3.9308      0.00000
    153       3.9962      0.00000
    154       4.0413      0.00000
    155       4.0778      0.00000
    156       4.1079      0.00000
    157       4.1417      0.00000
    158       4.1948      0.00000
    159       4.2899      0.00000
    160       4.5263      0.00000
    161       4.5552      0.00000
    162       4.6051      0.00000
    163       4.6269      0.00000
    164       4.6800      0.00000
    165       4.7290      0.00000
    166       4.8347      0.00000
    167       4.8387      0.00000
    168       4.8637      0.00000
    169       4.9149      0.00000
    170       4.9416      0.00000
    171       4.9713      0.00000
    172       5.0783      0.00000
    173       5.1338      0.00000
    174       5.1705      0.00000
    175       5.2312      0.00000
    176       5.2668      0.00000
    177       5.2900      0.00000
    178       5.3209      0.00000
    179       5.3961      0.00000
    180       5.4021      0.00000
    181       5.4298      0.00000
    182       5.4453      0.00000
    183       5.4666      0.00000
    184       5.4898      0.00000
    185       5.5058      0.00000
    186       5.5877      0.00000
    187       5.6246      0.00000
    188       5.6978      0.00000
    189       5.7147      0.00000
    190       5.7633      0.00000
    191       5.7884      0.00000
    192       5.8185      0.00000
    193       5.8467      0.00000
    194       5.8492      0.00000
    195       5.8578      0.00000
    196       5.9888      0.00000
    197       6.0300      0.00000
    198       6.0465      0.00000
    199       6.0937      0.00000
    200       6.1562      0.00000
    201       6.1713      0.00000
    202       6.2061      0.00000
    203       6.2336      0.00000
    204       6.2430      0.00000
    205       6.2981      0.00000
    206       6.3198      0.00000
    207       6.3577      0.00000
    208       6.3811      0.00000
    209       6.3920      0.00000
    210       6.4148      0.00000
    211       6.4502      0.00000
    212       6.4969      0.00000
    213       6.5134      0.00000
    214       6.5697      0.00000
    215       6.5800      0.00000
    216       6.6020      0.00000
    217       6.6902      0.00000
    218       6.7372      0.00000
    219       6.7443      0.00000
    220       6.7691      0.00000
    221       6.7950      0.00000
    222       6.8074      0.00000
    223       6.9065      0.00000
    224       6.9165      0.00000
    225       6.9474      0.00000
    226       6.9609      0.00000
    227       7.0107      0.00000
    228       7.0345      0.00000
    229       7.0372      0.00000
    230       7.1132      0.00000
    231       7.1750      0.00000
    232       7.2438      0.00000
    233       7.2528      0.00000
    234       7.3057      0.00000
    235       7.3531      0.00000
    236       7.3609      0.00000
    237       7.3806      0.00000
    238       7.5071      0.00000
    239       7.5450      0.00000
    240       7.5744      0.00000
    241       7.5912      0.00000
    242       7.5989      0.00000
    243       7.6177      0.00000
    244       7.6637      0.00000
    245       7.6906      0.00000
    246       7.7225      0.00000
    247       7.7733      0.00000
    248       7.8019      0.00000
    249       7.8349      0.00000
    250       7.8949      0.00000
    251       7.9219      0.00000
    252       7.9447      0.00000
    253       7.9664      0.00000
    254       7.9875      0.00000
    255       8.0572      0.00000
    256       8.0806      0.00000

 k-point     8 :      -0.2000    0.2000    0.0000
  band No.  band energies     occupation 
      1     -24.2045      1.00000
      2     -22.4172      1.00000
      3     -22.1459      1.00000
      4     -21.9630      1.00000
      5     -21.6076      1.00000
      6     -21.2231      1.00000
      7     -21.0388      1.00000
      8     -20.5882      1.00000
      9     -20.4451      1.00000
     10     -19.7764      1.00000
     11     -19.7605      1.00000
     12     -19.2035      1.00000
     13     -19.1060      1.00000
     14     -18.8282      1.00000
     15     -18.5569      1.00000
     16     -18.4990      1.00000
     17     -18.1519      1.00000
     18     -18.1400      1.00000
     19     -17.6512      1.00000
     20     -17.3717      1.00000
     21     -16.9550      1.00000
     22     -16.5725      1.00000
     23     -16.4598      1.00000
     24     -16.3701      1.00000
     25     -16.1299      1.00000
     26     -15.2431      1.00000
     27     -15.1507      1.00000
     28     -14.8718      1.00000
     29     -14.7724      1.00000
     30     -14.7042      1.00000
     31     -14.5968      1.00000
     32     -14.4986      1.00000
     33     -14.2124      1.00000
     34     -13.8338      1.00000
     35     -13.2131      1.00000
     36     -13.0714      1.00000
     37     -12.8528      1.00000
     38     -12.4349      1.00000
     39     -12.1224      1.00000
     40     -11.8795      1.00000
     41     -11.8297      1.00000
     42     -11.5917      1.00000
     43     -11.5754      1.00000
     44     -11.2263      1.00000
     45     -11.1548      1.00000
     46     -11.1515      1.00000
     47     -11.0233      1.00000
     48     -10.9228      1.00000
     49     -10.7771      1.00000
     50     -10.4751      1.00000
     51     -10.4229      1.00000
     52     -10.3258      1.00000
     53      -9.9613      1.00000
     54      -9.8941      1.00000
     55      -9.8651      1.00000
     56      -9.6848      1.00000
     57      -9.6100      1.00000
     58      -9.3943      1.00000
     59      -9.3385      1.00000
     60      -9.2222      1.00000
     61      -9.1660      1.00000
     62      -9.1132      1.00000
     63      -8.8917      1.00000
     64      -8.8284      1.00000
     65      -8.7447      1.00000
     66      -8.7069      1.00000
     67      -8.6857      1.00000
     68      -8.6398      1.00000
     69      -8.5540      1.00000
     70      -8.4377      1.00000
     71      -8.2606      1.00000
     72      -8.2372      1.00000
     73      -8.0421      1.00000
     74      -7.7770      1.00000
     75      -7.7095      1.00000
     76      -7.5218      1.00000
     77      -7.3193      1.00000
     78      -7.1714      1.00000
     79      -7.1153      1.00000
     80      -7.0400      1.00000
     81      -6.9431      1.00000
     82      -6.8229      1.00000
     83      -6.5215      1.00000
     84      -6.5111      1.00000
     85      -6.4159      1.00000
     86      -6.1351      1.00000
     87      -6.0110      1.00000
     88      -5.9724      1.00000
     89      -5.9151      1.00000
     90      -5.6921      1.00000
     91      -5.6521      1.00000
     92      -5.2291      1.00000
     93      -4.9619      1.00000
     94      -4.8353      1.00000
     95      -4.6844      1.00000
     96      -4.4518      1.00000
     97      -4.1601      1.00000
     98      -4.0392      1.00000
     99      -3.7298      1.00000
    100      -3.6709      1.00000
    101      -3.4603      1.00000
    102      -3.1704      1.00000
    103      -1.8352      0.00000
    104      -1.3697      0.00000
    105      -0.9649      0.00000
    106      -0.9019      0.00000
    107      -0.7024      0.00000
    108      -0.5531      0.00000
    109      -0.0863      0.00000
    110       0.2535      0.00000
    111       0.3016      0.00000
    112       0.5785      0.00000
    113       1.0725      0.00000
    114       1.1527      0.00000
    115       1.2076      0.00000
    116       1.3223      0.00000
    117       1.4213      0.00000
    118       1.5434      0.00000
    119       1.5605      0.00000
    120       1.6234      0.00000
    121       1.6595      0.00000
    122       1.7957      0.00000
    123       1.9088      0.00000
    124       1.9724      0.00000
    125       2.0789      0.00000
    126       2.1752      0.00000
    127       2.2936      0.00000
    128       2.3196      0.00000
    129       2.3601      0.00000
    130       2.4462      0.00000
    131       2.5519      0.00000
    132       2.6669      0.00000
    133       2.6800      0.00000
    134       2.7679      0.00000
    135       2.8221      0.00000
    136       2.8310      0.00000
    137       2.9218      0.00000
    138       2.9382      0.00000
    139       3.0808      0.00000
    140       3.1548      0.00000
    141       3.1928      0.00000
    142       3.2326      0.00000
    143       3.2841      0.00000
    144       3.4070      0.00000
    145       3.4256      0.00000
    146       3.4853      0.00000
    147       3.5301      0.00000
    148       3.5730      0.00000
    149       3.6471      0.00000
    150       3.7672      0.00000
    151       3.9511      0.00000
    152       3.9932      0.00000
    153       4.0205      0.00000
    154       4.1402      0.00000
    155       4.2166      0.00000
    156       4.2432      0.00000
    157       4.2735      0.00000
    158       4.3291      0.00000
    159       4.4470      0.00000
    160       4.5140      0.00000
    161       4.5543      0.00000
    162       4.6806      0.00000
    163       4.7069      0.00000
    164       4.7666      0.00000
    165       4.7738      0.00000
    166       4.8132      0.00000
    167       4.8151      0.00000
    168       4.9142      0.00000
    169       5.0098      0.00000
    170       5.0839      0.00000
    171       5.1259      0.00000
    172       5.1652      0.00000
    173       5.2250      0.00000
    174       5.2527      0.00000
    175       5.3129      0.00000
    176       5.3417      0.00000
    177       5.3465      0.00000
    178       5.4272      0.00000
    179       5.4424      0.00000
    180       5.4687      0.00000
    181       5.5298      0.00000
    182       5.5657      0.00000
    183       5.5981      0.00000
    184       5.5999      0.00000
    185       5.6043      0.00000
    186       5.6140      0.00000
    187       5.6199      0.00000
    188       5.6696      0.00000
    189       5.7321      0.00000
    190       5.7843      0.00000
    191       5.8034      0.00000
    192       5.8121      0.00000
    193       5.8473      0.00000
    194       5.8742      0.00000
    195       5.9111      0.00000
    196       5.9740      0.00000
    197       5.9749      0.00000
    198       6.0143      0.00000
    199       6.0507      0.00000
    200       6.0801      0.00000
    201       6.1470      0.00000
    202       6.1638      0.00000
    203       6.1805      0.00000
    204       6.2035      0.00000
    205       6.2253      0.00000
    206       6.2354      0.00000
    207       6.2985      0.00000
    208       6.3014      0.00000
    209       6.3507      0.00000
    210       6.3654      0.00000
    211       6.3993      0.00000
    212       6.4213      0.00000
    213       6.4261      0.00000
    214       6.4340      0.00000
    215       6.4644      0.00000
    216       6.5254      0.00000
    217       6.5288      0.00000
    218       6.6026      0.00000
    219       6.6318      0.00000
    220       6.6813      0.00000
    221       6.7533      0.00000
    222       6.7610      0.00000
    223       6.7790      0.00000
    224       6.8539      0.00000
    225       6.8893      0.00000
    226       6.9428      0.00000
    227       6.9693      0.00000
    228       7.0501      0.00000
    229       7.0772      0.00000
    230       7.0989      0.00000
    231       7.1179      0.00000
    232       7.1387      0.00000
    233       7.1667      0.00000
    234       7.2427      0.00000
    235       7.2965      0.00000
    236       7.3212      0.00000
    237       7.3271      0.00000
    238       7.3540      0.00000
    239       7.4116      0.00000
    240       7.4120      0.00000
    241       7.4996      0.00000
    242       7.4999      0.00000
    243       7.5373      0.00000
    244       7.5889      0.00000
    245       7.6397      0.00000
    246       7.6746      0.00000
    247       7.7087      0.00000
    248       7.7775      0.00000
    249       7.7844      0.00000
    250       7.8042      0.00000
    251       7.8230      0.00000
    252       7.8473      0.00000
    253       7.9553      0.00000
    254       8.0049      0.00000
    255       8.0095      0.00000
    256       8.1814      0.00000

 k-point     9 :       0.0000    0.4000    0.0000
  band No.  band energies     occupation 
      1     -24.2045      1.00000
      2     -22.3802      1.00000
      3     -22.2045      1.00000
      4     -21.9517      1.00000
      5     -21.6617      1.00000
      6     -21.1676      1.00000
      7     -20.9642      1.00000
      8     -20.6565      1.00000
      9     -20.2235      1.00000
     10     -19.9945      1.00000
     11     -19.7997      1.00000
     12     -19.2992      1.00000
     13     -19.2061      1.00000
     14     -18.8644      1.00000
     15     -18.7901      1.00000
     16     -18.1780      1.00000
     17     -17.9752      1.00000
     18     -17.6683      1.00000
     19     -17.5228      1.00000
     20     -17.3664      1.00000
     21     -17.0397      1.00000
     22     -16.9971      1.00000
     23     -16.8232      1.00000
     24     -16.3492      1.00000
     25     -15.9523      1.00000
     26     -15.5811      1.00000
     27     -15.3039      1.00000
     28     -14.8608      1.00000
     29     -14.8470      1.00000
     30     -14.6149      1.00000
     31     -14.5400      1.00000
     32     -14.1848      1.00000
     33     -13.8401      1.00000
     34     -13.6061      1.00000
     35     -13.0675      1.00000
     36     -12.9720      1.00000
     37     -12.8060      1.00000
     38     -12.4575      1.00000
     39     -12.3102      1.00000
     40     -12.2720      1.00000
     41     -12.1946      1.00000
     42     -11.8017      1.00000
     43     -11.4103      1.00000
     44     -11.2427      1.00000
     45     -11.1568      1.00000
     46     -11.0706      1.00000
     47     -11.0157      1.00000
     48     -10.9220      1.00000
     49     -10.7726      1.00000
     50     -10.7518      1.00000
     51     -10.4348      1.00000
     52     -10.2095      1.00000
     53     -10.0067      1.00000
     54      -9.7686      1.00000
     55      -9.7308      1.00000
     56      -9.6783      1.00000
     57      -9.5002      1.00000
     58      -9.4259      1.00000
     59      -9.3746      1.00000
     60      -9.2702      1.00000
     61      -9.1231      1.00000
     62      -9.0625      1.00000
     63      -9.0394      1.00000
     64      -8.9743      1.00000
     65      -8.7307      1.00000
     66      -8.6995      1.00000
     67      -8.5271      1.00000
     68      -8.3367      1.00000
     69      -8.3117      1.00000
     70      -8.2231      1.00000
     71      -8.1156      1.00000
     72      -8.0420      1.00000
     73      -7.9796      1.00000
     74      -7.8876      1.00000
     75      -7.7916      1.00000
     76      -7.7584      1.00000
     77      -7.7197      1.00000
     78      -7.5074      1.00000
     79      -7.2782      1.00000
     80      -7.0294      1.00000
     81      -6.8594      1.00000
     82      -6.7092      1.00000
     83      -6.5629      1.00000
     84      -6.4996      1.00000
     85      -6.4039      1.00000
     86      -6.3320      1.00000
     87      -6.2910      1.00000
     88      -5.9289      1.00000
     89      -5.4908      1.00000
     90      -5.3379      1.00000
     91      -5.1792      1.00000
     92      -5.0100      1.00000
     93      -4.8772      1.00000
     94      -4.8601      1.00000
     95      -4.7528      1.00000
     96      -4.6720      1.00000
     97      -4.6400      1.00000
     98      -4.5584      1.00000
     99      -3.7068      1.00000
    100      -3.5322      1.00000
    101      -3.2870      1.00000
    102      -3.1783      1.00000
    103      -2.2349      0.99977
    104      -1.2951      0.00000
    105      -0.8217      0.00000
    106      -0.5870      0.00000
    107      -0.3531      0.00000
    108      -0.2671      0.00000
    109      -0.1641      0.00000
    110      -0.0794      0.00000
    111       0.3197      0.00000
    112       0.3705      0.00000
    113       0.6866      0.00000
    114       0.8812      0.00000
    115       1.1254      0.00000
    116       1.3000      0.00000
    117       1.3353      0.00000
    118       1.3676      0.00000
    119       1.5368      0.00000
    120       1.6690      0.00000
    121       1.8117      0.00000
    122       1.9147      0.00000
    123       2.0010      0.00000
    124       2.0189      0.00000
    125       2.0300      0.00000
    126       2.1583      0.00000
    127       2.2058      0.00000
    128       2.3447      0.00000
    129       2.4316      0.00000
    130       2.5462      0.00000
    131       2.5746      0.00000
    132       2.5938      0.00000
    133       2.6694      0.00000
    134       2.7588      0.00000
    135       2.8313      0.00000
    136       2.9127      0.00000
    137       3.0666      0.00000
    138       3.1373      0.00000
    139       3.2728      0.00000
    140       3.3260      0.00000
    141       3.3489      0.00000
    142       3.4284      0.00000
    143       3.5198      0.00000
    144       3.5524      0.00000
    145       3.5759      0.00000
    146       3.6113      0.00000
    147       3.6425      0.00000
    148       3.6895      0.00000
    149       3.7678      0.00000
    150       3.8068      0.00000
    151       3.9075      0.00000
    152       3.9816      0.00000
    153       4.0065      0.00000
    154       4.0986      0.00000
    155       4.1057      0.00000
    156       4.1622      0.00000
    157       4.2219      0.00000
    158       4.2438      0.00000
    159       4.2873      0.00000
    160       4.3105      0.00000
    161       4.3492      0.00000
    162       4.5700      0.00000
    163       4.5873      0.00000
    164       4.6633      0.00000
    165       4.7538      0.00000
    166       4.8219      0.00000
    167       4.8444      0.00000
    168       4.8703      0.00000
    169       4.9679      0.00000
    170       4.9857      0.00000
    171       5.0139      0.00000
    172       5.0264      0.00000
    173       5.1016      0.00000
    174       5.1089      0.00000
    175       5.1109      0.00000
    176       5.1357      0.00000
    177       5.2229      0.00000
    178       5.2485      0.00000
    179       5.3094      0.00000
    180       5.4353      0.00000
    181       5.4570      0.00000
    182       5.4969      0.00000
    183       5.5096      0.00000
    184       5.5814      0.00000
    185       5.6143      0.00000
    186       5.6364      0.00000
    187       5.6632      0.00000
    188       5.7007      0.00000
    189       5.7090      0.00000
    190       5.7373      0.00000
    191       5.7537      0.00000
    192       5.7812      0.00000
    193       5.8320      0.00000
    194       5.8564      0.00000
    195       5.8719      0.00000
    196       5.9343      0.00000
    197       5.9424      0.00000
    198       6.0328      0.00000
    199       6.0481      0.00000
    200       6.0587      0.00000
    201       6.1098      0.00000
    202       6.1651      0.00000
    203       6.2000      0.00000
    204       6.2607      0.00000
    205       6.2852      0.00000
    206       6.2977      0.00000
    207       6.3740      0.00000
    208       6.3974      0.00000
    209       6.4585      0.00000
    210       6.5085      0.00000
    211       6.5266      0.00000
    212       6.5727      0.00000
    213       6.6094      0.00000
    214       6.6275      0.00000
    215       6.6625      0.00000
    216       6.6938      0.00000
    217       6.7118      0.00000
    218       6.7650      0.00000
    219       6.8225      0.00000
    220       6.8821      0.00000
    221       6.9017      0.00000
    222       6.9195      0.00000
    223       6.9540      0.00000
    224       6.9897      0.00000
    225       7.0120      0.00000
    226       7.0455      0.00000
    227       7.0776      0.00000
    228       7.1081      0.00000
    229       7.1186      0.00000
    230       7.1513      0.00000
    231       7.2123      0.00000
    232       7.2174      0.00000
    233       7.2385      0.00000
    234       7.2784      0.00000
    235       7.2848      0.00000
    236       7.3451      0.00000
    237       7.3520      0.00000
    238       7.3578      0.00000
    239       7.4010      0.00000
    240       7.4527      0.00000
    241       7.5012      0.00000
    242       7.5245      0.00000
    243       7.5561      0.00000
    244       7.6777      0.00000
    245       7.7080      0.00000
    246       7.7657      0.00000
    247       7.7925      0.00000
    248       7.8432      0.00000
    249       7.8719      0.00000
    250       7.8832      0.00000
    251       7.9098      0.00000
    252       7.9508      0.00000
    253       7.9587      0.00000
    254       7.9948      0.00000
    255       8.0076      0.00000
    256       8.0714      0.00000

 k-point    10 :       0.2000    0.4000    0.0000
  band No.  band energies     occupation 
      1     -24.2045      1.00000
      2     -22.3668      1.00000
      3     -22.2100      1.00000
      4     -21.9883      1.00000
      5     -21.6314      1.00000
      6     -21.1760      1.00000
      7     -20.9491      1.00000
      8     -20.6674      1.00000
      9     -20.1279      1.00000
     10     -20.0190      1.00000
     11     -19.7513      1.00000
     12     -19.4378      1.00000
     13     -19.4021      1.00000
     14     -18.9776      1.00000
     15     -18.3625      1.00000
     16     -18.1631      1.00000
     17     -17.8791      1.00000
     18     -17.7068      1.00000
     19     -17.6150      1.00000
     20     -17.4225      1.00000
     21     -17.0306      1.00000
     22     -16.8976      1.00000
     23     -16.7813      1.00000
     24     -16.5724      1.00000
     25     -15.9309      1.00000
     26     -15.5136      1.00000
     27     -15.4900      1.00000
     28     -15.1443      1.00000
     29     -15.0161      1.00000
     30     -14.2993      1.00000
     31     -14.0761      1.00000
     32     -13.9961      1.00000
     33     -13.6273      1.00000
     34     -13.5109      1.00000
     35     -13.3459      1.00000
     36     -13.2874      1.00000
     37     -13.0533      1.00000
     38     -12.6711      1.00000
     39     -12.3664      1.00000
     40     -12.0162      1.00000
     41     -11.7688      1.00000
     42     -11.6737      1.00000
     43     -11.4981      1.00000
     44     -11.3692      1.00000
     45     -11.3263      1.00000
     46     -11.1460      1.00000
     47     -11.1033      1.00000
     48     -10.9914      1.00000
     49     -10.8375      1.00000
     50     -10.7361      1.00000
     51     -10.3180      1.00000
     52     -10.2510      1.00000
     53      -9.9031      1.00000
     54      -9.6844      1.00000
     55      -9.6391      1.00000
     56      -9.5781      1.00000
     57      -9.5452      1.00000
     58      -9.4936      1.00000
     59      -9.3932      1.00000
     60      -9.3491      1.00000
     61      -9.2912      1.00000
     62      -9.0288      1.00000
     63      -8.8939      1.00000
     64      -8.7773      1.00000
     65      -8.7640      1.00000
     66      -8.6174      1.00000
     67      -8.4530      1.00000
     68      -8.4247      1.00000
     69      -8.4116      1.00000
     70      -8.2424      1.00000
     71      -8.2142      1.00000
     72      -8.0782      1.00000
     73      -8.0244      1.00000
     74      -7.8215      1.00000
     75      -7.8005      1.00000
     76      -7.6387      1.00000
     77      -7.5378      1.00000
     78      -7.4116      1.00000
     79      -7.3884      1.00000
     80      -7.1383      1.00000
     81      -7.0588      1.00000
     82      -6.8340      1.00000
     83      -6.7094      1.00000
     84      -6.5968      1.00000
     85      -6.4259      1.00000
     86      -6.0614      1.00000
     87      -6.0043      1.00000
     88      -5.8815      1.00000
     89      -5.4677      1.00000
     90      -5.2913      1.00000
     91      -5.2376      1.00000
     92      -5.0822      1.00000
     93      -4.8935      1.00000
     94      -4.8281      1.00000
     95      -4.7253      1.00000
     96      -4.6793      1.00000
     97      -4.6376      1.00000
     98      -4.5583      1.00000
     99      -4.0614      1.00000
    100      -3.5076      1.00000
    101      -3.3252      1.00000
    102      -2.8777      1.00000
    103      -2.3458      1.00000
    104      -1.3875      0.00000
    105      -0.6937      0.00000
    106      -0.6133      0.00000
    107      -0.4045      0.00000
    108      -0.1702      0.00000
    109      -0.0022      0.00000
    110       0.1443      0.00000
    111       0.3536      0.00000
    112       0.4003      0.00000
    113       0.5182      0.00000
    114       0.7175      0.00000
    115       0.8927      0.00000
    116       1.0657      0.00000
    117       1.1793      0.00000
    118       1.4678      0.00000
    119       1.6041      0.00000
    120       1.6732      0.00000
    121       1.7642      0.00000
    122       1.8673      0.00000
    123       1.9438      0.00000
    124       1.9577      0.00000
    125       1.9723      0.00000
    126       2.1780      0.00000
    127       2.3662      0.00000
    128       2.4336      0.00000
    129       2.4579      0.00000
    130       2.5498      0.00000
    131       2.7191      0.00000
    132       2.7555      0.00000
    133       2.8794      0.00000
    134       2.9164      0.00000
    135       2.9965      0.00000
    136       3.0272      0.00000
    137       3.0373      0.00000
    138       3.1478      0.00000
    139       3.1992      0.00000
    140       3.2720      0.00000
    141       3.3840      0.00000
    142       3.4003      0.00000
    143       3.4859      0.00000
    144       3.5105      0.00000
    145       3.5324      0.00000
    146       3.5569      0.00000
    147       3.6661      0.00000
    148       3.7182      0.00000
    149       3.7378      0.00000
    150       3.8000      0.00000
    151       3.8859      0.00000
    152       3.8985      0.00000
    153       3.9143      0.00000
    154       4.0955      0.00000
    155       4.1668      0.00000
    156       4.2200      0.00000
    157       4.2692      0.00000
    158       4.3408      0.00000
    159       4.3747      0.00000
    160       4.3879      0.00000
    161       4.4165      0.00000
    162       4.4958      0.00000
    163       4.5369      0.00000
    164       4.5653      0.00000
    165       4.6052      0.00000
    166       4.6522      0.00000
    167       4.7232      0.00000
    168       4.7467      0.00000
    169       4.9203      0.00000
    170       4.9479      0.00000
    171       5.0354      0.00000
    172       5.0491      0.00000
    173       5.0618      0.00000
    174       5.0780      0.00000
    175       5.1447      0.00000
    176       5.1580      0.00000
    177       5.1853      0.00000
    178       5.2175      0.00000
    179       5.2654      0.00000
    180       5.2962      0.00000
    181       5.3188      0.00000
    182       5.4802      0.00000
    183       5.5024      0.00000
    184       5.5105      0.00000
    185       5.6084      0.00000
    186       5.6443      0.00000
    187       5.6703      0.00000
    188       5.7040      0.00000
    189       5.7180      0.00000
    190       5.7579      0.00000
    191       5.7681      0.00000
    192       5.8638      0.00000
    193       5.8989      0.00000
    194       5.9132      0.00000
    195       5.9157      0.00000
    196       5.9836      0.00000
    197       6.0452      0.00000
    198       6.0667      0.00000
    199       6.0829      0.00000
    200       6.1121      0.00000
    201       6.1449      0.00000
    202       6.1597      0.00000
    203       6.2332      0.00000
    204       6.2602      0.00000
    205       6.3325      0.00000
    206       6.3828      0.00000
    207       6.4203      0.00000
    208       6.4385      0.00000
    209       6.4709      0.00000
    210       6.5131      0.00000
    211       6.5289      0.00000
    212       6.5658      0.00000
    213       6.5943      0.00000
    214       6.6141      0.00000
    215       6.6640      0.00000
    216       6.7013      0.00000
    217       6.7139      0.00000
    218       6.7558      0.00000
    219       6.7860      0.00000
    220       6.8155      0.00000
    221       6.8367      0.00000
    222       6.8883      0.00000
    223       6.9499      0.00000
    224       7.0036      0.00000
    225       7.0093      0.00000
    226       7.0795      0.00000
    227       7.1172      0.00000
    228       7.1623      0.00000
    229       7.1683      0.00000
    230       7.2175      0.00000
    231       7.2311      0.00000
    232       7.2884      0.00000
    233       7.3512      0.00000
    234       7.3790      0.00000
    235       7.3858      0.00000
    236       7.4232      0.00000
    237       7.4460      0.00000
    238       7.4882      0.00000
    239       7.5054      0.00000
    240       7.5479      0.00000
    241       7.5499      0.00000
    242       7.6050      0.00000
    243       7.6168      0.00000
    244       7.6232      0.00000
    245       7.6381      0.00000
    246       7.6748      0.00000
    247       7.7285      0.00000
    248       7.7757      0.00000
    249       7.7879      0.00000
    250       7.8289      0.00000
    251       7.8688      0.00000
    252       7.9185      0.00000
    253       7.9797      0.00000
    254       8.0177      0.00000
    255       8.0457      0.00000
    256       8.0784      0.00000

 k-point    11 :       0.4000    0.4000    0.0000
  band No.  band energies     occupation 
      1     -24.2045      1.00000
      2     -22.3691      1.00000
      3     -22.1835      1.00000
      4     -22.0396      1.00000
      5     -21.5714      1.00000
      6     -21.2088      1.00000
      7     -20.9970      1.00000
      8     -20.6058      1.00000
      9     -20.1430      1.00000
     10     -19.9543      1.00000
     11     -19.6909      1.00000
     12     -19.5608      1.00000
     13     -19.5224      1.00000
     14     -18.8637      1.00000
     15     -18.3574      1.00000
     16     -18.1168      1.00000
     17     -17.9296      1.00000
     18     -17.7354      1.00000
     19     -17.4839      1.00000
     20     -17.4126      1.00000
     21     -17.0705      1.00000
     22     -16.8473      1.00000
     23     -16.8170      1.00000
     24     -16.6343      1.00000
     25     -16.1629      1.00000
     26     -15.5374      1.00000
     27     -15.3730      1.00000
     28     -15.1611      1.00000
     29     -14.7963      1.00000
     30     -14.3439      1.00000
     31     -13.9995      1.00000
     32     -13.7818      1.00000
     33     -13.7583      1.00000
     34     -13.5028      1.00000
     35     -13.4866      1.00000
     36     -13.3431      1.00000
     37     -13.0545      1.00000
     38     -12.6948      1.00000
     39     -12.3419      1.00000
     40     -12.1977      1.00000
     41     -11.8209      1.00000
     42     -11.6616      1.00000
     43     -11.3964      1.00000
     44     -11.3868      1.00000
     45     -11.2199      1.00000
     46     -11.1582      1.00000
     47     -11.1033      1.00000
     48     -10.9455      1.00000
     49     -10.9084      1.00000
     50     -10.6738      1.00000
     51     -10.4126      1.00000
     52     -10.0049      1.00000
     53      -9.9311      1.00000
     54      -9.6512      1.00000
     55      -9.6096      1.00000
     56      -9.6049      1.00000
     57      -9.5814      1.00000
     58      -9.4681      1.00000
     59      -9.3787      1.00000
     60      -9.3678      1.00000
     61      -9.2546      1.00000
     62      -9.2251      1.00000
     63      -8.9551      1.00000
     64      -8.8302      1.00000
     65      -8.7261      1.00000
     66      -8.6380      1.00000
     67      -8.4679      1.00000
     68      -8.4465      1.00000
     69      -8.3656      1.00000
     70      -8.3534      1.00000
     71      -8.2105      1.00000
     72      -7.9557      1.00000
     73      -7.9171      1.00000
     74      -7.8195      1.00000
     75      -7.7040      1.00000
     76      -7.6492      1.00000
     77      -7.5441      1.00000
     78      -7.5075      1.00000
     79      -7.3508      1.00000
     80      -7.0782      1.00000
     81      -7.0769      1.00000
     82      -6.8339      1.00000
     83      -6.8224      1.00000
     84      -6.5277      1.00000
     85      -6.4685      1.00000
     86      -6.0530      1.00000
     87      -6.0439      1.00000
     88      -5.7432      1.00000
     89      -5.5987      1.00000
     90      -5.2840      1.00000
     91      -5.2795      1.00000
     92      -4.9816      1.00000
     93      -4.9406      1.00000
     94      -4.8116      1.00000
     95      -4.7534      1.00000
     96      -4.6540      1.00000
     97      -4.6485      1.00000
     98      -4.4986      1.00000
     99      -4.1907      1.00000
    100      -3.4396      1.00000
    101      -3.3097      1.00000
    102      -3.1172      1.00000
    103      -1.9301      0.00000
    104      -1.5291      0.00000
    105      -0.6736      0.00000
    106      -0.6622      0.00000
    107      -0.3433      0.00000
    108      -0.3405      0.00000
    109       0.0746      0.00000
    110       0.1265      0.00000
    111       0.3671      0.00000
    112       0.4684      0.00000
    113       0.4695      0.00000
    114       0.6873      0.00000
    115       0.8967      0.00000
    116       1.0418      0.00000
    117       1.1726      0.00000
    118       1.4566      0.00000
    119       1.6434      0.00000
    120       1.7015      0.00000
    121       1.8046      0.00000
    122       1.8639      0.00000
    123       1.9341      0.00000
    124       1.9728      0.00000
    125       1.9895      0.00000
    126       2.1772      0.00000
    127       2.3462      0.00000
    128       2.4041      0.00000
    129       2.5063      0.00000
    130       2.5451      0.00000
    131       2.6767      0.00000
    132       2.7599      0.00000
    133       2.9269      0.00000
    134       2.9880      0.00000
    135       2.9893      0.00000
    136       3.0219      0.00000
    137       3.0886      0.00000
    138       3.0972      0.00000
    139       3.1540      0.00000
    140       3.2026      0.00000
    141       3.3826      0.00000
    142       3.4104      0.00000
    143       3.4605      0.00000
    144       3.5146      0.00000
    145       3.5153      0.00000
    146       3.5417      0.00000
    147       3.6583      0.00000
    148       3.7034      0.00000
    149       3.7765      0.00000
    150       3.7962      0.00000
    151       3.8959      0.00000
    152       3.9049      0.00000
    153       3.9564      0.00000
    154       4.0801      0.00000
    155       4.1446      0.00000
    156       4.2457      0.00000
    157       4.2753      0.00000
    158       4.3430      0.00000
    159       4.3797      0.00000
    160       4.3956      0.00000
    161       4.4055      0.00000
    162       4.5212      0.00000
    163       4.5277      0.00000
    164       4.5634      0.00000
    165       4.6325      0.00000
    166       4.6563      0.00000
    167       4.6759      0.00000
    168       4.7422      0.00000
    169       4.9350      0.00000
    170       4.9516      0.00000
    171       4.9903      0.00000
    172       5.0376      0.00000
    173       5.0567      0.00000
    174       5.1307      0.00000
    175       5.1462      0.00000
    176       5.1479      0.00000
    177       5.1935      0.00000
    178       5.2723      0.00000
    179       5.3022      0.00000
    180       5.3408      0.00000
    181       5.4486      0.00000
    182       5.5047      0.00000
    183       5.5051      0.00000
    184       5.5266      0.00000
    185       5.5349      0.00000
    186       5.6234      0.00000
    187       5.6934      0.00000
    188       5.6943      0.00000
    189       5.7055      0.00000
    190       5.7884      0.00000
    191       5.7889      0.00000
    192       5.8433      0.00000
    193       5.8780      0.00000
    194       5.8970      0.00000
    195       5.9072      0.00000
    196       5.9301      0.00000
    197       6.0326      0.00000
    198       6.0732      0.00000
    199       6.0806      0.00000
    200       6.1000      0.00000
    201       6.1060      0.00000
    202       6.1230      0.00000
    203       6.1712      0.00000
    204       6.2516      0.00000
    205       6.2604      0.00000
    206       6.3630      0.00000
    207       6.3982      0.00000
    208       6.4224      0.00000
    209       6.4521      0.00000
    210       6.4900      0.00000
    211       6.5154      0.00000
    212       6.5347      0.00000
    213       6.5490      0.00000
    214       6.6021      0.00000
    215       6.6107      0.00000
    216       6.6677      0.00000
    217       6.7164      0.00000
    218       6.7346      0.00000
    219       6.7406      0.00000
    220       6.7995      0.00000
    221       6.8488      0.00000
    222       6.9020      0.00000
    223       6.9256      0.00000
    224       6.9524      0.00000
    225       7.0466      0.00000
    226       7.1120      0.00000
    227       7.1476      0.00000
    228       7.1557      0.00000
    229       7.2034      0.00000
    230       7.2707      0.00000
    231       7.2931      0.00000
    232       7.3049      0.00000
    233       7.3486      0.00000
    234       7.3613      0.00000
    235       7.3719      0.00000
    236       7.4262      0.00000
    237       7.4489      0.00000
    238       7.4559      0.00000
    239       7.4827      0.00000
    240       7.5395      0.00000
    241       7.5511      0.00000
    242       7.5972      0.00000
    243       7.6289      0.00000
    244       7.6480      0.00000
    245       7.6529      0.00000
    246       7.7196      0.00000
    247       7.7231      0.00000
    248       7.7786      0.00000
    249       7.8329      0.00000
    250       7.8372      0.00000
    251       7.8651      0.00000
    252       7.8962      0.00000
    253       7.9918      0.00000
    254       8.0127      0.00000
    255       8.0532      0.00000
    256       8.0583      0.00000

 k-point    12 :      -0.4000    0.4000    0.0000
  band No.  band energies     occupation 
      1     -24.2045      1.00000
      2     -22.3826      1.00000
      3     -22.1625      1.00000
      4     -22.0414      1.00000
      5     -21.5553      1.00000
      6     -21.2235      1.00000
      7     -21.0377      1.00000
      8     -20.5385      1.00000
      9     -20.2644      1.00000
     10     -19.9492      1.00000
     11     -19.6518      1.00000
     12     -19.5576      1.00000
     13     -19.3944      1.00000
     14     -18.7473      1.00000
     15     -18.4414      1.00000
     16     -18.4037      1.00000
     17     -17.9674      1.00000
     18     -17.7362      1.00000
     19     -17.3208      1.00000
     20     -17.2695      1.00000
     21     -17.0620      1.00000
     22     -16.9813      1.00000
     23     -16.9043      1.00000
     24     -16.4786      1.00000
     25     -16.3014      1.00000
     26     -15.5371      1.00000
     27     -15.0160      1.00000
     28     -14.9523      1.00000
     29     -14.6823      1.00000
     30     -14.5688      1.00000
     31     -14.4446      1.00000
     32     -14.1356      1.00000
     33     -13.8376      1.00000
     34     -13.6833      1.00000
     35     -13.1896      1.00000
     36     -13.0887      1.00000
     37     -12.6723      1.00000
     38     -12.4848      1.00000
     39     -12.4446      1.00000
     40     -12.3265      1.00000
     41     -12.1040      1.00000
     42     -12.0618      1.00000
     43     -11.3032      1.00000
     44     -11.2290      1.00000
     45     -11.2084      1.00000
     46     -11.0608      1.00000
     47     -10.9425      1.00000
     48     -10.8155      1.00000
     49     -10.7756      1.00000
     50     -10.5498      1.00000
     51     -10.4424      1.00000
     52     -10.2584      1.00000
     53      -9.9607      1.00000
     54      -9.7453      1.00000
     55      -9.6808      1.00000
     56      -9.6550      1.00000
     57      -9.5154      1.00000
     58      -9.5093      1.00000
     59      -9.3555      1.00000
     60      -9.2697      1.00000
     61      -9.2449      1.00000
     62      -9.0997      1.00000
     63      -9.0353      1.00000
     64      -8.8990      1.00000
     65      -8.8924      1.00000
     66      -8.7662      1.00000
     67      -8.4536      1.00000
     68      -8.4270      1.00000
     69      -8.3368      1.00000
     70      -8.1832      1.00000
     71      -8.1465      1.00000
     72      -8.0793      1.00000
     73      -7.9671      1.00000
     74      -7.8518      1.00000
     75      -7.7307      1.00000
     76      -7.7102      1.00000
     77      -7.5469      1.00000
     78      -7.4883      1.00000
     79      -7.1020      1.00000
     80      -7.0876      1.00000
     81      -6.8571      1.00000
     82      -6.8538      1.00000
     83      -6.7427      1.00000
     84      -6.6011      1.00000
     85      -6.4056      1.00000
     86      -6.3141      1.00000
     87      -5.9781      1.00000
     88      -5.8820      1.00000
     89      -5.7341      1.00000
     90      -5.2573      1.00000
     91      -5.2561      1.00000
     92      -5.0123      1.00000
     93      -4.8381      1.00000
     94      -4.8304      1.00000
     95      -4.8044      1.00000
     96      -4.6625      1.00000
     97      -4.6471      1.00000
     98      -4.4982      1.00000
     99      -3.7777      1.00000
    100      -3.5949      1.00000
    101      -3.3538      1.00000
    102      -3.2483      1.00000
    103      -1.6115      0.00000
    104      -1.4939      0.00000
    105      -1.0728      0.00000
    106      -0.5436      0.00000
    107      -0.4012      0.00000
    108      -0.2595      0.00000
    109      -0.1321      0.00000
    110      -0.0424      0.00000
    111       0.3337      0.00000
    112       0.3404      0.00000
    113       0.7832      0.00000
    114       0.8069      0.00000
    115       0.9105      0.00000
    116       1.2818      0.00000
    117       1.3100      0.00000
    118       1.5601      0.00000
    119       1.6685      0.00000
    120       1.6774      0.00000
    121       1.8186      0.00000
    122       1.9151      0.00000
    123       1.9549      0.00000
    124       2.0007      0.00000
    125       2.1529      0.00000
    126       2.1588      0.00000
    127       2.2122      0.00000
    128       2.2831      0.00000
    129       2.4063      0.00000
    130       2.5239      0.00000
    131       2.5772      0.00000
    132       2.5930      0.00000
    133       2.6604      0.00000
    134       2.7507      0.00000
    135       2.8493      0.00000
    136       2.9007      0.00000
    137       3.0699      0.00000
    138       3.1481      0.00000
    139       3.2638      0.00000
    140       3.3528      0.00000
    141       3.3776      0.00000
    142       3.4477      0.00000
    143       3.5100      0.00000
    144       3.5526      0.00000
    145       3.5544      0.00000
    146       3.5984      0.00000
    147       3.6512      0.00000
    148       3.6763      0.00000
    149       3.7572      0.00000
    150       3.7952      0.00000
    151       3.8227      0.00000
    152       3.9749      0.00000
    153       4.0075      0.00000
    154       4.1098      0.00000
    155       4.1667      0.00000
    156       4.1759      0.00000
    157       4.2105      0.00000
    158       4.2562      0.00000
    159       4.2959      0.00000
    160       4.2977      0.00000
    161       4.3571      0.00000
    162       4.4883      0.00000
    163       4.5915      0.00000
    164       4.6328      0.00000
    165       4.7665      0.00000
    166       4.7912      0.00000
    167       4.8504      0.00000
    168       4.9791      0.00000
    169       4.9803      0.00000
    170       4.9969      0.00000
    171       5.0208      0.00000
    172       5.1010      0.00000
    173       5.1051      0.00000
    174       5.1199      0.00000
    175       5.1789      0.00000
    176       5.2116      0.00000
    177       5.2382      0.00000
    178       5.2976      0.00000
    179       5.4196      0.00000
    180       5.4292      0.00000
    181       5.4354      0.00000
    182       5.4844      0.00000
    183       5.5345      0.00000
    184       5.5654      0.00000
    185       5.5770      0.00000
    186       5.6497      0.00000
    187       5.6715      0.00000
    188       5.6799      0.00000
    189       5.7172      0.00000
    190       5.7241      0.00000
    191       5.7302      0.00000
    192       5.7782      0.00000
    193       5.7831      0.00000
    194       5.8422      0.00000
    195       5.8727      0.00000
    196       5.8943      0.00000
    197       5.9135      0.00000
    198       5.9657      0.00000
    199       6.0448      0.00000
    200       6.0539      0.00000
    201       6.0832      0.00000
    202       6.1037      0.00000
    203       6.1629      0.00000
    204       6.1786      0.00000
    205       6.2311      0.00000
    206       6.2358      0.00000
    207       6.3223      0.00000
    208       6.3881      0.00000
    209       6.4073      0.00000
    210       6.4389      0.00000
    211       6.5397      0.00000
    212       6.5682      0.00000
    213       6.5976      0.00000
    214       6.6311      0.00000
    215       6.6750      0.00000
    216       6.6833      0.00000
    217       6.6959      0.00000
    218       6.7279      0.00000
    219       6.7873      0.00000
    220       6.8267      0.00000
    221       6.8430      0.00000
    222       6.9110      0.00000
    223       6.9578      0.00000
    224       6.9703      0.00000
    225       7.0366      0.00000
    226       7.0706      0.00000
    227       7.0749      0.00000
    228       7.1185      0.00000
    229       7.1304      0.00000
    230       7.1874      0.00000
    231       7.2051      0.00000
    232       7.2213      0.00000
    233       7.2890      0.00000
    234       7.3180      0.00000
    235       7.3187      0.00000
    236       7.3446      0.00000
    237       7.3704      0.00000
    238       7.3802      0.00000
    239       7.3975      0.00000
    240       7.4494      0.00000
    241       7.4999      0.00000
    242       7.5067      0.00000
    243       7.5542      0.00000
    244       7.5854      0.00000
    245       7.7062      0.00000
    246       7.7725      0.00000
    247       7.7769      0.00000
    248       7.8094      0.00000
    249       7.8846      0.00000
    250       7.8859      0.00000
    251       7.8982      0.00000
    252       7.9094      0.00000
    253       7.9373      0.00000
    254       7.9387      0.00000
    255       7.9915      0.00000
    256       8.0153      0.00000

 k-point    13 :      -0.2000    0.4000    0.0000
  band No.  band energies     occupation 
      1     -24.2045      1.00000
      2     -22.3897      1.00000
      3     -22.1758      1.00000
      4     -21.9939      1.00000
      5     -21.6049      1.00000
      6     -21.1928      1.00000
      7     -21.0253      1.00000
      8     -20.5780      1.00000
      9     -20.3115      1.00000
     10     -19.9223      1.00000
     11     -19.7385      1.00000
     12     -19.3781      1.00000
     13     -19.2609      1.00000
     14     -18.9297      1.00000
     15     -18.4086      1.00000
     16     -18.3707      1.00000
     17     -18.0711      1.00000
     18     -17.8138      1.00000
     19     -17.4070      1.00000
     20     -17.3151      1.00000
     21     -17.0961      1.00000
     22     -16.9649      1.00000
     23     -16.6568      1.00000
     24     -16.4810      1.00000
     25     -16.0744      1.00000
     26     -15.4734      1.00000
     27     -15.1439      1.00000
     28     -15.0348      1.00000
     29     -14.9034      1.00000
     30     -14.4792      1.00000
     31     -14.3313      1.00000
     32     -14.1803      1.00000
     33     -13.9575      1.00000
     34     -13.7876      1.00000
     35     -13.2377      1.00000
     36     -12.9067      1.00000
     37     -12.7059      1.00000
     38     -12.5475      1.00000
     39     -12.4269      1.00000
     40     -12.3220      1.00000
     41     -11.9411      1.00000
     42     -11.5509      1.00000
     43     -11.5254      1.00000
     44     -11.3496      1.00000
     45     -11.2120      1.00000
     46     -11.1499      1.00000
     47     -11.0620      1.00000
     48     -10.8906      1.00000
     49     -10.6844      1.00000
     50     -10.6342      1.00000
     51     -10.1872      1.00000
     52     -10.1196      1.00000
     53     -10.0903      1.00000
     54      -9.9394      1.00000
     55      -9.7933      1.00000
     56      -9.7341      1.00000
     57      -9.5434      1.00000
     58      -9.4169      1.00000
     59      -9.2914      1.00000
     60      -9.2326      1.00000
     61      -9.1653      1.00000
     62      -9.0347      1.00000
     63      -8.9930      1.00000
     64      -8.9682      1.00000
     65      -8.7839      1.00000
     66      -8.6625      1.00000
     67      -8.6178      1.00000
     68      -8.5184      1.00000
     69      -8.3816      1.00000
     70      -8.3232      1.00000
     71      -8.0958      1.00000
     72      -8.0875      1.00000
     73      -8.0333      1.00000
     74      -7.8457      1.00000
     75      -7.6981      1.00000
     76      -7.6315      1.00000
     77      -7.4266      1.00000
     78      -7.3441      1.00000
     79      -7.3210      1.00000
     80      -7.1177      1.00000
     81      -6.8782      1.00000
     82      -6.8029      1.00000
     83      -6.7866      1.00000
     84      -6.6542      1.00000
     85      -6.2071      1.00000
     86      -6.1790      1.00000
     87      -5.9784      1.00000
     88      -5.9053      1.00000
     89      -5.7599      1.00000
     90      -5.6767      1.00000
     91      -5.2148      1.00000
     92      -4.9574      1.00000
     93      -4.9148      1.00000
     94      -4.8102      1.00000
     95      -4.7519      1.00000
     96      -4.6582      1.00000
     97      -4.5996      1.00000
     98      -4.1830      1.00000
     99      -4.0233      1.00000
    100      -3.4900      1.00000
    101      -3.2988      1.00000
    102      -3.2096      1.00000
    103      -1.9525      0.00000
    104      -1.4115      0.00000
    105      -0.7520      0.00000
    106      -0.6510      0.00000
    107      -0.5715      0.00000
    108      -0.3451      0.00000
    109      -0.2308      0.00000
    110       0.0177      0.00000
    111       0.3139      0.00000
    112       0.6067      0.00000
    113       0.7693      0.00000
    114       0.9696      0.00000
    115       1.1068      0.00000
    116       1.1975      0.00000
    117       1.3417      0.00000
    118       1.3949      0.00000
    119       1.5975      0.00000
    120       1.6613      0.00000
    121       1.6981      0.00000
    122       1.8229      0.00000
    123       1.9036      0.00000
    124       2.0161      0.00000
    125       2.1393      0.00000
    126       2.2364      0.00000
    127       2.2430      0.00000
    128       2.2858      0.00000
    129       2.4451      0.00000
    130       2.4755      0.00000
    131       2.5918      0.00000
    132       2.6411      0.00000
    133       2.7673      0.00000
    134       2.8055      0.00000
    135       2.9762      0.00000
    136       3.0335      0.00000
    137       3.0488      0.00000
    138       3.0633      0.00000
    139       3.0676      0.00000
    140       3.1945      0.00000
    141       3.2559      0.00000
    142       3.3006      0.00000
    143       3.4019      0.00000
    144       3.4350      0.00000
    145       3.5242      0.00000
    146       3.6399      0.00000
    147       3.7330      0.00000
    148       3.8041      0.00000
    149       3.8377      0.00000
    150       3.8461      0.00000
    151       3.9050      0.00000
    152       3.9308      0.00000
    153       3.9962      0.00000
    154       4.0413      0.00000
    155       4.0778      0.00000
    156       4.1079      0.00000
    157       4.1417      0.00000
    158       4.1948      0.00000
    159       4.2899      0.00000
    160       4.5263      0.00000
    161       4.5552      0.00000
    162       4.6051      0.00000
    163       4.6269      0.00000
    164       4.6800      0.00000
    165       4.7290      0.00000
    166       4.8347      0.00000
    167       4.8387      0.00000
    168       4.8637      0.00000
    169       4.9149      0.00000
    170       4.9416      0.00000
    171       4.9713      0.00000
    172       5.0783      0.00000
    173       5.1338      0.00000
    174       5.1705      0.00000
    175       5.2312      0.00000
    176       5.2668      0.00000
    177       5.2900      0.00000
    178       5.3209      0.00000
    179       5.3961      0.00000
    180       5.4021      0.00000
    181       5.4298      0.00000
    182       5.4453      0.00000
    183       5.4666      0.00000
    184       5.4898      0.00000
    185       5.5058      0.00000
    186       5.5877      0.00000
    187       5.6246      0.00000
    188       5.6978      0.00000
    189       5.7147      0.00000
    190       5.7633      0.00000
    191       5.7884      0.00000
    192       5.8185      0.00000
    193       5.8467      0.00000
    194       5.8492      0.00000
    195       5.8577      0.00000
    196       5.9888      0.00000
    197       6.0300      0.00000
    198       6.0465      0.00000
    199       6.0937      0.00000
    200       6.1562      0.00000
    201       6.1713      0.00000
    202       6.2061      0.00000
    203       6.2336      0.00000
    204       6.2430      0.00000
    205       6.2981      0.00000
    206       6.3198      0.00000
    207       6.3577      0.00000
    208       6.3811      0.00000
    209       6.3920      0.00000
    210       6.4148      0.00000
    211       6.4502      0.00000
    212       6.4968      0.00000
    213       6.5133      0.00000
    214       6.5697      0.00000
    215       6.5800      0.00000
    216       6.6020      0.00000
    217       6.6902      0.00000
    218       6.7372      0.00000
    219       6.7443      0.00000
    220       6.7691      0.00000
    221       6.7950      0.00000
    222       6.8073      0.00000
    223       6.9065      0.00000
    224       6.9165      0.00000
    225       6.9475      0.00000
    226       6.9609      0.00000
    227       7.0107      0.00000
    228       7.0345      0.00000
    229       7.0372      0.00000
    230       7.1131      0.00000
    231       7.1750      0.00000
    232       7.2437      0.00000
    233       7.2528      0.00000
    234       7.3057      0.00000
    235       7.3530      0.00000
    236       7.3609      0.00000
    237       7.3803      0.00000
    238       7.5060      0.00000
    239       7.5450      0.00000
    240       7.5742      0.00000
    241       7.5914      0.00000
    242       7.5985      0.00000
    243       7.6175      0.00000
    244       7.6640      0.00000
    245       7.6920      0.00000
    246       7.7225      0.00000
    247       7.7732      0.00000
    248       7.8017      0.00000
    249       7.8346      0.00000
    250       7.8950      0.00000
    251       7.9218      0.00000
    252       7.9447      0.00000
    253       7.9664      0.00000
    254       7.9877      0.00000
    255       8.0575      0.00000
    256       8.0809      0.00000

 spin component 2

 k-point     1 :       0.0000    0.0000    0.0000
  band No.  band energies     occupation 
      1     -24.2045      1.00000
      2     -22.4344      1.00000
      3     -22.1345      1.00000
      4     -21.9138      1.00000
      5     -21.6389      1.00000
      6     -21.2601      1.00000
      7     -20.8729      1.00000
      8     -20.8689      1.00000
      9     -20.3831      1.00000
     10     -19.8114      1.00000
     11     -19.6277      1.00000
     12     -19.0747      1.00000
     13     -18.9762      1.00000
     14     -18.7902      1.00000
     15     -18.6492      1.00000
     16     -18.4538      1.00000
     17     -18.3479      1.00000
     18     -18.1683      1.00000
     19     -18.0472      1.00000
     20     -17.4925      1.00000
     21     -16.7095      1.00000
     22     -16.5140      1.00000
     23     -16.2285      1.00000
     24     -16.0715      1.00000
     25     -15.9325      1.00000
     26     -15.4266      1.00000
     27     -15.1701      1.00000
     28     -15.1406      1.00000
     29     -14.9337      1.00000
     30     -14.9329      1.00000
     31     -14.6156      1.00000
     32     -14.0254      1.00000
     33     -13.9446      1.00000
     34     -13.8980      1.00000
     35     -13.7760      1.00000
     36     -13.5848      1.00000
     37     -12.7740      1.00000
     38     -12.0549      1.00000
     39     -11.9022      1.00000
     40     -11.7205      1.00000
     41     -11.5559      1.00000
     42     -11.2838      1.00000
     43     -11.2552      1.00000
     44     -11.2153      1.00000
     45     -11.1920      1.00000
     46     -11.1715      1.00000
     47     -11.1222      1.00000
     48     -11.1134      1.00000
     49     -11.0407      1.00000
     50     -10.9231      1.00000
     51     -10.6000      1.00000
     52     -10.0698      1.00000
     53     -10.0454      1.00000
     54     -10.0239      1.00000
     55      -9.8617      1.00000
     56      -9.5981      1.00000
     57      -9.5551      1.00000
     58      -9.4826      1.00000
     59      -9.1926      1.00000
     60      -9.1794      1.00000
     61      -9.0442      1.00000
     62      -8.9400      1.00000
     63      -8.9202      1.00000
     64      -8.8336      1.00000
     65      -8.8154      1.00000
     66      -8.7453      1.00000
     67      -8.6452      1.00000
     68      -8.6277      1.00000
     69      -8.5281      1.00000
     70      -8.4918      1.00000
     71      -8.4555      1.00000
     72      -8.3966      1.00000
     73      -8.3822      1.00000
     74      -7.7844      1.00000
     75      -7.7722      1.00000
     76      -7.2197      1.00000
     77      -7.1737      1.00000
     78      -7.1527      1.00000
     79      -6.9991      1.00000
     80      -6.9470      1.00000
     81      -6.9003      1.00000
     82      -6.7037      1.00000
     83      -6.6769      1.00000
     84      -6.6130      1.00000
     85      -6.3138      1.00000
     86      -6.1514      1.00000
     87      -5.8870      1.00000
     88      -5.8766      1.00000
     89      -5.8672      1.00000
     90      -5.8640      1.00000
     91      -5.7882      1.00000
     92      -5.7229      1.00000
     93      -4.9372      1.00000
     94      -4.8269      1.00000
     95      -4.7523      1.00000
     96      -4.2002      1.00000
     97      -3.9722      1.00000
     98      -3.8498      1.00000
     99      -3.8174      1.00000
    100      -3.5604      1.00000
    101      -3.5059      1.00000
    102      -3.1398      1.00000
    103      -2.0304      0.01137
    104      -1.1773      0.00000
    105      -1.1592      0.00000
    106      -1.0083      0.00000
    107      -0.9955      0.00000
    108      -0.4941      0.00000
    109       0.1830      0.00000
    110       0.2679      0.00000
    111       0.7373      0.00000
    112       0.7523      0.00000
    113       0.7703      0.00000
    114       0.8517      0.00000
    115       1.1320      0.00000
    116       1.4398      0.00000
    117       1.4815      0.00000
    118       1.5179      0.00000
    119       1.6146      0.00000
    120       1.6518      0.00000
    121       1.6613      0.00000
    122       1.7324      0.00000
    123       1.9615      0.00000
    124       2.0114      0.00000
    125       2.1224      0.00000
    126       2.4128      0.00000
    127       2.4494      0.00000
    128       2.4652      0.00000
    129       2.5152      0.00000
    130       2.5247      0.00000
    131       2.5781      0.00000
    132       2.5915      0.00000
    133       2.6153      0.00000
    134       2.6698      0.00000
    135       2.7334      0.00000
    136       2.8309      0.00000
    137       2.8583      0.00000
    138       2.8592      0.00000
    139       2.8763      0.00000
    140       2.8808      0.00000
    141       2.9435      0.00000
    142       2.9515      0.00000
    143       3.0530      0.00000
    144       3.1196      0.00000
    145       3.3641      0.00000
    146       3.4239      0.00000
    147       3.4382      0.00000
    148       3.8057      0.00000
    149       3.8058      0.00000
    150       3.9020      0.00000
    151       3.9036      0.00000
    152       3.9093      0.00000
    153       3.9236      0.00000
    154       4.2880      0.00000
    155       4.3015      0.00000
    156       4.3229      0.00000
    157       4.3254      0.00000
    158       4.3772      0.00000
    159       4.4512      0.00000
    160       4.5155      0.00000
    161       4.5906      0.00000
    162       4.5943      0.00000
    163       4.7552      0.00000
    164       4.8467      0.00000
    165       4.8489      0.00000
    166       4.8542      0.00000
    167       4.9410      0.00000
    168       5.0116      0.00000
    169       5.0516      0.00000
    170       5.0545      0.00000
    171       5.2530      0.00000
    172       5.2727      0.00000
    173       5.2769      0.00000
    174       5.2932      0.00000
    175       5.3009      0.00000
    176       5.3755      0.00000
    177       5.3801      0.00000
    178       5.4576      0.00000
    179       5.4770      0.00000
    180       5.4897      0.00000
    181       5.5289      0.00000
    182       5.5477      0.00000
    183       5.5487      0.00000
    184       5.5526      0.00000
    185       5.5632      0.00000
    186       5.5669      0.00000
    187       5.5816      0.00000
    188       5.6479      0.00000
    189       5.8162      0.00000
    190       5.8198      0.00000
    191       5.8948      0.00000
    192       5.9450      0.00000
    193       5.9527      0.00000
    194       5.9636      0.00000
    195       5.9787      0.00000
    196       5.9851      0.00000
    197       5.9869      0.00000
    198       6.0141      0.00000
    199       6.0435      0.00000
    200       6.1353      0.00000
    201       6.1607      0.00000
    202       6.1657      0.00000
    203       6.2133      0.00000
    204       6.2252      0.00000
    205       6.2792      0.00000
    206       6.2864      0.00000
    207       6.3528      0.00000
    208       6.3755      0.00000
    209       6.3771      0.00000
    210       6.3916      0.00000
    211       6.4217      0.00000
    212       6.4745      0.00000
    213       6.4751      0.00000
    214       6.4822      0.00000
    215       6.5409      0.00000
    216       6.5822      0.00000
    217       6.6394      0.00000
    218       6.6396      0.00000
    219       6.6445      0.00000
    220       6.6698      0.00000
    221       6.6831      0.00000
    222       6.6958      0.00000
    223       6.7125      0.00000
    224       6.7348      0.00000
    225       6.7440      0.00000
    226       6.7492      0.00000
    227       6.7876      0.00000
    228       6.8437      0.00000
    229       6.8867      0.00000
    230       6.8896      0.00000
    231       6.8896      0.00000
    232       6.8919      0.00000
    233       6.9041      0.00000
    234       6.9220      0.00000
    235       6.9230      0.00000
    236       6.9560      0.00000
    237       7.0212      0.00000
    238       7.0700      0.00000
    239       7.1099      0.00000
    240       7.1152      0.00000
    241       7.2324      0.00000
    242       7.6315      0.00000
    243       7.7180      0.00000
    244       7.7605      0.00000
    245       7.7682      0.00000
    246       7.8060      0.00000
    247       7.8483      0.00000
    248       7.8566      0.00000
    249       8.0356      0.00000
    250       8.0644      0.00000
    251       8.0961      0.00000
    252       8.1744      0.00000
    253       8.2505      0.00000
    254       8.2613      0.00000
    255       8.2687      0.00000
    256       8.3110      0.00000

 k-point     2 :       0.2000    0.0000    0.0000
  band No.  band energies     occupation 
      1     -24.2045      1.00000
      2     -22.4173      1.00000
      3     -22.1572      1.00000
      4     -21.9297      1.00000
      5     -21.6471      1.00000
      6     -21.2285      1.00000
      7     -20.9460      1.00000
      8     -20.7355      1.00000
      9     -20.3547      1.00000
     10     -19.8823      1.00000
     11     -19.6654      1.00000
     12     -19.2483      1.00000
     13     -18.9725      1.00000
     14     -18.8180      1.00000
     15     -18.6777      1.00000
     16     -18.5133      1.00000
     17     -18.1859      1.00000
     18     -17.9542      1.00000
     19     -17.8392      1.00000
     20     -17.4330      1.00000
     21     -16.8061      1.00000
     22     -16.5839      1.00000
     23     -16.5251      1.00000
     24     -16.2530      1.00000
     25     -15.9872      1.00000
     26     -15.5580      1.00000
     27     -15.0639      1.00000
     28     -14.9381      1.00000
     29     -14.7648      1.00000
     30     -14.7075      1.00000
     31     -14.6043      1.00000
     32     -14.3556      1.00000
     33     -14.2508      1.00000
     34     -13.8013      1.00000
     35     -13.4739      1.00000
     36     -13.0264      1.00000
     37     -12.7377      1.00000
     38     -12.2791      1.00000
     39     -12.0578      1.00000
     40     -11.9783      1.00000
     41     -11.7376      1.00000
     42     -11.6572      1.00000
     43     -11.5014      1.00000
     44     -11.2323      1.00000
     45     -11.1863      1.00000
     46     -11.1213      1.00000
     47     -11.0298      1.00000
     48     -10.9303      1.00000
     49     -10.8610      1.00000
     50     -10.6962      1.00000
     51     -10.4749      1.00000
     52     -10.1936      1.00000
     53     -10.0712      1.00000
     54      -9.8981      1.00000
     55      -9.8451      1.00000
     56      -9.6757      1.00000
     57      -9.3922      1.00000
     58      -9.3290      1.00000
     59      -9.2837      1.00000
     60      -9.2332      1.00000
     61      -9.1768      1.00000
     62      -9.0476      1.00000
     63      -9.0171      1.00000
     64      -8.9857      1.00000
     65      -8.8125      1.00000
     66      -8.6571      1.00000
     67      -8.6195      1.00000
     68      -8.5606      1.00000
     69      -8.4872      1.00000
     70      -8.4780      1.00000
     71      -8.2889      1.00000
     72      -8.2587      1.00000
     73      -8.0334      1.00000
     74      -7.8462      1.00000
     75      -7.7425      1.00000
     76      -7.3964      1.00000
     77      -7.3642      1.00000
     78      -7.2616      1.00000
     79      -7.1666      1.00000
     80      -6.9966      1.00000
     81      -6.8863      1.00000
     82      -6.8062      1.00000
     83      -6.6669      1.00000
     84      -6.4354      1.00000
     85      -6.3214      1.00000
     86      -6.1217      1.00000
     87      -6.0702      1.00000
     88      -6.0001      1.00000
     89      -5.8782      1.00000
     90      -5.6935      1.00000
     91      -5.5144      1.00000
     92      -5.3952      1.00000
     93      -4.8895      1.00000
     94      -4.8246      1.00000
     95      -4.7817      1.00000
     96      -4.3492      1.00000
     97      -4.1953      1.00000
     98      -4.0913      1.00000
     99      -3.7977      1.00000
    100      -3.5215      1.00000
    101      -3.3653      1.00000
    102      -3.1908      1.00000
    103      -2.1219      0.62239
    104      -1.2354      0.00000
    105      -1.0002      0.00000
    106      -0.8121      0.00000
    107      -0.7470      0.00000
    108      -0.4810      0.00000
    109       0.0431      0.00000
    110       0.1109      0.00000
    111       0.2619      0.00000
    112       0.6448      0.00000
    113       0.9413      0.00000
    114       1.0699      0.00000
    115       1.3196      0.00000
    116       1.3573      0.00000
    117       1.4358      0.00000
    118       1.5145      0.00000
    119       1.5451      0.00000
    120       1.5869      0.00000
    121       1.6741      0.00000
    122       1.8009      0.00000
    123       1.9028      0.00000
    124       2.0225      0.00000
    125       2.1761      0.00000
    126       2.2157      0.00000
    127       2.2398      0.00000
    128       2.2889      0.00000
    129       2.3402      0.00000
    130       2.4455      0.00000
    131       2.5392      0.00000
    132       2.6668      0.00000
    133       2.6847      0.00000
    134       2.7868      0.00000
    135       2.7974      0.00000
    136       2.8749      0.00000
    137       2.9048      0.00000
    138       2.9348      0.00000
    139       3.0734      0.00000
    140       3.1388      0.00000
    141       3.1899      0.00000
    142       3.2334      0.00000
    143       3.2639      0.00000
    144       3.2990      0.00000
    145       3.4310      0.00000
    146       3.5052      0.00000
    147       3.5458      0.00000
    148       3.5933      0.00000
    149       3.6472      0.00000
    150       3.7929      0.00000
    151       3.9310      0.00000
    152       4.0119      0.00000
    153       4.0439      0.00000
    154       4.1464      0.00000
    155       4.1645      0.00000
    156       4.2141      0.00000
    157       4.3102      0.00000
    158       4.3518      0.00000
    159       4.4637      0.00000
    160       4.5432      0.00000
    161       4.5930      0.00000
    162       4.6737      0.00000
    163       4.7121      0.00000
    164       4.7552      0.00000
    165       4.8041      0.00000
    166       4.8078      0.00000
    167       4.8221      0.00000
    168       4.8828      0.00000
    169       4.9106      0.00000
    170       5.0211      0.00000
    171       5.0894      0.00000
    172       5.1728      0.00000
    173       5.2008      0.00000
    174       5.2775      0.00000
    175       5.3220      0.00000
    176       5.3566      0.00000
    177       5.4134      0.00000
    178       5.4299      0.00000
    179       5.4443      0.00000
    180       5.4677      0.00000
    181       5.5022      0.00000
    182       5.5459      0.00000
    183       5.5753      0.00000
    184       5.5980      0.00000
    185       5.6066      0.00000
    186       5.6075      0.00000
    187       5.6092      0.00000
    188       5.6855      0.00000
    189       5.7441      0.00000
    190       5.7834      0.00000
    191       5.7894      0.00000
    192       5.8083      0.00000
    193       5.8641      0.00000
    194       5.9089      0.00000
    195       5.9457      0.00000
    196       5.9677      0.00000
    197       5.9982      0.00000
    198       6.0524      0.00000
    199       6.0911      0.00000
    200       6.1379      0.00000
    201       6.1451      0.00000
    202       6.1672      0.00000
    203       6.1828      0.00000
    204       6.1928      0.00000
    205       6.2221      0.00000
    206       6.2268      0.00000
    207       6.3013      0.00000
    208       6.3325      0.00000
    209       6.3378      0.00000
    210       6.3657      0.00000
    211       6.3901      0.00000
    212       6.4113      0.00000
    213       6.4253      0.00000
    214       6.4550      0.00000
    215       6.4777      0.00000
    216       6.4836      0.00000
    217       6.5324      0.00000
    218       6.5536      0.00000
    219       6.6339      0.00000
    220       6.6865      0.00000
    221       6.7317      0.00000
    222       6.7893      0.00000
    223       6.8202      0.00000
    224       6.8369      0.00000
    225       6.8620      0.00000
    226       6.9231      0.00000
    227       6.9675      0.00000
    228       7.0317      0.00000
    229       7.0750      0.00000
    230       7.1086      0.00000
    231       7.1313      0.00000
    232       7.1362      0.00000
    233       7.1585      0.00000
    234       7.2349      0.00000
    235       7.2965      0.00000
    236       7.3201      0.00000
    237       7.3256      0.00000
    238       7.3664      0.00000
    239       7.3876      0.00000
    240       7.4570      0.00000
    241       7.4912      0.00000
    242       7.4987      0.00000
    243       7.5814      0.00000
    244       7.6522      0.00000
    245       7.6800      0.00000
    246       7.7117      0.00000
    247       7.7246      0.00000
    248       7.7776      0.00000
    249       7.7889      0.00000
    250       7.8198      0.00000
    251       7.8337      0.00000
    252       7.9183      0.00000
    253       7.9748      0.00000
    254       8.0148      0.00000
    255       8.0901      0.00000
    256       8.1518      0.00000

 k-point     3 :       0.4000    0.0000    0.0000
  band No.  band energies     occupation 
      1     -24.2045      1.00000
      2     -22.3802      1.00000
      3     -22.2045      1.00000
      4     -21.9517      1.00000
      5     -21.6617      1.00000
      6     -21.1676      1.00000
      7     -20.9642      1.00000
      8     -20.6565      1.00000
      9     -20.2235      1.00000
     10     -19.9945      1.00000
     11     -19.7997      1.00000
     12     -19.2992      1.00000
     13     -19.2061      1.00000
     14     -18.8644      1.00000
     15     -18.7901      1.00000
     16     -18.1780      1.00000
     17     -17.9752      1.00000
     18     -17.6683      1.00000
     19     -17.5228      1.00000
     20     -17.3664      1.00000
     21     -17.0397      1.00000
     22     -16.9971      1.00000
     23     -16.8232      1.00000
     24     -16.3492      1.00000
     25     -15.9523      1.00000
     26     -15.5811      1.00000
     27     -15.3039      1.00000
     28     -14.8608      1.00000
     29     -14.8470      1.00000
     30     -14.6150      1.00000
     31     -14.5400      1.00000
     32     -14.1848      1.00000
     33     -13.8401      1.00000
     34     -13.6061      1.00000
     35     -13.0675      1.00000
     36     -12.9720      1.00000
     37     -12.8060      1.00000
     38     -12.4575      1.00000
     39     -12.3102      1.00000
     40     -12.2720      1.00000
     41     -12.1946      1.00000
     42     -11.8018      1.00000
     43     -11.4103      1.00000
     44     -11.2427      1.00000
     45     -11.1568      1.00000
     46     -11.0706      1.00000
     47     -11.0158      1.00000
     48     -10.9220      1.00000
     49     -10.7726      1.00000
     50     -10.7518      1.00000
     51     -10.4348      1.00000
     52     -10.2095      1.00000
     53     -10.0067      1.00000
     54      -9.7686      1.00000
     55      -9.7308      1.00000
     56      -9.6783      1.00000
     57      -9.5002      1.00000
     58      -9.4259      1.00000
     59      -9.3746      1.00000
     60      -9.2702      1.00000
     61      -9.1231      1.00000
     62      -9.0625      1.00000
     63      -9.0394      1.00000
     64      -8.9743      1.00000
     65      -8.7307      1.00000
     66      -8.6995      1.00000
     67      -8.5271      1.00000
     68      -8.3367      1.00000
     69      -8.3117      1.00000
     70      -8.2231      1.00000
     71      -8.1156      1.00000
     72      -8.0420      1.00000
     73      -7.9796      1.00000
     74      -7.8876      1.00000
     75      -7.7916      1.00000
     76      -7.7584      1.00000
     77      -7.7197      1.00000
     78      -7.5074      1.00000
     79      -7.2782      1.00000
     80      -7.0294      1.00000
     81      -6.8594      1.00000
     82      -6.7092      1.00000
     83      -6.5629      1.00000
     84      -6.4996      1.00000
     85      -6.4039      1.00000
     86      -6.3320      1.00000
     87      -6.2910      1.00000
     88      -5.9289      1.00000
     89      -5.4908      1.00000
     90      -5.3379      1.00000
     91      -5.1792      1.00000
     92      -5.0100      1.00000
     93      -4.8772      1.00000
     94      -4.8601      1.00000
     95      -4.7528      1.00000
     96      -4.6720      1.00000
     97      -4.6400      1.00000
     98      -4.5584      1.00000
     99      -3.7068      1.00000
    100      -3.5322      1.00000
    101      -3.2870      1.00000
    102      -3.1783      1.00000
    103      -2.2349      0.99977
    104      -1.2951      0.00000
    105      -0.8217      0.00000
    106      -0.5870      0.00000
    107      -0.3531      0.00000
    108      -0.2671      0.00000
    109      -0.1641      0.00000
    110      -0.0794      0.00000
    111       0.3197      0.00000
    112       0.3705      0.00000
    113       0.6866      0.00000
    114       0.8812      0.00000
    115       1.1254      0.00000
    116       1.3000      0.00000
    117       1.3353      0.00000
    118       1.3676      0.00000
    119       1.5368      0.00000
    120       1.6690      0.00000
    121       1.8117      0.00000
    122       1.9147      0.00000
    123       2.0010      0.00000
    124       2.0189      0.00000
    125       2.0300      0.00000
    126       2.1583      0.00000
    127       2.2058      0.00000
    128       2.3447      0.00000
    129       2.4316      0.00000
    130       2.5462      0.00000
    131       2.5746      0.00000
    132       2.5938      0.00000
    133       2.6694      0.00000
    134       2.7588      0.00000
    135       2.8313      0.00000
    136       2.9127      0.00000
    137       3.0666      0.00000
    138       3.1373      0.00000
    139       3.2728      0.00000
    140       3.3260      0.00000
    141       3.3489      0.00000
    142       3.4284      0.00000
    143       3.5198      0.00000
    144       3.5524      0.00000
    145       3.5759      0.00000
    146       3.6113      0.00000
    147       3.6425      0.00000
    148       3.6895      0.00000
    149       3.7678      0.00000
    150       3.8068      0.00000
    151       3.9075      0.00000
    152       3.9816      0.00000
    153       4.0065      0.00000
    154       4.0986      0.00000
    155       4.1057      0.00000
    156       4.1622      0.00000
    157       4.2219      0.00000
    158       4.2438      0.00000
    159       4.2873      0.00000
    160       4.3105      0.00000
    161       4.3492      0.00000
    162       4.5700      0.00000
    163       4.5873      0.00000
    164       4.6633      0.00000
    165       4.7538      0.00000
    166       4.8219      0.00000
    167       4.8444      0.00000
    168       4.8703      0.00000
    169       4.9679      0.00000
    170       4.9857      0.00000
    171       5.0139      0.00000
    172       5.0264      0.00000
    173       5.1016      0.00000
    174       5.1089      0.00000
    175       5.1109      0.00000
    176       5.1357      0.00000
    177       5.2229      0.00000
    178       5.2485      0.00000
    179       5.3094      0.00000
    180       5.4353      0.00000
    181       5.4570      0.00000
    182       5.4969      0.00000
    183       5.5096      0.00000
    184       5.5814      0.00000
    185       5.6143      0.00000
    186       5.6364      0.00000
    187       5.6632      0.00000
    188       5.7007      0.00000
    189       5.7090      0.00000
    190       5.7373      0.00000
    191       5.7537      0.00000
    192       5.7812      0.00000
    193       5.8320      0.00000
    194       5.8564      0.00000
    195       5.8719      0.00000
    196       5.9343      0.00000
    197       5.9424      0.00000
    198       6.0328      0.00000
    199       6.0481      0.00000
    200       6.0587      0.00000
    201       6.1098      0.00000
    202       6.1651      0.00000
    203       6.2000      0.00000
    204       6.2607      0.00000
    205       6.2852      0.00000
    206       6.2977      0.00000
    207       6.3740      0.00000
    208       6.3975      0.00000
    209       6.4585      0.00000
    210       6.5085      0.00000
    211       6.5268      0.00000
    212       6.5727      0.00000
    213       6.6095      0.00000
    214       6.6276      0.00000
    215       6.6625      0.00000
    216       6.6938      0.00000
    217       6.7118      0.00000
    218       6.7650      0.00000
    219       6.8225      0.00000
    220       6.8821      0.00000
    221       6.9017      0.00000
    222       6.9195      0.00000
    223       6.9540      0.00000
    224       6.9897      0.00000
    225       7.0121      0.00000
    226       7.0455      0.00000
    227       7.0776      0.00000
    228       7.1082      0.00000
    229       7.1186      0.00000
    230       7.1514      0.00000
    231       7.2124      0.00000
    232       7.2174      0.00000
    233       7.2385      0.00000
    234       7.2784      0.00000
    235       7.2848      0.00000
    236       7.3451      0.00000
    237       7.3520      0.00000
    238       7.3578      0.00000
    239       7.4011      0.00000
    240       7.4526      0.00000
    241       7.5012      0.00000
    242       7.5245      0.00000
    243       7.5560      0.00000
    244       7.6774      0.00000
    245       7.7081      0.00000
    246       7.7658      0.00000
    247       7.7925      0.00000
    248       7.8432      0.00000
    249       7.8719      0.00000
    250       7.8832      0.00000
    251       7.9099      0.00000
    252       7.9487      0.00000
    253       7.9587      0.00000
    254       7.9944      0.00000
    255       8.0078      0.00000
    256       8.0712      0.00000

 k-point     4 :       0.0000    0.2000    0.0000
  band No.  band energies     occupation 
      1     -24.2045      1.00000
      2     -22.4173      1.00000
      3     -22.1572      1.00000
      4     -21.9297      1.00000
      5     -21.6471      1.00000
      6     -21.2285      1.00000
      7     -20.9460      1.00000
      8     -20.7355      1.00000
      9     -20.3547      1.00000
     10     -19.8823      1.00000
     11     -19.6654      1.00000
     12     -19.2483      1.00000
     13     -18.9725      1.00000
     14     -18.8180      1.00000
     15     -18.6777      1.00000
     16     -18.5133      1.00000
     17     -18.1859      1.00000
     18     -17.9542      1.00000
     19     -17.8392      1.00000
     20     -17.4330      1.00000
     21     -16.8061      1.00000
     22     -16.5839      1.00000
     23     -16.5250      1.00000
     24     -16.2530      1.00000
     25     -15.9872      1.00000
     26     -15.5580      1.00000
     27     -15.0639      1.00000
     28     -14.9381      1.00000
     29     -14.7648      1.00000
     30     -14.7075      1.00000
     31     -14.6043      1.00000
     32     -14.3556      1.00000
     33     -14.2508      1.00000
     34     -13.8013      1.00000
     35     -13.4739      1.00000
     36     -13.0264      1.00000
     37     -12.7377      1.00000
     38     -12.2791      1.00000
     39     -12.0578      1.00000
     40     -11.9783      1.00000
     41     -11.7376      1.00000
     42     -11.6572      1.00000
     43     -11.5014      1.00000
     44     -11.2323      1.00000
     45     -11.1863      1.00000
     46     -11.1213      1.00000
     47     -11.0298      1.00000
     48     -10.9303      1.00000
     49     -10.8610      1.00000
     50     -10.6962      1.00000
     51     -10.4749      1.00000
     52     -10.1936      1.00000
     53     -10.0712      1.00000
     54      -9.8981      1.00000
     55      -9.8451      1.00000
     56      -9.6757      1.00000
     57      -9.3922      1.00000
     58      -9.3290      1.00000
     59      -9.2837      1.00000
     60      -9.2332      1.00000
     61      -9.1768      1.00000
     62      -9.0476      1.00000
     63      -9.0171      1.00000
     64      -8.9857      1.00000
     65      -8.8125      1.00000
     66      -8.6571      1.00000
     67      -8.6195      1.00000
     68      -8.5606      1.00000
     69      -8.4872      1.00000
     70      -8.4780      1.00000
     71      -8.2889      1.00000
     72      -8.2587      1.00000
     73      -8.0334      1.00000
     74      -7.8462      1.00000
     75      -7.7425      1.00000
     76      -7.3964      1.00000
     77      -7.3642      1.00000
     78      -7.2616      1.00000
     79      -7.1666      1.00000
     80      -6.9966      1.00000
     81      -6.8863      1.00000
     82      -6.8062      1.00000
     83      -6.6669      1.00000
     84      -6.4354      1.00000
     85      -6.3214      1.00000
     86      -6.1217      1.00000
     87      -6.0702      1.00000
     88      -6.0001      1.00000
     89      -5.8782      1.00000
     90      -5.6935      1.00000
     91      -5.5144      1.00000
     92      -5.3952      1.00000
     93      -4.8895      1.00000
     94      -4.8246      1.00000
     95      -4.7817      1.00000
     96      -4.3492      1.00000
     97      -4.1953      1.00000
     98      -4.0913      1.00000
     99      -3.7978      1.00000
    100      -3.5215      1.00000
    101      -3.3653      1.00000
    102      -3.1908      1.00000
    103      -2.1219      0.62237
    104      -1.2354      0.00000
    105      -1.0002      0.00000
    106      -0.8121      0.00000
    107      -0.7470      0.00000
    108      -0.4810      0.00000
    109       0.0431      0.00000
    110       0.1109      0.00000
    111       0.2619      0.00000
    112       0.6448      0.00000
    113       0.9413      0.00000
    114       1.0699      0.00000
    115       1.3196      0.00000
    116       1.3573      0.00000
    117       1.4358      0.00000
    118       1.5145      0.00000
    119       1.5451      0.00000
    120       1.5869      0.00000
    121       1.6741      0.00000
    122       1.8009      0.00000
    123       1.9028      0.00000
    124       2.0225      0.00000
    125       2.1761      0.00000
    126       2.2157      0.00000
    127       2.2398      0.00000
    128       2.2889      0.00000
    129       2.3402      0.00000
    130       2.4455      0.00000
    131       2.5392      0.00000
    132       2.6668      0.00000
    133       2.6847      0.00000
    134       2.7868      0.00000
    135       2.7974      0.00000
    136       2.8749      0.00000
    137       2.9048      0.00000
    138       2.9348      0.00000
    139       3.0734      0.00000
    140       3.1388      0.00000
    141       3.1899      0.00000
    142       3.2334      0.00000
    143       3.2639      0.00000
    144       3.2990      0.00000
    145       3.4310      0.00000
    146       3.5052      0.00000
    147       3.5458      0.00000
    148       3.5933      0.00000
    149       3.6472      0.00000
    150       3.7929      0.00000
    151       3.9310      0.00000
    152       4.0119      0.00000
    153       4.0439      0.00000
    154       4.1464      0.00000
    155       4.1645      0.00000
    156       4.2141      0.00000
    157       4.3102      0.00000
    158       4.3518      0.00000
    159       4.4637      0.00000
    160       4.5432      0.00000
    161       4.5930      0.00000
    162       4.6737      0.00000
    163       4.7121      0.00000
    164       4.7552      0.00000
    165       4.8041      0.00000
    166       4.8078      0.00000
    167       4.8221      0.00000
    168       4.8828      0.00000
    169       4.9106      0.00000
    170       5.0211      0.00000
    171       5.0894      0.00000
    172       5.1728      0.00000
    173       5.2008      0.00000
    174       5.2775      0.00000
    175       5.3220      0.00000
    176       5.3566      0.00000
    177       5.4134      0.00000
    178       5.4299      0.00000
    179       5.4444      0.00000
    180       5.4677      0.00000
    181       5.5022      0.00000
    182       5.5459      0.00000
    183       5.5753      0.00000
    184       5.5980      0.00000
    185       5.6066      0.00000
    186       5.6076      0.00000
    187       5.6092      0.00000
    188       5.6855      0.00000
    189       5.7441      0.00000
    190       5.7834      0.00000
    191       5.7894      0.00000
    192       5.8083      0.00000
    193       5.8641      0.00000
    194       5.9089      0.00000
    195       5.9457      0.00000
    196       5.9677      0.00000
    197       5.9982      0.00000
    198       6.0524      0.00000
    199       6.0911      0.00000
    200       6.1379      0.00000
    201       6.1451      0.00000
    202       6.1672      0.00000
    203       6.1829      0.00000
    204       6.1928      0.00000
    205       6.2221      0.00000
    206       6.2268      0.00000
    207       6.3013      0.00000
    208       6.3325      0.00000
    209       6.3378      0.00000
    210       6.3657      0.00000
    211       6.3901      0.00000
    212       6.4113      0.00000
    213       6.4253      0.00000
    214       6.4550      0.00000
    215       6.4777      0.00000
    216       6.4835      0.00000
    217       6.5324      0.00000
    218       6.5535      0.00000
    219       6.6339      0.00000
    220       6.6864      0.00000
    221       6.7316      0.00000
    222       6.7893      0.00000
    223       6.8203      0.00000
    224       6.8368      0.00000
    225       6.8621      0.00000
    226       6.9231      0.00000
    227       6.9675      0.00000
    228       7.0316      0.00000
    229       7.0752      0.00000
    230       7.1084      0.00000
    231       7.1312      0.00000
    232       7.1362      0.00000
    233       7.1583      0.00000
    234       7.2350      0.00000
    235       7.2965      0.00000
    236       7.3202      0.00000
    237       7.3256      0.00000
    238       7.3664      0.00000
    239       7.3876      0.00000
    240       7.4577      0.00000
    241       7.4912      0.00000
    242       7.4987      0.00000
    243       7.5815      0.00000
    244       7.6519      0.00000
    245       7.6801      0.00000
    246       7.7120      0.00000
    247       7.7246      0.00000
    248       7.7776      0.00000
    249       7.7887      0.00000
    250       7.8198      0.00000
    251       7.8336      0.00000
    252       7.9189      0.00000
    253       7.9749      0.00000
    254       8.0150      0.00000
    255       8.0871      0.00000
    256       8.1531      0.00000

 k-point     5 :       0.2000    0.2000    0.0000
  band No.  band energies     occupation 
      1     -24.2045      1.00000
      2     -22.3895      1.00000
      3     -22.1922      1.00000
      4     -21.9489      1.00000
      5     -21.6569      1.00000
      6     -21.2022      1.00000
      7     -20.8756      1.00000
      8     -20.7649      1.00000
      9     -20.2051      1.00000
     10     -20.0323      1.00000
     11     -19.6126      1.00000
     12     -19.4425      1.00000
     13     -19.2235      1.00000
     14     -18.9353      1.00000
     15     -18.3452      1.00000
     16     -18.2934      1.00000
     17     -18.1834      1.00000
     18     -17.8879      1.00000
     19     -17.6748      1.00000
     20     -17.2803      1.00000
     21     -16.9452      1.00000
     22     -16.6944      1.00000
     23     -16.6812      1.00000
     24     -16.5566      1.00000
     25     -15.9165      1.00000
     26     -15.6487      1.00000
     27     -15.2485      1.00000
     28     -14.9576      1.00000
     29     -14.9567      1.00000
     30     -14.4807      1.00000
     31     -14.2762      1.00000
     32     -14.2757      1.00000
     33     -13.9126      1.00000
     34     -13.7601      1.00000
     35     -13.4656      1.00000
     36     -12.8336      1.00000
     37     -12.6724      1.00000
     38     -12.4696      1.00000
     39     -12.4073      1.00000
     40     -12.0395      1.00000
     41     -11.9357      1.00000
     42     -11.6015      1.00000
     43     -11.4882      1.00000
     44     -11.3277      1.00000
     45     -11.2201      1.00000
     46     -11.1766      1.00000
     47     -11.1379      1.00000
     48     -10.9686      1.00000
     49     -10.9624      1.00000
     50     -10.3842      1.00000
     51     -10.3711      1.00000
     52     -10.1779      1.00000
     53     -10.1671      1.00000
     54      -9.8067      1.00000
     55      -9.7865      1.00000
     56      -9.7529      1.00000
     57      -9.4850      1.00000
     58      -9.3723      1.00000
     59      -9.3108      1.00000
     60      -9.2866      1.00000
     61      -9.0517      1.00000
     62      -9.0135      1.00000
     63      -8.8460      1.00000
     64      -8.8305      1.00000
     65      -8.7872      1.00000
     66      -8.7545      1.00000
     67      -8.5831      1.00000
     68      -8.5512      1.00000
     69      -8.4388      1.00000
     70      -8.4168      1.00000
     71      -8.2216      1.00000
     72      -8.0974      1.00000
     73      -8.0520      1.00000
     74      -7.7972      1.00000
     75      -7.7326      1.00000
     76      -7.6065      1.00000
     77      -7.3805      1.00000
     78      -7.3661      1.00000
     79      -7.2556      1.00000
     80      -7.0841      1.00000
     81      -7.0048      1.00000
     82      -6.8673      1.00000
     83      -6.7912      1.00000
     84      -6.6083      1.00000
     85      -6.2104      1.00000
     86      -6.1611      1.00000
     87      -5.9220      1.00000
     88      -5.8530      1.00000
     89      -5.7344      1.00000
     90      -5.5815      1.00000
     91      -5.3379      1.00000
     92      -5.1598      1.00000
     93      -4.8801      1.00000
     94      -4.8394      1.00000
     95      -4.7649      1.00000
     96      -4.6387      1.00000
     97      -4.3809      1.00000
     98      -4.1867      1.00000
     99      -4.0607      1.00000
    100      -3.5444      1.00000
    101      -3.2804      1.00000
    102      -2.9187      1.00000
    103      -2.4344      1.00000
    104      -1.3080      0.00000
    105      -0.6869      0.00000
    106      -0.6422      0.00000
    107      -0.4323      0.00000
    108      -0.4096      0.00000
    109      -0.2514      0.00000
    110       0.2529      0.00000
    111       0.2976      0.00000
    112       0.3509      0.00000
    113       0.7218      0.00000
    114       0.9539      0.00000
    115       1.1188      0.00000
    116       1.1975      0.00000
    117       1.3008      0.00000
    118       1.3936      0.00000
    119       1.6406      0.00000
    120       1.6550      0.00000
    121       1.7909      0.00000
    122       1.8022      0.00000
    123       1.8686      0.00000
    124       2.0392      0.00000
    125       2.0972      0.00000
    126       2.2139      0.00000
    127       2.2763      0.00000
    128       2.3134      0.00000
    129       2.4367      0.00000
    130       2.4995      0.00000
    131       2.6216      0.00000
    132       2.6279      0.00000
    133       2.8015      0.00000
    134       2.8445      0.00000
    135       2.9690      0.00000
    136       2.9827      0.00000
    137       3.0423      0.00000
    138       3.0668      0.00000
    139       3.0735      0.00000
    140       3.1692      0.00000
    141       3.2549      0.00000
    142       3.2611      0.00000
    143       3.3883      0.00000
    144       3.4305      0.00000
    145       3.4978      0.00000
    146       3.6366      0.00000
    147       3.6810      0.00000
    148       3.8013      0.00000
    149       3.8351      0.00000
    150       3.8409      0.00000
    151       3.8885      0.00000
    152       3.9298      0.00000
    153       3.9977      0.00000
    154       4.0481      0.00000
    155       4.0819      0.00000
    156       4.1257      0.00000
    157       4.1917      0.00000
    158       4.2352      0.00000
    159       4.3450      0.00000
    160       4.4850      0.00000
    161       4.5623      0.00000
    162       4.5993      0.00000
    163       4.6245      0.00000
    164       4.6759      0.00000
    165       4.7155      0.00000
    166       4.8028      0.00000
    167       4.8302      0.00000
    168       4.8852      0.00000
    169       4.9077      0.00000
    170       4.9548      0.00000
    171       4.9884      0.00000
    172       5.0435      0.00000
    173       5.0826      0.00000
    174       5.1428      0.00000
    175       5.2544      0.00000
    176       5.2755      0.00000
    177       5.2912      0.00000
    178       5.3147      0.00000
    179       5.3651      0.00000
    180       5.3853      0.00000
    181       5.4274      0.00000
    182       5.4594      0.00000
    183       5.4687      0.00000
    184       5.4920      0.00000
    185       5.5039      0.00000
    186       5.5902      0.00000
    187       5.6050      0.00000
    188       5.6248      0.00000
    189       5.6891      0.00000
    190       5.7304      0.00000
    191       5.7956      0.00000
    192       5.8577      0.00000
    193       5.8739      0.00000
    194       5.8992      0.00000
    195       5.9695      0.00000
    196       6.0043      0.00000
    197       6.0283      0.00000
    198       6.0921      0.00000
    199       6.1011      0.00000
    200       6.1669      0.00000
    201       6.1811      0.00000
    202       6.2090      0.00000
    203       6.2216      0.00000
    204       6.2361      0.00000
    205       6.2991      0.00000
    206       6.3302      0.00000
    207       6.3561      0.00000
    208       6.3723      0.00000
    209       6.3968      0.00000
    210       6.3991      0.00000
    211       6.4799      0.00000
    212       6.5106      0.00000
    213       6.5158      0.00000
    214       6.5484      0.00000
    215       6.5803      0.00000
    216       6.7032      0.00000
    217       6.7277      0.00000
    218       6.7437      0.00000
    219       6.7530      0.00000
    220       6.7849      0.00000
    221       6.8412      0.00000
    222       6.8866      0.00000
    223       6.8954      0.00000
    224       6.9396      0.00000
    225       6.9626      0.00000
    226       6.9907      0.00000
    227       7.0062      0.00000
    228       7.0192      0.00000
    229       7.0862      0.00000
    230       7.1390      0.00000
    231       7.1443      0.00000
    232       7.1966      0.00000
    233       7.2487      0.00000
    234       7.3397      0.00000
    235       7.3510      0.00000
    236       7.3676      0.00000
    237       7.3782      0.00000
    238       7.4428      0.00000
    239       7.4822      0.00000
    240       7.4890      0.00000
    241       7.5816      0.00000
    242       7.5946      0.00000
    243       7.6579      0.00000
    244       7.6611      0.00000
    245       7.6897      0.00000
    246       7.7474      0.00000
    247       7.8000      0.00000
    248       7.8176      0.00000
    249       7.9043      0.00000
    250       7.9050      0.00000
    251       7.9255      0.00000
    252       7.9598      0.00000
    253       7.9695      0.00000
    254       7.9705      0.00000
    255       8.0538      0.00000
    256       8.0934      0.00000

 k-point     6 :       0.4000    0.2000    0.0000
  band No.  band energies     occupation 
      1     -24.2045      1.00000
      2     -22.3668      1.00000
      3     -22.2100      1.00000
      4     -21.9883      1.00000
      5     -21.6314      1.00000
      6     -21.1760      1.00000
      7     -20.9491      1.00000
      8     -20.6674      1.00000
      9     -20.1279      1.00000
     10     -20.0190      1.00000
     11     -19.7513      1.00000
     12     -19.4378      1.00000
     13     -19.4021      1.00000
     14     -18.9776      1.00000
     15     -18.3625      1.00000
     16     -18.1631      1.00000
     17     -17.8791      1.00000
     18     -17.7068      1.00000
     19     -17.6150      1.00000
     20     -17.4225      1.00000
     21     -17.0306      1.00000
     22     -16.8976      1.00000
     23     -16.7813      1.00000
     24     -16.5723      1.00000
     25     -15.9309      1.00000
     26     -15.5136      1.00000
     27     -15.4900      1.00000
     28     -15.1443      1.00000
     29     -15.0161      1.00000
     30     -14.2993      1.00000
     31     -14.0761      1.00000
     32     -13.9961      1.00000
     33     -13.6273      1.00000
     34     -13.5109      1.00000
     35     -13.3459      1.00000
     36     -13.2874      1.00000
     37     -13.0533      1.00000
     38     -12.6711      1.00000
     39     -12.3664      1.00000
     40     -12.0162      1.00000
     41     -11.7689      1.00000
     42     -11.6737      1.00000
     43     -11.4981      1.00000
     44     -11.3692      1.00000
     45     -11.3263      1.00000
     46     -11.1460      1.00000
     47     -11.1033      1.00000
     48     -10.9914      1.00000
     49     -10.8374      1.00000
     50     -10.7361      1.00000
     51     -10.3180      1.00000
     52     -10.2510      1.00000
     53      -9.9031      1.00000
     54      -9.6844      1.00000
     55      -9.6391      1.00000
     56      -9.5781      1.00000
     57      -9.5452      1.00000
     58      -9.4936      1.00000
     59      -9.3932      1.00000
     60      -9.3491      1.00000
     61      -9.2912      1.00000
     62      -9.0288      1.00000
     63      -8.8939      1.00000
     64      -8.7773      1.00000
     65      -8.7640      1.00000
     66      -8.6174      1.00000
     67      -8.4530      1.00000
     68      -8.4247      1.00000
     69      -8.4116      1.00000
     70      -8.2424      1.00000
     71      -8.2142      1.00000
     72      -8.0782      1.00000
     73      -8.0244      1.00000
     74      -7.8215      1.00000
     75      -7.8005      1.00000
     76      -7.6387      1.00000
     77      -7.5378      1.00000
     78      -7.4116      1.00000
     79      -7.3884      1.00000
     80      -7.1382      1.00000
     81      -7.0588      1.00000
     82      -6.8340      1.00000
     83      -6.7094      1.00000
     84      -6.5968      1.00000
     85      -6.4259      1.00000
     86      -6.0614      1.00000
     87      -6.0043      1.00000
     88      -5.8815      1.00000
     89      -5.4677      1.00000
     90      -5.2913      1.00000
     91      -5.2376      1.00000
     92      -5.0822      1.00000
     93      -4.8935      1.00000
     94      -4.8281      1.00000
     95      -4.7253      1.00000
     96      -4.6793      1.00000
     97      -4.6376      1.00000
     98      -4.5583      1.00000
     99      -4.0614      1.00000
    100      -3.5076      1.00000
    101      -3.3252      1.00000
    102      -2.8777      1.00000
    103      -2.3458      1.00000
    104      -1.3875      0.00000
    105      -0.6937      0.00000
    106      -0.6133      0.00000
    107      -0.4045      0.00000
    108      -0.1702      0.00000
    109      -0.0022      0.00000
    110       0.1443      0.00000
    111       0.3537      0.00000
    112       0.4003      0.00000
    113       0.5182      0.00000
    114       0.7175      0.00000
    115       0.8927      0.00000
    116       1.0657      0.00000
    117       1.1793      0.00000
    118       1.4678      0.00000
    119       1.6041      0.00000
    120       1.6732      0.00000
    121       1.7642      0.00000
    122       1.8673      0.00000
    123       1.9438      0.00000
    124       1.9577      0.00000
    125       1.9723      0.00000
    126       2.1780      0.00000
    127       2.3662      0.00000
    128       2.4336      0.00000
    129       2.4579      0.00000
    130       2.5498      0.00000
    131       2.7191      0.00000
    132       2.7555      0.00000
    133       2.8794      0.00000
    134       2.9164      0.00000
    135       2.9965      0.00000
    136       3.0272      0.00000
    137       3.0373      0.00000
    138       3.1478      0.00000
    139       3.1992      0.00000
    140       3.2720      0.00000
    141       3.3840      0.00000
    142       3.4003      0.00000
    143       3.4859      0.00000
    144       3.5105      0.00000
    145       3.5324      0.00000
    146       3.5569      0.00000
    147       3.6661      0.00000
    148       3.7182      0.00000
    149       3.7378      0.00000
    150       3.8000      0.00000
    151       3.8859      0.00000
    152       3.8985      0.00000
    153       3.9143      0.00000
    154       4.0955      0.00000
    155       4.1668      0.00000
    156       4.2200      0.00000
    157       4.2692      0.00000
    158       4.3408      0.00000
    159       4.3747      0.00000
    160       4.3879      0.00000
    161       4.4165      0.00000
    162       4.4958      0.00000
    163       4.5369      0.00000
    164       4.5653      0.00000
    165       4.6052      0.00000
    166       4.6522      0.00000
    167       4.7232      0.00000
    168       4.7467      0.00000
    169       4.9203      0.00000
    170       4.9479      0.00000
    171       5.0354      0.00000
    172       5.0491      0.00000
    173       5.0618      0.00000
    174       5.0780      0.00000
    175       5.1447      0.00000
    176       5.1580      0.00000
    177       5.1853      0.00000
    178       5.2175      0.00000
    179       5.2654      0.00000
    180       5.2962      0.00000
    181       5.3188      0.00000
    182       5.4802      0.00000
    183       5.5024      0.00000
    184       5.5105      0.00000
    185       5.6084      0.00000
    186       5.6443      0.00000
    187       5.6703      0.00000
    188       5.7040      0.00000
    189       5.7180      0.00000
    190       5.7579      0.00000
    191       5.7681      0.00000
    192       5.8638      0.00000
    193       5.8989      0.00000
    194       5.9132      0.00000
    195       5.9157      0.00000
    196       5.9836      0.00000
    197       6.0452      0.00000
    198       6.0667      0.00000
    199       6.0829      0.00000
    200       6.1121      0.00000
    201       6.1449      0.00000
    202       6.1597      0.00000
    203       6.2333      0.00000
    204       6.2602      0.00000
    205       6.3325      0.00000
    206       6.3828      0.00000
    207       6.4203      0.00000
    208       6.4385      0.00000
    209       6.4709      0.00000
    210       6.5131      0.00000
    211       6.5288      0.00000
    212       6.5658      0.00000
    213       6.5943      0.00000
    214       6.6141      0.00000
    215       6.6639      0.00000
    216       6.7012      0.00000
    217       6.7139      0.00000
    218       6.7557      0.00000
    219       6.7860      0.00000
    220       6.8155      0.00000
    221       6.8367      0.00000
    222       6.8883      0.00000
    223       6.9498      0.00000
    224       7.0033      0.00000
    225       7.0093      0.00000
    226       7.0794      0.00000
    227       7.1172      0.00000
    228       7.1622      0.00000
    229       7.1683      0.00000
    230       7.2175      0.00000
    231       7.2311      0.00000
    232       7.2884      0.00000
    233       7.3512      0.00000
    234       7.3790      0.00000
    235       7.3859      0.00000
    236       7.4233      0.00000
    237       7.4460      0.00000
    238       7.4881      0.00000
    239       7.5049      0.00000
    240       7.5479      0.00000
    241       7.5498      0.00000
    242       7.6049      0.00000
    243       7.6166      0.00000
    244       7.6231      0.00000
    245       7.6384      0.00000
    246       7.6752      0.00000
    247       7.7283      0.00000
    248       7.7756      0.00000
    249       7.7872      0.00000
    250       7.8290      0.00000
    251       7.8688      0.00000
    252       7.9187      0.00000
    253       7.9796      0.00000
    254       8.0177      0.00000
    255       8.0451      0.00000
    256       8.0778      0.00000

 k-point     7 :      -0.4000    0.2000    0.0000
  band No.  band energies     occupation 
      1     -24.2045      1.00000
      2     -22.3897      1.00000
      3     -22.1758      1.00000
      4     -21.9939      1.00000
      5     -21.6049      1.00000
      6     -21.1928      1.00000
      7     -21.0253      1.00000
      8     -20.5780      1.00000
      9     -20.3115      1.00000
     10     -19.9223      1.00000
     11     -19.7385      1.00000
     12     -19.3781      1.00000
     13     -19.2609      1.00000
     14     -18.9297      1.00000
     15     -18.4086      1.00000
     16     -18.3707      1.00000
     17     -18.0711      1.00000
     18     -17.8138      1.00000
     19     -17.4070      1.00000
     20     -17.3151      1.00000
     21     -17.0961      1.00000
     22     -16.9649      1.00000
     23     -16.6568      1.00000
     24     -16.4810      1.00000
     25     -16.0744      1.00000
     26     -15.4734      1.00000
     27     -15.1439      1.00000
     28     -15.0348      1.00000
     29     -14.9034      1.00000
     30     -14.4792      1.00000
     31     -14.3313      1.00000
     32     -14.1803      1.00000
     33     -13.9575      1.00000
     34     -13.7877      1.00000
     35     -13.2377      1.00000
     36     -12.9067      1.00000
     37     -12.7059      1.00000
     38     -12.5475      1.00000
     39     -12.4269      1.00000
     40     -12.3220      1.00000
     41     -11.9411      1.00000
     42     -11.5509      1.00000
     43     -11.5253      1.00000
     44     -11.3496      1.00000
     45     -11.2120      1.00000
     46     -11.1499      1.00000
     47     -11.0620      1.00000
     48     -10.8906      1.00000
     49     -10.6844      1.00000
     50     -10.6342      1.00000
     51     -10.1872      1.00000
     52     -10.1196      1.00000
     53     -10.0903      1.00000
     54      -9.9394      1.00000
     55      -9.7933      1.00000
     56      -9.7341      1.00000
     57      -9.5434      1.00000
     58      -9.4169      1.00000
     59      -9.2914      1.00000
     60      -9.2326      1.00000
     61      -9.1653      1.00000
     62      -9.0347      1.00000
     63      -8.9930      1.00000
     64      -8.9683      1.00000
     65      -8.7839      1.00000
     66      -8.6625      1.00000
     67      -8.6178      1.00000
     68      -8.5184      1.00000
     69      -8.3816      1.00000
     70      -8.3232      1.00000
     71      -8.0958      1.00000
     72      -8.0875      1.00000
     73      -8.0333      1.00000
     74      -7.8457      1.00000
     75      -7.6981      1.00000
     76      -7.6315      1.00000
     77      -7.4266      1.00000
     78      -7.3441      1.00000
     79      -7.3210      1.00000
     80      -7.1177      1.00000
     81      -6.8782      1.00000
     82      -6.8029      1.00000
     83      -6.7866      1.00000
     84      -6.6542      1.00000
     85      -6.2071      1.00000
     86      -6.1790      1.00000
     87      -5.9784      1.00000
     88      -5.9053      1.00000
     89      -5.7599      1.00000
     90      -5.6767      1.00000
     91      -5.2148      1.00000
     92      -4.9574      1.00000
     93      -4.9149      1.00000
     94      -4.8102      1.00000
     95      -4.7519      1.00000
     96      -4.6582      1.00000
     97      -4.5996      1.00000
     98      -4.1830      1.00000
     99      -4.0233      1.00000
    100      -3.4900      1.00000
    101      -3.2988      1.00000
    102      -3.2096      1.00000
    103      -1.9525      0.00000
    104      -1.4115      0.00000
    105      -0.7520      0.00000
    106      -0.6510      0.00000
    107      -0.5715      0.00000
    108      -0.3451      0.00000
    109      -0.2308      0.00000
    110       0.0177      0.00000
    111       0.3139      0.00000
    112       0.6067      0.00000
    113       0.7693      0.00000
    114       0.9696      0.00000
    115       1.1068      0.00000
    116       1.1975      0.00000
    117       1.3417      0.00000
    118       1.3949      0.00000
    119       1.5975      0.00000
    120       1.6613      0.00000
    121       1.6981      0.00000
    122       1.8229      0.00000
    123       1.9036      0.00000
    124       2.0161      0.00000
    125       2.1393      0.00000
    126       2.2364      0.00000
    127       2.2430      0.00000
    128       2.2858      0.00000
    129       2.4451      0.00000
    130       2.4755      0.00000
    131       2.5918      0.00000
    132       2.6411      0.00000
    133       2.7673      0.00000
    134       2.8055      0.00000
    135       2.9762      0.00000
    136       3.0335      0.00000
    137       3.0488      0.00000
    138       3.0633      0.00000
    139       3.0676      0.00000
    140       3.1945      0.00000
    141       3.2559      0.00000
    142       3.3006      0.00000
    143       3.4019      0.00000
    144       3.4350      0.00000
    145       3.5242      0.00000
    146       3.6399      0.00000
    147       3.7330      0.00000
    148       3.8041      0.00000
    149       3.8377      0.00000
    150       3.8461      0.00000
    151       3.9050      0.00000
    152       3.9308      0.00000
    153       3.9962      0.00000
    154       4.0413      0.00000
    155       4.0778      0.00000
    156       4.1079      0.00000
    157       4.1417      0.00000
    158       4.1948      0.00000
    159       4.2899      0.00000
    160       4.5263      0.00000
    161       4.5552      0.00000
    162       4.6051      0.00000
    163       4.6269      0.00000
    164       4.6800      0.00000
    165       4.7290      0.00000
    166       4.8347      0.00000
    167       4.8387      0.00000
    168       4.8637      0.00000
    169       4.9149      0.00000
    170       4.9416      0.00000
    171       4.9713      0.00000
    172       5.0783      0.00000
    173       5.1338      0.00000
    174       5.1705      0.00000
    175       5.2312      0.00000
    176       5.2668      0.00000
    177       5.2900      0.00000
    178       5.3209      0.00000
    179       5.3961      0.00000
    180       5.4021      0.00000
    181       5.4298      0.00000
    182       5.4453      0.00000
    183       5.4666      0.00000
    184       5.4898      0.00000
    185       5.5058      0.00000
    186       5.5877      0.00000
    187       5.6246      0.00000
    188       5.6978      0.00000
    189       5.7147      0.00000
    190       5.7634      0.00000
    191       5.7884      0.00000
    192       5.8184      0.00000
    193       5.8467      0.00000
    194       5.8492      0.00000
    195       5.8577      0.00000
    196       5.9888      0.00000
    197       6.0300      0.00000
    198       6.0465      0.00000
    199       6.0937      0.00000
    200       6.1562      0.00000
    201       6.1713      0.00000
    202       6.2061      0.00000
    203       6.2336      0.00000
    204       6.2430      0.00000
    205       6.2981      0.00000
    206       6.3198      0.00000
    207       6.3577      0.00000
    208       6.3811      0.00000
    209       6.3920      0.00000
    210       6.4148      0.00000
    211       6.4501      0.00000
    212       6.4968      0.00000
    213       6.5133      0.00000
    214       6.5697      0.00000
    215       6.5800      0.00000
    216       6.6020      0.00000
    217       6.6902      0.00000
    218       6.7372      0.00000
    219       6.7442      0.00000
    220       6.7691      0.00000
    221       6.7950      0.00000
    222       6.8073      0.00000
    223       6.9063      0.00000
    224       6.9165      0.00000
    225       6.9474      0.00000
    226       6.9609      0.00000
    227       7.0105      0.00000
    228       7.0345      0.00000
    229       7.0372      0.00000
    230       7.1130      0.00000
    231       7.1749      0.00000
    232       7.2437      0.00000
    233       7.2528      0.00000
    234       7.3057      0.00000
    235       7.3530      0.00000
    236       7.3609      0.00000
    237       7.3803      0.00000
    238       7.5063      0.00000
    239       7.5449      0.00000
    240       7.5740      0.00000
    241       7.5906      0.00000
    242       7.5983      0.00000
    243       7.6173      0.00000
    244       7.6639      0.00000
    245       7.6900      0.00000
    246       7.7223      0.00000
    247       7.7723      0.00000
    248       7.8014      0.00000
    249       7.8343      0.00000
    250       7.8948      0.00000
    251       7.9218      0.00000
    252       7.9447      0.00000
    253       7.9659      0.00000
    254       7.9877      0.00000
    255       8.0573      0.00000
    256       8.0802      0.00000

 k-point     8 :      -0.2000    0.2000    0.0000
  band No.  band energies     occupation 
      1     -24.2045      1.00000
      2     -22.4172      1.00000
      3     -22.1459      1.00000
      4     -21.9630      1.00000
      5     -21.6076      1.00000
      6     -21.2231      1.00000
      7     -21.0388      1.00000
      8     -20.5882      1.00000
      9     -20.4451      1.00000
     10     -19.7764      1.00000
     11     -19.7605      1.00000
     12     -19.2035      1.00000
     13     -19.1060      1.00000
     14     -18.8282      1.00000
     15     -18.5569      1.00000
     16     -18.4990      1.00000
     17     -18.1519      1.00000
     18     -18.1400      1.00000
     19     -17.6512      1.00000
     20     -17.3717      1.00000
     21     -16.9550      1.00000
     22     -16.5725      1.00000
     23     -16.4598      1.00000
     24     -16.3701      1.00000
     25     -16.1299      1.00000
     26     -15.2431      1.00000
     27     -15.1507      1.00000
     28     -14.8718      1.00000
     29     -14.7724      1.00000
     30     -14.7042      1.00000
     31     -14.5968      1.00000
     32     -14.4986      1.00000
     33     -14.2124      1.00000
     34     -13.8338      1.00000
     35     -13.2131      1.00000
     36     -13.0714      1.00000
     37     -12.8528      1.00000
     38     -12.4349      1.00000
     39     -12.1224      1.00000
     40     -11.8795      1.00000
     41     -11.8297      1.00000
     42     -11.5917      1.00000
     43     -11.5754      1.00000
     44     -11.2263      1.00000
     45     -11.1548      1.00000
     46     -11.1515      1.00000
     47     -11.0233      1.00000
     48     -10.9228      1.00000
     49     -10.7771      1.00000
     50     -10.4751      1.00000
     51     -10.4229      1.00000
     52     -10.3258      1.00000
     53      -9.9613      1.00000
     54      -9.8941      1.00000
     55      -9.8651      1.00000
     56      -9.6848      1.00000
     57      -9.6100      1.00000
     58      -9.3943      1.00000
     59      -9.3385      1.00000
     60      -9.2222      1.00000
     61      -9.1660      1.00000
     62      -9.1132      1.00000
     63      -8.8917      1.00000
     64      -8.8284      1.00000
     65      -8.7447      1.00000
     66      -8.7069      1.00000
     67      -8.6857      1.00000
     68      -8.6398      1.00000
     69      -8.5540      1.00000
     70      -8.4377      1.00000
     71      -8.2606      1.00000
     72      -8.2372      1.00000
     73      -8.0421      1.00000
     74      -7.7770      1.00000
     75      -7.7095      1.00000
     76      -7.5218      1.00000
     77      -7.3193      1.00000
     78      -7.1714      1.00000
     79      -7.1153      1.00000
     80      -7.0400      1.00000
     81      -6.9431      1.00000
     82      -6.8229      1.00000
     83      -6.5215      1.00000
     84      -6.5111      1.00000
     85      -6.4159      1.00000
     86      -6.1351      1.00000
     87      -6.0110      1.00000
     88      -5.9724      1.00000
     89      -5.9151      1.00000
     90      -5.6921      1.00000
     91      -5.6521      1.00000
     92      -5.2291      1.00000
     93      -4.9619      1.00000
     94      -4.8353      1.00000
     95      -4.6844      1.00000
     96      -4.4518      1.00000
     97      -4.1601      1.00000
     98      -4.0392      1.00000
     99      -3.7298      1.00000
    100      -3.6709      1.00000
    101      -3.4603      1.00000
    102      -3.1704      1.00000
    103      -1.8352      0.00000
    104      -1.3697      0.00000
    105      -0.9649      0.00000
    106      -0.9019      0.00000
    107      -0.7024      0.00000
    108      -0.5531      0.00000
    109      -0.0863      0.00000
    110       0.2535      0.00000
    111       0.3016      0.00000
    112       0.5785      0.00000
    113       1.0725      0.00000
    114       1.1527      0.00000
    115       1.2076      0.00000
    116       1.3223      0.00000
    117       1.4213      0.00000
    118       1.5434      0.00000
    119       1.5605      0.00000
    120       1.6234      0.00000
    121       1.6595      0.00000
    122       1.7957      0.00000
    123       1.9088      0.00000
    124       1.9724      0.00000
    125       2.0789      0.00000
    126       2.1752      0.00000
    127       2.2936      0.00000
    128       2.3196      0.00000
    129       2.3601      0.00000
    130       2.4462      0.00000
    131       2.5519      0.00000
    132       2.6669      0.00000
    133       2.6800      0.00000
    134       2.7679      0.00000
    135       2.8221      0.00000
    136       2.8310      0.00000
    137       2.9218      0.00000
    138       2.9382      0.00000
    139       3.0808      0.00000
    140       3.1548      0.00000
    141       3.1928      0.00000
    142       3.2326      0.00000
    143       3.2841      0.00000
    144       3.4070      0.00000
    145       3.4256      0.00000
    146       3.4853      0.00000
    147       3.5301      0.00000
    148       3.5730      0.00000
    149       3.6471      0.00000
    150       3.7672      0.00000
    151       3.9511      0.00000
    152       3.9932      0.00000
    153       4.0205      0.00000
    154       4.1402      0.00000
    155       4.2166      0.00000
    156       4.2432      0.00000
    157       4.2735      0.00000
    158       4.3291      0.00000
    159       4.4470      0.00000
    160       4.5140      0.00000
    161       4.5543      0.00000
    162       4.6806      0.00000
    163       4.7069      0.00000
    164       4.7666      0.00000
    165       4.7738      0.00000
    166       4.8132      0.00000
    167       4.8151      0.00000
    168       4.9142      0.00000
    169       5.0098      0.00000
    170       5.0839      0.00000
    171       5.1259      0.00000
    172       5.1652      0.00000
    173       5.2251      0.00000
    174       5.2527      0.00000
    175       5.3129      0.00000
    176       5.3417      0.00000
    177       5.3465      0.00000
    178       5.4272      0.00000
    179       5.4424      0.00000
    180       5.4687      0.00000
    181       5.5298      0.00000
    182       5.5657      0.00000
    183       5.5981      0.00000
    184       5.5999      0.00000
    185       5.6043      0.00000
    186       5.6140      0.00000
    187       5.6199      0.00000
    188       5.6696      0.00000
    189       5.7321      0.00000
    190       5.7843      0.00000
    191       5.8034      0.00000
    192       5.8121      0.00000
    193       5.8473      0.00000
    194       5.8742      0.00000
    195       5.9111      0.00000
    196       5.9739      0.00000
    197       5.9749      0.00000
    198       6.0143      0.00000
    199       6.0507      0.00000
    200       6.0801      0.00000
    201       6.1470      0.00000
    202       6.1638      0.00000
    203       6.1805      0.00000
    204       6.2035      0.00000
    205       6.2253      0.00000
    206       6.2354      0.00000
    207       6.2985      0.00000
    208       6.3014      0.00000
    209       6.3507      0.00000
    210       6.3654      0.00000
    211       6.3993      0.00000
    212       6.4213      0.00000
    213       6.4261      0.00000
    214       6.4340      0.00000
    215       6.4644      0.00000
    216       6.5254      0.00000
    217       6.5288      0.00000
    218       6.6025      0.00000
    219       6.6320      0.00000
    220       6.6812      0.00000
    221       6.7531      0.00000
    222       6.7609      0.00000
    223       6.7790      0.00000
    224       6.8539      0.00000
    225       6.8893      0.00000
    226       6.9427      0.00000
    227       6.9693      0.00000
    228       7.0501      0.00000
    229       7.0771      0.00000
    230       7.0987      0.00000
    231       7.1176      0.00000
    232       7.1387      0.00000
    233       7.1666      0.00000
    234       7.2427      0.00000
    235       7.2965      0.00000
    236       7.3211      0.00000
    237       7.3271      0.00000
    238       7.3540      0.00000
    239       7.4116      0.00000
    240       7.4118      0.00000
    241       7.4996      0.00000
    242       7.4999      0.00000
    243       7.5371      0.00000
    244       7.5888      0.00000
    245       7.6394      0.00000
    246       7.6746      0.00000
    247       7.7087      0.00000
    248       7.7777      0.00000
    249       7.7843      0.00000
    250       7.8045      0.00000
    251       7.8230      0.00000
    252       7.8473      0.00000
    253       7.9551      0.00000
    254       8.0049      0.00000
    255       8.0112      0.00000
    256       8.1817      0.00000

 k-point     9 :       0.0000    0.4000    0.0000
  band No.  band energies     occupation 
      1     -24.2045      1.00000
      2     -22.3802      1.00000
      3     -22.2045      1.00000
      4     -21.9517      1.00000
      5     -21.6617      1.00000
      6     -21.1676      1.00000
      7     -20.9642      1.00000
      8     -20.6565      1.00000
      9     -20.2235      1.00000
     10     -19.9945      1.00000
     11     -19.7997      1.00000
     12     -19.2992      1.00000
     13     -19.2061      1.00000
     14     -18.8644      1.00000
     15     -18.7901      1.00000
     16     -18.1780      1.00000
     17     -17.9752      1.00000
     18     -17.6683      1.00000
     19     -17.5228      1.00000
     20     -17.3664      1.00000
     21     -17.0397      1.00000
     22     -16.9971      1.00000
     23     -16.8232      1.00000
     24     -16.3492      1.00000
     25     -15.9523      1.00000
     26     -15.5811      1.00000
     27     -15.3039      1.00000
     28     -14.8608      1.00000
     29     -14.8470      1.00000
     30     -14.6149      1.00000
     31     -14.5400      1.00000
     32     -14.1848      1.00000
     33     -13.8401      1.00000
     34     -13.6061      1.00000
     35     -13.0675      1.00000
     36     -12.9720      1.00000
     37     -12.8060      1.00000
     38     -12.4575      1.00000
     39     -12.3102      1.00000
     40     -12.2720      1.00000
     41     -12.1946      1.00000
     42     -11.8017      1.00000
     43     -11.4103      1.00000
     44     -11.2427      1.00000
     45     -11.1568      1.00000
     46     -11.0706      1.00000
     47     -11.0157      1.00000
     48     -10.9220      1.00000
     49     -10.7726      1.00000
     50     -10.7518      1.00000
     51     -10.4348      1.00000
     52     -10.2095      1.00000
     53     -10.0067      1.00000
     54      -9.7686      1.00000
     55      -9.7308      1.00000
     56      -9.6783      1.00000
     57      -9.5002      1.00000
     58      -9.4259      1.00000
     59      -9.3746      1.00000
     60      -9.2702      1.00000
     61      -9.1231      1.00000
     62      -9.0625      1.00000
     63      -9.0394      1.00000
     64      -8.9743      1.00000
     65      -8.7307      1.00000
     66      -8.6995      1.00000
     67      -8.5271      1.00000
     68      -8.3367      1.00000
     69      -8.3117      1.00000
     70      -8.2231      1.00000
     71      -8.1156      1.00000
     72      -8.0420      1.00000
     73      -7.9796      1.00000
     74      -7.8876      1.00000
     75      -7.7916      1.00000
     76      -7.7584      1.00000
     77      -7.7197      1.00000
     78      -7.5074      1.00000
     79      -7.2782      1.00000
     80      -7.0294      1.00000
     81      -6.8594      1.00000
     82      -6.7092      1.00000
     83      -6.5629      1.00000
     84      -6.4996      1.00000
     85      -6.4039      1.00000
     86      -6.3320      1.00000
     87      -6.2910      1.00000
     88      -5.9289      1.00000
     89      -5.4908      1.00000
     90      -5.3379      1.00000
     91      -5.1792      1.00000
     92      -5.0100      1.00000
     93      -4.8772      1.00000
     94      -4.8601      1.00000
     95      -4.7528      1.00000
     96      -4.6720      1.00000
     97      -4.6400      1.00000
     98      -4.5584      1.00000
     99      -3.7068      1.00000
    100      -3.5322      1.00000
    101      -3.2870      1.00000
    102      -3.1783      1.00000
    103      -2.2349      0.99977
    104      -1.2951      0.00000
    105      -0.8217      0.00000
    106      -0.5870      0.00000
    107      -0.3531      0.00000
    108      -0.2671      0.00000
    109      -0.1641      0.00000
    110      -0.0794      0.00000
    111       0.3197      0.00000
    112       0.3705      0.00000
    113       0.6866      0.00000
    114       0.8812      0.00000
    115       1.1254      0.00000
    116       1.3000      0.00000
    117       1.3353      0.00000
    118       1.3676      0.00000
    119       1.5368      0.00000
    120       1.6690      0.00000
    121       1.8117      0.00000
    122       1.9147      0.00000
    123       2.0010      0.00000
    124       2.0189      0.00000
    125       2.0300      0.00000
    126       2.1583      0.00000
    127       2.2058      0.00000
    128       2.3447      0.00000
    129       2.4316      0.00000
    130       2.5462      0.00000
    131       2.5746      0.00000
    132       2.5938      0.00000
    133       2.6694      0.00000
    134       2.7588      0.00000
    135       2.8313      0.00000
    136       2.9127      0.00000
    137       3.0666      0.00000
    138       3.1373      0.00000
    139       3.2728      0.00000
    140       3.3260      0.00000
    141       3.3489      0.00000
    142       3.4284      0.00000
    143       3.5198      0.00000
    144       3.5524      0.00000
    145       3.5759      0.00000
    146       3.6113      0.00000
    147       3.6425      0.00000
    148       3.6895      0.00000
    149       3.7678      0.00000
    150       3.8068      0.00000
    151       3.9075      0.00000
    152       3.9816      0.00000
    153       4.0065      0.00000
    154       4.0986      0.00000
    155       4.1057      0.00000
    156       4.1622      0.00000
    157       4.2219      0.00000
    158       4.2438      0.00000
    159       4.2873      0.00000
    160       4.3105      0.00000
    161       4.3492      0.00000
    162       4.5700      0.00000
    163       4.5873      0.00000
    164       4.6633      0.00000
    165       4.7538      0.00000
    166       4.8219      0.00000
    167       4.8444      0.00000
    168       4.8703      0.00000
    169       4.9679      0.00000
    170       4.9857      0.00000
    171       5.0139      0.00000
    172       5.0264      0.00000
    173       5.1016      0.00000
    174       5.1089      0.00000
    175       5.1109      0.00000
    176       5.1357      0.00000
    177       5.2229      0.00000
    178       5.2485      0.00000
    179       5.3094      0.00000
    180       5.4353      0.00000
    181       5.4570      0.00000
    182       5.4969      0.00000
    183       5.5096      0.00000
    184       5.5814      0.00000
    185       5.6143      0.00000
    186       5.6364      0.00000
    187       5.6632      0.00000
    188       5.7007      0.00000
    189       5.7090      0.00000
    190       5.7373      0.00000
    191       5.7537      0.00000
    192       5.7812      0.00000
    193       5.8320      0.00000
    194       5.8564      0.00000
    195       5.8719      0.00000
    196       5.9343      0.00000
    197       5.9424      0.00000
    198       6.0328      0.00000
    199       6.0481      0.00000
    200       6.0587      0.00000
    201       6.1098      0.00000
    202       6.1651      0.00000
    203       6.2000      0.00000
    204       6.2607      0.00000
    205       6.2852      0.00000
    206       6.2977      0.00000
    207       6.3740      0.00000
    208       6.3975      0.00000
    209       6.4586      0.00000
    210       6.5085      0.00000
    211       6.5267      0.00000
    212       6.5727      0.00000
    213       6.6097      0.00000
    214       6.6275      0.00000
    215       6.6625      0.00000
    216       6.6938      0.00000
    217       6.7118      0.00000
    218       6.7649      0.00000
    219       6.8225      0.00000
    220       6.8822      0.00000
    221       6.9017      0.00000
    222       6.9195      0.00000
    223       6.9541      0.00000
    224       6.9898      0.00000
    225       7.0120      0.00000
    226       7.0456      0.00000
    227       7.0776      0.00000
    228       7.1081      0.00000
    229       7.1187      0.00000
    230       7.1514      0.00000
    231       7.2122      0.00000
    232       7.2174      0.00000
    233       7.2382      0.00000
    234       7.2783      0.00000
    235       7.2847      0.00000
    236       7.3451      0.00000
    237       7.3520      0.00000
    238       7.3578      0.00000
    239       7.4010      0.00000
    240       7.4527      0.00000
    241       7.5011      0.00000
    242       7.5244      0.00000
    243       7.5560      0.00000
    244       7.6768      0.00000
    245       7.7083      0.00000
    246       7.7653      0.00000
    247       7.7925      0.00000
    248       7.8426      0.00000
    249       7.8718      0.00000
    250       7.8830      0.00000
    251       7.9085      0.00000
    252       7.9467      0.00000
    253       7.9589      0.00000
    254       7.9943      0.00000
    255       8.0072      0.00000
    256       8.0708      0.00000

 k-point    10 :       0.2000    0.4000    0.0000
  band No.  band energies     occupation 
      1     -24.2045      1.00000
      2     -22.3668      1.00000
      3     -22.2100      1.00000
      4     -21.9883      1.00000
      5     -21.6314      1.00000
      6     -21.1760      1.00000
      7     -20.9491      1.00000
      8     -20.6674      1.00000
      9     -20.1279      1.00000
     10     -20.0190      1.00000
     11     -19.7513      1.00000
     12     -19.4378      1.00000
     13     -19.4021      1.00000
     14     -18.9776      1.00000
     15     -18.3625      1.00000
     16     -18.1631      1.00000
     17     -17.8791      1.00000
     18     -17.7068      1.00000
     19     -17.6150      1.00000
     20     -17.4225      1.00000
     21     -17.0306      1.00000
     22     -16.8976      1.00000
     23     -16.7813      1.00000
     24     -16.5724      1.00000
     25     -15.9309      1.00000
     26     -15.5136      1.00000
     27     -15.4900      1.00000
     28     -15.1443      1.00000
     29     -15.0161      1.00000
     30     -14.2993      1.00000
     31     -14.0761      1.00000
     32     -13.9961      1.00000
     33     -13.6273      1.00000
     34     -13.5109      1.00000
     35     -13.3459      1.00000
     36     -13.2874      1.00000
     37     -13.0533      1.00000
     38     -12.6711      1.00000
     39     -12.3664      1.00000
     40     -12.0162      1.00000
     41     -11.7688      1.00000
     42     -11.6737      1.00000
     43     -11.4981      1.00000
     44     -11.3692      1.00000
     45     -11.3263      1.00000
     46     -11.1460      1.00000
     47     -11.1033      1.00000
     48     -10.9914      1.00000
     49     -10.8375      1.00000
     50     -10.7361      1.00000
     51     -10.3180      1.00000
     52     -10.2510      1.00000
     53      -9.9031      1.00000
     54      -9.6844      1.00000
     55      -9.6391      1.00000
     56      -9.5781      1.00000
     57      -9.5452      1.00000
     58      -9.4936      1.00000
     59      -9.3932      1.00000
     60      -9.3491      1.00000
     61      -9.2912      1.00000
     62      -9.0288      1.00000
     63      -8.8939      1.00000
     64      -8.7773      1.00000
     65      -8.7640      1.00000
     66      -8.6174      1.00000
     67      -8.4530      1.00000
     68      -8.4247      1.00000
     69      -8.4116      1.00000
     70      -8.2424      1.00000
     71      -8.2142      1.00000
     72      -8.0782      1.00000
     73      -8.0244      1.00000
     74      -7.8215      1.00000
     75      -7.8005      1.00000
     76      -7.6387      1.00000
     77      -7.5378      1.00000
     78      -7.4116      1.00000
     79      -7.3884      1.00000
     80      -7.1383      1.00000
     81      -7.0588      1.00000
     82      -6.8340      1.00000
     83      -6.7094      1.00000
     84      -6.5968      1.00000
     85      -6.4259      1.00000
     86      -6.0614      1.00000
     87      -6.0043      1.00000
     88      -5.8815      1.00000
     89      -5.4677      1.00000
     90      -5.2913      1.00000
     91      -5.2376      1.00000
     92      -5.0822      1.00000
     93      -4.8935      1.00000
     94      -4.8281      1.00000
     95      -4.7253      1.00000
     96      -4.6793      1.00000
     97      -4.6376      1.00000
     98      -4.5583      1.00000
     99      -4.0614      1.00000
    100      -3.5076      1.00000
    101      -3.3252      1.00000
    102      -2.8777      1.00000
    103      -2.3458      1.00000
    104      -1.3875      0.00000
    105      -0.6937      0.00000
    106      -0.6133      0.00000
    107      -0.4045      0.00000
    108      -0.1702      0.00000
    109      -0.0022      0.00000
    110       0.1443      0.00000
    111       0.3536      0.00000
    112       0.4003      0.00000
    113       0.5182      0.00000
    114       0.7175      0.00000
    115       0.8927      0.00000
    116       1.0657      0.00000
    117       1.1793      0.00000
    118       1.4678      0.00000
    119       1.6041      0.00000
    120       1.6732      0.00000
    121       1.7642      0.00000
    122       1.8673      0.00000
    123       1.9438      0.00000
    124       1.9577      0.00000
    125       1.9723      0.00000
    126       2.1780      0.00000
    127       2.3662      0.00000
    128       2.4336      0.00000
    129       2.4579      0.00000
    130       2.5498      0.00000
    131       2.7191      0.00000
    132       2.7555      0.00000
    133       2.8794      0.00000
    134       2.9164      0.00000
    135       2.9965      0.00000
    136       3.0272      0.00000
    137       3.0373      0.00000
    138       3.1478      0.00000
    139       3.1992      0.00000
    140       3.2720      0.00000
    141       3.3840      0.00000
    142       3.4003      0.00000
    143       3.4859      0.00000
    144       3.5105      0.00000
    145       3.5324      0.00000
    146       3.5569      0.00000
    147       3.6661      0.00000
    148       3.7182      0.00000
    149       3.7378      0.00000
    150       3.8000      0.00000
    151       3.8859      0.00000
    152       3.8985      0.00000
    153       3.9143      0.00000
    154       4.0955      0.00000
    155       4.1668      0.00000
    156       4.2200      0.00000
    157       4.2692      0.00000
    158       4.3408      0.00000
    159       4.3747      0.00000
    160       4.3879      0.00000
    161       4.4165      0.00000
    162       4.4958      0.00000
    163       4.5369      0.00000
    164       4.5653      0.00000
    165       4.6052      0.00000
    166       4.6522      0.00000
    167       4.7232      0.00000
    168       4.7467      0.00000
    169       4.9203      0.00000
    170       4.9479      0.00000
    171       5.0354      0.00000
    172       5.0491      0.00000
    173       5.0618      0.00000
    174       5.0780      0.00000
    175       5.1447      0.00000
    176       5.1580      0.00000
    177       5.1853      0.00000
    178       5.2175      0.00000
    179       5.2654      0.00000
    180       5.2962      0.00000
    181       5.3188      0.00000
    182       5.4802      0.00000
    183       5.5024      0.00000
    184       5.5105      0.00000
    185       5.6084      0.00000
    186       5.6443      0.00000
    187       5.6703      0.00000
    188       5.7040      0.00000
    189       5.7180      0.00000
    190       5.7579      0.00000
    191       5.7681      0.00000
    192       5.8638      0.00000
    193       5.8989      0.00000
    194       5.9132      0.00000
    195       5.9157      0.00000
    196       5.9836      0.00000
    197       6.0452      0.00000
    198       6.0667      0.00000
    199       6.0829      0.00000
    200       6.1121      0.00000
    201       6.1449      0.00000
    202       6.1596      0.00000
    203       6.2332      0.00000
    204       6.2602      0.00000
    205       6.3325      0.00000
    206       6.3828      0.00000
    207       6.4204      0.00000
    208       6.4385      0.00000
    209       6.4709      0.00000
    210       6.5131      0.00000
    211       6.5288      0.00000
    212       6.5658      0.00000
    213       6.5943      0.00000
    214       6.6142      0.00000
    215       6.6639      0.00000
    216       6.7012      0.00000
    217       6.7139      0.00000
    218       6.7558      0.00000
    219       6.7860      0.00000
    220       6.8154      0.00000
    221       6.8368      0.00000
    222       6.8883      0.00000
    223       6.9499      0.00000
    224       7.0036      0.00000
    225       7.0092      0.00000
    226       7.0797      0.00000
    227       7.1171      0.00000
    228       7.1623      0.00000
    229       7.1684      0.00000
    230       7.2177      0.00000
    231       7.2312      0.00000
    232       7.2884      0.00000
    233       7.3512      0.00000
    234       7.3790      0.00000
    235       7.3858      0.00000
    236       7.4233      0.00000
    237       7.4459      0.00000
    238       7.4882      0.00000
    239       7.5053      0.00000
    240       7.5479      0.00000
    241       7.5499      0.00000
    242       7.6050      0.00000
    243       7.6168      0.00000
    244       7.6232      0.00000
    245       7.6383      0.00000
    246       7.6746      0.00000
    247       7.7284      0.00000
    248       7.7757      0.00000
    249       7.7879      0.00000
    250       7.8289      0.00000
    251       7.8688      0.00000
    252       7.9188      0.00000
    253       7.9796      0.00000
    254       8.0181      0.00000
    255       8.0454      0.00000
    256       8.0784      0.00000

 k-point    11 :       0.4000    0.4000    0.0000
  band No.  band energies     occupation 
      1     -24.2045      1.00000
      2     -22.3691      1.00000
      3     -22.1835      1.00000
      4     -22.0396      1.00000
      5     -21.5714      1.00000
      6     -21.2088      1.00000
      7     -20.9970      1.00000
      8     -20.6058      1.00000
      9     -20.1430      1.00000
     10     -19.9543      1.00000
     11     -19.6909      1.00000
     12     -19.5608      1.00000
     13     -19.5224      1.00000
     14     -18.8637      1.00000
     15     -18.3574      1.00000
     16     -18.1168      1.00000
     17     -17.9296      1.00000
     18     -17.7354      1.00000
     19     -17.4839      1.00000
     20     -17.4126      1.00000
     21     -17.0705      1.00000
     22     -16.8473      1.00000
     23     -16.8170      1.00000
     24     -16.6343      1.00000
     25     -16.1629      1.00000
     26     -15.5374      1.00000
     27     -15.3730      1.00000
     28     -15.1611      1.00000
     29     -14.7963      1.00000
     30     -14.3439      1.00000
     31     -13.9995      1.00000
     32     -13.7818      1.00000
     33     -13.7583      1.00000
     34     -13.5028      1.00000
     35     -13.4866      1.00000
     36     -13.3431      1.00000
     37     -13.0545      1.00000
     38     -12.6948      1.00000
     39     -12.3419      1.00000
     40     -12.1977      1.00000
     41     -11.8209      1.00000
     42     -11.6616      1.00000
     43     -11.3964      1.00000
     44     -11.3868      1.00000
     45     -11.2199      1.00000
     46     -11.1582      1.00000
     47     -11.1033      1.00000
     48     -10.9455      1.00000
     49     -10.9084      1.00000
     50     -10.6738      1.00000
     51     -10.4126      1.00000
     52     -10.0049      1.00000
     53      -9.9311      1.00000
     54      -9.6512      1.00000
     55      -9.6096      1.00000
     56      -9.6049      1.00000
     57      -9.5814      1.00000
     58      -9.4681      1.00000
     59      -9.3787      1.00000
     60      -9.3678      1.00000
     61      -9.2546      1.00000
     62      -9.2251      1.00000
     63      -8.9551      1.00000
     64      -8.8302      1.00000
     65      -8.7261      1.00000
     66      -8.6380      1.00000
     67      -8.4679      1.00000
     68      -8.4465      1.00000
     69      -8.3656      1.00000
     70      -8.3534      1.00000
     71      -8.2105      1.00000
     72      -7.9557      1.00000
     73      -7.9171      1.00000
     74      -7.8195      1.00000
     75      -7.7040      1.00000
     76      -7.6492      1.00000
     77      -7.5441      1.00000
     78      -7.5075      1.00000
     79      -7.3508      1.00000
     80      -7.0782      1.00000
     81      -7.0769      1.00000
     82      -6.8339      1.00000
     83      -6.8224      1.00000
     84      -6.5277      1.00000
     85      -6.4685      1.00000
     86      -6.0530      1.00000
     87      -6.0439      1.00000
     88      -5.7432      1.00000
     89      -5.5987      1.00000
     90      -5.2840      1.00000
     91      -5.2795      1.00000
     92      -4.9816      1.00000
     93      -4.9406      1.00000
     94      -4.8116      1.00000
     95      -4.7534      1.00000
     96      -4.6540      1.00000
     97      -4.6485      1.00000
     98      -4.4986      1.00000
     99      -4.1907      1.00000
    100      -3.4396      1.00000
    101      -3.3097      1.00000
    102      -3.1172      1.00000
    103      -1.9301      0.00000
    104      -1.5291      0.00000
    105      -0.6736      0.00000
    106      -0.6622      0.00000
    107      -0.3433      0.00000
    108      -0.3405      0.00000
    109       0.0746      0.00000
    110       0.1265      0.00000
    111       0.3671      0.00000
    112       0.4684      0.00000
    113       0.4695      0.00000
    114       0.6873      0.00000
    115       0.8967      0.00000
    116       1.0418      0.00000
    117       1.1726      0.00000
    118       1.4566      0.00000
    119       1.6434      0.00000
    120       1.7015      0.00000
    121       1.8046      0.00000
    122       1.8639      0.00000
    123       1.9341      0.00000
    124       1.9728      0.00000
    125       1.9895      0.00000
    126       2.1772      0.00000
    127       2.3462      0.00000
    128       2.4041      0.00000
    129       2.5063      0.00000
    130       2.5451      0.00000
    131       2.6767      0.00000
    132       2.7599      0.00000
    133       2.9269      0.00000
    134       2.9880      0.00000
    135       2.9893      0.00000
    136       3.0219      0.00000
    137       3.0886      0.00000
    138       3.0972      0.00000
    139       3.1540      0.00000
    140       3.2026      0.00000
    141       3.3826      0.00000
    142       3.4104      0.00000
    143       3.4605      0.00000
    144       3.5146      0.00000
    145       3.5153      0.00000
    146       3.5417      0.00000
    147       3.6583      0.00000
    148       3.7034      0.00000
    149       3.7765      0.00000
    150       3.7962      0.00000
    151       3.8959      0.00000
    152       3.9049      0.00000
    153       3.9564      0.00000
    154       4.0801      0.00000
    155       4.1446      0.00000
    156       4.2457      0.00000
    157       4.2753      0.00000
    158       4.3430      0.00000
    159       4.3797      0.00000
    160       4.3956      0.00000
    161       4.4055      0.00000
    162       4.5212      0.00000
    163       4.5277      0.00000
    164       4.5634      0.00000
    165       4.6325      0.00000
    166       4.6563      0.00000
    167       4.6759      0.00000
    168       4.7422      0.00000
    169       4.9350      0.00000
    170       4.9516      0.00000
    171       4.9903      0.00000
    172       5.0376      0.00000
    173       5.0567      0.00000
    174       5.1307      0.00000
    175       5.1462      0.00000
    176       5.1479      0.00000
    177       5.1935      0.00000
    178       5.2723      0.00000
    179       5.3022      0.00000
    180       5.3408      0.00000
    181       5.4486      0.00000
    182       5.5047      0.00000
    183       5.5050      0.00000
    184       5.5266      0.00000
    185       5.5349      0.00000
    186       5.6234      0.00000
    187       5.6934      0.00000
    188       5.6943      0.00000
    189       5.7055      0.00000
    190       5.7884      0.00000
    191       5.7889      0.00000
    192       5.8433      0.00000
    193       5.8780      0.00000
    194       5.8970      0.00000
    195       5.9072      0.00000
    196       5.9301      0.00000
    197       6.0326      0.00000
    198       6.0732      0.00000
    199       6.0806      0.00000
    200       6.1000      0.00000
    201       6.1060      0.00000
    202       6.1230      0.00000
    203       6.1712      0.00000
    204       6.2516      0.00000
    205       6.2604      0.00000
    206       6.3630      0.00000
    207       6.3982      0.00000
    208       6.4224      0.00000
    209       6.4521      0.00000
    210       6.4900      0.00000
    211       6.5154      0.00000
    212       6.5346      0.00000
    213       6.5490      0.00000
    214       6.6021      0.00000
    215       6.6107      0.00000
    216       6.6677      0.00000
    217       6.7164      0.00000
    218       6.7348      0.00000
    219       6.7406      0.00000
    220       6.7995      0.00000
    221       6.8489      0.00000
    222       6.9016      0.00000
    223       6.9256      0.00000
    224       6.9523      0.00000
    225       7.0467      0.00000
    226       7.1119      0.00000
    227       7.1476      0.00000
    228       7.1558      0.00000
    229       7.2032      0.00000
    230       7.2707      0.00000
    231       7.2938      0.00000
    232       7.3048      0.00000
    233       7.3492      0.00000
    234       7.3613      0.00000
    235       7.3721      0.00000
    236       7.4260      0.00000
    237       7.4489      0.00000
    238       7.4559      0.00000
    239       7.4827      0.00000
    240       7.5395      0.00000
    241       7.5512      0.00000
    242       7.5972      0.00000
    243       7.6289      0.00000
    244       7.6480      0.00000
    245       7.6529      0.00000
    246       7.7197      0.00000
    247       7.7226      0.00000
    248       7.7783      0.00000
    249       7.8331      0.00000
    250       7.8379      0.00000
    251       7.8653      0.00000
    252       7.9054      0.00000
    253       7.9918      0.00000
    254       8.0131      0.00000
    255       8.0575      0.00000
    256       8.0639      0.00000

 k-point    12 :      -0.4000    0.4000    0.0000
  band No.  band energies     occupation 
      1     -24.2045      1.00000
      2     -22.3826      1.00000
      3     -22.1625      1.00000
      4     -22.0414      1.00000
      5     -21.5553      1.00000
      6     -21.2235      1.00000
      7     -21.0377      1.00000
      8     -20.5385      1.00000
      9     -20.2644      1.00000
     10     -19.9492      1.00000
     11     -19.6518      1.00000
     12     -19.5576      1.00000
     13     -19.3944      1.00000
     14     -18.7473      1.00000
     15     -18.4414      1.00000
     16     -18.4037      1.00000
     17     -17.9674      1.00000
     18     -17.7362      1.00000
     19     -17.3208      1.00000
     20     -17.2695      1.00000
     21     -17.0620      1.00000
     22     -16.9813      1.00000
     23     -16.9043      1.00000
     24     -16.4786      1.00000
     25     -16.3014      1.00000
     26     -15.5371      1.00000
     27     -15.0160      1.00000
     28     -14.9523      1.00000
     29     -14.6823      1.00000
     30     -14.5688      1.00000
     31     -14.4446      1.00000
     32     -14.1356      1.00000
     33     -13.8376      1.00000
     34     -13.6833      1.00000
     35     -13.1896      1.00000
     36     -13.0887      1.00000
     37     -12.6723      1.00000
     38     -12.4848      1.00000
     39     -12.4446      1.00000
     40     -12.3265      1.00000
     41     -12.1040      1.00000
     42     -12.0618      1.00000
     43     -11.3032      1.00000
     44     -11.2290      1.00000
     45     -11.2084      1.00000
     46     -11.0608      1.00000
     47     -10.9425      1.00000
     48     -10.8155      1.00000
     49     -10.7756      1.00000
     50     -10.5498      1.00000
     51     -10.4424      1.00000
     52     -10.2584      1.00000
     53      -9.9607      1.00000
     54      -9.7453      1.00000
     55      -9.6808      1.00000
     56      -9.6550      1.00000
     57      -9.5154      1.00000
     58      -9.5093      1.00000
     59      -9.3555      1.00000
     60      -9.2697      1.00000
     61      -9.2449      1.00000
     62      -9.0997      1.00000
     63      -9.0353      1.00000
     64      -8.8990      1.00000
     65      -8.8924      1.00000
     66      -8.7662      1.00000
     67      -8.4536      1.00000
     68      -8.4270      1.00000
     69      -8.3368      1.00000
     70      -8.1832      1.00000
     71      -8.1465      1.00000
     72      -8.0793      1.00000
     73      -7.9671      1.00000
     74      -7.8518      1.00000
     75      -7.7307      1.00000
     76      -7.7102      1.00000
     77      -7.5469      1.00000
     78      -7.4883      1.00000
     79      -7.1020      1.00000
     80      -7.0876      1.00000
     81      -6.8571      1.00000
     82      -6.8538      1.00000
     83      -6.7427      1.00000
     84      -6.6011      1.00000
     85      -6.4056      1.00000
     86      -6.3141      1.00000
     87      -5.9781      1.00000
     88      -5.8820      1.00000
     89      -5.7341      1.00000
     90      -5.2573      1.00000
     91      -5.2561      1.00000
     92      -5.0123      1.00000
     93      -4.8381      1.00000
     94      -4.8304      1.00000
     95      -4.8044      1.00000
     96      -4.6625      1.00000
     97      -4.6471      1.00000
     98      -4.4982      1.00000
     99      -3.7777      1.00000
    100      -3.5949      1.00000
    101      -3.3538      1.00000
    102      -3.2483      1.00000
    103      -1.6115      0.00000
    104      -1.4939      0.00000
    105      -1.0728      0.00000
    106      -0.5436      0.00000
    107      -0.4012      0.00000
    108      -0.2595      0.00000
    109      -0.1321      0.00000
    110      -0.0424      0.00000
    111       0.3337      0.00000
    112       0.3404      0.00000
    113       0.7832      0.00000
    114       0.8069      0.00000
    115       0.9105      0.00000
    116       1.2818      0.00000
    117       1.3100      0.00000
    118       1.5601      0.00000
    119       1.6685      0.00000
    120       1.6774      0.00000
    121       1.8186      0.00000
    122       1.9151      0.00000
    123       1.9549      0.00000
    124       2.0007      0.00000
    125       2.1529      0.00000
    126       2.1588      0.00000
    127       2.2122      0.00000
    128       2.2831      0.00000
    129       2.4063      0.00000
    130       2.5239      0.00000
    131       2.5772      0.00000
    132       2.5930      0.00000
    133       2.6604      0.00000
    134       2.7507      0.00000
    135       2.8493      0.00000
    136       2.9007      0.00000
    137       3.0699      0.00000
    138       3.1481      0.00000
    139       3.2638      0.00000
    140       3.3528      0.00000
    141       3.3776      0.00000
    142       3.4477      0.00000
    143       3.5100      0.00000
    144       3.5526      0.00000
    145       3.5544      0.00000
    146       3.5984      0.00000
    147       3.6512      0.00000
    148       3.6763      0.00000
    149       3.7572      0.00000
    150       3.7952      0.00000
    151       3.8227      0.00000
    152       3.9749      0.00000
    153       4.0075      0.00000
    154       4.1098      0.00000
    155       4.1667      0.00000
    156       4.1759      0.00000
    157       4.2105      0.00000
    158       4.2562      0.00000
    159       4.2959      0.00000
    160       4.2977      0.00000
    161       4.3571      0.00000
    162       4.4883      0.00000
    163       4.5915      0.00000
    164       4.6328      0.00000
    165       4.7665      0.00000
    166       4.7912      0.00000
    167       4.8504      0.00000
    168       4.9791      0.00000
    169       4.9803      0.00000
    170       4.9969      0.00000
    171       5.0208      0.00000
    172       5.1010      0.00000
    173       5.1051      0.00000
    174       5.1199      0.00000
    175       5.1789      0.00000
    176       5.2116      0.00000
    177       5.2382      0.00000
    178       5.2976      0.00000
    179       5.4196      0.00000
    180       5.4292      0.00000
    181       5.4354      0.00000
    182       5.4844      0.00000
    183       5.5345      0.00000
    184       5.5654      0.00000
    185       5.5770      0.00000
    186       5.6497      0.00000
    187       5.6715      0.00000
    188       5.6799      0.00000
    189       5.7172      0.00000
    190       5.7241      0.00000
    191       5.7302      0.00000
    192       5.7781      0.00000
    193       5.7831      0.00000
    194       5.8422      0.00000
    195       5.8727      0.00000
    196       5.8943      0.00000
    197       5.9135      0.00000
    198       5.9657      0.00000
    199       6.0448      0.00000
    200       6.0539      0.00000
    201       6.0832      0.00000
    202       6.1036      0.00000
    203       6.1629      0.00000
    204       6.1786      0.00000
    205       6.2311      0.00000
    206       6.2358      0.00000
    207       6.3223      0.00000
    208       6.3881      0.00000
    209       6.4073      0.00000
    210       6.4390      0.00000
    211       6.5397      0.00000
    212       6.5682      0.00000
    213       6.5976      0.00000
    214       6.6311      0.00000
    215       6.6751      0.00000
    216       6.6833      0.00000
    217       6.6960      0.00000
    218       6.7279      0.00000
    219       6.7872      0.00000
    220       6.8266      0.00000
    221       6.8430      0.00000
    222       6.9110      0.00000
    223       6.9578      0.00000
    224       6.9703      0.00000
    225       7.0366      0.00000
    226       7.0706      0.00000
    227       7.0749      0.00000
    228       7.1185      0.00000
    229       7.1304      0.00000
    230       7.1873      0.00000
    231       7.2051      0.00000
    232       7.2213      0.00000
    233       7.2890      0.00000
    234       7.3179      0.00000
    235       7.3186      0.00000
    236       7.3447      0.00000
    237       7.3703      0.00000
    238       7.3804      0.00000
    239       7.3974      0.00000
    240       7.4493      0.00000
    241       7.5000      0.00000
    242       7.5067      0.00000
    243       7.5542      0.00000
    244       7.5852      0.00000
    245       7.7077      0.00000
    246       7.7739      0.00000
    247       7.7764      0.00000
    248       7.8101      0.00000
    249       7.8846      0.00000
    250       7.8864      0.00000
    251       7.8947      0.00000
    252       7.9093      0.00000
    253       7.9353      0.00000
    254       7.9396      0.00000
    255       7.9918      0.00000
    256       8.0127      0.00000

 k-point    13 :      -0.2000    0.4000    0.0000
  band No.  band energies     occupation 
      1     -24.2045      1.00000
      2     -22.3897      1.00000
      3     -22.1758      1.00000
      4     -21.9939      1.00000
      5     -21.6049      1.00000
      6     -21.1928      1.00000
      7     -21.0253      1.00000
      8     -20.5780      1.00000
      9     -20.3115      1.00000
     10     -19.9223      1.00000
     11     -19.7385      1.00000
     12     -19.3781      1.00000
     13     -19.2609      1.00000
     14     -18.9297      1.00000
     15     -18.4086      1.00000
     16     -18.3707      1.00000
     17     -18.0711      1.00000
     18     -17.8138      1.00000
     19     -17.4070      1.00000
     20     -17.3151      1.00000
     21     -17.0961      1.00000
     22     -16.9649      1.00000
     23     -16.6568      1.00000
     24     -16.4810      1.00000
     25     -16.0744      1.00000
     26     -15.4734      1.00000
     27     -15.1439      1.00000
     28     -15.0348      1.00000
     29     -14.9034      1.00000
     30     -14.4792      1.00000
     31     -14.3313      1.00000
     32     -14.1803      1.00000
     33     -13.9575      1.00000
     34     -13.7876      1.00000
     35     -13.2377      1.00000
     36     -12.9067      1.00000
     37     -12.7059      1.00000
     38     -12.5475      1.00000
     39     -12.4269      1.00000
     40     -12.3220      1.00000
     41     -11.9411      1.00000
     42     -11.5509      1.00000
     43     -11.5254      1.00000
     44     -11.3496      1.00000
     45     -11.2120      1.00000
     46     -11.1499      1.00000
     47     -11.0620      1.00000
     48     -10.8906      1.00000
     49     -10.6844      1.00000
     50     -10.6342      1.00000
     51     -10.1872      1.00000
     52     -10.1196      1.00000
     53     -10.0903      1.00000
     54      -9.9394      1.00000
     55      -9.7933      1.00000
     56      -9.7341      1.00000
     57      -9.5434      1.00000
     58      -9.4169      1.00000
     59      -9.2914      1.00000
     60      -9.2326      1.00000
     61      -9.1653      1.00000
     62      -9.0347      1.00000
     63      -8.9930      1.00000
     64      -8.9682      1.00000
     65      -8.7839      1.00000
     66      -8.6625      1.00000
     67      -8.6178      1.00000
     68      -8.5184      1.00000
     69      -8.3816      1.00000
     70      -8.3232      1.00000
     71      -8.0958      1.00000
     72      -8.0875      1.00000
     73      -8.0333      1.00000
     74      -7.8457      1.00000
     75      -7.6981      1.00000
     76      -7.6315      1.00000
     77      -7.4266      1.00000
     78      -7.3441      1.00000
     79      -7.3210      1.00000
     80      -7.1177      1.00000
     81      -6.8782      1.00000
     82      -6.8029      1.00000
     83      -6.7866      1.00000
     84      -6.6542      1.00000
     85      -6.2071      1.00000
     86      -6.1790      1.00000
     87      -5.9784      1.00000
     88      -5.9053      1.00000
     89      -5.7599      1.00000
     90      -5.6767      1.00000
     91      -5.2148      1.00000
     92      -4.9574      1.00000
     93      -4.9148      1.00000
     94      -4.8102      1.00000
     95      -4.7519      1.00000
     96      -4.6582      1.00000
     97      -4.5996      1.00000
     98      -4.1830      1.00000
     99      -4.0233      1.00000
    100      -3.4900      1.00000
    101      -3.2988      1.00000
    102      -3.2096      1.00000
    103      -1.9525      0.00000
    104      -1.4115      0.00000
    105      -0.7520      0.00000
    106      -0.6510      0.00000
    107      -0.5715      0.00000
    108      -0.3451      0.00000
    109      -0.2308      0.00000
    110       0.0177      0.00000
    111       0.3139      0.00000
    112       0.6067      0.00000
    113       0.7693      0.00000
    114       0.9696      0.00000
    115       1.1068      0.00000
    116       1.1975      0.00000
    117       1.3417      0.00000
    118       1.3949      0.00000
    119       1.5975      0.00000
    120       1.6613      0.00000
    121       1.6981      0.00000
    122       1.8229      0.00000
    123       1.9036      0.00000
    124       2.0161      0.00000
    125       2.1393      0.00000
    126       2.2364      0.00000
    127       2.2430      0.00000
    128       2.2858      0.00000
    129       2.4451      0.00000
    130       2.4755      0.00000
    131       2.5918      0.00000
    132       2.6411      0.00000
    133       2.7673      0.00000
    134       2.8055      0.00000
    135       2.9762      0.00000
    136       3.0335      0.00000
    137       3.0488      0.00000
    138       3.0633      0.00000
    139       3.0676      0.00000
    140       3.1945      0.00000
    141       3.2559      0.00000
    142       3.3006      0.00000
    143       3.4019      0.00000
    144       3.4350      0.00000
    145       3.5242      0.00000
    146       3.6399      0.00000
    147       3.7330      0.00000
    148       3.8041      0.00000
    149       3.8377      0.00000
    150       3.8461      0.00000
    151       3.9050      0.00000
    152       3.9308      0.00000
    153       3.9962      0.00000
    154       4.0413      0.00000
    155       4.0778      0.00000
    156       4.1078      0.00000
    157       4.1417      0.00000
    158       4.1948      0.00000
    159       4.2899      0.00000
    160       4.5263      0.00000
    161       4.5552      0.00000
    162       4.6051      0.00000
    163       4.6269      0.00000
    164       4.6800      0.00000
    165       4.7290      0.00000
    166       4.8347      0.00000
    167       4.8387      0.00000
    168       4.8637      0.00000
    169       4.9149      0.00000
    170       4.9416      0.00000
    171       4.9713      0.00000
    172       5.0783      0.00000
    173       5.1338      0.00000
    174       5.1705      0.00000
    175       5.2312      0.00000
    176       5.2668      0.00000
    177       5.2900      0.00000
    178       5.3209      0.00000
    179       5.3961      0.00000
    180       5.4022      0.00000
    181       5.4298      0.00000
    182       5.4453      0.00000
    183       5.4666      0.00000
    184       5.4898      0.00000
    185       5.5058      0.00000
    186       5.5877      0.00000
    187       5.6246      0.00000
    188       5.6978      0.00000
    189       5.7147      0.00000
    190       5.7633      0.00000
    191       5.7884      0.00000
    192       5.8184      0.00000
    193       5.8467      0.00000
    194       5.8492      0.00000
    195       5.8578      0.00000
    196       5.9888      0.00000
    197       6.0301      0.00000
    198       6.0466      0.00000
    199       6.0937      0.00000
    200       6.1562      0.00000
    201       6.1713      0.00000
    202       6.2061      0.00000
    203       6.2336      0.00000
    204       6.2430      0.00000
    205       6.2981      0.00000
    206       6.3198      0.00000
    207       6.3577      0.00000
    208       6.3811      0.00000
    209       6.3920      0.00000
    210       6.4148      0.00000
    211       6.4501      0.00000
    212       6.4969      0.00000
    213       6.5134      0.00000
    214       6.5697      0.00000
    215       6.5800      0.00000
    216       6.6020      0.00000
    217       6.6903      0.00000
    218       6.7372      0.00000
    219       6.7442      0.00000
    220       6.7691      0.00000
    221       6.7950      0.00000
    222       6.8073      0.00000
    223       6.9064      0.00000
    224       6.9165      0.00000
    225       6.9474      0.00000
    226       6.9609      0.00000
    227       7.0106      0.00000
    228       7.0345      0.00000
    229       7.0372      0.00000
    230       7.1131      0.00000
    231       7.1748      0.00000
    232       7.2437      0.00000
    233       7.2528      0.00000
    234       7.3057      0.00000
    235       7.3533      0.00000
    236       7.3609      0.00000
    237       7.3810      0.00000
    238       7.5059      0.00000
    239       7.5448      0.00000
    240       7.5736      0.00000
    241       7.5907      0.00000
    242       7.5981      0.00000
    243       7.6177      0.00000
    244       7.6637      0.00000
    245       7.6909      0.00000
    246       7.7224      0.00000
    247       7.7730      0.00000
    248       7.8017      0.00000
    249       7.8346      0.00000
    250       7.8952      0.00000
    251       7.9223      0.00000
    252       7.9448      0.00000
    253       7.9664      0.00000
    254       7.9879      0.00000
    255       8.0572      0.00000
    256       8.0811      0.00000


--------------------------------------------------------------------------------------------------------


 soft charge-density along one line, spin component           1
         0         1         2         3         4         5         6         7         8         9
 total charge-density along one line
 
 soft charge-density along one line, spin component           2
         0         1         2         3         4         5         6         7         8         9
 total charge-density along one line
 
 pseudopotential strength for first ion, spin component:           1
 10.201   0.018   0.000  -0.000  -0.000   0.000  -0.000  -0.000
  0.018  -0.002  -0.000   0.000   0.000   0.000  -0.000  -0.000
  0.000  -0.000  -4.321  -0.000  -0.000  -0.019  -0.000  -0.000
 -0.000   0.000  -0.000  -4.301   0.000  -0.000  -0.013   0.000
 -0.000   0.000  -0.000   0.000  -4.321  -0.000   0.000  -0.019
  0.000   0.000  -0.019  -0.000  -0.000  -0.772  -0.000  -0.000
 -0.000  -0.000  -0.000  -0.013   0.000  -0.000  -0.771   0.000
 -0.000  -0.000  -0.000   0.000  -0.019  -0.000   0.000  -0.772
 pseudopotential strength for first ion, spin component:           2
 10.201   0.018   0.000  -0.000  -0.000   0.000  -0.000  -0.000
  0.018  -0.002  -0.000   0.000   0.000   0.000  -0.000  -0.000
  0.000  -0.000  -4.321  -0.000  -0.000  -0.019  -0.000  -0.000
 -0.000   0.000  -0.000  -4.301   0.000  -0.000  -0.013   0.000
 -0.000   0.000  -0.000   0.000  -4.321  -0.000   0.000  -0.019
  0.000   0.000  -0.019  -0.000  -0.000  -0.772  -0.000  -0.000
 -0.000  -0.000  -0.000  -0.013   0.000  -0.000  -0.771   0.000
 -0.000  -0.000  -0.000   0.000  -0.019  -0.000   0.000  -0.772
 total augmentation occupancy for first ion, spin component:           1
  2.000   0.000   0.000   0.000   0.000   0.000   0.000   0.000
  0.000   0.000   0.000   0.000   0.000   0.000   0.000   0.000
  0.000   0.000   0.667   0.000   0.000   0.000   0.000   0.000
  0.000   0.000   0.000   0.667   0.000   0.000   0.000   0.000
  0.000   0.000   0.000   0.000   0.667   0.000   0.000   0.000
  0.000   0.000   0.000   0.000   0.000   0.000   0.000   0.000
  0.000   0.000   0.000   0.000   0.000   0.000   0.000   0.000
  0.000   0.000   0.000   0.000   0.000   0.000   0.000   0.000
 total augmentation occupancy for first ion, spin component:           2
  0.500   0.000   0.000   0.000   0.000   0.000   0.000   0.000
  0.000   0.000   0.000   0.000   0.000   0.000   0.000   0.000
  0.000   0.000   0.167   0.000   0.000   0.000   0.000   0.000
  0.000   0.000   0.000   0.167   0.000   0.000   0.000   0.000
  0.000   0.000   0.000   0.000   0.167   0.000   0.000   0.000
  0.000   0.000   0.000   0.000   0.000   0.000   0.000   0.000
  0.000   0.000   0.000   0.000   0.000   0.000   0.000   0.000
  0.000   0.000   0.000   0.000   0.000   0.000   0.000   0.000


------------------------ aborting loop because EDIFF is reached ----------------------------------------


 


 total charge     
 
# of ion       s       p       d       tot
------------------------------------------
    1        0.867   1.795   0.000   2.662
    2        0.866   1.803   0.000   2.669
    3        0.866   1.803   0.000   2.669
    4        0.867   1.801   0.000   2.668
    5        0.867   1.787   0.000   2.654
    6        0.867   1.790   0.000   2.657
    7        0.864   1.790   0.000   2.654
    8        0.862   1.783   0.000   2.645
    9        0.864   1.792   0.000   2.656
   10        0.865   1.796   0.000   2.661
   11        0.864   1.792   0.000   2.656
   12        0.867   1.787   0.000   2.655
   13        0.867   1.801   0.000   2.668
   14        0.861   1.758   0.000   2.618
   15        0.861   1.757   0.000   2.618
   16        0.856   1.745   0.000   2.601
   17        0.853   1.760   0.000   2.613
   18        0.858   1.761   0.000   2.619
   19        0.862   1.783   0.000   2.645
   20        0.864   1.790   0.000   2.654
   21        0.864   1.790   0.000   2.654
   22        0.867   1.790   0.000   2.657
   23        0.856   1.745   0.000   2.602
   24        0.856   1.745   0.000   2.601
   25        0.867   1.790   0.000   2.657
   26        0.867   1.787   0.000   2.654
   27        0.864   1.792   0.000   2.656
   28        0.862   1.783   0.000   2.645
   29        0.859   1.761   0.000   2.619
   30        0.853   1.760   0.000   2.613
   31        0.856   1.745   0.000   2.602
   32        0.861   1.758   0.000   2.618
   33        0.861   1.757   0.000   2.618
   34        0.867   1.801   0.000   2.668
   35        0.866   1.803   0.000   2.669
   36        0.866   1.795   0.000   2.661
   37        0.865   1.796   0.000   2.662
   38        0.864   1.792   0.000   2.656
   39        0.862   1.783   0.000   2.645
   40        0.864   1.790   0.000   2.654
   41        0.867   1.790   0.000   2.657
   42        0.867   1.787   0.000   2.655
   43        0.867   1.801   0.000   2.668
   44        0.866   1.803   0.000   2.669
   45        1.256   2.651   0.000   3.907
   46        1.256   2.651   0.000   3.907
   47        1.256   2.651   0.000   3.907
   48        1.256   2.651   0.000   3.907
   49        1.837   4.686   0.053   6.576
--------------------------------------------------
tot         44.844  93.712   0.053 138.609
 


 magnetization (x)
 
# of ion       s       p       d       tot
------------------------------------------
    1       -0.000   0.000   0.000   0.000
    2        0.000   0.000   0.000   0.000
    3       -0.000  -0.000   0.000  -0.000
    4        0.000  -0.000   0.000   0.000
    5        0.000   0.000   0.000   0.000
    6        0.000   0.000   0.000   0.000
    7       -0.000   0.000   0.000   0.000
    8        0.000  -0.000   0.000   0.000
    9        0.000   0.000   0.000   0.000
   10       -0.000  -0.000   0.000  -0.000
   11       -0.000  -0.000   0.000  -0.000
   12       -0.000  -0.000   0.000  -0.000
   13       -0.000   0.000   0.000   0.000
   14       -0.000  -0.000   0.000  -0.000
   15       -0.000   0.000   0.000  -0.000
   16       -0.000  -0.000   0.000  -0.000
   17       -0.000   0.000   0.000   0.000
   18       -0.000   0.000   0.000   0.000
   19       -0.000   0.000   0.000  -0.000
   20        0.000  -0.000   0.000  -0.000
   21        0.000  -0.000   0.000   0.000
   22       -0.000   0.000   0.000   0.000
   23        0.000  -0.000   0.000  -0.000
   24       -0.000   0.000   0.000   0.000
   25       -0.000  -0.000   0.000  -0.000
   26        0.000   0.000   0.000   0.000
   27        0.000  -0.000   0.000  -0.000
   28       -0.000   0.000   0.000   0.000
   29        0.000  -0.000   0.000  -0.000
   30       -0.000   0.000   0.000   0.000
   31       -0.000  -0.000   0.000  -0.000
   32        0.000   0.000   0.000   0.000
   33       -0.000  -0.000   0.000  -0.000
   34        0.000   0.000   0.000   0.000
   35        0.000  -0.000   0.000  -0.000
   36        0.000   0.000   0.000   0.000
   37       -0.000  -0.000   0.000  -0.000
   38        0.000   0.000   0.000   0.000
   39       -0.000  -0.000   0.000  -0.000
   40       -0.000  -0.000   0.000  -0.000
   41        0.000   0.000   0.000   0.000
   42       -0.000  -0.000   0.000  -0.000
   43       -0.000  -0.000   0.000  -0.000
   44        0.000  -0.000   0.000  -0.000
   45       -0.000   0.000   0.000   0.000
   46        0.000  -0.000   0.000  -0.000
   47        0.000  -0.000   0.000  -0.000
   48        0.000   0.000   0.000   0.000
   49        0.000   0.000   0.000   0.000
--------------------------------------------------
tot         -0.000   0.000   0.000   0.000
 
    CHARGE:  cpu time    3.2592: real time    3.2781
    FORLOC:  cpu time    0.0222: real time    0.0222
    FORNL :  cpu time    4.9860: real time    4.9959
    STRESS:  cpu time   69.5945: real time   69.7236
    FORCOR:  cpu time    2.1596: real time    2.1946
    FORHAR:  cpu time    0.2980: real time    0.3063
    OFIELD:  cpu time    0.0003: real time    0.0095

 ---------------------------------------------------------------------------------------------

         DFTD3 V3.0 Rev 1        
 IVDW         = 11
 DF pbe       
 parameters
 VDW_S6       =    1.0000
 VDW_S8       =    0.7220
 VDW_SR       =    1.2170
 rs18     =    1.0000
 alpha6   =   14.0000
 alpha8   =   16.0000
 k1-k3    =   16.0000    1.3333   -4.0000
 VDW_RADIUS   =   50.2022 A
 VDW_CNRADIUS =   21.1671 A
 Edisp (eV)   -1.80439

 E6    (eV) :    -0.9418
 E8    (eV) :    -0.8626
 % E8        : 47.81
    FORVDW:  cpu time    0.1101: real time    0.2364

  FORCE on cell =-STRESS in cart. coord.  units (eV):
  Direction    XX          YY          ZZ          XY          YZ          ZX
  --------------------------------------------------------------------------------------
  Alpha Z    92.47935    92.47935    92.47935
  Ewald   39294.61399 39163.59331-45966.23140  -113.47213    -0.24774     0.42878
  Hartree 38881.30952 38832.80993-38292.83500   -42.00261    -0.15464     0.26771
  E(xc)    -761.46861  -761.89653  -789.18792    -0.37060    -0.00035     0.00060
  Local  -80422.67977-80260.27140 81606.92243   140.65453     0.40289    -0.69733
  n-local  -195.99142  -201.12106  -175.97759    -4.44247     0.00059    -0.00099
  augment   -26.99121   -26.35072   -25.96128     0.55469    -0.00002     0.00003
  Kinetic  3135.50541  3173.88890  3550.32251    33.24198    -0.00176     0.00301
  Fock        0.00000     0.00000     0.00000     0.00000     0.00000     0.00000
  vdW        -0.63575    -0.65049     0.13476    -0.01276    -0.00010     0.00017
  -------------------------------------------------------------------------------------
  Total      -3.85849    12.48128    -0.33413    14.15062    -0.00112     0.00198
  in kB      -2.35916     7.63131    -0.20429     8.65197    -0.00069     0.00121
  external pressure =        1.69 kB  Pullay stress =        0.00 kB


 VOLUME and BASIS-vectors are now :
 -----------------------------------------------------------------------------
  energy-cutoff  :      520.00
  volume of cell :     2620.42
      direct lattice vectors                 reciprocal lattice vectors
    12.300000000  0.000000000  0.000000000     0.081300813  0.046939046  0.000000000
    -6.150000000 10.652112467  0.000000000     0.000000000  0.093878093  0.000000000
     0.000000000  0.000000000 20.000000000     0.000000000  0.000000000  0.050000000

  length of vectors
    12.300000000 12.300000000 20.000000000     0.093878093  0.093878093  0.050000000


 FORCES acting on ions
    electron-ion (+dipol)            ewald-force                    non-local-force                 convergence-correction
 -----------------------------------------------------------------------------------------------
   0.562E+01 -.324E+01 0.290E+02   -.565E+01 0.326E+01 -.291E+02   -.707E-01 0.408E-01 0.919E-01   -.663E-02 0.385E-02 0.114E-04
   0.953E-01 0.147E+01 0.320E+02   -.135E-01 -.160E+01 -.321E+02   -.318E-01 0.144E+00 0.979E-01   -.331E-02 0.646E-03 -.888E-04
   0.125E+01 0.857E+00 0.320E+02   -.140E+01 -.856E+00 -.321E+02   0.141E+00 0.363E-01 0.971E-01   0.220E-02 -.252E-02 -.825E-04
   0.346E+01 0.813E+01 0.311E+02   -.383E+01 -.785E+01 -.313E+02   0.349E+00 -.299E+00 0.234E+00   0.190E-02 -.364E-02 -.154E-03
   -.516E+00 0.995E+01 0.220E+02   0.489E+00 -.101E+02 -.220E+02   0.458E-01 0.120E+00 0.525E-03   0.190E-02 -.236E-02 -.614E-04
   -.121E+02 0.328E+01 0.198E+02   0.124E+02 -.283E+01 -.200E+02   -.311E+00 -.456E+00 0.197E+00   0.311E-03 -.319E-02 -.179E-03
   -.520E+00 0.128E+01 0.165E+02   0.657E+00 -.132E+01 -.166E+02   -.171E+00 0.343E-01 0.107E+00   -.462E-03 -.168E-02 -.728E-04
   -.269E+01 -.477E+01 0.117E+02   0.275E+01 0.489E+01 -.117E+02   -.224E-01 -.135E+00 -.192E-01   0.120E-02 0.497E-04 -.904E-04
   0.491E+01 -.333E+01 0.186E+02   -.500E+01 0.358E+01 -.187E+02   0.261E-01 -.241E+00 0.811E-01   0.211E-02 0.874E-03 -.727E-04
   -.345E+00 0.199E+00 0.206E+02   0.430E+00 -.248E+00 -.206E+02   0.155E-01 -.893E-02 -.146E-01   0.106E-02 -.590E-03 -.154E-03
   0.534E+01 -.259E+01 0.186E+02   -.560E+01 0.254E+01 -.187E+02   0.222E+00 0.981E-01 0.811E-01   0.312E-03 -.222E-02 -.734E-04
   0.886E+01 0.453E+01 0.224E+02   -.894E+01 -.462E+01 -.224E+02   0.869E-01 0.994E-01 -.166E-02   -.305E-02 0.461E-03 -.638E-04
   0.531E+01 0.711E+01 0.309E+02   -.489E+01 -.729E+01 -.311E+02   -.438E+00 0.151E+00 0.226E+00   -.415E-02 -.169E-03 -.161E-03
   -.183E+02 0.287E+02 0.256E+02   0.185E+02 -.313E+02 -.262E+02   -.178E+00 0.257E+01 0.557E+00   -.646E-03 -.178E-02 -.199E-03
   0.340E+02 -.156E+01 0.258E+02   -.363E+02 0.444E+00 -.264E+02   0.231E+01 0.113E+01 0.560E+00   -.116E-02 -.142E-02 -.198E-03
   -.362E+02 0.109E+01 0.101E+02   0.385E+02 -.212E+01 -.104E+02   -.229E+01 0.104E+01 0.383E+00   0.256E-02 -.391E-02 -.308E-03
   -.417E+00 0.241E+00 -.342E+01   -.286E+00 0.165E+00 0.355E+01   0.733E+00 -.423E+00 -.144E+00   0.246E-02 -.142E-02 -.195E-03
   0.106E+01 -.614E+00 0.576E+01   -.155E+01 0.897E+00 -.586E+01   0.457E+00 -.264E+00 0.787E-01   0.281E-02 -.159E-02 -.227E-03
   0.279E+01 0.471E+01 0.117E+02   -.285E+01 -.483E+01 -.117E+02   0.106E+00 0.868E-01 -.192E-01   0.572E-03 -.105E-02 -.102E-03
   -.137E+01 -.191E+00 0.165E+02   0.147E+01 0.932E-01 -.166E+02   -.115E+00 0.131E+00 0.107E+00   0.123E-02 0.127E-02 -.841E-04
   0.137E+01 0.237E+00 0.163E+02   -.146E+01 -.145E+00 -.164E+02   0.116E+00 -.133E+00 0.114E+00   -.123E-02 -.128E-02 -.845E-04
   0.895E+01 -.885E+01 0.198E+02   -.873E+01 0.935E+01 -.200E+02   -.247E+00 -.494E+00 0.196E+00   -.296E-02 -.133E-02 -.188E-03
   0.191E+02 -.308E+02 0.977E+01   -.211E+02 0.323E+02 -.101E+02   0.205E+01 -.147E+01 0.378E+00   -.474E-02 0.281E-03 -.309E-03
   -.191E+02 0.308E+02 0.101E+02   0.211E+02 -.323E+02 -.104E+02   -.205E+01 0.147E+01 0.383E+00   0.475E-02 -.278E-03 -.307E-03
   -.890E+01 0.884E+01 0.198E+02   0.867E+01 -.934E+01 -.200E+02   0.240E+00 0.497E+00 0.197E+00   0.296E-02 0.132E-02 -.187E-03
   -.888E+01 -.453E+01 0.220E+02   0.897E+01 0.461E+01 -.220E+02   -.811E-01 -.997E-01 0.525E-03   0.305E-02 -.471E-03 -.658E-04
   -.534E+01 0.262E+01 0.170E+02   0.560E+01 -.257E+01 -.170E+02   -.226E+00 -.101E+00 0.681E-01   -.310E-03 0.221E-02 -.836E-04
   -.270E+01 -.474E+01 0.103E+02   0.276E+01 0.486E+01 -.103E+02   -.110E+00 -.827E-01 -.254E-01   -.559E-03 0.104E-02 -.103E-03
   -.105E+01 0.605E+00 0.435E+01   0.154E+01 -.892E+00 -.444E+01   -.454E+00 0.262E+00 0.750E-01   -.280E-02 0.159E-02 -.226E-03
   0.452E+00 -.261E+00 -.401E+01   0.246E+00 -.142E+00 0.415E+01   -.737E+00 0.425E+00 -.140E+00   -.244E-02 0.141E-02 -.189E-03
   0.363E+02 -.111E+01 0.977E+01   -.385E+02 0.214E+01 -.101E+02   0.230E+01 -.104E+01 0.378E+00   -.256E-02 0.391E-02 -.307E-03
   -.340E+02 0.153E+01 0.256E+02   0.364E+02 -.419E+00 -.262E+02   -.231E+01 -.113E+01 0.557E+00   0.115E-02 0.143E-02 -.199E-03
   0.183E+02 -.287E+02 0.258E+02   -.185E+02 0.312E+02 -.264E+02   0.179E+00 -.257E+01 0.561E+00   0.638E-03 0.180E-02 -.203E-03
   -.531E+01 -.706E+01 0.311E+02   0.488E+01 0.724E+01 -.313E+02   0.433E+00 -.153E+00 0.234E+00   0.414E-02 0.176E-03 -.156E-03
   -.121E+00 -.151E+01 0.320E+02   0.444E-01 0.164E+01 -.321E+02   0.392E-01 -.141E+00 0.970E-01   0.331E-02 -.641E-03 -.836E-04
   -.559E+01 0.323E+01 0.289E+02   0.561E+01 -.324E+01 -.290E+02   0.691E-01 -.401E-01 0.102E+00   0.661E-02 -.383E-02 0.338E-04
   0.377E+00 -.217E+00 0.192E+02   -.460E+00 0.265E+00 -.192E+02   -.114E-01 0.664E-02 -.188E-01   -.106E-02 0.594E-03 -.145E-03
   -.494E+01 0.332E+01 0.170E+02   0.503E+01 -.356E+01 -.170E+02   -.254E-01 0.246E+00 0.681E-01   -.210E-02 -.879E-03 -.772E-04
   0.276E+01 0.471E+01 0.103E+02   -.283E+01 -.482E+01 -.103E+02   0.164E-01 0.137E+00 -.254E-01   -.119E-02 -.636E-04 -.961E-04
   0.478E+00 -.130E+01 0.163E+02   -.607E+00 0.134E+01 -.164E+02   0.173E+00 -.335E-01 0.114E+00   0.483E-03 0.167E-02 -.791E-04
   0.121E+02 -.333E+01 0.198E+02   -.125E+02 0.288E+01 -.200E+02   0.304E+00 0.461E+00 0.196E+00   -.297E-03 0.318E-02 -.180E-03
   0.501E+00 -.994E+01 0.224E+02   -.467E+00 0.100E+02 -.224E+02   -.426E-01 -.125E+00 -.166E-02   -.190E-02 0.236E-02 -.575E-04
   -.350E+01 -.815E+01 0.309E+02   0.387E+01 0.788E+01 -.311E+02   -.350E+00 0.303E+00 0.226E+00   -.192E-02 0.365E-02 -.158E-03
   -.123E+01 -.819E+00 0.320E+02   0.138E+01 0.810E+00 -.321E+02   -.141E+00 -.445E-01 0.979E-01   -.222E-02 0.253E-02 -.877E-04
   -.180E+01 -.109E+03 0.114E+01   0.175E+01 0.142E+03 0.211E+01   0.765E-01 -.328E+02 -.324E+01   0.582E-03 -.295E-02 -.431E-03
   -.938E+02 -.562E+02 0.105E+01   0.122E+03 0.726E+02 0.220E+01   -.285E+02 -.164E+02 -.323E+01   -.288E-02 -.891E-03 -.390E-03
   0.938E+02 0.562E+02 0.114E+01   -.122E+03 -.726E+02 0.211E+01   0.285E+02 0.164E+02 -.324E+01   0.288E-02 0.900E-03 -.387E-03
   0.178E+01 0.109E+03 0.105E+01   -.173E+01 -.142E+03 0.220E+01   -.762E-01 0.328E+02 -.323E+01   -.619E-03 0.297E-02 -.413E-03
   -.128E+00 0.739E-01 -.845E+03   0.128E+00 -.737E-01 0.842E+03   0.130E-02 -.749E-03 0.364E+01   -.837E-05 0.464E-05 0.436E-02
 -----------------------------------------------------------------------------------------------
   -.517E-02 0.296E-02 0.277E+01   0.638E-13 -.135E-12 0.341E-12   0.579E-02 -.342E-02 -.277E+01   -.404E-05 0.225E-04 -.335E-02
 
 
 POSITION                                       TOTAL-FORCE (eV/Angst)
 -----------------------------------------------------------------------------------
     12.29177      0.00475     14.85244        -0.109377      0.063159     -0.004849
      1.22282      0.69847     14.85664         0.050534      0.026758     -0.005544
     -3.69665     10.64031     14.85712        -0.005628      0.040799     -0.002965
      3.68275      0.69052     14.90322        -0.020985     -0.013820     -0.002167
     -1.23244     10.63183     14.91350         0.019562      0.000868      0.001754
      6.13029      0.70514     14.94590         0.004112     -0.006870      0.007883
      7.36986      0.00311     14.93118        -0.035188     -0.006144      0.015581
      8.58233      0.73474     14.93608         0.042213     -0.020023     -0.000759
      9.82140      0.02472     14.90226        -0.062399      0.010288     -0.000117
     11.05295      0.71999     14.88242         0.100183     -0.057829     -0.012381
     11.03929      2.13417     14.90226        -0.040111      0.048889     -0.000118
     -0.01649      2.82852     14.91124         0.005998      0.014834      0.000097
      1.21661      2.11449     14.90304        -0.010274     -0.030120     -0.010836
      2.42824      2.84638     15.00114         0.024217     -0.010246     -0.003974
      3.71071      2.10587     15.00072        -0.010965      0.019223      0.000220
      6.06027      2.13511     15.03296        -0.019541      0.004890      0.008333
      7.30260      2.88525     15.04006         0.031001     -0.017867     -0.009494
      8.54474      2.16810     14.97176        -0.034147      0.019695     -0.014616
      9.80486      2.85223     14.93608         0.038434     -0.026482     -0.000759
      9.83224      4.26807     14.93118        -0.012464      0.033733      0.015589
     -1.22212      4.96402     14.93254         0.017328     -0.042735      0.018638
      0.00580      4.24132     14.94602        -0.024891      0.006880      0.008316
      1.27890      4.89565     15.03454         0.018343     -0.015885      0.010515
      7.33108      4.33621     15.03296        -0.014079      0.014588      0.008335
      8.60447      4.99057     14.94590         0.008383     -0.000797      0.007884
     -3.67365      6.40352     14.91350         0.008968     -0.017101      0.001749
     -2.42924      7.09790     14.90852         0.033493     -0.057617     -0.010224
     -1.19471      6.37965     14.94194        -0.049401      0.034064     -0.004415
      0.06520      7.06377     14.97788         0.043371     -0.025040     -0.018897
      1.30756      6.34649     15.04338        -0.040410      0.023329     -0.008706
      2.54970      7.09672     15.03454         0.022915     -0.007939      0.010509
      4.89908      7.12601     15.00114         0.020993     -0.015854     -0.003976
      6.18162      6.38561     15.00072        -0.022135     -0.000126      0.000238
      7.39336      7.11750     14.90322         0.001475      0.025186     -0.002167
     -4.91311      8.53335     14.85712        -0.037956     -0.015325     -0.002977
     -3.68182      9.22712     14.85432         0.098695     -0.057432      0.001708
     -2.44317      8.51198     14.88834        -0.094823      0.054804     -0.015981
     -1.21158      9.20695     14.90852         0.066663     -0.000173     -0.010221
      0.02771      8.49693     14.94194        -0.054170      0.025755     -0.004406
      1.23997      9.22849     14.93254         0.045664      0.006328      0.018646
      2.47981      8.52643     14.94602        -0.018413      0.018107      0.008326
      3.69218      9.25214     14.91124        -0.009829     -0.012610      0.000092
      4.92710      8.54126     14.90304         0.020938      0.023963     -0.010840
      6.15652      9.24388     14.85664         0.002135     -0.057165     -0.005547
      4.86828      2.77408     15.11090         0.020079     -0.003240      0.001825
      2.42817      4.18275     15.11164        -0.008992      0.021810      0.004475
      6.18172      5.04902     15.11090         0.012816     -0.015762      0.001811
      3.74172      6.45788     15.11164        -0.023385     -0.003143      0.004474
      4.30493      4.61595     17.34718         0.001047     -0.000603      0.009939
 -----------------------------------------------------------------------------------
    total drift:                                0.000611     -0.000437     -0.000131


--------------------------------------------------------------------------------------------------------



  FREE ENERGIE OF THE ION-ELECTRON SYSTEM (eV)
  ---------------------------------------------------
  free  energy   TOTEN  =      -440.25128911 eV

  energy  without entropy=     -440.24689557  energy(sigma->0) =     -440.24909234
 


--------------------------------------------------------------------------------------------------------


    POTLOK:  cpu time    2.9009: real time    2.9321


--------------------------------------------------------------------------------------------------------


 stress matrix after NEB project (eV)
     -3.85849     14.15062      0.00198
     14.15062     12.48128     -0.00112
      0.00198     -0.00112     -0.33413
  FORCES: max atom, RMS     0.126395    0.050127
  FORCE total and by dimension    0.350891    0.109377
  Stress total and by dimension   23.901089   14.150620
     LOOP+:  cpu time 1254.0631: real time 1259.7288
    4ORBIT:  cpu time    0.0000: real time    0.0000
 


 total charge     
 
# of ion       s       p       d       tot
------------------------------------------
    1        0.867   1.795   0.000   2.662
    2        0.866   1.803   0.000   2.669
    3        0.866   1.803   0.000   2.669
    4        0.867   1.801   0.000   2.668
    5        0.867   1.787   0.000   2.654
    6        0.867   1.790   0.000   2.657
    7        0.864   1.790   0.000   2.654
    8        0.862   1.783   0.000   2.645
    9        0.864   1.792   0.000   2.656
   10        0.865   1.796   0.000   2.661
   11        0.864   1.792   0.000   2.656
   12        0.867   1.787   0.000   2.655
   13        0.867   1.801   0.000   2.668
   14        0.861   1.758   0.000   2.618
   15        0.861   1.757   0.000   2.618
   16        0.856   1.745   0.000   2.601
   17        0.853   1.760   0.000   2.613
   18        0.858   1.761   0.000   2.619
   19        0.862   1.783   0.000   2.645
   20        0.864   1.790   0.000   2.654
   21        0.864   1.790   0.000   2.654
   22        0.867   1.790   0.000   2.657
   23        0.856   1.745   0.000   2.602
   24        0.856   1.745   0.000   2.601
   25        0.867   1.790   0.000   2.657
   26        0.867   1.787   0.000   2.654
   27        0.864   1.792   0.000   2.656
   28        0.862   1.783   0.000   2.645
   29        0.859   1.761   0.000   2.619
   30        0.853   1.760   0.000   2.613
   31        0.856   1.745   0.000   2.602
   32        0.861   1.758   0.000   2.618
   33        0.861   1.757   0.000   2.618
   34        0.867   1.801   0.000   2.668
   35        0.866   1.803   0.000   2.669
   36        0.866   1.795   0.000   2.661
   37        0.865   1.796   0.000   2.662
   38        0.864   1.792   0.000   2.656
   39        0.862   1.783   0.000   2.645
   40        0.864   1.790   0.000   2.654
   41        0.867   1.790   0.000   2.657
   42        0.867   1.787   0.000   2.655
   43        0.867   1.801   0.000   2.668
   44        0.866   1.803   0.000   2.669
   45        1.256   2.651   0.000   3.907
   46        1.256   2.651   0.000   3.907
   47        1.256   2.651   0.000   3.907
   48        1.256   2.651   0.000   3.907
   49        1.837   4.686   0.053   6.576
--------------------------------------------------
tot         44.844  93.712   0.053 138.609
 


 magnetization (x)
 
# of ion       s       p       d       tot
------------------------------------------
    1       -0.000   0.000   0.000   0.000
    2        0.000   0.000   0.000   0.000
    3       -0.000  -0.000   0.000  -0.000
    4        0.000  -0.000   0.000   0.000
    5        0.000   0.000   0.000   0.000
    6        0.000   0.000   0.000   0.000
    7       -0.000   0.000   0.000   0.000
    8        0.000  -0.000   0.000   0.000
    9        0.000   0.000   0.000   0.000
   10       -0.000  -0.000   0.000  -0.000
   11       -0.000  -0.000   0.000  -0.000
   12       -0.000  -0.000   0.000  -0.000
   13       -0.000   0.000   0.000   0.000
   14       -0.000  -0.000   0.000  -0.000
   15       -0.000   0.000   0.000  -0.000
   16       -0.000  -0.000   0.000  -0.000
   17       -0.000   0.000   0.000   0.000
   18       -0.000   0.000   0.000   0.000
   19       -0.000   0.000   0.000  -0.000
   20        0.000  -0.000   0.000  -0.000
   21        0.000  -0.000   0.000   0.000
   22       -0.000   0.000   0.000   0.000
   23        0.000  -0.000   0.000  -0.000
   24       -0.000   0.000   0.000   0.000
   25       -0.000  -0.000   0.000  -0.000
   26        0.000   0.000   0.000   0.000
   27        0.000  -0.000   0.000  -0.000
   28       -0.000   0.000   0.000   0.000
   29        0.000  -0.000   0.000  -0.000
   30       -0.000   0.000   0.000   0.000
   31       -0.000  -0.000   0.000  -0.000
   32        0.000   0.000   0.000   0.000
   33       -0.000  -0.000   0.000  -0.000
   34        0.000   0.000   0.000   0.000
   35        0.000  -0.000   0.000  -0.000
   36        0.000   0.000   0.000   0.000
   37       -0.000  -0.000   0.000  -0.000
   38        0.000   0.000   0.000   0.000
   39       -0.000  -0.000   0.000  -0.000
   40       -0.000  -0.000   0.000  -0.000
   41        0.000   0.000   0.000   0.000
   42       -0.000  -0.000   0.000  -0.000
   43       -0.000  -0.000   0.000  -0.000
   44        0.000  -0.000   0.000  -0.000
   45       -0.000   0.000   0.000   0.000
   46        0.000  -0.000   0.000  -0.000
   47        0.000  -0.000   0.000  -0.000
   48        0.000   0.000   0.000   0.000
   49        0.000   0.000   0.000   0.000
--------------------------------------------------
tot         -0.000   0.000   0.000   0.000
 

 total amount of memory used by VASP MPI-rank0   585114. kBytes
=======================================================================

   base      :      30000. kBytes
   nonl-proj :     341975. kBytes
   fftplans  :       7547. kBytes
   grid      :     115983. kBytes
   one-center:        794. kBytes
   wavefun   :      88815. kBytes
 
  
  
 General timing and accounting informations for this job:
 ========================================================
  
                  Total CPU time used (sec):     1370.859
                            User time (sec):     1350.920
                          System time (sec):       19.939
                         Elapsed time (sec):     1379.499
  
                   Maximum memory used (kb):      894156.
                   Average memory used (kb):           0.
  
                          Minor page faults:        57943
                          Major page faults:            2
                 Voluntary context switches:         3237
