C  N  Cs                                
   1.00000000000000     
    12.3000000000000007    0.0000000000000000    0.0000000000000000
    -6.1499999999999977   10.6521124665485960    0.0000000000000000
     0.0000000000000000    0.0000000000000000   20.0000000000000000
   C    N    Cs
    44     4     1
Direct
  0.9995540000000034  0.0004459999999966  0.7426219999999972
  0.1322019999999995  0.0655709999999985  0.7428319999999999
  0.1989050000000034  0.9988919999999979  0.7428560000000033
  0.3318230000000000  0.0648249999999990  0.7451610000000031
  0.3988500000000030  0.9980959999999968  0.7456749999999985
  0.5314959999999971  0.0661970000000025  0.7472950000000012
  0.5993220000000008  0.0002920000000017  0.7465589999999978
  0.7322380000000024  0.0689759999999993  0.7468039999999974
  0.7996479999999977  0.0023210000000020  0.7451130000000035
  0.9324089999999998  0.0675910000000002  0.7441209999999998
  0.9976789999999980  0.2003520000000023  0.7451130000000035
  0.1314270000000022  0.2655359999999973  0.7455619999999996
  0.1981630000000010  0.1985039999999998  0.7451519999999974
  0.3310239999999993  0.2672129999999981  0.7500569999999982
  0.4005310000000009  0.1976950000000031  0.7500360000000015
  0.5929250000000010  0.2004400000000004  0.7516480000000030
  0.7291379999999990  0.2708620000000010  0.7520030000000020
  0.7964630000000028  0.2035369999999972  0.7485879999999980
  0.9310240000000007  0.2677619999999976  0.7468039999999974
  0.9997079999999983  0.4006779999999992  0.7465589999999978
  0.1336470000000034  0.4660129999999967  0.7466270000000037
  0.1995549999999966  0.3981670000000008  0.7473010000000002
  0.3337730000000008  0.4595940000000027  0.7517270000000025
  0.7995599999999996  0.4070749999999990  0.7516480000000030
  0.9338029999999975  0.4685050000000004  0.7472950000000012
  0.0019040000000032  0.6011499999999970  0.7456749999999985
  0.1356690000000000  0.6663369999999986  0.7454260000000019
  0.2023239999999973  0.5989089999999990  0.7470969999999966
  0.3368669999999980  0.6631330000000020  0.7488939999999999
  0.4042040000000000  0.5957960000000000  0.7521690000000021
  0.5404059999999973  0.6662269999999992  0.7517270000000025
  0.7327870000000019  0.6689760000000007  0.7500569999999982
  0.8023049999999969  0.5994689999999991  0.7500360000000015
  0.9351750000000010  0.6681770000000000  0.7451610000000031
  0.0011080000000021  0.8010949999999966  0.7428560000000033
  0.1337770000000020  0.8662240000000025  0.7427160000000015
  0.2009120000000024  0.7990879999999976  0.7444169999999986
  0.3336630000000014  0.8643310000000000  0.7454260000000019
  0.4010910000000010  0.7976760000000027  0.7470969999999966
  0.5339870000000033  0.8663529999999966  0.7466270000000037
  0.6018329999999992  0.8004450000000034  0.7473010000000002
  0.7344640000000027  0.8685729999999978  0.7455619999999996
  0.8014960000000002  0.8018369999999990  0.7451519999999974
  0.9344290000000015  0.8677980000000005  0.7428319999999999
  0.5260079999999974  0.2604249999999979  0.7555449999999979
  0.3937469999999976  0.3926689999999979  0.7555819999999969
  0.7395750000000021  0.4739920000000026  0.7555449999999979
  0.6073310000000021  0.6062530000000024  0.7555819999999969
  0.5666629999999984  0.4333370000000016  0.8673590000000004
 
  0.00000000E+00  0.00000000E+00  0.00000000E+00
  0.00000000E+00  0.00000000E+00  0.00000000E+00
  0.00000000E+00  0.00000000E+00  0.00000000E+00
  0.00000000E+00  0.00000000E+00  0.00000000E+00
  0.00000000E+00  0.00000000E+00  0.00000000E+00
  0.00000000E+00  0.00000000E+00  0.00000000E+00
  0.00000000E+00  0.00000000E+00  0.00000000E+00
  0.00000000E+00  0.00000000E+00  0.00000000E+00
  0.00000000E+00  0.00000000E+00  0.00000000E+00
  0.00000000E+00  0.00000000E+00  0.00000000E+00
  0.00000000E+00  0.00000000E+00  0.00000000E+00
  0.00000000E+00  0.00000000E+00  0.00000000E+00
  0.00000000E+00  0.00000000E+00  0.00000000E+00
  0.00000000E+00  0.00000000E+00  0.00000000E+00
  0.00000000E+00  0.00000000E+00  0.00000000E+00
  0.00000000E+00  0.00000000E+00  0.00000000E+00
  0.00000000E+00  0.00000000E+00  0.00000000E+00
  0.00000000E+00  0.00000000E+00  0.00000000E+00
  0.00000000E+00  0.00000000E+00  0.00000000E+00
  0.00000000E+00  0.00000000E+00  0.00000000E+00
  0.00000000E+00  0.00000000E+00  0.00000000E+00
  0.00000000E+00  0.00000000E+00  0.00000000E+00
  0.00000000E+00  0.00000000E+00  0.00000000E+00
  0.00000000E+00  0.00000000E+00  0.00000000E+00
  0.00000000E+00  0.00000000E+00  0.00000000E+00
  0.00000000E+00  0.00000000E+00  0.00000000E+00
  0.00000000E+00  0.00000000E+00  0.00000000E+00
  0.00000000E+00  0.00000000E+00  0.00000000E+00
  0.00000000E+00  0.00000000E+00  0.00000000E+00
  0.00000000E+00  0.00000000E+00  0.00000000E+00
  0.00000000E+00  0.00000000E+00  0.00000000E+00
  0.00000000E+00  0.00000000E+00  0.00000000E+00
  0.00000000E+00  0.00000000E+00  0.00000000E+00
  0.00000000E+00  0.00000000E+00  0.00000000E+00
  0.00000000E+00  0.00000000E+00  0.00000000E+00
  0.00000000E+00  0.00000000E+00  0.00000000E+00
  0.00000000E+00  0.00000000E+00  0.00000000E+00
  0.00000000E+00  0.00000000E+00  0.00000000E+00
  0.00000000E+00  0.00000000E+00  0.00000000E+00
  0.00000000E+00  0.00000000E+00  0.00000000E+00
  0.00000000E+00  0.00000000E+00  0.00000000E+00
  0.00000000E+00  0.00000000E+00  0.00000000E+00
  0.00000000E+00  0.00000000E+00  0.00000000E+00
  0.00000000E+00  0.00000000E+00  0.00000000E+00
  0.00000000E+00  0.00000000E+00  0.00000000E+00
  0.00000000E+00  0.00000000E+00  0.00000000E+00
  0.00000000E+00  0.00000000E+00  0.00000000E+00
  0.00000000E+00  0.00000000E+00  0.00000000E+00
  0.00000000E+00  0.00000000E+00  0.00000000E+00
