       N       E                     dE             d eps       ncg     rms          ort
SDA:   1    -0.344810097247E+03   -0.34481E+03    0.00000E+00  3328   0.137E+03 0.000E+00
CGA:   2    -0.421772331253E+03   -0.76962E+02   -0.74207E+02  3328   0.635E+02 0.448E+01
CGA:   3    -0.440409298011E+03   -0.18637E+02   -0.18506E+02  3328   0.277E+02 0.114E+01
CGA:   4    -0.447935226715E+03   -0.75259E+01   -0.75067E+01  3328   0.172E+02 0.162E+00
CGA:   5    -0.450709672598E+03   -0.27744E+01   -0.27904E+01  3328   0.670E+01 0.536E-01
CGA:   6    -0.452093908369E+03   -0.13842E+01   -0.13851E+01  3328   0.249E+01 0.140E-01
CGA:   7    -0.452621835412E+03   -0.52793E+00   -0.52797E+00  3328   0.108E+01 0.549E-03
CGA:   8    -0.452851980290E+03   -0.23014E+00   -0.23013E+00  3328   0.377E+00-0.134E-02
CGA:   9    -0.452940064892E+03   -0.88085E-01   -0.88081E-01  3328   0.150E+00 0.459E-04
CGA:  10    -0.452977376850E+03   -0.37312E-01   -0.37307E-01  3328   0.572E-01 0.624E-04
CGA:  11    -0.452993689139E+03   -0.16312E-01   -0.16310E-01  3328   0.251E-01 0.150E-04
CGA:  12    -0.453001282435E+03   -0.75933E-02   -0.75951E-02  3328   0.108E-01-0.273E-04
CGA:  13    -0.453004706667E+03   -0.34242E-02   -0.34273E-02  3328   0.424E-02-0.310E-04
CGA:  14    -0.453006068235E+03   -0.13616E-02   -0.13629E-02  3328   0.150E-02-0.132E-04
CGA:  15    -0.453006575481E+03   -0.50725E-03   -0.50775E-03  3328   0.550E-03-0.435E-05
CGA:  16    -0.453006774520E+03   -0.19904E-03   -0.19933E-03  3328   0.223E-03-0.222E-05
CGA:  17    -0.453006862166E+03   -0.87646E-04   -0.87845E-04  3328   0.984E-04-0.128E-05
CGA:  18    -0.453006902373E+03   -0.40207E-04   -0.40467E-04  3328   0.448E-04-0.647E-06
CGA:  19    -0.453006920381E+03   -0.18008E-04   -0.17737E-04  3328   0.199E-04 0.143E-05
CGA:  20    -0.453006928951E+03   -0.85701E-05   -0.84170E-05  3328   0.932E-05 0.884E-06
   1 F= -.45478488E+03 E0= -.45477536E+03  d E =-.190377E-01  mag=     6.9762
