C  N  Gd                                
   1.00000000000000     
    12.3000000000000007    0.0000000000000000    0.0000000000000000
    -6.1499999999999977   10.6521124665485960    0.0000000000000000
     0.0000000000000000    0.0000000000000000   20.0000000000000000
   C    N    Gd
    44     4     1
Direct
  0.9993771198549044  0.0006228950118800  0.7435752770575513
  0.1320767665079575  0.0655632540988438  0.7440777733066002
  0.1988809461086613  0.9987340753846606  0.7441603929630806
  0.3308659687863244  0.0640161733150543  0.7471349459336256
  0.3986146312664548  0.9979793083354667  0.7472022649136739
  0.5322412153041997  0.0668264454147132  0.7482760722773029
  0.5997208031718173  0.0006101384996579  0.7472221487104019
  0.7324873693055726  0.0686367012826541  0.7473339525425000
  0.7996691619826070  0.0013865601753933  0.7461121365308514
  0.9327542088089015  0.0672458000481566  0.7450554177992390
  0.9986134355648997  0.2003308457953543  0.7461121390163529
  0.1313093126912956  0.2652899896414387  0.7470899898310215
  0.1973672045484481  0.1975497026725342  0.7470016085670345
  0.3298285396548129  0.2639776384940255  0.7519103909666244
  0.3972800081785171  0.1964963377362685  0.7519508558437707
  0.5949713320654467  0.2001643522743251  0.7521273433231062
  0.7297713105625794  0.2702286852431733  0.7516423953887434
  0.7974919533876598  0.2025080440328215  0.7485777807092607
  0.9313632942814126  0.2675126379674030  0.7473339539041639
  0.9993898532231593  0.4002792054394800  0.7472221468556707
  0.1339762988056586  0.4664114642167393  0.7473354786369596
  0.2001666911715452  0.3989041603017876  0.7483386598169850
  0.3335063328381918  0.4616449621079241  0.7522805669513606
  0.7998356379939504  0.4050286649176856  0.7521273444875979
  0.9331735452856188  0.4677587911396294  0.7482760709130487
  0.0020206860076960  0.6013853773896778  0.7472022562566131
  0.1347098602094469  0.6663295768667211  0.7463721932715993
  0.2019577839010681  0.5991629727160973  0.7475900992190267
  0.3358083337074129  0.6641916646926888  0.7489092600014631
  0.4035320652645608  0.5964679291272657  0.7518956102737023
  0.5383550331341823  0.6664936560643185  0.7522805659941070
  0.7360223553618429  0.6701714521431793  0.7519103826308767
  0.8035036538465090  0.6027199864738543  0.7519508496959685
  0.9359838229254016  0.6691340399162925  0.7471349414355402
  0.0012659365410276  0.8011190674931750  0.7441603882007706
  0.1339622697830919  0.8660377452176928  0.7436965615256353
  0.2005852536767493  0.7994147567988379  0.7453207518009061
  0.3336704333843943  0.8652901376258162  0.7463722021752839
  0.4008370360632511  0.7980422128766890  0.7475901042602439
  0.5335885447726618  0.8660236933228485  0.7473354806584590
  0.6010958446424030  0.7998332981642355  0.7483386584422582
  0.7347100169142640  0.8686906802234909  0.7470899876079179
  0.8024503045161810  0.8026327915909610  0.7470016014811133
  0.9344367588540550  0.8679232467637721  0.7440777706093802
  0.5262362543251783  0.2603999577114130  0.7577901378242871
  0.3937407977219150  0.3929107697680103  0.7578491446819993
  0.7396000288174954  0.4737637387538068  0.7577901344568598
  0.6070892227071164  0.6062591885128609  0.7578491391423525
  0.5666967615715087  0.4333032262392216  0.8140166711071088
 
  0.00000000E+00  0.00000000E+00  0.00000000E+00
  0.00000000E+00  0.00000000E+00  0.00000000E+00
  0.00000000E+00  0.00000000E+00  0.00000000E+00
  0.00000000E+00  0.00000000E+00  0.00000000E+00
  0.00000000E+00  0.00000000E+00  0.00000000E+00
  0.00000000E+00  0.00000000E+00  0.00000000E+00
  0.00000000E+00  0.00000000E+00  0.00000000E+00
  0.00000000E+00  0.00000000E+00  0.00000000E+00
  0.00000000E+00  0.00000000E+00  0.00000000E+00
  0.00000000E+00  0.00000000E+00  0.00000000E+00
  0.00000000E+00  0.00000000E+00  0.00000000E+00
  0.00000000E+00  0.00000000E+00  0.00000000E+00
  0.00000000E+00  0.00000000E+00  0.00000000E+00
  0.00000000E+00  0.00000000E+00  0.00000000E+00
  0.00000000E+00  0.00000000E+00  0.00000000E+00
  0.00000000E+00  0.00000000E+00  0.00000000E+00
  0.00000000E+00  0.00000000E+00  0.00000000E+00
  0.00000000E+00  0.00000000E+00  0.00000000E+00
  0.00000000E+00  0.00000000E+00  0.00000000E+00
  0.00000000E+00  0.00000000E+00  0.00000000E+00
  0.00000000E+00  0.00000000E+00  0.00000000E+00
  0.00000000E+00  0.00000000E+00  0.00000000E+00
  0.00000000E+00  0.00000000E+00  0.00000000E+00
  0.00000000E+00  0.00000000E+00  0.00000000E+00
  0.00000000E+00  0.00000000E+00  0.00000000E+00
  0.00000000E+00  0.00000000E+00  0.00000000E+00
  0.00000000E+00  0.00000000E+00  0.00000000E+00
  0.00000000E+00  0.00000000E+00  0.00000000E+00
  0.00000000E+00  0.00000000E+00  0.00000000E+00
  0.00000000E+00  0.00000000E+00  0.00000000E+00
  0.00000000E+00  0.00000000E+00  0.00000000E+00
  0.00000000E+00  0.00000000E+00  0.00000000E+00
  0.00000000E+00  0.00000000E+00  0.00000000E+00
  0.00000000E+00  0.00000000E+00  0.00000000E+00
  0.00000000E+00  0.00000000E+00  0.00000000E+00
  0.00000000E+00  0.00000000E+00  0.00000000E+00
  0.00000000E+00  0.00000000E+00  0.00000000E+00
  0.00000000E+00  0.00000000E+00  0.00000000E+00
  0.00000000E+00  0.00000000E+00  0.00000000E+00
  0.00000000E+00  0.00000000E+00  0.00000000E+00
  0.00000000E+00  0.00000000E+00  0.00000000E+00
  0.00000000E+00  0.00000000E+00  0.00000000E+00
  0.00000000E+00  0.00000000E+00  0.00000000E+00
  0.00000000E+00  0.00000000E+00  0.00000000E+00
  0.00000000E+00  0.00000000E+00  0.00000000E+00
  0.00000000E+00  0.00000000E+00  0.00000000E+00
  0.00000000E+00  0.00000000E+00  0.00000000E+00
  0.00000000E+00  0.00000000E+00  0.00000000E+00
  0.00000000E+00  0.00000000E+00  0.00000000E+00
