       N       E                     dE             d eps       ncg     rms          ort
DAV:   1     0.126823713402E+04    0.12682E+04   -0.95471E+04  3328   0.892E+02
DAV:   2    -0.394908116810E+03   -0.16631E+04   -0.16617E+04  3328   0.120E+02
DAV:   3    -0.477308904942E+03   -0.82401E+02   -0.82225E+02  3328   0.406E+01
DAV:   4    -0.478356988326E+03   -0.10481E+01   -0.10479E+01  3328   0.473E+00
DAV:   5    -0.478357749217E+03   -0.76089E-03   -0.76089E-03  3328   0.113E-01
SDA:   6    -0.338938017443E+03    0.13942E+03   -0.76089E-03  3328   0.261E+04 0.000E+00
CGA:   7    -0.355406019099E+03   -0.16468E+02   -0.97720E+02  3328   0.621E+04-0.654E+04
CGA:   8    -0.179139273143E+03    0.17627E+03   -0.53373E+03  3328   0.673E+03-0.728E+03
CGA:   9    -0.188678804557E+03   -0.95395E+01   -0.67965E+01  3328   0.813E+03 0.760E+03
CGA:  10    -0.321585902642E+03   -0.13291E+03   -0.11089E+02  3328   0.392E+04 0.577E+04
CGA:  11    -0.303233977066E+03    0.18352E+02   -0.15075E+03  3328   0.214E+04-0.191E+04
CGA:  12    -0.385323109635E+03   -0.82089E+02   -0.68997E+02  3328   0.268E+04-0.196E+04
CGA:  13    -0.432303073174E+03   -0.46980E+02   -0.74846E+02  3328   0.465E+03-0.121E+04
CGA:  14    -0.436243174596E+03   -0.39401E+01   -0.16523E+02  3328   0.168E+03-0.556E+02
CGA:  15    -0.442293861692E+03   -0.60507E+01   -0.40804E+01  3328   0.166E+02-0.832E+01
CGA:  16    -0.445892192934E+03   -0.35983E+01   -0.31220E+01  3328   0.452E+01 0.566E+01
CGA:  17    -0.446468301783E+03   -0.57611E+00   -0.59845E+00  3328   0.121E+02-0.186E-01
CGA:  18    -0.447391348655E+03   -0.92305E+00   -0.92404E+00  3328   0.710E+01 0.157E+00
CGA:  19    -0.447445180619E+03   -0.53832E-01   -0.27896E+00  3328   0.512E+01-0.539E+01
CGA:  20    -0.447602460121E+03   -0.15728E+00   -0.16873E+00  3328   0.200E+01-0.579E+00
CGA:  21    -0.447922769740E+03   -0.32031E+00   -0.31737E+00  3328   0.200E+00 0.448E-01
CGA:  22    -0.447960550599E+03   -0.37781E-01   -0.38320E-01  3328   0.115E+01-0.738E-02
CGA:  23    -0.448054499991E+03   -0.93949E-01   -0.98448E-01  3328   0.285E+00 0.827E-02
CGA:  24    -0.448062396801E+03   -0.78968E-02   -0.82422E-02  3328   0.108E+00-0.111E-01
CGA:  25    -0.448090568921E+03   -0.28172E-01   -0.28133E-01  3328   0.365E-01-0.195E-04
CGA:  26    -0.448091875626E+03   -0.13067E-02   -0.12815E-02  3328   0.234E-01 0.517E-03
CGA:  27    -0.448098437365E+03   -0.65617E-02   -0.66262E-02  3328   0.324E-01-0.540E-03
CGA:  28    -0.448099336553E+03   -0.89919E-03   -0.97909E-03  3328   0.923E-02-0.214E-02
CGA:  29    -0.448102682573E+03   -0.33460E-02   -0.43796E-02  3328   0.525E-01-0.380E-02
CGA:  30    -0.448103370525E+03   -0.68795E-03   -0.12029E-02  3328   0.979E-02-0.100E-01
CGA:  31    -0.448103798175E+03   -0.42765E-03   -0.45679E-03  3328   0.172E-01-0.310E-03
CGA:  32    -0.448105917479E+03   -0.21193E-02   -0.20890E-02  3328   0.302E-02-0.777E-03
CGA:  33    -0.448106354295E+03   -0.43682E-03   -0.43582E-03  3328   0.960E-02 0.470E-04
CGA:  34    -0.448106909264E+03   -0.55497E-03   -0.52746E-03  3328   0.125E-02 0.321E-03
CGA:  35    -0.448107087925E+03   -0.17866E-03   -0.17867E-03  3328   0.342E-02-0.460E-05
CGA:  36    -0.448107274897E+03   -0.18697E-03   -0.18433E-03  3328   0.431E-03-0.538E-06
CGA:  37    -0.448107355812E+03   -0.80915E-04   -0.81297E-04  3328   0.137E-02-0.671E-05
CGA:  38    -0.448107414074E+03   -0.58262E-04   -0.57545E-04  3328   0.178E-03-0.792E-05
CGA:  39    -0.448107464402E+03   -0.50328E-04   -0.51003E-04  3328   0.429E-03-0.425E-05
CGA:  40    -0.448107478500E+03   -0.14099E-04   -0.13851E-04  3328   0.106E-03-0.165E-05
CGA:  41    -0.448107512376E+03   -0.33876E-04   -0.33953E-04  3328   0.720E-04-0.397E-06
CGA:  42    -0.448107518504E+03   -0.61274E-05   -0.61153E-05  3328   0.168E-03-0.919E-07
CGA:  43    -0.448107537707E+03   -0.19203E-04   -0.19300E-04  3328   0.368E-04 0.346E-05
CGA:  44    -0.448107553066E+03   -0.15359E-04   -0.14608E-04  3328   0.332E-04 0.297E-05
CGA:  45    -0.448107555793E+03   -0.27271E-05   -0.27774E-05  3328   0.730E-04 0.658E-06
   1 F= -.44986838E+03 E0= -.44984404E+03  d E =-.486748E-01  mag=     3.5881
