C  N  Ho                                
   1.00000000000000     
    12.3000000000000007    0.0000000000000000    0.0000000000000000
    -6.1499999999999977   10.6521124665485960    0.0000000000000000
     0.0000000000000000    0.0000000000000000   20.0000000000000000
   C    N    Ho
    44     4     1
Direct
  0.9995067396717041  0.0005645035556641  0.7435908340645783
  0.1321845944483792  0.0654641919348435  0.7440661833573203
  0.1987844121533672  0.9989028148949850  0.7440864321413816
  0.3315619277129283  0.0648314429328815  0.7467507197629255
  0.3988410331328476  0.9983152716623224  0.7466482961551983
  0.5320009146529339  0.0662663461021008  0.7479930988271014
  0.5995082810015204  0.0003151303442113  0.7469449800201683
  0.7327273748906218  0.0686950033777373  0.7472663819541505
  0.7998001250662904  0.0017896885967018  0.7457873991626943
  0.9326944508410224  0.0673260592813082  0.7449071623624058
  0.9982226600605216  0.2002277431973820  0.7457904941235585
  0.1315982879116195  0.2654993483434482  0.7465615604725386
  0.1981227329354627  0.1982351269557914  0.7466914596240346
  0.3304654957457811  0.2653563337839336  0.7519487465508181
  0.3986319877717871  0.1971775644588706  0.7519746200530026
  0.5943122683973482  0.2001514497482617  0.7529124703046074
  0.7298056270828430  0.2702652126092954  0.7528897241733988
  0.7973132473506218  0.2027379027066532  0.7490538800640743
  0.9313185385224962  0.2673159307815453  0.7472416433460060
  0.9996018692984527  0.4005430581881253  0.7468793468779095
  0.1336974719719077  0.4662230487815101  0.7468346840736996
  0.1995833106630199  0.3986481374071438  0.7478312141826284
  0.3334480353468082  0.4609891118286327  0.7526315691942823
  0.7997936989384327  0.4057950324222377  0.7531182982642673
  0.9336739110053227  0.4680830036213648  0.7480053171205654
  0.0017691216744094  0.6012481038583067  0.7466517441431332
  0.1351547644441770  0.6664935243270594  0.7458318987977883
  0.2020524654060059  0.5994177915199711  0.7471990325406642
  0.3360720440993143  0.6639637102512986  0.7488717375251476
  0.4035397208978274  0.5964185194483315  0.7524079446710208
  0.5390890630692625  0.6662427859374050  0.7525092924780546
  0.7347670233362381  0.6696029606536812  0.7518469599441836
  0.8030764257280916  0.6016011552496009  0.7521264011726435
  0.9353429467482319  0.6685837773427806  0.7467138148631453
  0.0012452566967168  0.8013618832288538  0.7440384884897697
  0.1339178861962931  0.8662190092605190  0.7435979599258540
  0.2006844848270878  0.7994064893787419  0.7448887945360581
  0.3335875414416585  0.8649108396582335  0.7458381085257474
  0.4006393881856092  0.7979724695212748  0.7472137503636060
  0.5338386724170382  0.8661956143439823  0.7468796265752613
  0.6013804485486409  0.8002328875002341  0.7477911101875190
  0.7345223836625829  0.8683765541141856  0.7464914895875562
  0.8018311216081205  0.8019268229445683  0.7465816770891449
  0.9346246857401044  0.8678942435782444  0.7440390391866071
  0.5266787897449525  0.2599466437326488  0.7583547229657914
  0.3932979165446509  0.3934487166519539  0.7582617087289242
  0.7402019680835251  0.4736479428956035  0.7589187844002840
  0.6066976497534944  0.6063776153078634  0.7580179413221294
  0.5653822345719823  0.4321984817777276  0.8175214557466776
 
  0.00000000E+00  0.00000000E+00  0.00000000E+00
  0.00000000E+00  0.00000000E+00  0.00000000E+00
  0.00000000E+00  0.00000000E+00  0.00000000E+00
  0.00000000E+00  0.00000000E+00  0.00000000E+00
  0.00000000E+00  0.00000000E+00  0.00000000E+00
  0.00000000E+00  0.00000000E+00  0.00000000E+00
  0.00000000E+00  0.00000000E+00  0.00000000E+00
  0.00000000E+00  0.00000000E+00  0.00000000E+00
  0.00000000E+00  0.00000000E+00  0.00000000E+00
  0.00000000E+00  0.00000000E+00  0.00000000E+00
  0.00000000E+00  0.00000000E+00  0.00000000E+00
  0.00000000E+00  0.00000000E+00  0.00000000E+00
  0.00000000E+00  0.00000000E+00  0.00000000E+00
  0.00000000E+00  0.00000000E+00  0.00000000E+00
  0.00000000E+00  0.00000000E+00  0.00000000E+00
  0.00000000E+00  0.00000000E+00  0.00000000E+00
  0.00000000E+00  0.00000000E+00  0.00000000E+00
  0.00000000E+00  0.00000000E+00  0.00000000E+00
  0.00000000E+00  0.00000000E+00  0.00000000E+00
  0.00000000E+00  0.00000000E+00  0.00000000E+00
  0.00000000E+00  0.00000000E+00  0.00000000E+00
  0.00000000E+00  0.00000000E+00  0.00000000E+00
  0.00000000E+00  0.00000000E+00  0.00000000E+00
  0.00000000E+00  0.00000000E+00  0.00000000E+00
  0.00000000E+00  0.00000000E+00  0.00000000E+00
  0.00000000E+00  0.00000000E+00  0.00000000E+00
  0.00000000E+00  0.00000000E+00  0.00000000E+00
  0.00000000E+00  0.00000000E+00  0.00000000E+00
  0.00000000E+00  0.00000000E+00  0.00000000E+00
  0.00000000E+00  0.00000000E+00  0.00000000E+00
  0.00000000E+00  0.00000000E+00  0.00000000E+00
  0.00000000E+00  0.00000000E+00  0.00000000E+00
  0.00000000E+00  0.00000000E+00  0.00000000E+00
  0.00000000E+00  0.00000000E+00  0.00000000E+00
  0.00000000E+00  0.00000000E+00  0.00000000E+00
  0.00000000E+00  0.00000000E+00  0.00000000E+00
  0.00000000E+00  0.00000000E+00  0.00000000E+00
  0.00000000E+00  0.00000000E+00  0.00000000E+00
  0.00000000E+00  0.00000000E+00  0.00000000E+00
  0.00000000E+00  0.00000000E+00  0.00000000E+00
  0.00000000E+00  0.00000000E+00  0.00000000E+00
  0.00000000E+00  0.00000000E+00  0.00000000E+00
  0.00000000E+00  0.00000000E+00  0.00000000E+00
  0.00000000E+00  0.00000000E+00  0.00000000E+00
  0.00000000E+00  0.00000000E+00  0.00000000E+00
  0.00000000E+00  0.00000000E+00  0.00000000E+00
  0.00000000E+00  0.00000000E+00  0.00000000E+00
  0.00000000E+00  0.00000000E+00  0.00000000E+00
  0.00000000E+00  0.00000000E+00  0.00000000E+00
