       N       E                     dE             d eps       ncg     rms          ort
DAV:   1     0.530476950452E+02    0.53048E+02   -0.36666E+03   256   0.313E+01
DAV:   2    -0.230556108558E+01   -0.55353E+02   -0.53988E+02   256   0.502E+00
DAV:   3    -0.234015480663E+01   -0.34594E-01   -0.34594E-01   256   0.313E-01
DAV:   4    -0.234019183921E+01   -0.37033E-04   -0.37033E-04   256   0.864E-03
DAV:   5    -0.234019184054E+01   -0.13281E-08   -0.13121E-08   256   0.540E-05
SDA:   6     0.128950482530E-01    0.23531E+01   -0.13121E-08   256   0.836E+01 0.000E+00
CGA:   7    -0.124716588138E+01   -0.12601E+01   -0.12480E+01   256   0.266E+00 0.295E-02
CGA:   8    -0.143454956676E+01   -0.18738E+00   -0.22932E+00   256   0.104E+00-0.958E-01
CGA:   9    -0.145943315354E+01   -0.24884E-01   -0.24885E-01   256   0.321E-01 0.161E-03
CGA:  10    -0.147025253022E+01   -0.10819E-01   -0.10795E-01   256   0.104E-01 0.242E-03
CGA:  11    -0.147455559379E+01   -0.43031E-02   -0.42636E-02   256   0.498E-02 0.208E-03
CGA:  12    -0.147642026359E+01   -0.18647E-02   -0.18583E-02   256   0.167E-02 0.472E-04
CGA:  13    -0.147698332430E+01   -0.56306E-03   -0.56427E-03   256   0.431E-03-0.177E-04
CGA:  14    -0.147712349911E+01   -0.14017E-03   -0.13967E-03   256   0.116E-03 0.774E-05
CGA:  15    -0.147717046013E+01   -0.46961E-04   -0.47128E-04   256   0.449E-04-0.125E-05
CGA:  16    -0.147718892111E+01   -0.18461E-04   -0.18198E-04   256   0.163E-04 0.193E-05
CGA:  17    -0.147719539833E+01   -0.64772E-05   -0.66237E-05   256   0.406E-05-0.130E-05
   1 F= -.14771954E+01 E0= -.14771954E+01  d E =-.123615E-12
