 vasp.5.4.4.18Apr17-6-g9f103f2a35 (build Nov 21 2023 15:34:30) complex          
  
 executed on             LinuxIFC date 2026.09.21  18:22:33
 running on  256 total cores
 distrk:  each k-point on  256 cores,    1 groups
 distr:  one band on NCORES_PER_BAND=   1 cores,  256 groups


--------------------------------------------------------------------------------------------------------


 INCAR:
 POTCAR:    PAW_PBE Pd 05Jan2001                  

 ----------------------------------------------------------------------------- 
|                                                                             |
|           W    W    AA    RRRRR   N    N  II  N    N   GGGG   !!!           |
|           W    W   A  A   R    R  NN   N  II  NN   N  G    G  !!!           |
|           W    W  A    A  R    R  N N  N  II  N N  N  G       !!!           |
|           W WW W  AAAAAA  RRRRR   N  N N  II  N  N N  G  GGG   !            |
|           WW  WW  A    A  R   R   N   NN  II  N   NN  G    G                |
|           W    W  A    A  R    R  N    N  II  N    N   GGGG   !!!           |
|                                                                             |
|      For optimal performance we recommend to set                            |
|        NCORE= 4 - approx SQRT( number of cores)                             |
|      NCORE specifies how many cores store one orbital (NPAR=cpu/NCORE).     |
|      This setting can  greatly improve the performance of VASP for DFT.     |
|      The default,   NCORE=1            might be grossly inefficient         |
|      on modern multi-core architectures or massively parallel machines.     |
|      Do your own testing !!!!                                               |
|      Unfortunately you need to use the default for GW and RPA calculations. |
|      (for HF NCORE is supported but not extensively tested yet)             |
|                                                                             |
 ----------------------------------------------------------------------------- 

 POTCAR:    PAW_PBE Pd 05Jan2001                  
   VRHFIN =Pd : s1 d9                                                           
   LEXCH  = PE                                                                  
   EATOM  =   809.7532 eV,   59.5152 Ry                                         
                                                                                
   TITEL  = PAW_PBE Pd 05Jan2001                                                
   LULTRA =        F    use ultrasoft PP ?                                      
   IUNSCR =        1    unscreen: 0-lin 1-nonlin 2-no                           
   RPACOR =    2.000    partial core radius                                     
   POMASS =  106.420; ZVAL   =   10.000    mass and valenz                      
   RCORE  =    2.400    outmost cutoff radius                                   
   RWIGS  =    2.710; RWIGS  =    1.434    wigner-seitz radius (au A)           
   ENMAX  =  250.925; ENMIN  =  188.194 eV                                      
   RCLOC  =    1.862    cutoff for local pot                                    
   LCOR   =        T    correct aug charges                                     
   LPAW   =        T    paw PP                                                  
   EAUG   =  416.230                                                            
   DEXC   =    0.000                                                            
   RMAX   =    2.911    core radius for proj-oper                               
   RAUG   =    1.300    factor for augmentation sphere                          
   RDEP   =    2.405    radius for radial grids                                 
   QCUT   =   -4.294; QGAM   =    8.589    optimization parameters              
                                                                                
   Description                                                                  
     l     E      TYP  RCUT    TYP  RCUT                                        
     2    -6.69     23  2.400                                                   
     2    -8.05     23  2.400                                                   
     0    -4.35     23  2.400                                                   
     0     4.34     23  2.400                                                   
     1    -2.72     23  2.400                                                   
     1    15.84     23  2.400                                                   
  local pseudopotential read in
  partial core-charges read in
  atomic valenz-charges read in
  non local Contribution for L=           2  read in
    real space projection operators read in
  non local Contribution for L=           2  read in
    real space projection operators read in
  non local Contribution for L=           0  read in
    real space projection operators read in
  non local Contribution for L=           0  read in
    real space projection operators read in
  non local Contribution for L=           1  read in
    real space projection operators read in
  non local Contribution for L=           1  read in
    real space projection operators read in
    PAW grid and wavefunctions read in
 
   number of l-projection  operators is LMAX  =           6
   number of lm-projection operators is LMMAX =          18
 
  PAW_PBE Pd 05Jan2001                  :
 energy of atom  1       EATOM= -809.7532
 kinetic energy error for atom=    0.0045 (will be added to EATOM!!)
 
 
 POSCAR: Pd                                      
  positions in direct lattice
  No initial velocities read in
 exchange correlation table for  LEXCH =        8
   RHO(1)=    0.500       N(1)  =     2000
   RHO(2)=  100.500       N(2)  =     4000

 VTST: version 3.2, (02/03/18)

 CHAIN: initializing optimizer
 
 OPT: Using VASP Dynamics algorithm
 CHAIN: Read ICHAIN            0
 
 POSCAR: Pd                                      
  positions in direct lattice
  No initial velocities read in
 


--------------------------------------------------------------------------------------------------------


 ion  position               nearest neighbor table
   1  0.010  0.010  0.751-
 

IMPORTANT INFORMATION: All symmetrisations will be switched off!
NOSYMM: (Re-)initialisation of all symmetry stuff for point group C_1.

 
 

Automatic generation of k-mesh.
 generate k-points for:    1    1    1
Space group operators:
 irot       det(A)        alpha          n_x          n_y          n_z        tau_x        tau_y        tau_z
    1     1.000000     0.000000     1.000000     0.000000     0.000000     0.000000     0.000000     0.000000
 
 Subroutine IBZKPT returns following result:
 ===========================================
 
 Found      1 irreducible k-points:
 
 Following reciprocal coordinates:
            Coordinates               Weight
  0.000000  0.000000  0.000000      1.000000
 
 Following cartesian coordinates:
            Coordinates               Weight
  0.000000  0.000000  0.000000      1.000000
 


--------------------------------------------------------------------------------------------------------




 Dimension of arrays:
   k-points           NKPTS =      1   k-points in BZ     NKDIM =      1   number of bands    NBANDS=    256
   number of dos      NEDOS =    301   number of ions     NIONS =      1
   non local maximal  LDIM  =      6   non local SUM 2l+1 LMDIM =     18
   total plane-waves  NPLWV = ******
   max r-space proj   IRMAX =      1   max aug-charges    IRDMAX=  20390
   dimension x,y,z NGX =   112 NGY =  112 NGZ =  112
   dimension x,y,z NGXF=   224 NGYF=  224 NGZF=  224
   support grid    NGXF=   224 NGYF=  224 NGZF=  224
   ions per type =               1
   NGX,Y,Z   is equivalent  to a cutoff of  12.41, 12.41, 12.41 a.u.
   NGXF,Y,Z  is equivalent  to a cutoff of  24.83, 24.83, 24.83 a.u.

 SYSTEM =  Pd                                      
 POSCAR =  Pd                                      

 Startparameter for this run:
   NWRITE =      2    write-flag & timer
   PREC   = accura    normal or accurate (medium, high low for compatibility)
   ISTART =      0    job   : 0-new  1-cont  2-samecut
   ICHARG =      2    charge: 1-file 2-atom 10-const
   ISPIN  =      1    spin polarized calculation?
   LNONCOLLINEAR =      F non collinear calculations
   LSORBIT =      F    spin-orbit coupling
   INIWAV =      1    electr: 0-lowe 1-rand  2-diag
   LASPH  =      T    aspherical Exc in radial PAW
   METAGGA=      F    non-selfconsistent MetaGGA calc.

 Electronic Relaxation 1
   ENCUT  =  520.0 eV  38.22 Ry    6.18 a.u.  27.89 27.89 27.89*2*pi/ulx,y,z
   ENINI  =  520.0     initial cutoff
   ENAUG  =  416.2 eV  augmentation charge cutoff
   NELM   =    200;   NELMIN=  2; NELMDL= -5     # of ELM steps 
   EDIFF  = 0.1E-04   stopping-criterion for ELM
   LREAL  =      F    real-space projection
   NLSPLINE    = F    spline interpolate recip. space projectors
   LCOMPAT=      F    compatible to vasp.4.4
   GGA_COMPAT  = T    GGA compatible to vasp.4.4-vasp.4.6
   LMAXPAW     = -100 max onsite density
   LMAXMIX     =    2 max onsite mixed and CHGCAR
   VOSKOWN=      0    Vosko Wilk Nusair interpolation
   ROPT   =    0.00000
 Ionic relaxation
   EDIFFG = 0.1E-03   stopping-criterion for IOM
   NSW    =      0    number of steps for IOM
   NBLOCK =      1;   KBLOCK =      1    inner block; outer block 
   IBRION =     -1    ionic relax: 0-MD 1-quasi-New 2-CG
   NFREE  =      0    steps in history (QN), initial steepest desc. (CG)
   ISIF   =      0    stress and relaxation
   IWAVPR =     10    prediction:  0-non 1-charg 2-wave 3-comb
   ISYM   =      0    0-nonsym 1-usesym 2-fastsym
   LCORR  =      T    Harris-Foulkes like correction to forces

   POTIM  = 0.5000    time-step for ionic-motion
   TEIN   =    0.0    initial temperature
   TEBEG  =    0.0;   TEEND  =   0.0 temperature during run
   SMASS  =  -3.00    Nose mass-parameter (am)
   estimated Nose-frequenzy (Omega)   =  0.10E-29 period in steps =****** mass=  -0.514E-26a.u.
   SCALEE = 1.0000    scale energy and forces
   NPACO  =    256;   APACO  = 16.0  distance and # of slots for P.C.
   PSTRESS=    0.0 pullay stress

  Mass of Ions in am
   POMASS = 106.42
  Ionic Valenz
   ZVAL   =  10.00
  Atomic Wigner-Seitz radii
   RWIGS  =  -1.00
  virtual crystal weights 
   VCA    =   1.00
   NELECT =      10.0000    total number of electrons
   NUPDOWN=      -1.0000    fix difference up-down

 DOS related values:
   EMIN   =  10.00;   EMAX   =-10.00  energy-range for DOS
   EFERMI =   0.00
   ISMEAR =     0;   SIGMA  =   0.05  broadening in eV -4-tet -1-fermi 0-gaus

 Electronic relaxation 2 (details)
   IALGO  =     58    algorithm
   LDIAG  =      T    sub-space diagonalisation (order eigenvalues)
   LSUBROT=      F    optimize rotation matrix (better conditioning)
   TURBO    =      0    0=normal 1=particle mesh
   IRESTART =      0    0=no restart 2=restart with 2 vectors
   NREBOOT  =      0    no. of reboots
   NMIN     =      0    reboot dimension
   EREF     =   0.00    reference energy to select bands
   IMIX   =      4    mixing-type and parameters
     AMIX     =   0.40;   BMIX     =  1.00
     AMIX_MAG =   1.60;   BMIX_MAG =  1.00
     AMIN     =   0.10
     WC   =   100.;   INIMIX=   1;  MIXPRE=   1;  MAXMIX= -45

 Intra band minimization:
   WEIMIN = 0.0000     energy-eigenvalue tresh-hold
   EBREAK =  0.98E-08  absolut break condition
   DEPER  =   0.30     relativ break condition  

   TIME   =   0.40     timestep for ELM

  volume/ion in A,a.u.               =    3375.00     22775.62
  Fermi-wavevector in a.u.,A,eV,Ry     =   0.235135  0.444340  0.752244  0.055288
  Thomas-Fermi vector in A             =   1.033980
 
 Write flags
   LWAVE        =      F    write WAVECAR
   LDOWNSAMPLE  =      F    k-point downsampling of WAVECAR
   LCHARG       =      F    write CHGCAR
   LVTOT        =      F    write LOCPOT, total local potential
   LVHAR        =      F    write LOCPOT, Hartree potential only
   LELF         =      F    write electronic localiz. function (ELF)
   LORBIT       =      0    0 simple, 1 ext, 2 COOP (PROOUT), +10 PAW based schemes


 Dipole corrections
   LMONO  =      F    monopole corrections only (constant potential shift)
   LDIPOL =      F    correct potential (dipole corrections)
   IDIPOL =      0    1-x, 2-y, 3-z, 4-all directions 
   EPSILON=  1.0000000 bulk dielectric constant

 Exchange correlation treatment:
   GGA     =    --    GGA type
   LEXCH   =     8    internal setting for exchange type
   VOSKOWN=      0    Vosko Wilk Nusair interpolation
   LHFCALC =     F    Hartree Fock is set to
   LHFONE  =     F    Hartree Fock one center treatment
   AEXX    =    0.0000 exact exchange contribution

 Linear response parameters
   LEPSILON=     F    determine dielectric tensor
   LRPA    =     F    only Hartree local field effects (RPA)
   LNABLA  =     F    use nabla operator in PAW spheres
   LVEL    =     F    velocity operator in full k-point grid
   LINTERFAST=   F  fast interpolation
   KINTER  =     0    interpolate to denser k-point grid
   CSHIFT  =0.1000    complex shift for real part using Kramers Kronig
   OMEGAMAX=  -1.0    maximum frequency
   DEG_THRESHOLD= 0.2000000E-02 threshold for treating states as degnerate
   RTIME   =   -0.100 relaxation time in fs
  (WPLASMAI=    0.000 imaginary part of plasma frequency in eV, 0.658/RTIME)
   DFIELD  = 0.0000000 0.0000000 0.0000000 field for delta impulse in time
 
 Orbital magnetization related:
   ORBITALMAG=     F  switch on orbital magnetization
   LCHIMAG   =     F  perturbation theory with respect to B field
   DQ        =  0.001000  dq finite difference perturbation B field
   LLRAUG    =     F  two centre corrections for induced B field



--------------------------------------------------------------------------------------------------------


 Static calculation
 charge density and potential will be updated during run
 non-spin polarized calculation
 Conjugate gradient for all bands (Freysoldt, et al. PRB 79, 241103 (2009))
 preconditioned conjugated gradient                                        
 perform sub-space diagonalisation
    before iterative eigenvector-optimisation
 modified Broyden-mixing scheme, WC =      100.0
 initial mixing is a Kerker type mixing with AMIX =  0.4000 and BMIX =      1.0000
 Hartree-type preconditioning will be used
 using additional bands          251
 reciprocal scheme for non local part
 use partial core corrections
 no Harris-corrections to forces 
 use gradient corrections 
 use of overlap-Matrix (Vanderbilt PP)
 Gauss-broadening in eV      SIGMA  =   0.05


--------------------------------------------------------------------------------------------------------


  energy-cutoff  :      520.00
  volume of cell :     3375.00
      direct lattice vectors                 reciprocal lattice vectors
    15.000000000  0.000000000  0.000000000     0.066666667  0.000000000  0.000000000
     0.000000000 15.000000000  0.000000000     0.000000000  0.066666667  0.000000000
     0.000000000  0.000000000 15.000000000     0.000000000  0.000000000  0.066666667

  length of vectors
    15.000000000 15.000000000 15.000000000     0.066666667  0.066666667  0.066666667


 
 k-points in units of 2pi/SCALE and weight: read from INCAR                         
   0.00000000  0.00000000  0.00000000       1.000
 
 k-points in reciprocal lattice and weights: read from INCAR                         
   0.00000000  0.00000000  0.00000000       1.000
 
 position of ions in fractional coordinates (direct lattice) 
   0.01000000  0.01000000  0.75100000
 
 position of ions in cartesian coordinates  (Angst):
   0.15000000  0.15000000 11.26500000
 


--------------------------------------------------------------------------------------------------------


 k-point  1 :   0.0000 0.0000 0.0000  plane waves:   90879

 maximum and minimum number of plane-waves per node :     90879    90879

 maximum number of plane-waves:     90879
 maximum index in each direction: 
   IXMAX=   27   IYMAX=   27   IZMAX=   27
   IXMIN=  -27   IYMIN=  -27   IZMIN=  -27


 serial   3D FFT for wavefunctions
 parallel 3D FFT for charge:
    minimum data exchange during FFTs selected (reduces bandwidth)


 total amount of memory used by VASP MPI-rank0   115228. kBytes
=======================================================================

   base      :      30000. kBytes
   nonl-proj :      14540. kBytes
   fftplans  :       7479. kBytes
   grid      :      58820. kBytes
   one-center:         15. kBytes
   wavefun   :       4374. kBytes
 
     INWAV:  cpu time    0.0000: real time    0.0000
 Broyden mixing: mesh for mixing (old mesh)
   NGX = 55   NGY = 55   NGZ = 55
  (NGX  =224   NGY  =224   NGZ  =224)
  gives a total of 166375 points

 initial charge density was supplied:
 charge density of overlapping atoms calculated
 number of electron      10.0000000 magnetization 
 keeping initial charge density in first step


--------------------------------------------------------------------------------------------------------


 Maximum index for augmentation-charges          862 (set IRDMAX)


--------------------------------------------------------------------------------------------------------


 First call to EWALD:  gamma=   0.118
 Maximum number of real-space cells 3x 3x 3
 Maximum number of reciprocal cells 3x 3x 3

    FEWALD:  cpu time    0.0172: real time    0.0172


--------------------------------------- Iteration      1(   1)  ---------------------------------------


    POTLOK:  cpu time    1.2495: real time    1.2739
    SETDIJ:  cpu time    0.1436: real time    0.1581
    TRIAL :  cpu time    4.5137: real time    4.5662
    CORREC:  cpu time    0.0592: real time    0.0607
    --------------------------------------------
      LOOP:  cpu time    5.9702: real time    6.0708

 eigenvalue-minimisations  :   512
 total energy-change (2. order) : 0.5304770E+02  (-0.3666613E+03)
 number of electron      10.0000000 magnetization 
 augmentation part       10.0000000 magnetization 

 Free energy of the ion-electron system (eV)
  ---------------------------------------------------
  alpha Z        PSCENC =         0.40340033
  Ewald energy   TEWEN  =      -136.18826670
  -Hartree energ DENC   =      -640.69515759
  -exchange      EXHF   =         0.00000000
  -V(xc)+E(xc)   XCENC  =       -31.48283482
  PAW double counting   =       783.58879337     -721.36652728
  entropy T*S    EENTRO =        -0.04944567
  eigenvalues    EBANDS =       -10.91093877
  atomic energy  EATOM  =       809.74867218
  ---------------------------------------------------
  free energy    TOTEN  =        53.04769505 eV

  energy without entropy =       53.09714071  energy(sigma->0) =       53.07241788


--------------------------------------------------------------------------------------------------------




--------------------------------------- Iteration      1(   2)  ---------------------------------------


    TRIAL :  cpu time    7.2322: real time    7.2484
    CORREC:  cpu time    0.0185: real time    0.0185
    --------------------------------------------
      LOOP:  cpu time    7.2850: real time    7.3051

 eigenvalue-minimisations  :   768
 total energy-change (2. order) :-0.5535326E+02  (-0.5398812E+02)
 number of electron      10.0000000 magnetization 
 augmentation part       10.0000000 magnetization 

 Free energy of the ion-electron system (eV)
  ---------------------------------------------------
  alpha Z        PSCENC =         0.40340033
  Ewald energy   TEWEN  =      -136.18826670
  -Hartree energ DENC   =      -640.69515759
  -exchange      EXHF   =         0.00000000
  -V(xc)+E(xc)   XCENC  =       -31.48283482
  PAW double counting   =       783.58879337     -721.36652728
  entropy T*S    EENTRO =        -0.00000000
  eigenvalues    EBANDS =       -66.31364057
  atomic energy  EATOM  =       809.74867218
  ---------------------------------------------------
  free energy    TOTEN  =        -2.30556109 eV

  energy without entropy =       -2.30556109  energy(sigma->0) =       -2.30556109


--------------------------------------------------------------------------------------------------------




--------------------------------------- Iteration      1(   3)  ---------------------------------------


    TRIAL :  cpu time    6.9916: real time    7.6061
    CORREC:  cpu time    0.0338: real time    0.0338
    --------------------------------------------
      LOOP:  cpu time    7.0308: real time    7.6453

 eigenvalue-minimisations  :   512
 total energy-change (2. order) :-0.3459372E-01  (-0.3459372E-01)
 number of electron      10.0000000 magnetization 
 augmentation part       10.0000000 magnetization 

 Free energy of the ion-electron system (eV)
  ---------------------------------------------------
  alpha Z        PSCENC =         0.40340033
  Ewald energy   TEWEN  =      -136.18826670
  -Hartree energ DENC   =      -640.69515759
  -exchange      EXHF   =         0.00000000
  -V(xc)+E(xc)   XCENC  =       -31.48283482
  PAW double counting   =       783.58879337     -721.36652728
  entropy T*S    EENTRO =        -0.00000000
  eigenvalues    EBANDS =       -66.34823429
  atomic energy  EATOM  =       809.74867218
  ---------------------------------------------------
  free energy    TOTEN  =        -2.34015481 eV

  energy without entropy =       -2.34015481  energy(sigma->0) =       -2.34015481


--------------------------------------------------------------------------------------------------------




--------------------------------------- Iteration      1(   4)  ---------------------------------------


    TRIAL :  cpu time   18.2153: real time   21.1768
    CORREC:  cpu time    0.0326: real time    0.0326
    --------------------------------------------
      LOOP:  cpu time   18.2933: real time   21.2548

 eigenvalue-minimisations  :   768
 total energy-change (2. order) :-0.3703258E-04  (-0.3703257E-04)
 number of electron      10.0000000 magnetization 
 augmentation part       10.0000000 magnetization 

 Free energy of the ion-electron system (eV)
  ---------------------------------------------------
  alpha Z        PSCENC =         0.40340033
  Ewald energy   TEWEN  =      -136.18826670
  -Hartree energ DENC   =      -640.69515759
  -exchange      EXHF   =         0.00000000
  -V(xc)+E(xc)   XCENC  =       -31.48283482
  PAW double counting   =       783.58879337     -721.36652728
  entropy T*S    EENTRO =        -0.00000000
  eigenvalues    EBANDS =       -66.34827133
  atomic energy  EATOM  =       809.74867218
  ---------------------------------------------------
  free energy    TOTEN  =        -2.34019184 eV

  energy without entropy =       -2.34019184  energy(sigma->0) =       -2.34019184


--------------------------------------------------------------------------------------------------------




--------------------------------------- Iteration      1(   5)  ---------------------------------------


    TRIAL :  cpu time   11.1009: real time   12.3901
    CORREC:  cpu time    0.1108: real time    0.1129
    CHARGE:  cpu time    1.8685: real time    2.1169
    --------------------------------------------
      LOOP:  cpu time   13.0906: real time   14.6305

 eigenvalue-minimisations  :   512
 total energy-change (2. order) :-0.1328090E-08  (-0.1312101E-08)
 number of electron       9.9999999 magnetization 
 augmentation part        4.8421040 magnetization 

 Free energy of the ion-electron system (eV)
  ---------------------------------------------------
  alpha Z        PSCENC =         0.40340033
  Ewald energy   TEWEN  =      -136.18826670
  -Hartree energ DENC   =      -640.69515759
  -exchange      EXHF   =         0.00000000
  -V(xc)+E(xc)   XCENC  =       -31.48283482
  PAW double counting   =       783.58879337     -721.36652728
  entropy T*S    EENTRO =        -0.00000000
  eigenvalues    EBANDS =       -66.34827133
  atomic energy  EATOM  =       809.74867218
  ---------------------------------------------------
  free energy    TOTEN  =        -2.34019184 eV

  energy without entropy =       -2.34019184  energy(sigma->0) =       -2.34019184


--------------------------------------------------------------------------------------------------------




--------------------------------------- Iteration      1(   6)  ---------------------------------------


    POTLOK:  cpu time    1.2310: real time    1.2593
    SETDIJ:  cpu time    0.1407: real time    0.1408
    TRIAL :  cpu time    2.2055: real time    2.5120
    CORREC:  cpu time    3.0305: real time    3.1124
    CHARGE:  cpu time    0.6970: real time    0.6971
    --------------------------------------------
      LOOP:  cpu time    7.3217: real time    7.7388

 eigenvalue-minimisations  :     0
 total energy-change (2. order) : 0.2353087E+01  (-0.1248027E+01)
 number of electron       9.9999999 magnetization 
 augmentation part        4.5164420 magnetization 

 Free energy of the ion-electron system (eV)
  ---------------------------------------------------
  alpha Z        PSCENC =         0.40340033
  Ewald energy   TEWEN  =      -136.18826670
  -Hartree energ DENC   =      -714.74818921
  -exchange      EXHF   =         0.00000000
  -V(xc)+E(xc)   XCENC  =       -29.12241963
  PAW double counting   =       870.77022287     -804.39698301
  entropy T*S    EENTRO =        -0.00000000
  eigenvalues    EBANDS =         3.54645821
  atomic energy  EATOM  =       809.74867218
  ---------------------------------------------------
  free energy    TOTEN  =         0.01289505 eV

  energy without entropy =        0.01289505  energy(sigma->0) =        0.01289505


--------------------------------------------------------------------------------------------------------




--------------------------------------- Iteration      1(   7)  ---------------------------------------


    POTLOK:  cpu time    1.2192: real time    1.2193
    SETDIJ:  cpu time    0.1439: real time    0.1439
    TRIAL :  cpu time    1.8159: real time    1.8508
    CORREC:  cpu time    3.1279: real time    3.1653
    CHARGE:  cpu time    0.6925: real time    0.7071
    --------------------------------------------
      LOOP:  cpu time    7.0239: real time    7.1109

 eigenvalue-minimisations  :     0
 total energy-change (2. order) :-0.1260061E+01  (-0.2293163E+00)
 number of electron       9.9999999 magnetization 
 augmentation part        4.5059879 magnetization 

 Free energy of the ion-electron system (eV)
  ---------------------------------------------------
  alpha Z        PSCENC =         0.40340033
  Ewald energy   TEWEN  =      -136.18826670
  -Hartree energ DENC   =      -680.21532773
  -exchange      EXHF   =         0.00000000
  -V(xc)+E(xc)   XCENC  =       -30.14657527
  PAW double counting   =       819.25832995     -753.09954747
  entropy T*S    EENTRO =        -0.00000000
  eigenvalues    EBANDS =       -31.00785116
  atomic energy  EATOM  =       809.74867218
  ---------------------------------------------------
  free energy    TOTEN  =        -1.24716588 eV

  energy without entropy =       -1.24716588  energy(sigma->0) =       -1.24716588


--------------------------------------------------------------------------------------------------------




--------------------------------------- Iteration      1(   8)  ---------------------------------------


    POTLOK:  cpu time    1.2188: real time    1.2190
    SETDIJ:  cpu time    0.1393: real time    0.1393
    TRIAL :  cpu time    1.7439: real time    1.7755
    CORREC:  cpu time    3.1431: real time    3.2329
    CHARGE:  cpu time    0.7148: real time    0.7148
    --------------------------------------------
      LOOP:  cpu time    6.9774: real time    7.0991

 eigenvalue-minimisations  :     0
 total energy-change (2. order) :-0.1873837E+00  (-0.2488477E-01)
 number of electron       9.9999999 magnetization 
 augmentation part        4.5073762 magnetization 

 Free energy of the ion-electron system (eV)
  ---------------------------------------------------
  alpha Z        PSCENC =         0.40340033
  Ewald energy   TEWEN  =      -136.18826670
  -Hartree energ DENC   =      -668.24028166
  -exchange      EXHF   =         0.00000000
  -V(xc)+E(xc)   XCENC  =       -30.58699794
  PAW double counting   =       782.09368373     -716.59019459
  entropy T*S    EENTRO =        -0.00000000
  eigenvalues    EBANDS =       -42.07456491
  atomic energy  EATOM  =       809.74867218
  ---------------------------------------------------
  free energy    TOTEN  =        -1.43454957 eV

  energy without entropy =       -1.43454957  energy(sigma->0) =       -1.43454957


--------------------------------------------------------------------------------------------------------




--------------------------------------- Iteration      1(   9)  ---------------------------------------


    POTLOK:  cpu time    1.3672: real time    1.3674
    SETDIJ:  cpu time    0.1398: real time    0.1398
    TRIAL :  cpu time    1.7984: real time    1.8540
    CORREC:  cpu time    2.9618: real time    3.0009
    CHARGE:  cpu time    0.6481: real time    0.6482
    --------------------------------------------
      LOOP:  cpu time    6.9388: real time    7.0339

 eigenvalue-minimisations  :     0
 total energy-change (2. order) :-0.2488359E-01  (-0.1079482E-01)
 number of electron       9.9999999 magnetization 
 augmentation part        4.4998187 magnetization 

 Free energy of the ion-electron system (eV)
  ---------------------------------------------------
  alpha Z        PSCENC =         0.40340033
  Ewald energy   TEWEN  =      -136.18826670
  -Hartree energ DENC   =      -668.47337351
  -exchange      EXHF   =         0.00000000
  -V(xc)+E(xc)   XCENC  =       -30.58463355
  PAW double counting   =       786.14549573     -720.55623911
  entropy T*S    EENTRO =        -0.00000000
  eigenvalues    EBANDS =       -41.95448853
  atomic energy  EATOM  =       809.74867218
  ---------------------------------------------------
  free energy    TOTEN  =        -1.45943315 eV

  energy without entropy =       -1.45943315  energy(sigma->0) =       -1.45943315


--------------------------------------------------------------------------------------------------------




--------------------------------------- Iteration      1(  10)  ---------------------------------------


    POTLOK:  cpu time    1.2425: real time    1.2434
    SETDIJ:  cpu time    0.1405: real time    0.1406
    TRIAL :  cpu time    1.9238: real time    1.9576
    CORREC:  cpu time    3.2321: real time    3.2739
    CHARGE:  cpu time    0.6306: real time    0.6310
    --------------------------------------------
      LOOP:  cpu time    7.1888: real time    7.2658

 eigenvalue-minimisations  :     0
 total energy-change (2. order) :-0.1081938E-01  (-0.4263606E-02)
 number of electron       9.9999999 magnetization 
 augmentation part        4.5076783 magnetization 

 Free energy of the ion-electron system (eV)
  ---------------------------------------------------
  alpha Z        PSCENC =         0.40340033
  Ewald energy   TEWEN  =      -136.18826670
  -Hartree energ DENC   =      -669.11126272
  -exchange      EXHF   =         0.00000000
  -V(xc)+E(xc)   XCENC  =       -30.55770431
  PAW double counting   =       791.06989777     -725.36799105
  entropy T*S    EENTRO =        -0.00000000
  eigenvalues    EBANDS =       -41.46699802
  atomic energy  EATOM  =       809.74867218
  ---------------------------------------------------
  free energy    TOTEN  =        -1.47025253 eV

  energy without entropy =       -1.47025253  energy(sigma->0) =       -1.47025253


--------------------------------------------------------------------------------------------------------




--------------------------------------- Iteration      1(  11)  ---------------------------------------


    POTLOK:  cpu time    1.2324: real time    1.2329
    SETDIJ:  cpu time    0.1399: real time    0.1399
    TRIAL :  cpu time    1.7670: real time    1.8110
    CORREC:  cpu time    2.9724: real time    3.0195
    CHARGE:  cpu time    0.7981: real time    0.7985
    --------------------------------------------
      LOOP:  cpu time    6.9408: real time    7.0330

 eigenvalue-minimisations  :     0
 total energy-change (2. order) :-0.4303064E-02  (-0.1858266E-02)
 number of electron       9.9999999 magnetization 
 augmentation part        4.5057487 magnetization 

 Free energy of the ion-electron system (eV)
  ---------------------------------------------------
  alpha Z        PSCENC =         0.40340033
  Ewald energy   TEWEN  =      -136.18826670
  -Hartree energ DENC   =      -670.80353959
  -exchange      EXHF   =         0.00000000
  -V(xc)+E(xc)   XCENC  =       -30.50302817
  PAW double counting   =       794.52367860     -728.76780524
  entropy T*S    EENTRO =        -0.00000000
  eigenvalues    EBANDS =       -39.88766699
  atomic energy  EATOM  =       809.74867218
  ---------------------------------------------------
  free energy    TOTEN  =        -1.47455559 eV

  energy without entropy =       -1.47455559  energy(sigma->0) =       -1.47455559


--------------------------------------------------------------------------------------------------------




--------------------------------------- Iteration      1(  12)  ---------------------------------------


    POTLOK:  cpu time    1.3037: real time    1.3040
    SETDIJ:  cpu time    0.1252: real time    0.1394
    TRIAL :  cpu time    5.5997: real time    5.6319
    CORREC:  cpu time    3.5207: real time    3.5719
    CHARGE:  cpu time    0.6990: real time    0.7142
    --------------------------------------------
      LOOP:  cpu time   11.2662: real time   11.3794

 eigenvalue-minimisations  :     0
 total energy-change (2. order) :-0.1864670E-02  (-0.5642717E-03)
 number of electron       9.9999999 magnetization 
 augmentation part        4.5086150 magnetization 

 Free energy of the ion-electron system (eV)
  ---------------------------------------------------
  alpha Z        PSCENC =         0.40340033
  Ewald energy   TEWEN  =      -136.18826670
  -Hartree energ DENC   =      -670.80989608
  -exchange      EXHF   =         0.00000000
  -V(xc)+E(xc)   XCENC  =       -30.50067167
  PAW double counting   =       794.00281488     -728.25403413
  entropy T*S    EENTRO =        -0.00000000
  eigenvalues    EBANDS =       -39.87843907
  atomic energy  EATOM  =       809.74867218
  ---------------------------------------------------
  free energy    TOTEN  =        -1.47642026 eV

  energy without entropy =       -1.47642026  energy(sigma->0) =       -1.47642026


--------------------------------------------------------------------------------------------------------




--------------------------------------- Iteration      1(  13)  ---------------------------------------


    POTLOK:  cpu time    1.2309: real time    1.2335
    SETDIJ:  cpu time    0.1405: real time    0.1408
    TRIAL :  cpu time    1.7695: real time    1.8054
    CORREC:  cpu time    3.0798: real time    3.1214
    CHARGE:  cpu time    0.7284: real time    0.7295
    --------------------------------------------
      LOOP:  cpu time    6.9690: real time    7.0506

 eigenvalue-minimisations  :     0
 total energy-change (2. order) :-0.5630607E-03  (-0.1396685E-03)
 number of electron       9.9999999 magnetization 
 augmentation part        4.5070400 magnetization 

 Free energy of the ion-electron system (eV)
  ---------------------------------------------------
  alpha Z        PSCENC =         0.40340033
  Ewald energy   TEWEN  =      -136.18826670
  -Hartree energ DENC   =      -671.09397933
  -exchange      EXHF   =         0.00000000
  -V(xc)+E(xc)   XCENC  =       -30.49136670
  PAW double counting   =       793.66046013     -727.92225219
  entropy T*S    EENTRO =        -0.00000000
  eigenvalues    EBANDS =       -39.59365104
  atomic energy  EATOM  =       809.74867218
  ---------------------------------------------------
  free energy    TOTEN  =        -1.47698332 eV

  energy without entropy =       -1.47698332  energy(sigma->0) =       -1.47698332


--------------------------------------------------------------------------------------------------------




--------------------------------------- Iteration      1(  14)  ---------------------------------------


    POTLOK:  cpu time    1.2935: real time    1.2959
    SETDIJ:  cpu time    0.1389: real time    0.1391
    TRIAL :  cpu time    1.8454: real time    1.9063
    CORREC:  cpu time    3.0470: real time    3.0803
    CHARGE:  cpu time    0.6399: real time    0.6399
    --------------------------------------------
      LOOP:  cpu time    6.9763: real time    7.0747

 eigenvalue-minimisations  :     0
 total energy-change (2. order) :-0.1401748E-03  (-0.4712847E-04)
 number of electron       9.9999999 magnetization 
 augmentation part        4.5072161 magnetization 

 Free energy of the ion-electron system (eV)
  ---------------------------------------------------
  alpha Z        PSCENC =         0.40340033
  Ewald energy   TEWEN  =      -136.18826670
  -Hartree energ DENC   =      -670.92771950
  -exchange      EXHF   =         0.00000000
  -V(xc)+E(xc)   XCENC  =       -30.49547868
  PAW double counting   =       793.32360410     -727.58947660
  entropy T*S    EENTRO =        -0.00000000
  eigenvalues    EBANDS =       -39.75185864
  atomic energy  EATOM  =       809.74867218
  ---------------------------------------------------
  free energy    TOTEN  =        -1.47712350 eV

  energy without entropy =       -1.47712350  energy(sigma->0) =       -1.47712350


--------------------------------------------------------------------------------------------------------




--------------------------------------- Iteration      1(  15)  ---------------------------------------


    POTLOK:  cpu time    1.2704: real time    1.2706
    SETDIJ:  cpu time    0.1394: real time    0.1394
    TRIAL :  cpu time    1.9166: real time    1.9686
    CORREC:  cpu time    3.1313: real time    3.1827
    CHARGE:  cpu time    0.6430: real time    0.6430
    --------------------------------------------
      LOOP:  cpu time    7.1235: real time    7.2272

 eigenvalue-minimisations  :     0
 total energy-change (2. order) :-0.4696103E-04  (-0.1819767E-04)
 number of electron       9.9999999 magnetization 
 augmentation part        4.5068305 magnetization 

 Free energy of the ion-electron system (eV)
  ---------------------------------------------------
  alpha Z        PSCENC =         0.40340033
  Ewald energy   TEWEN  =      -136.18826670
  -Hartree energ DENC   =      -670.92657028
  -exchange      EXHF   =         0.00000000
  -V(xc)+E(xc)   XCENC  =       -30.49551630
  PAW double counting   =       793.34386431     -727.60961113
  entropy T*S    EENTRO =        -0.00000000
  eigenvalues    EBANDS =       -39.75314287
  atomic energy  EATOM  =       809.74867218
  ---------------------------------------------------
  free energy    TOTEN  =        -1.47717046 eV

  energy without entropy =       -1.47717046  energy(sigma->0) =       -1.47717046


--------------------------------------------------------------------------------------------------------




--------------------------------------- Iteration      1(  16)  ---------------------------------------


    POTLOK:  cpu time    1.2255: real time    1.2257
    SETDIJ:  cpu time    0.1401: real time    0.1401
    TRIAL :  cpu time    2.1318: real time    2.2012
    CORREC:  cpu time    3.2679: real time    3.2992
    CHARGE:  cpu time    0.7402: real time    0.7404
    --------------------------------------------
      LOOP:  cpu time    7.5289: real time    7.6302

 eigenvalue-minimisations  :     0
 total energy-change (2. order) :-0.1846098E-04  (-0.6623709E-05)
 number of electron       9.9999999 magnetization 
 augmentation part        4.5070715 magnetization 

 Free energy of the ion-electron system (eV)
  ---------------------------------------------------
  alpha Z        PSCENC =         0.40340033
  Ewald energy   TEWEN  =      -136.18826670
  -Hartree energ DENC   =      -670.84527416
  -exchange      EXHF   =         0.00000000
  -V(xc)+E(xc)   XCENC  =       -30.49837665
  PAW double counting   =       793.27166926     -727.53822079
  entropy T*S    EENTRO =        -0.00000000
  eigenvalues    EBANDS =       -39.83079240
  atomic energy  EATOM  =       809.74867218
  ---------------------------------------------------
  free energy    TOTEN  =        -1.47718892 eV

  energy without entropy =       -1.47718892  energy(sigma->0) =       -1.47718892


--------------------------------------------------------------------------------------------------------




--------------------------------------- Iteration      1(  17)  ---------------------------------------


    POTLOK:  cpu time    1.2697: real time    1.2829
    SETDIJ:  cpu time    0.1500: real time    0.1500
    TRIAL :  cpu time    1.7272: real time    1.7695
    CORREC:  cpu time    2.9341: real time    2.9744
    EDDIAG:  cpu time    0.8543: real time    0.8698
    CHARGE:  cpu time    0.7664: real time    0.7833
    --------------------------------------------
      LOOP:  cpu time    7.7198: real time    7.8480

 eigenvalue-minimisations  :     0
 total energy-change (2. order) :-0.6477220E-05  (-0.1058092E-05)
 number of electron       9.9999999 magnetization 
 augmentation part        4.5069626 magnetization 

 Free energy of the ion-electron system (eV)
  ---------------------------------------------------
  alpha Z        PSCENC =         0.40340033
  Ewald energy   TEWEN  =      -136.18826670
  -Hartree energ DENC   =      -670.84237024
  -exchange      EXHF   =         0.00000000
  -V(xc)+E(xc)   XCENC  =       -30.49886301
  PAW double counting   =       793.26552291     -727.53254675
  entropy T*S    EENTRO =        -0.00000000
  eigenvalues    EBANDS =       -39.83274412
  atomic energy  EATOM  =       809.74867218
  ---------------------------------------------------
  free energy    TOTEN  =        -1.47719540 eV

  energy without entropy =       -1.47719540  energy(sigma->0) =       -1.47719540


--------------------------------------------------------------------------------------------------------


  average scaling for gradient   1.1234


 average (electrostatic) potential at core
  the test charge radii are     1.1199
  (the norm of the test charge is              1.0000)
       1 -52.8258
 
 
 
 E-fermi :  -3.7161     XC(G=0):  -0.2805     alpha+bet : -0.0518


 k-point     1 :       0.0000    0.0000    0.0000
  band No.  band energies     occupation 
      1      -3.9845      2.00000
      2      -3.9845      2.00000
      3      -3.9845      2.00000
      4      -3.9844      2.00000
      5      -3.9844      2.00000
      6      -3.3053      0.00000
      7      -0.2632      0.00000
      8      -0.2632      0.00000
      9      -0.2632      0.00000
     10      -0.0132      0.00000
     11       0.5977      0.00000
     12       0.5977      0.00000
     13       0.7473      0.00000
     14       0.8042      0.00000
     15       0.8042      0.00000
     16       0.8042      0.00000
     17       1.1490      0.00000
     18       1.1490      0.00000
     19       1.1490      0.00000
     20       1.2617      0.00000
     21       1.2617      0.00000
     22       1.2930      0.00000
     23       1.2930      0.00000
     24       1.2930      0.00000
     25       1.5838      0.00000
     26       1.6158      0.00000
     27       1.6158      0.00000
     28       1.6158      0.00000
     29       1.8457      0.00000
     30       1.8457      0.00000
     31       1.8457      0.00000
     32       1.8903      0.00000
     33       2.1443      0.00000
     34       2.1444      0.00000
     35       2.1444      0.00000
     36       2.1827      0.00000
     37       2.3353      0.00000
     38       2.3353      0.00000
     39       2.7432      0.00000
     40       2.7432      0.00000
     41       2.7432      0.00000
     42       2.7818      0.00000
     43       2.9821      0.00000
     44       2.9821      0.00000
     45       2.9821      0.00000
     46       3.0299      0.00000
     47       3.0299      0.00000
     48       3.1128      0.00000
     49       3.1128      0.00000
     50       3.1128      0.00000
     51       3.1958      0.00000
     52       3.1958      0.00000
     53       3.1958      0.00000
     54       3.2593      0.00000
     55       3.2593      0.00000
     56       3.2593      0.00000
     57       3.2859      0.00000
     58       3.2859      0.00000
     59       3.3191      0.00000
     60       3.3191      0.00000
     61       3.3191      0.00000
     62       3.3380      0.00000
     63       3.6150      0.00000
     64       3.6150      0.00000
     65       3.6150      0.00000
     66       3.6605      0.00000
     67       3.6965      0.00000
     68       3.7102      0.00000
     69       3.7102      0.00000
     70       3.7102      0.00000
     71       3.8956      0.00000
     72       3.8956      0.00000
     73       3.9027      0.00000
     74       3.9027      0.00000
     75       3.9028      0.00000
     76       3.9120      0.00000
     77       3.9120      0.00000
     78       3.9120      0.00000
     79       3.9333      0.00000
     80       3.9333      0.00000
     81       3.9333      0.00000
     82       3.9395      0.00000
     83       3.9395      0.00000
     84       3.9395      0.00000
     85       3.9543      0.00000
     86       3.9543      0.00000
     87       4.7082      0.00000
     88       4.7082      0.00000
     89       4.7082      0.00000
     90       4.8725      0.00000
     91       5.0868      0.00000
     92       5.0868      0.00000
     93       5.0868      0.00000
     94       5.0977      0.00000
     95       5.0977      0.00000
     96       5.0977      0.00000
     97       5.1142      0.00000
     98       5.1142      0.00000
     99       5.4477      0.00000
    100       5.4477      0.00000
    101       5.4477      0.00000
    102       5.5410      0.00000
    103       5.6118      0.00000
    104       5.6250      0.00000
    105       5.6250      0.00000
    106       5.6648      0.00000
    107       5.6648      0.00000
    108       5.6648      0.00000
    109       5.6704      0.00000
    110       5.6704      0.00000
    111       5.6704      0.00000
    112       5.7725      0.00000
    113       5.8808      0.00000
    114       5.8808      0.00000
    115       5.8808      0.00000
    116       5.9130      0.00000
    117       5.9130      0.00000
    118       5.9136      0.00000
    119       5.9136      0.00000
    120       5.9136      0.00000
    121       5.9371      0.00000
    122       5.9371      0.00000
    123       5.9371      0.00000
    124       5.9418      0.00000
    125       5.9418      0.00000
    126       5.9418      0.00000
    127       5.9458      0.00000
    128       5.9458      0.00000
    129       6.2740      0.00000
    130       6.2740      0.00000
    131       6.2740      0.00000
    132       6.3396      0.00000
    133       6.3431      0.00000
    134       6.3431      0.00000
    135       6.4688      0.00000
    136       6.4688      0.00000
    137       6.4688      0.00000
    138       6.4719      0.00000
    139       6.4719      0.00000
    140       6.4719      0.00000
    141       6.4864      0.00000
    142       6.4864      0.00000
    143       6.4864      0.00000
    144       6.4976      0.00000
    145       6.4976      0.00000
    146       6.4976      0.00000
    147       6.6318      0.00000
    148       6.6318      0.00000
    149       6.6343      0.00000
    150       6.6343      0.00000
    151       6.6343      0.00000
    152       6.6408      0.00000
    153       7.0548      0.00000
    154       7.0548      0.00000
    155       7.0548      0.00000
    156       7.1389      0.00000
    157       7.1713      0.00000
    158       7.1713      0.00000
    159       7.1713      0.00000
    160       7.1731      0.00000
    161       7.1749      0.00000
    162       7.1749      0.00000
    163       7.1749      0.00000
    164       7.1780      0.00000
    165       7.1780      0.00000
    166       7.1780      0.00000
    167       7.1808      0.00000
    168       7.1808      0.00000
    169       7.1935      0.00000
    170       7.1935      0.00000
    171       7.1935      0.00000
    172       7.2226      0.00000
    173       7.2226      0.00000
    174       7.2226      0.00000
    175       7.2325      0.00000
    176       7.2325      0.00000
    177       7.7155      0.00000
    178       7.7155      0.00000
    179       7.7155      0.00000
    180       7.7813      0.00000
    181       7.7970      0.00000
    182       7.8154      0.00000
    183       7.8154      0.00000
    184       7.8154      0.00000
    185       8.1673      0.00000
    186       8.1673      0.00000
    187       8.1673      0.00000
    188       8.2416      0.00000
    189       8.2416      0.00000
    190       8.2416      0.00000
    191       8.3186      0.00000
    192       8.3186      0.00000
    193       8.3221      0.00000
    194       8.3248      0.00000
    195       8.3248      0.00000
    196       8.3248      0.00000
    197       8.5418      0.00000
    198       8.5418      0.00000
    199       8.5418      0.00000
    200       8.5685      0.00000
    201       8.5685      0.00000
    202       8.5686      0.00000
    203       8.5686      0.00000
    204       8.5686      0.00000
    205       8.5843      0.00000
    206       8.5843      0.00000
    207       8.5843      0.00000
    208       8.5963      0.00000
    209       8.9199      0.00000
    210       8.9343      0.00000
    211       8.9343      0.00000
    212       8.9343      0.00000
    213       9.0145      0.00000
    214       9.0145      0.00000
    215       9.0145      0.00000
    216       9.0404      0.00000
    217       9.0965      0.00000
    218       9.0965      0.00000
    219       9.0965      0.00000
    220       9.0995      0.00000
    221       9.0995      0.00000
    222       9.0995      0.00000
    223       9.1276      0.00000
    224       9.1277      0.00000
    225       9.1300      0.00000
    226       9.1300      0.00000
    227       9.1300      0.00000
    228       9.1322      0.00000
    229       9.1322      0.00000
    230       9.1322      0.00000
    231       9.1441      0.00000
    232       9.1441      0.00000
    233       9.2593      0.00000
    234       9.2593      0.00000
    235       9.2677      0.00000
    236       9.2677      0.00000
    237       9.2677      0.00000
    238       9.2737      0.00000
    239       9.2737      0.00000
    240       9.2737      0.00000
    241       9.2808      0.00000
    242       9.2808      0.00000
    243       9.2808      0.00000
    244       9.2878      0.00000
    245       9.2878      0.00000
    246       9.2878      0.00000
    247       9.2963      0.00000
    248       9.2963      0.00000
    249       9.3171      0.00000
    250       9.3262      0.00000
    251       9.3262      0.00000
    252       9.3262      0.00000
    253       9.3324      0.00000
    254       9.3324      0.00000
    255       9.3324      0.00000
    256       9.3372      0.00000


--------------------------------------------------------------------------------------------------------


 soft charge-density along one line, spin component           1
         0         1         2         3         4         5         6         7         8         9
 total charge-density along one line
 
 pseudopotential strength for first ion, spin component:           1
-12.382   0.000   0.000   0.000   0.000 -12.615   0.000   0.000
  0.000 -12.382  -0.000   0.000   0.000   0.000 -12.615  -0.000
  0.000  -0.000 -12.382  -0.000   0.000   0.000  -0.000 -12.615
  0.000   0.000  -0.000 -12.382  -0.000   0.000   0.000  -0.000
  0.000   0.000   0.000  -0.000 -12.382   0.000   0.000   0.000
-12.615   0.000   0.000   0.000   0.000 -12.829   0.000   0.000
  0.000 -12.615  -0.000   0.000   0.000   0.000 -12.829  -0.000
  0.000  -0.000 -12.615  -0.000   0.000   0.000  -0.000 -12.829
  0.000   0.000  -0.000 -12.615  -0.000   0.000   0.000  -0.000
  0.000   0.000   0.000  -0.000 -12.615   0.000   0.000   0.000
  0.000   0.000  -0.000   0.000   0.000   0.000   0.000  -0.000
  0.000   0.000  -0.000   0.000   0.000   0.000   0.000  -0.000
  0.000   0.000   0.000  -0.000   0.000   0.000   0.000   0.000
 -0.000  -0.000  -0.000  -0.000   0.000  -0.000  -0.000  -0.000
  0.000  -0.000   0.000   0.000  -0.000   0.000  -0.000   0.000
  0.000   0.000   0.000  -0.000   0.000   0.000   0.000   0.000
 -0.000  -0.000  -0.000  -0.000   0.000  -0.000  -0.000  -0.000
  0.000  -0.000   0.000   0.000  -0.000   0.000  -0.000   0.000
 total augmentation occupancy for first ion, spin component:           1
  0.382  -0.000  -0.000  -0.000   0.000   0.471  -0.000  -0.000  -0.000   0.000  -0.000   0.000  -0.000   0.000  -0.000   0.000
 -0.000   0.382   0.000  -0.000  -0.000  -0.000   0.471   0.000  -0.000  -0.000  -0.000   0.000  -0.000  -0.000   0.000   0.000
 -0.000   0.000   0.382   0.000  -0.000  -0.000   0.000   0.471   0.000  -0.000   0.000  -0.000  -0.000   0.000  -0.000   0.000
 -0.000  -0.000   0.000   0.382   0.000  -0.000  -0.000   0.000   0.471   0.000  -0.000   0.000   0.000  -0.000  -0.000  -0.000
  0.000  -0.000  -0.000   0.000   0.382  -0.000  -0.000   0.000   0.000   0.471  -0.000   0.000  -0.000   0.000   0.000   0.000
  0.471  -0.000  -0.000  -0.000  -0.000   0.581   0.000   0.000   0.000  -0.000  -0.000   0.000  -0.000   0.000  -0.000   0.000
 -0.000   0.471   0.000  -0.000  -0.000   0.000   0.581  -0.000   0.000   0.000  -0.000   0.000  -0.000  -0.000   0.000   0.000
 -0.000   0.000   0.471   0.000   0.000   0.000  -0.000   0.581  -0.000   0.000   0.000  -0.000  -0.000   0.000  -0.000   0.000
 -0.000  -0.000   0.000   0.471   0.000   0.000   0.000  -0.000   0.581  -0.000  -0.000   0.000   0.000  -0.000  -0.000  -0.000
  0.000  -0.000  -0.000   0.000   0.471  -0.000   0.000   0.000  -0.000   0.581  -0.000   0.000  -0.000   0.000   0.000   0.000
 -0.000  -0.000   0.000  -0.000  -0.000  -0.000  -0.000   0.000  -0.000  -0.000   0.000  -0.000  -0.000   0.000  -0.000   0.000
  0.000   0.000  -0.000   0.000   0.000   0.000   0.000  -0.000   0.000   0.000  -0.000   0.000   0.000  -0.000   0.000  -0.000
 -0.000  -0.000  -0.000   0.000  -0.000  -0.000  -0.000  -0.000   0.000  -0.000  -0.000   0.000   0.000  -0.000  -0.000  -0.000
  0.000  -0.000   0.000  -0.000   0.000   0.000  -0.000   0.000  -0.000   0.000   0.000  -0.000  -0.000   0.000  -0.000   0.000
 -0.000   0.000  -0.000  -0.000   0.000  -0.000   0.000  -0.000  -0.000   0.000  -0.000   0.000  -0.000  -0.000   0.000   0.000
  0.000   0.000   0.000  -0.000   0.000   0.000   0.000   0.000  -0.000   0.000   0.000  -0.000  -0.000   0.000   0.000   0.000
 -0.000   0.000  -0.000   0.000  -0.000  -0.000   0.000  -0.000   0.000  -0.000  -0.000   0.000   0.000  -0.000   0.000  -0.000
  0.000  -0.000   0.000   0.000  -0.000   0.000  -0.000   0.000   0.000  -0.000   0.000  -0.000   0.000   0.000  -0.000  -0.000


------------------------ aborting loop because EDIFF is reached ----------------------------------------


    FORLOC:  cpu time    0.0079: real time    0.0085
    FORNL :  cpu time    0.0316: real time    0.0454
    FORCOR:  cpu time    1.3250: real time    1.3379
    OFIELD:  cpu time    0.0003: real time    0.0042

 VOLUME and BASIS-vectors are now :
 -----------------------------------------------------------------------------
  energy-cutoff  :      520.00
  volume of cell :     3375.00
      direct lattice vectors                 reciprocal lattice vectors
    15.000000000  0.000000000  0.000000000     0.066666667  0.000000000  0.000000000
     0.000000000 15.000000000  0.000000000     0.000000000  0.066666667  0.000000000
     0.000000000  0.000000000 15.000000000     0.000000000  0.000000000  0.066666667

  length of vectors
    15.000000000 15.000000000 15.000000000     0.066666667  0.066666667  0.066666667


 FORCES acting on ions:
    Electron-Ion                     Ewald-Force                    Non-Local-Force
 -----------------------------------------------------------------------------------------------
   -.758E-05 -.759E-05 -.653E-05   0.150E-16 0.245E-16 -.490E-16   0.612E-03 0.612E-03 0.593E-03
 -----------------------------------------------------------------------------------------------
   -.136E-04 -.136E-04 -.123E-04   0.150E-16 0.245E-16 -.490E-16   0.612E-03 0.612E-03 0.593E-03
 
 
 POSITION                                       TOTAL-FORCE (eV/Angst)
 -----------------------------------------------------------------------------------
      0.15000      0.15000     11.26500         0.000598      0.000598      0.000581
 -----------------------------------------------------------------------------------
    total drift:                                0.000598      0.000598      0.000581


--------------------------------------------------------------------------------------------------------



  FREE ENERGIE OF THE ION-ELECTRON SYSTEM (eV)
  ---------------------------------------------------
  free  energy   TOTEN  =        -1.47719540 eV

  energy  without entropy=       -1.47719540  energy(sigma->0) =       -1.47719540
 


--------------------------------------------------------------------------------------------------------


    POTLOK:  cpu time    1.5211: real time    1.5370


--------------------------------------------------------------------------------------------------------


 stress matrix after NEB project (eV)
      0.00000      0.00000      0.00000
      0.00000      0.00000      0.00000
      0.00000      0.00000      0.00000
  FORCES: max atom, RMS     0.001026    0.001026
  FORCE total and by dimension    0.001026    0.000598
  Stress total and by dimension    0.000000    0.000000
     LOOP+:  cpu time  144.6127: real time  151.4526
    4ORBIT:  cpu time    0.0000: real time    0.0000

 total amount of memory used by VASP MPI-rank0   115228. kBytes
=======================================================================

   base      :      30000. kBytes
   nonl-proj :      14540. kBytes
   fftplans  :       7479. kBytes
   grid      :      58820. kBytes
   one-center:         15. kBytes
   wavefun   :       4374. kBytes
 
  
  
 General timing and accounting informations for this job:
 ========================================================
  
                  Total CPU time used (sec):      155.674
                            User time (sec):      151.399
                          System time (sec):        4.275
                         Elapsed time (sec):      165.206
  
                   Maximum memory used (kb):      418964.
                   Average memory used (kb):           0.
  
                          Minor page faults:        52733
                          Major page faults:            0
                 Voluntary context switches:         2491
