       N       E                     dE             d eps       ncg     rms          ort
DAV:   1     0.100853640964E+04    0.10085E+04   -0.89979E+04  3328   0.691E+02
DAV:   2    -0.361904726258E+03   -0.13704E+04   -0.13700E+04  3328   0.984E+01
DAV:   3    -0.439998685132E+03   -0.78094E+02   -0.78093E+02  3328   0.371E+01
DAV:   4    -0.441052308262E+03   -0.10536E+01   -0.10536E+01  3328   0.510E+00
DAV:   5    -0.441052476920E+03   -0.16866E-03   -0.16866E-03  3328   0.770E-02
SDA:   6    -0.441052476920E+03    0.00000E+00   -0.16866E-03  3328   0.361E-05 0.000E+00
   1 F= -.44279308E+03 E0= -.44279163E+03  d E =-.288950E-02  mag=     0.0000
