C  N  Sn                                
   1.00000000000000     
    12.3000000000000007    0.0000000000000000    0.0000000000000000
    -6.1499999999999977   10.6521124665485960    0.0000000000000000
     0.0000000000000000    0.0000000000000000   20.0000000000000000
   C    N    Sn
    44     4     1
Direct
  0.9992979416210801  0.0007021666603464  0.7392195745605363
  0.1318137875253953  0.0651536376505746  0.7392587163192061
  0.1984576470758554  0.9984773646003902  0.7393242308521053
  0.3309498942977172  0.0638221292616379  0.7437398501724175
  0.3986871317127552  0.9978717627927836  0.7458691349636766
  0.5316989979965356  0.0668346430618101  0.7496333465390634
  0.5993197669102841  0.0005917519332215  0.7489444339443878
  0.7324712882012676  0.0692219706328956  0.7489434612286487
  0.7995469130062105  0.0021981641956685  0.7452200522020007
  0.9324355373104183  0.0675644503227630  0.7427642685764653
  0.9978017887150585  0.2004530500622081  0.7452200504617466
  0.1312345732855604  0.2653881948688337  0.7456964445295995
  0.1972146125820160  0.1976732830580090  0.7436420808023456
  0.3287143705239401  0.2632105876995467  0.7507169706657635
  0.3965086344342623  0.1953820213211230  0.7507845926594499
  0.5934489158069951  0.2010004603331197  0.7556042465379704
  0.7289494533205882  0.2710505421006033  0.7565226034692927
  0.7967245254690880  0.2032754661908527  0.7517306339961962
  0.9307780329682842  0.2675287230800265  0.7489434595257336
  0.9994082822858346  0.4006802274273156  0.7489444329810340
  0.1339164813119211  0.4659999777991004  0.7489107346678523
  0.2001951122167824  0.3983784499321317  0.7494968539351845
  0.3343519949356519  0.4601578373527886  0.7555222297443862
  0.7989995279478705  0.4065511013280485  0.7556042455902414
  0.9331653783757830  0.4683010171697362  0.7496333443979992
  0.0021281703041183  0.6013128707557556  0.7458691298370113
  0.1355766648943231  0.6662168627278788  0.7454124910755979
  0.2025610347145488  0.5991519951508124  0.7489668776343805
  0.3366305705348438  0.6633694108945178  0.7516668869965386
  0.4043710226969139  0.5956288127959866  0.7564809147104015
  0.5398423219773534  0.6656480602199721  0.7555222342946735
  0.7367893259994815  0.6712856082099279  0.7507169881166718
  0.8046179494984997  0.6034914661566120  0.7507845883617463
  0.9361778114625352  0.6690501130609618  0.7437398523122383
  0.0015226541290190  0.8015423661759371  0.7393242318302882
  0.1340597870335429  0.8659402241778338  0.7394289415711768
  0.2009023325799220  0.7990976934307028  0.7430377334315352
  0.3337831363174573  0.8644232788237005  0.7454124959787904
  0.4008479118353421  0.7974388554377398  0.7489668804844598
  0.5339999277728680  0.8660835276362278  0.7489107266937083
  0.6016215401441087  0.7998049403556706  0.7494968335331365
  0.7346117625366517  0.8687654831523730  0.7456964399099419
  0.8023267233358524  0.8027854911735517  0.7436420639919703
  0.9348464672415915  0.8681863062515021  0.7392587081069237
  0.5235313601616483  0.2593235556456435  0.7597046666727678
  0.3927000510573961  0.3902938680098202  0.7596611891566667
  0.7406764135983153  0.4764686460768175  0.7597046567235566
  0.6097059822595838  0.6072999799986079  0.7596612527894138
  0.5666704880769728  0.4333296028458946  0.8200452224631363
 
  0.00000000E+00  0.00000000E+00  0.00000000E+00
  0.00000000E+00  0.00000000E+00  0.00000000E+00
  0.00000000E+00  0.00000000E+00  0.00000000E+00
  0.00000000E+00  0.00000000E+00  0.00000000E+00
  0.00000000E+00  0.00000000E+00  0.00000000E+00
  0.00000000E+00  0.00000000E+00  0.00000000E+00
  0.00000000E+00  0.00000000E+00  0.00000000E+00
  0.00000000E+00  0.00000000E+00  0.00000000E+00
  0.00000000E+00  0.00000000E+00  0.00000000E+00
  0.00000000E+00  0.00000000E+00  0.00000000E+00
  0.00000000E+00  0.00000000E+00  0.00000000E+00
  0.00000000E+00  0.00000000E+00  0.00000000E+00
  0.00000000E+00  0.00000000E+00  0.00000000E+00
  0.00000000E+00  0.00000000E+00  0.00000000E+00
  0.00000000E+00  0.00000000E+00  0.00000000E+00
  0.00000000E+00  0.00000000E+00  0.00000000E+00
  0.00000000E+00  0.00000000E+00  0.00000000E+00
  0.00000000E+00  0.00000000E+00  0.00000000E+00
  0.00000000E+00  0.00000000E+00  0.00000000E+00
  0.00000000E+00  0.00000000E+00  0.00000000E+00
  0.00000000E+00  0.00000000E+00  0.00000000E+00
  0.00000000E+00  0.00000000E+00  0.00000000E+00
  0.00000000E+00  0.00000000E+00  0.00000000E+00
  0.00000000E+00  0.00000000E+00  0.00000000E+00
  0.00000000E+00  0.00000000E+00  0.00000000E+00
  0.00000000E+00  0.00000000E+00  0.00000000E+00
  0.00000000E+00  0.00000000E+00  0.00000000E+00
  0.00000000E+00  0.00000000E+00  0.00000000E+00
  0.00000000E+00  0.00000000E+00  0.00000000E+00
  0.00000000E+00  0.00000000E+00  0.00000000E+00
  0.00000000E+00  0.00000000E+00  0.00000000E+00
  0.00000000E+00  0.00000000E+00  0.00000000E+00
  0.00000000E+00  0.00000000E+00  0.00000000E+00
  0.00000000E+00  0.00000000E+00  0.00000000E+00
  0.00000000E+00  0.00000000E+00  0.00000000E+00
  0.00000000E+00  0.00000000E+00  0.00000000E+00
  0.00000000E+00  0.00000000E+00  0.00000000E+00
  0.00000000E+00  0.00000000E+00  0.00000000E+00
  0.00000000E+00  0.00000000E+00  0.00000000E+00
  0.00000000E+00  0.00000000E+00  0.00000000E+00
  0.00000000E+00  0.00000000E+00  0.00000000E+00
  0.00000000E+00  0.00000000E+00  0.00000000E+00
  0.00000000E+00  0.00000000E+00  0.00000000E+00
  0.00000000E+00  0.00000000E+00  0.00000000E+00
  0.00000000E+00  0.00000000E+00  0.00000000E+00
  0.00000000E+00  0.00000000E+00  0.00000000E+00
  0.00000000E+00  0.00000000E+00  0.00000000E+00
  0.00000000E+00  0.00000000E+00  0.00000000E+00
  0.00000000E+00  0.00000000E+00  0.00000000E+00
