       N       E                     dE             d eps       ncg     rms          ort
DAV:   1     0.359634467572E+01    0.35963E+01   -0.40374E+03   256   0.332E+01
DAV:   2    -0.332792176766E+01   -0.69243E+01   -0.68815E+01   256   0.181E+00
DAV:   3    -0.333032781367E+01   -0.24060E-02   -0.24052E-02   256   0.630E-02
DAV:   4    -0.333033678076E+01   -0.89671E-05   -0.89671E-05   256   0.483E-03
DAV:   5    -0.333033678122E+01   -0.45270E-09   -0.43340E-09   256   0.286E-05
SDA:   6    -0.328395969388E+01    0.46377E-01   -0.43340E-09   256   0.576E+00 0.000E+00
CGA:   7    -0.338994318443E+01   -0.10598E+00   -0.10606E+00   256   0.214E+00-0.132E-02
CGA:   8    -0.342870562298E+01   -0.38762E-01   -0.38784E-01   256   0.780E-01-0.307E-03
CGA:   9    -0.344739631850E+01   -0.18691E-01   -0.18659E-01   256   0.337E-01 0.473E-03
CGA:  10    -0.345543446910E+01   -0.80382E-02   -0.80325E-02   256   0.919E-02 0.945E-04
CGA:  11    -0.345748543921E+01   -0.20510E-02   -0.20513E-02   256   0.235E-02-0.145E-04
CGA:  12    -0.345806838266E+01   -0.58294E-03   -0.58337E-03   256   0.672E-03-0.928E-05
CGA:  13    -0.345826563418E+01   -0.19725E-03   -0.19753E-03   256   0.249E-03-0.320E-05
CGA:  14    -0.345834566741E+01   -0.80033E-04   -0.80102E-04   256   0.109E-03-0.114E-05
CGA:  15    -0.345838333077E+01   -0.37663E-04   -0.38561E-04   256   0.386E-04-0.994E-05
CGA:  16    -0.345840262174E+01   -0.19291E-04    0.16635E-04   256   0.104E-04 0.101E-04
CGA:  17    -0.345844018355E+01   -0.37562E-04    0.27056E-06   256   0.647E-05 0.445E-05
CGA:  18    -0.345859703098E+01   -0.15685E-03    0.27702E-07   256   0.180E-04 0.915E-05
CGA:  19    -0.345903378391E+01   -0.43675E-03    0.37408E-07   256   0.507E-04 0.283E-04
CGA:  20    -0.346038308421E+01   -0.13493E-02    0.96071E-07   256   0.158E-03 0.885E-04
CGA:  21    -0.346442990124E+01   -0.40468E-02    0.31138E-06   256   0.478E-03 0.273E-03
CGA:  22    -0.347571676485E+01   -0.11287E-01    0.10238E-05   256   0.135E-02 0.798E-03
CGA:  23    -0.350196221205E+01   -0.26245E-01    0.35042E-05   256   0.319E-02 0.206E-02
CGA:  24    -0.354015828903E+01   -0.38196E-01    0.13741E-04   256   0.508E-02 0.396E-02
CGA:  25    -0.355967522200E+01   -0.19517E-01    0.74133E-04   256   0.426E-02 0.445E-02
CGA:  26    -0.356297736386E+01   -0.33021E-02    0.63920E-03   256   0.273E-02 0.311E-02
CGA:  27    -0.356451533792E+01   -0.15380E-02    0.11417E-02   256   0.232E-02 0.215E-02
CGA:  28    -0.356653237467E+01   -0.20170E-02    0.27079E-03   256   0.307E-02 0.223E-02
CGA:  29    -0.357022140233E+01   -0.36890E-02    0.20153E-03   256   0.535E-02 0.351E-02
CGA:  30    -0.357754841875E+01   -0.73270E-02    0.28659E-03   256   0.101E-01 0.658E-02
CGA:  31    -0.359186204014E+01   -0.14314E-01    0.51297E-03   256   0.186E-01 0.125E-01
CGA:  32    -0.361771977856E+01   -0.25858E-01    0.97162E-03   256   0.309E-01 0.220E-01
CGA:  33    -0.365720556039E+01   -0.39486E-01    0.18412E-02   256   0.417E-01 0.327E-01
CGA:  34    -0.369967414928E+01   -0.42469E-01    0.36033E-02   256   0.381E-01 0.359E-01
CGA:  35    -0.372480676551E+01   -0.25133E-01    0.88545E-02   256   0.216E-01 0.258E-01
CGA:  36    -0.373325032264E+01   -0.84436E-02   -0.17936E-02   256   0.219E-01-0.884E-02
CGA:  37    -0.373557078406E+01   -0.23205E-02   -0.36461E-02   256   0.297E-01 0.482E-01
CGA:  38    -0.373912618826E+01   -0.35554E-02   -0.74728E-02   256   0.119E-01 0.192E-01
CGA:  39    -0.374058952022E+01   -0.14633E-02   -0.29835E-02   256   0.442E-02 0.664E-02
CGA:  40    -0.374129586697E+01   -0.70635E-03   -0.11620E-02   256   0.172E-02 0.216E-02
CGA:  41    -0.374182620993E+01   -0.53034E-03   -0.71191E-03   256   0.544E-03 0.820E-03
CGA:  42    -0.374206604131E+01   -0.23983E-03   -0.26296E-03   256   0.423E-03 0.411E-03
CGA:  43    -0.374212843029E+01   -0.62389E-04   -0.10545E-03   256   0.280E-03 0.277E-03
CGA:  44    -0.374218250327E+01   -0.54073E-04   -0.75543E-04   256   0.188E-03 0.177E-03
CGA:  45    -0.374223129657E+01   -0.48793E-04   -0.56980E-04   256   0.131E-03 0.113E-03
CGA:  46    -0.374227466892E+01   -0.43372E-04   -0.44773E-04   256   0.990E-04 0.680E-04
CGA:  47    -0.374231085548E+01   -0.36187E-04   -0.35933E-04   256   0.813E-04 0.360E-04
CGA:  48    -0.374239770802E+01   -0.86853E-04   -0.67779E-04   256   0.228E-04 0.516E-04
CGA:  49    -0.374241653820E+01   -0.18830E-04   -0.15248E-04   256   0.266E-04 0.117E-04
CGA:  50    -0.374242475133E+01   -0.82131E-05   -0.85166E-05   256   0.164E-04 0.445E-05
CGA:  51    -0.374244167173E+01   -0.16920E-04   -0.12880E-04   256   0.104E-04 0.129E-04
CGA:  52    -0.374244489084E+01   -0.32191E-05   -0.33707E-05   256   0.580E-05 0.193E-05
   1 F= -.37424449E+01 E0= -.37424449E+01  d E =-.219524E-14  mag=     3.0000
