       N       E                     dE             d eps       ncg     rms          ort
DAV:   1     0.133513116009E+02    0.13351E+02   -0.43714E+03   256   0.363E+01
DAV:   2    -0.408756366949E-01   -0.13392E+02   -0.13354E+02   256   0.250E+00
DAV:   3    -0.920979467767E-01   -0.51222E-01   -0.51222E-01   256   0.247E-01
DAV:   4    -0.923453669488E-01   -0.24742E-03   -0.24742E-03   256   0.207E-02
DAV:   5    -0.923453872458E-01   -0.20297E-07   -0.20345E-07   256   0.177E-04
SDA:   6     0.136372557177E+01    0.14561E+01   -0.20345E-07   256   0.578E+01 0.000E+00
CGA:   7     0.568961907220E+00   -0.79476E+00   -0.80796E+00   256   0.145E+01-0.372E-01
CGA:   8     0.333816103761E+00   -0.23515E+00   -0.23672E+00   256   0.694E+00 0.102E-02
CGA:   9     0.143072793290E+00   -0.19074E+00   -0.19351E+00   256   0.966E+00-0.318E+00
CGA:  10    -0.698627522957E+00   -0.84170E+00    0.17213E-01   256   0.103E+01-0.424E+00
CGA:  11    -0.558695723310E+00    0.13993E+00   -0.57902E-02   256   0.107E+01 0.572E+00
CGA:  12    -0.177954141390E+01   -0.12208E+01    0.50797E-01   256   0.121E+01-0.736E+00
CGA:  13    -0.196655447710E+01   -0.18701E+00   -0.18743E+00   256   0.146E+00 0.158E-02
CGA:  14    -0.199381692346E+01   -0.27262E-01   -0.27264E-01   256   0.422E-01 0.236E-04
CGA:  15    -0.200609063953E+01   -0.12274E-01   -0.12237E-01   256   0.283E-01 0.341E-03
CGA:  16    -0.201593410009E+01   -0.98435E-02   -0.97719E-02   256   0.772E-02 0.449E-03
CGA:  17    -0.201795913439E+01   -0.20250E-02   -0.20240E-02   256   0.162E-02 0.156E-04
CGA:  18    -0.201842539012E+01   -0.46626E-03   -0.46542E-03   256   0.623E-03 0.980E-05
CGA:  19    -0.201862968977E+01   -0.20430E-03   -0.20316E-03   256   0.177E-03 0.975E-05
CGA:  20    -0.201868687725E+01   -0.57187E-04   -0.56623E-04   256   0.414E-04 0.556E-05
CGA:  21    -0.201870235987E+01   -0.15483E-04   -0.15453E-04   256   0.126E-04 0.204E-06
CGA:  22    -0.201870694525E+01   -0.45854E-05   -0.47138E-05   256   0.462E-05-0.884E-06
   1 F= -.20187069E+01 E0= -.20187069E+01  d E =-.236918E-16  mag=     2.0000
