 vasp.5.4.4.18Apr17-6-g9f103f2a35 (build Nov 21 2023 15:34:30) complex          
  
 executed on             LinuxIFC date 2026.09.21  18:42:37
 running on  256 total cores
 distrk:  each k-point on  256 cores,    1 groups
 distr:  one band on NCORES_PER_BAND=   1 cores,  256 groups


--------------------------------------------------------------------------------------------------------


 INCAR:
 POTCAR:   PAW_PBE Ti_sv 07Sep2000                

 ----------------------------------------------------------------------------- 
|                                                                             |
|           W    W    AA    RRRRR   N    N  II  N    N   GGGG   !!!           |
|           W    W   A  A   R    R  NN   N  II  NN   N  G    G  !!!           |
|           W    W  A    A  R    R  N N  N  II  N N  N  G       !!!           |
|           W WW W  AAAAAA  RRRRR   N  N N  II  N  N N  G  GGG   !            |
|           WW  WW  A    A  R   R   N   NN  II  N   NN  G    G                |
|           W    W  A    A  R    R  N    N  II  N    N   GGGG   !!!           |
|                                                                             |
|      For optimal performance we recommend to set                            |
|        NCORE= 4 - approx SQRT( number of cores)                             |
|      NCORE specifies how many cores store one orbital (NPAR=cpu/NCORE).     |
|      This setting can  greatly improve the performance of VASP for DFT.     |
|      The default,   NCORE=1            might be grossly inefficient         |
|      on modern multi-core architectures or massively parallel machines.     |
|      Do your own testing !!!!                                               |
|      Unfortunately you need to use the default for GW and RPA calculations. |
|      (for HF NCORE is supported but not extensively tested yet)             |
|                                                                             |
 ----------------------------------------------------------------------------- 

 POTCAR:   PAW_PBE Ti_sv 07Sep2000                
   VRHFIN =Ti: 3p4s3d                                                           
   LEXCH  = PE                                                                  
   EATOM  =  1587.5048 eV,  116.6783 Ry                                         
                                                                                
   TITEL  = PAW_PBE Ti_sv 07Sep2000                                             
   LULTRA =        F    use ultrasoft PP ?                                      
   IUNSCR =        1    unscreen: 0-lin 1-nonlin 2-no                           
   RPACOR =    2.000    partial core radius                                     
   POMASS =   47.880; ZVAL   =   12.000    mass and valenz                      
   RCORE  =    2.300    outmost cutoff radius                                   
   RWIGS  =    2.300; RWIGS  =    1.217    wigner-seitz radius (au A)           
   ENMAX  =  274.574; ENMIN  =  205.930 eV                                      
   RCLOC  =    1.701    cutoff for local pot                                    
   LCOR   =        T    correct aug charges                                     
   LPAW   =        T    paw PP                                                  
   EAUG   =  482.848                                                            
   DEXC   =     .000                                                            
   RMAX   =    2.783    core radius for proj-oper                               
   RAUG   =    1.300    factor for augmentation sphere                          
   RDEP   =    2.381    radius for radial grids                                 
   QCUT   =   -4.492; QGAM   =    8.985    optimization parameters              
                                                                                
   Description                                                                  
     l     E      TYP  RCUT    TYP  RCUT                                        
     0   .000     23  1.800                                                     
     0   .000     23  2.300                                                     
     0   .000     23  1.800                                                     
     0   .000     23  2.300                                                     
     1   .000     23  2.300                                                     
     1  -.100     23  2.300                                                     
     2   .000     23  2.300                                                     
     2   .000     23  2.300                                                     
     3   .000      7   .000                                                     
  local pseudopotential read in
  partial core-charges read in
  atomic valenz-charges read in
  non local Contribution for L=           0  read in
    real space projection operators read in
  non local Contribution for L=           0  read in
    real space projection operators read in
  non local Contribution for L=           1  read in
    real space projection operators read in
  non local Contribution for L=           1  read in
    real space projection operators read in
  non local Contribution for L=           2  read in
    real space projection operators read in
  non local Contribution for L=           2  read in
    real space projection operators read in
    PAW grid and wavefunctions read in
 
   number of l-projection  operators is LMAX  =           6
   number of lm-projection operators is LMMAX =          18
 
 PAW_PBE Ti_sv 07Sep2000                :
 energy of atom  1       EATOM=-1587.5048
 kinetic energy error for atom=    0.0042 (will be added to EATOM!!)
 
 
 POSCAR: Ti                                      
  positions in direct lattice
  No initial velocities read in
 exchange correlation table for  LEXCH =        8
   RHO(1)=    0.500       N(1)  =     2000
   RHO(2)=  100.500       N(2)  =     4000

 VTST: version 3.2, (02/03/18)

 CHAIN: initializing optimizer
 
 OPT: Using VASP Dynamics algorithm
 CHAIN: Read ICHAIN            0
 
 POSCAR: Ti                                      
  positions in direct lattice
  No initial velocities read in
 


--------------------------------------------------------------------------------------------------------


 ion  position               nearest neighbor table
   1  0.010  0.010  0.751-
 

IMPORTANT INFORMATION: All symmetrisations will be switched off!
NOSYMM: (Re-)initialisation of all symmetry stuff for point group C_1.

 
 

Automatic generation of k-mesh.
 generate k-points for:    1    1    1
Space group operators:
 irot       det(A)        alpha          n_x          n_y          n_z        tau_x        tau_y        tau_z
    1     1.000000     0.000000     1.000000     0.000000     0.000000     0.000000     0.000000     0.000000
 
 Subroutine IBZKPT returns following result:
 ===========================================
 
 Found      1 irreducible k-points:
 
 Following reciprocal coordinates:
            Coordinates               Weight
  0.000000  0.000000  0.000000      1.000000
 
 Following cartesian coordinates:
            Coordinates               Weight
  0.000000  0.000000  0.000000      1.000000
 


--------------------------------------------------------------------------------------------------------




 Dimension of arrays:
   k-points           NKPTS =      1   k-points in BZ     NKDIM =      1   number of bands    NBANDS=    256
   number of dos      NEDOS =    301   number of ions     NIONS =      1
   non local maximal  LDIM  =      6   non local SUM 2l+1 LMDIM =     18
   total plane-waves  NPLWV = ******
   max r-space proj   IRMAX =      1   max aug-charges    IRDMAX=  16359
   dimension x,y,z NGX =   112 NGY =  112 NGZ =  112
   dimension x,y,z NGXF=   224 NGYF=  224 NGZF=  224
   support grid    NGXF=   224 NGYF=  224 NGZF=  224
   ions per type =               1
   NGX,Y,Z   is equivalent  to a cutoff of  12.41, 12.41, 12.41 a.u.
   NGXF,Y,Z  is equivalent  to a cutoff of  24.83, 24.83, 24.83 a.u.

 SYSTEM =  Ti                                      
 POSCAR =  Ti                                      

 Startparameter for this run:
   NWRITE =      2    write-flag & timer
   PREC   = accura    normal or accurate (medium, high low for compatibility)
   ISTART =      0    job   : 0-new  1-cont  2-samecut
   ICHARG =      2    charge: 1-file 2-atom 10-const
   ISPIN  =      2    spin polarized calculation?
   LNONCOLLINEAR =      F non collinear calculations
   LSORBIT =      F    spin-orbit coupling
   INIWAV =      1    electr: 0-lowe 1-rand  2-diag
   LASPH  =      T    aspherical Exc in radial PAW
   METAGGA=      F    non-selfconsistent MetaGGA calc.

 Electronic Relaxation 1
   ENCUT  =  520.0 eV  38.22 Ry    6.18 a.u.  27.89 27.89 27.89*2*pi/ulx,y,z
   ENINI  =  520.0     initial cutoff
   ENAUG  =  482.8 eV  augmentation charge cutoff
   NELM   =    200;   NELMIN=  2; NELMDL= -5     # of ELM steps 
   EDIFF  = 0.1E-04   stopping-criterion for ELM
   LREAL  =      F    real-space projection
   NLSPLINE    = F    spline interpolate recip. space projectors
   LCOMPAT=      F    compatible to vasp.4.4
   GGA_COMPAT  = T    GGA compatible to vasp.4.4-vasp.4.6
   LMAXPAW     = -100 max onsite density
   LMAXMIX     =    4 max onsite mixed and CHGCAR
   VOSKOWN=      0    Vosko Wilk Nusair interpolation
   ROPT   =    0.00000
 Ionic relaxation
   EDIFFG = 0.1E-03   stopping-criterion for IOM
   NSW    =      0    number of steps for IOM
   NBLOCK =      1;   KBLOCK =      1    inner block; outer block 
   IBRION =     -1    ionic relax: 0-MD 1-quasi-New 2-CG
   NFREE  =      0    steps in history (QN), initial steepest desc. (CG)
   ISIF   =      0    stress and relaxation
   IWAVPR =     10    prediction:  0-non 1-charg 2-wave 3-comb
   ISYM   =      0    0-nonsym 1-usesym 2-fastsym
   LCORR  =      T    Harris-Foulkes like correction to forces

   POTIM  = 0.5000    time-step for ionic-motion
   TEIN   =    0.0    initial temperature
   TEBEG  =    0.0;   TEEND  =   0.0 temperature during run
   SMASS  =  -3.00    Nose mass-parameter (am)
   estimated Nose-frequenzy (Omega)   =  0.10E-29 period in steps =****** mass=  -0.514E-26a.u.
   SCALEE = 1.0000    scale energy and forces
   NPACO  =    256;   APACO  = 16.0  distance and # of slots for P.C.
   PSTRESS=    0.0 pullay stress

  Mass of Ions in am
   POMASS =  47.88
  Ionic Valenz
   ZVAL   =  12.00
  Atomic Wigner-Seitz radii
   RWIGS  =  -1.00
  virtual crystal weights 
   VCA    =   1.00
   NELECT =      12.0000    total number of electrons
   NUPDOWN=       2.0000    fix difference up-down

 DOS related values:
   EMIN   =  10.00;   EMAX   =-10.00  energy-range for DOS
   EFERMI =   0.00
   ISMEAR =     0;   SIGMA  =   0.05  broadening in eV -4-tet -1-fermi 0-gaus

 Electronic relaxation 2 (details)
   IALGO  =     58    algorithm
   LDIAG  =      T    sub-space diagonalisation (order eigenvalues)
   LSUBROT=      F    optimize rotation matrix (better conditioning)
   TURBO    =      0    0=normal 1=particle mesh
   IRESTART =      0    0=no restart 2=restart with 2 vectors
   NREBOOT  =      0    no. of reboots
   NMIN     =      0    reboot dimension
   EREF     =   0.00    reference energy to select bands
   IMIX   =      4    mixing-type and parameters
     AMIX     =   0.40;   BMIX     =  1.00
     AMIX_MAG =   1.60;   BMIX_MAG =  1.00
     AMIN     =   0.10
     WC   =   100.;   INIMIX=   1;  MIXPRE=   1;  MAXMIX= -45

 Intra band minimization:
   WEIMIN = 0.0000     energy-eigenvalue tresh-hold
   EBREAK =  0.98E-08  absolut break condition
   DEPER  =   0.30     relativ break condition  

   TIME   =   0.40     timestep for ELM

  volume/ion in A,a.u.               =    3375.00     22775.62
  Fermi-wavevector in a.u.,A,eV,Ry     =   0.249868  0.472182  0.849466  0.062434
  Thomas-Fermi vector in A             =   1.065882
 
 Write flags
   LWAVE        =      F    write WAVECAR
   LDOWNSAMPLE  =      F    k-point downsampling of WAVECAR
   LCHARG       =      F    write CHGCAR
   LVTOT        =      F    write LOCPOT, total local potential
   LVHAR        =      F    write LOCPOT, Hartree potential only
   LELF         =      F    write electronic localiz. function (ELF)
   LORBIT       =      0    0 simple, 1 ext, 2 COOP (PROOUT), +10 PAW based schemes


 Dipole corrections
   LMONO  =      F    monopole corrections only (constant potential shift)
   LDIPOL =      F    correct potential (dipole corrections)
   IDIPOL =      0    1-x, 2-y, 3-z, 4-all directions 
   EPSILON=  1.0000000 bulk dielectric constant

 LDA+U is selected, type is set to LDAUTYPE =  2
   angular momentum for each species LDAUL =     2
   U (eV)           for each species LDAUU =   4.0
   J (eV)           for each species LDAUJ =   0.0
 Exchange correlation treatment:
   GGA     =    --    GGA type
   LEXCH   =     8    internal setting for exchange type
   VOSKOWN=      0    Vosko Wilk Nusair interpolation
   LHFCALC =     F    Hartree Fock is set to
   LHFONE  =     F    Hartree Fock one center treatment
   AEXX    =    0.0000 exact exchange contribution

 Linear response parameters
   LEPSILON=     F    determine dielectric tensor
   LRPA    =     F    only Hartree local field effects (RPA)
   LNABLA  =     F    use nabla operator in PAW spheres
   LVEL    =     F    velocity operator in full k-point grid
   LINTERFAST=   F  fast interpolation
   KINTER  =     0    interpolate to denser k-point grid
   CSHIFT  =0.1000    complex shift for real part using Kramers Kronig
   OMEGAMAX=  -1.0    maximum frequency
   DEG_THRESHOLD= 0.2000000E-02 threshold for treating states as degnerate
   RTIME   =   -0.100 relaxation time in fs
  (WPLASMAI=    0.000 imaginary part of plasma frequency in eV, 0.658/RTIME)
   DFIELD  = 0.0000000 0.0000000 0.0000000 field for delta impulse in time
 
 Orbital magnetization related:
   ORBITALMAG=     F  switch on orbital magnetization
   LCHIMAG   =     F  perturbation theory with respect to B field
   DQ        =  0.001000  dq finite difference perturbation B field
   LLRAUG    =     F  two centre corrections for induced B field



--------------------------------------------------------------------------------------------------------


 Static calculation
 charge density and potential will be updated during run
 spin polarized calculation
 Conjugate gradient for all bands (Freysoldt, et al. PRB 79, 241103 (2009))
 preconditioned conjugated gradient                                        
 perform sub-space diagonalisation
    before iterative eigenvector-optimisation
 modified Broyden-mixing scheme, WC =      100.0
 initial mixing is a Kerker type mixing with AMIX =  0.4000 and BMIX =      1.0000
 Hartree-type preconditioning will be used
 using additional bands          250
 reciprocal scheme for non local part
 use partial core corrections
 no Harris-corrections to forces 
 use gradient corrections 
 use of overlap-Matrix (Vanderbilt PP)
 Gauss-broadening in eV      SIGMA  =   0.05


--------------------------------------------------------------------------------------------------------


  energy-cutoff  :      520.00
  volume of cell :     3375.00
      direct lattice vectors                 reciprocal lattice vectors
    15.000000000  0.000000000  0.000000000     0.066666667  0.000000000  0.000000000
     0.000000000 15.000000000  0.000000000     0.000000000  0.066666667  0.000000000
     0.000000000  0.000000000 15.000000000     0.000000000  0.000000000  0.066666667

  length of vectors
    15.000000000 15.000000000 15.000000000     0.066666667  0.066666667  0.066666667


 
 k-points in units of 2pi/SCALE and weight: read from INCAR                         
   0.00000000  0.00000000  0.00000000       1.000
 
 k-points in reciprocal lattice and weights: read from INCAR                         
   0.00000000  0.00000000  0.00000000       1.000
 
 position of ions in fractional coordinates (direct lattice) 
   0.01000000  0.01000000  0.75100000
 
 position of ions in cartesian coordinates  (Angst):
   0.15000000  0.15000000 11.26500000
 


--------------------------------------------------------------------------------------------------------


 k-point  1 :   0.0000 0.0000 0.0000  plane waves:   90879

 maximum and minimum number of plane-waves per node :     90879    90879

 maximum number of plane-waves:     90879
 maximum index in each direction: 
   IXMAX=   27   IYMAX=   27   IZMAX=   27
   IXMIN=  -27   IYMIN=  -27   IZMIN=  -27


 serial   3D FFT for wavefunctions
 parallel 3D FFT for charge:
    minimum data exchange during FFTs selected (reduces bandwidth)


 total amount of memory used by VASP MPI-rank0   177231. kBytes
=======================================================================

   base      :      30000. kBytes
   nonl-proj :      14540. kBytes
   fftplans  :       7479. kBytes
   grid      :     116433. kBytes
   one-center:         31. kBytes
   wavefun   :       8748. kBytes
 
     INWAV:  cpu time    0.0000: real time    0.0000
 Broyden mixing: mesh for mixing (old mesh)
   NGX = 55   NGY = 55   NGZ = 55
  (NGX  =224   NGY  =224   NGZ  =224)
  gives a total of 166375 points

 initial charge density was supplied:
 charge density of overlapping atoms calculated
 number of electron      12.0000000 magnetization       2.0000000
 keeping initial charge density in first step


--------------------------------------------------------------------------------------------------------


 Maximum index for augmentation-charges          746 (set IRDMAX)


--------------------------------------------------------------------------------------------------------


 First call to EWALD:  gamma=   0.118
 Maximum number of real-space cells 3x 3x 3
 Maximum number of reciprocal cells 3x 3x 3

    FEWALD:  cpu time    0.0080: real time    0.0081


--------------------------------------- Iteration      1(   1)  ---------------------------------------


    POTLOK:  cpu time    2.4705: real time    2.4932
    SETDIJ:  cpu time    0.4337: real time    0.4546
    TRIAL :  cpu time   24.3669: real time   24.4660
    CORREC:  cpu time    0.3274: real time    0.3346
    --------------------------------------------
      LOOP:  cpu time   27.6079: real time   27.7766

 eigenvalue-minimisations  :  1536
 total energy-change (2. order) : 0.1335131E+02  (-0.4371356E+03)
 number of electron      12.0000000 magnetization       2.0000000
 augmentation part       12.0000000 magnetization       2.0000000

 Free energy of the ion-electron system (eV)
  ---------------------------------------------------
  alpha Z        PSCENC =         0.45724604
  Ewald energy   TEWEN  =      -196.11110405
  -Hartree energ DENC   =     -1129.69790461
  -exchange      EXHF   =         0.00000000
  -V(xc)+E(xc)   XCENC  =        59.71249598
  PAW double counting   =      1116.35937009    -1095.75405262
  entropy T*S    EENTRO =        -0.03011461
  eigenvalues    EBANDS =      -329.08522106
  atomic energy  EATOM  =      1587.50059644
  ---------------------------------------------------
  free energy    TOTEN  =        13.35131160 eV

  energy without entropy =       13.38142621  energy(sigma->0) =       13.36636891


--------------------------------------------------------------------------------------------------------




--------------------------------------- Iteration      1(   2)  ---------------------------------------


    TRIAL :  cpu time   26.4039: real time   26.4103
    CORREC:  cpu time    0.0789: real time    0.0789
    --------------------------------------------
      LOOP:  cpu time   26.6189: real time   26.6275

 eigenvalue-minimisations  :  1536
 total energy-change (2. order) :-0.1339219E+02  (-0.1335420E+02)
 number of electron      12.0000000 magnetization       2.0000000
 augmentation part       12.0000000 magnetization       2.0000000

 Free energy of the ion-electron system (eV)
  ---------------------------------------------------
  alpha Z        PSCENC =         0.45724604
  Ewald energy   TEWEN  =      -196.11110405
  -Hartree energ DENC   =     -1129.69790461
  -exchange      EXHF   =         0.00000000
  -V(xc)+E(xc)   XCENC  =        59.71249598
  PAW double counting   =      1116.35937009    -1095.75405262
  entropy T*S    EENTRO =        -0.06829604
  eigenvalues    EBANDS =      -342.43922687
  atomic energy  EATOM  =      1587.50059644
  ---------------------------------------------------
  free energy    TOTEN  =        -0.04087564 eV

  energy without entropy =        0.02742040  energy(sigma->0) =       -0.00672762


--------------------------------------------------------------------------------------------------------




--------------------------------------- Iteration      1(   3)  ---------------------------------------


    TRIAL :  cpu time    8.5900: real time    8.5915
    CORREC:  cpu time    0.0810: real time    0.0810
    --------------------------------------------
      LOOP:  cpu time    8.6773: real time    8.6788

 eigenvalue-minimisations  :  1024
 total energy-change (2. order) :-0.5122231E-01  (-0.5122226E-01)
 number of electron      12.0000000 magnetization       2.0000000
 augmentation part       12.0000000 magnetization       2.0000000

 Free energy of the ion-electron system (eV)
  ---------------------------------------------------
  alpha Z        PSCENC =         0.45724604
  Ewald energy   TEWEN  =      -196.11110405
  -Hartree energ DENC   =     -1129.69790461
  -exchange      EXHF   =         0.00000000
  -V(xc)+E(xc)   XCENC  =        59.71249598
  PAW double counting   =      1116.35937009    -1095.75405262
  entropy T*S    EENTRO =        -0.06829617
  eigenvalues    EBANDS =      -342.49044906
  atomic energy  EATOM  =      1587.50059644
  ---------------------------------------------------
  free energy    TOTEN  =        -0.09209795 eV

  energy without entropy =       -0.02380178  energy(sigma->0) =       -0.05794986


--------------------------------------------------------------------------------------------------------




--------------------------------------- Iteration      1(   4)  ---------------------------------------


    TRIAL :  cpu time   21.4964: real time   21.5644
    CORREC:  cpu time    0.1031: real time    0.1031
    --------------------------------------------
      LOOP:  cpu time   21.6054: real time   21.6734

 eigenvalue-minimisations  :  2048
 total energy-change (2. order) :-0.2474202E-03  (-0.2474202E-03)
 number of electron      12.0000000 magnetization       2.0000000
 augmentation part       12.0000000 magnetization       2.0000000

 Free energy of the ion-electron system (eV)
  ---------------------------------------------------
  alpha Z        PSCENC =         0.45724604
  Ewald energy   TEWEN  =      -196.11110405
  -Hartree energ DENC   =     -1129.69790461
  -exchange      EXHF   =         0.00000000
  -V(xc)+E(xc)   XCENC  =        59.71249598
  PAW double counting   =      1116.35937009    -1095.75405262
  entropy T*S    EENTRO =        -0.06829617
  eigenvalues    EBANDS =      -342.49069648
  atomic energy  EATOM  =      1587.50059644
  ---------------------------------------------------
  free energy    TOTEN  =        -0.09234537 eV

  energy without entropy =       -0.02404920  energy(sigma->0) =       -0.05819728


--------------------------------------------------------------------------------------------------------




--------------------------------------- Iteration      1(   5)  ---------------------------------------


    TRIAL :  cpu time    8.4786: real time    8.4803
    CORREC:  cpu time    0.0921: real time    0.0921
    CHARGE:  cpu time    1.3323: real time    1.3541
    --------------------------------------------
      LOOP:  cpu time    9.9118: real time    9.9353

 eigenvalue-minimisations  :  1024
 total energy-change (2. order) :-0.2029697E-07  (-0.2034526E-07)
 number of electron      12.0000000 magnetization       2.0000000
 augmentation part        3.2500395 magnetization       0.6771491

 Free energy of the ion-electron system (eV)
  ---------------------------------------------------
  alpha Z        PSCENC =         0.45724604
  Ewald energy   TEWEN  =      -196.11110405
  -Hartree energ DENC   =     -1129.69790461
  -exchange      EXHF   =         0.00000000
  -V(xc)+E(xc)   XCENC  =        59.71249598
  PAW double counting   =      1116.35937009    -1095.75405262
  entropy T*S    EENTRO =        -0.06829617
  eigenvalues    EBANDS =      -342.49069650
  atomic energy  EATOM  =      1587.50059644
  ---------------------------------------------------
  free energy    TOTEN  =        -0.09234539 eV

  energy without entropy =       -0.02404922  energy(sigma->0) =       -0.05819730


--------------------------------------------------------------------------------------------------------




--------------------------------------- Iteration      1(   6)  ---------------------------------------


    POTLOK:  cpu time    2.4247: real time    2.4249
    SETDIJ:  cpu time    0.4285: real time    0.4285
    TRIAL :  cpu time    3.7586: real time    4.0847
    CORREC:  cpu time    6.0539: real time    6.1532
    CHARGE:  cpu time    1.2860: real time    1.2867
    --------------------------------------------
      LOOP:  cpu time   13.9734: real time   14.3999

 eigenvalue-minimisations  :     0
 total energy-change (2. order) : 0.1456071E+01  (-0.8079623E+00)
 number of electron      12.0000000 magnetization       2.0000000
 augmentation part        3.3156143 magnetization       0.7709944

 Free energy of the ion-electron system (eV)
  ---------------------------------------------------
  alpha Z        PSCENC =         0.45724604
  Ewald energy   TEWEN  =      -196.11110405
  -Hartree energ DENC   =     -1054.49404749
  -exchange      EXHF   =         0.00000000
  -V(xc)+E(xc)   XCENC  =        56.93301094
  PAW double counting   =      1003.87466031     -973.13006181
  entropy T*S    EENTRO =        -0.06829582
  eigenvalues    EBANDS =      -423.59827864
  atomic energy  EATOM  =      1587.50059644
  ---------------------------------------------------
  free energy    TOTEN  =         1.36372557 eV

  energy without entropy =        1.43202139  energy(sigma->0) =        1.39787348


--------------------------------------------------------------------------------------------------------




--------------------------------------- Iteration      1(   7)  ---------------------------------------


    POTLOK:  cpu time    2.3989: real time    2.4004
    SETDIJ:  cpu time    0.4285: real time    0.4286
    TRIAL :  cpu time    3.5244: real time    3.5909
    CORREC:  cpu time    5.9803: real time    6.0477
    CHARGE:  cpu time    1.3231: real time    1.3232
    --------------------------------------------
      LOOP:  cpu time   13.6776: real time   13.8132

 eigenvalue-minimisations  :     0
 total energy-change (2. order) :-0.7947637E+00  (-0.2367207E+00)
 number of electron      12.0000000 magnetization       2.0000000
 augmentation part        3.3049577 magnetization       0.8097604

 Free energy of the ion-electron system (eV)
  ---------------------------------------------------
  alpha Z        PSCENC =         0.45724604
  Ewald energy   TEWEN  =      -196.11110405
  -Hartree energ DENC   =     -1090.29302090
  -exchange      EXHF   =         0.00000000
  -V(xc)+E(xc)   XCENC  =        58.45908749
  PAW double counting   =      1041.77670171    -1007.77249936
  entropy T*S    EENTRO =        -0.06826908
  eigenvalues    EBANDS =      -393.37974965
  atomic energy  EATOM  =      1587.50059644
  ---------------------------------------------------
  free energy    TOTEN  =         0.56896191 eV

  energy without entropy =        0.63723099  energy(sigma->0) =        0.60309645


--------------------------------------------------------------------------------------------------------




--------------------------------------- Iteration      1(   8)  ---------------------------------------


    POTLOK:  cpu time    2.4151: real time    2.4153
    SETDIJ:  cpu time    0.4291: real time    0.4291
    TRIAL :  cpu time    3.7299: real time    3.8186
    CORREC:  cpu time    5.9739: real time    6.0559
    CHARGE:  cpu time    1.3278: real time    1.3285
    --------------------------------------------
      LOOP:  cpu time   13.8984: real time   14.0701

 eigenvalue-minimisations  :     0
 total energy-change (2. order) :-0.2351458E+00  (-0.1935102E+00)
 number of electron      12.0000000 magnetization       2.0000000
 augmentation part        3.2070823 magnetization       0.8207892

 Free energy of the ion-electron system (eV)
  ---------------------------------------------------
  alpha Z        PSCENC =         0.45724604
  Ewald energy   TEWEN  =      -196.11110405
  -Hartree energ DENC   =     -1102.79704751
  -exchange      EXHF   =         0.00000000
  -V(xc)+E(xc)   XCENC  =        58.91632377
  PAW double counting   =      1057.17963725    -1021.49619182
  entropy T*S    EENTRO =        -0.06572543
  eigenvalues    EBANDS =      -383.24737494
  atomic energy  EATOM  =      1587.50059644
  ---------------------------------------------------
  free energy    TOTEN  =         0.33381610 eV

  energy without entropy =        0.39954153  energy(sigma->0) =        0.36667882


--------------------------------------------------------------------------------------------------------




--------------------------------------- Iteration      1(   9)  ---------------------------------------


    POTLOK:  cpu time    2.4801: real time    2.4815
    SETDIJ:  cpu time    0.4270: real time    0.4271
    TRIAL :  cpu time    3.4811: real time    3.5424
    CORREC:  cpu time    4.8487: real time    4.8490
    CHARGE:  cpu time    1.2776: real time    1.2777
    --------------------------------------------
      LOOP:  cpu time   12.5343: real time   12.5975

 eigenvalue-minimisations  :     0
 total energy-change (2. order) :-0.1907433E+00  ( 0.1721271E-01)
 number of electron      12.0000000 magnetization       2.0000000
 augmentation part        3.6258569 magnetization       1.2930409

 Free energy of the ion-electron system (eV)
  ---------------------------------------------------
  alpha Z        PSCENC =         0.45724604
  Ewald energy   TEWEN  =      -196.11110405
  -Hartree energ DENC   =     -1112.40995684
  -exchange      EXHF   =         0.00000000
  -V(xc)+E(xc)   XCENC  =        59.22401738
  PAW double counting   =      1072.65638809    -1034.26258514
  entropy T*S    EENTRO =        -0.03900695
  eigenvalues    EBANDS =      -376.84580369
  atomic energy  EATOM  =      1587.50059644
  ---------------------------------------------------
  free energy    TOTEN  =         0.14307279 eV

  energy without entropy =        0.18207974  energy(sigma->0) =        0.16257627


--------------------------------------------------------------------------------------------------------




--------------------------------------- Iteration      1(  10)  ---------------------------------------


    POTLOK:  cpu time    2.4266: real time    2.4268
    SETDIJ:  cpu time    0.4256: real time    0.4256
    TRIAL :  cpu time    3.4453: real time    3.5056
    CORREC:  cpu time    6.0961: real time    6.1639
    CHARGE:  cpu time    1.2635: real time    1.2636
    --------------------------------------------
      LOOP:  cpu time   13.6818: real time   13.8130

 eigenvalue-minimisations  :     0
 total energy-change (2. order) :-0.8417003E+00  (-0.5790236E-02)
 number of electron      12.0000000 magnetization       2.0000000
 augmentation part        3.6696053 magnetization       1.3359844

 Free energy of the ion-electron system (eV)
  ---------------------------------------------------
  alpha Z        PSCENC =         0.45724604
  Ewald energy   TEWEN  =      -196.11110405
  -Hartree energ DENC   =     -1156.80444217
  -exchange      EXHF   =         0.00000000
  -V(xc)+E(xc)   XCENC  =        60.97178485
  PAW double counting   =      1142.29916233    -1107.10434753
  entropy T*S    EENTRO =        -0.04054696
  eigenvalues    EBANDS =      -331.86851649
  atomic energy  EATOM  =      1587.50059644
  ---------------------------------------------------
  free energy    TOTEN  =        -0.69862752 eV

  energy without entropy =       -0.65808056  energy(sigma->0) =       -0.67835404


--------------------------------------------------------------------------------------------------------




--------------------------------------- Iteration      1(  11)  ---------------------------------------


    POTLOK:  cpu time    2.3898: real time    2.3899
    SETDIJ:  cpu time    0.4347: real time    0.4347
    TRIAL :  cpu time    3.4705: real time    3.5192
    CORREC:  cpu time    4.7394: real time    4.7397
    CHARGE:  cpu time    1.4443: real time    1.4444
    --------------------------------------------
      LOOP:  cpu time   12.5023: real time   12.5516

 eigenvalue-minimisations  :     0
 total energy-change (2. order) : 0.1399318E+00  ( 0.5079695E-01)
 number of electron      12.0000000 magnetization       2.0000000
 augmentation part        3.1729383 magnetization       0.7720228

 Free energy of the ion-electron system (eV)
  ---------------------------------------------------
  alpha Z        PSCENC =         0.45724604
  Ewald energy   TEWEN  =      -196.11110405
  -Hartree energ DENC   =     -1159.90821812
  -exchange      EXHF   =         0.00000000
  -V(xc)+E(xc)   XCENC  =        61.09010119
  PAW double counting   =      1147.62588793    -1113.09966452
  entropy T*S    EENTRO =        -0.00000000
  eigenvalues    EBANDS =      -328.07299367
  atomic energy  EATOM  =      1587.50059644
  ---------------------------------------------------
  free energy    TOTEN  =        -0.55869572 eV

  energy without entropy =       -0.55869572  energy(sigma->0) =       -0.55869572


--------------------------------------------------------------------------------------------------------




--------------------------------------- Iteration      1(  12)  ---------------------------------------


    POTLOK:  cpu time    2.3872: real time    2.3873
    SETDIJ:  cpu time    0.4272: real time    0.4272
    TRIAL :  cpu time    3.4562: real time    3.5267
    CORREC:  cpu time    5.8110: real time    5.8657
    CHARGE:  cpu time    1.3333: real time    1.3344
    --------------------------------------------
      LOOP:  cpu time   13.4357: real time   13.5623

 eigenvalue-minimisations  :     0
 total energy-change (2. order) :-0.1220846E+01  (-0.1874347E+00)
 number of electron      12.0000000 magnetization       2.0000000
 augmentation part        3.2263928 magnetization       0.8092643

 Free energy of the ion-electron system (eV)
  ---------------------------------------------------
  alpha Z        PSCENC =         0.45724604
  Ewald energy   TEWEN  =      -196.11110405
  -Hartree energ DENC   =     -1105.89636863
  -exchange      EXHF   =         0.00000000
  -V(xc)+E(xc)   XCENC  =        58.97827852
  PAW double counting   =      1073.84897918    -1034.35863402
  entropy T*S    EENTRO =        -0.00000000
  eigenvalues    EBANDS =      -386.19853488
  atomic energy  EATOM  =      1587.50059644
  ---------------------------------------------------
  free energy    TOTEN  =        -1.77954141 eV

  energy without entropy =       -1.77954141  energy(sigma->0) =       -1.77954141


--------------------------------------------------------------------------------------------------------




--------------------------------------- Iteration      1(  13)  ---------------------------------------


    POTLOK:  cpu time    2.3861: real time    2.4971
    SETDIJ:  cpu time    0.4390: real time    0.4390
    TRIAL :  cpu time    3.4138: real time    3.4860
    CORREC:  cpu time    5.9750: real time    6.0294
    CHARGE:  cpu time    1.3114: real time    1.3116
    --------------------------------------------
      LOOP:  cpu time   13.5539: real time   13.7919

 eigenvalue-minimisations  :     0
 total energy-change (2. order) :-0.1870131E+00  (-0.2726352E-01)
 number of electron      12.0000000 magnetization       2.0000000
 augmentation part        3.2494578 magnetization       0.8255804

 Free energy of the ion-electron system (eV)
  ---------------------------------------------------
  alpha Z        PSCENC =         0.45724604
  Ewald energy   TEWEN  =      -196.11110405
  -Hartree energ DENC   =     -1117.22320292
  -exchange      EXHF   =         0.00000000
  -V(xc)+E(xc)   XCENC  =        59.48993251
  PAW double counting   =      1084.45067706    -1044.35116270
  entropy T*S    EENTRO =        -0.00000000
  eigenvalues    EBANDS =      -376.17953686
  atomic energy  EATOM  =      1587.50059644
  ---------------------------------------------------
  free energy    TOTEN  =        -1.96655448 eV

  energy without entropy =       -1.96655448  energy(sigma->0) =       -1.96655448


--------------------------------------------------------------------------------------------------------




--------------------------------------- Iteration      1(  14)  ---------------------------------------


    POTLOK:  cpu time    2.3916: real time    2.3918
    SETDIJ:  cpu time    0.4263: real time    0.4263
    TRIAL :  cpu time    3.4857: real time    3.5309
    CORREC:  cpu time    5.8681: real time    5.9451
    CHARGE:  cpu time    1.3346: real time    1.3348
    --------------------------------------------
      LOOP:  cpu time   13.5324: real time   13.6550

 eigenvalue-minimisations  :     0
 total energy-change (2. order) :-0.2726245E-01  (-0.1223725E-01)
 number of electron      12.0000000 magnetization       2.0000000
 augmentation part        3.2710606 magnetization       0.8355851

 Free energy of the ion-electron system (eV)
  ---------------------------------------------------
  alpha Z        PSCENC =         0.45724604
  Ewald energy   TEWEN  =      -196.11110405
  -Hartree energ DENC   =     -1120.42030384
  -exchange      EXHF   =         0.00000000
  -V(xc)+E(xc)   XCENC  =        59.63550814
  PAW double counting   =      1087.59483446    -1047.50477901
  entropy T*S    EENTRO =        -0.00000000
  eigenvalues    EBANDS =      -373.14581511
  atomic energy  EATOM  =      1587.50059644
  ---------------------------------------------------
  free energy    TOTEN  =        -1.99381692 eV

  energy without entropy =       -1.99381692  energy(sigma->0) =       -1.99381692


--------------------------------------------------------------------------------------------------------




--------------------------------------- Iteration      1(  15)  ---------------------------------------


    POTLOK:  cpu time    2.3824: real time    2.3827
    SETDIJ:  cpu time    0.4261: real time    0.4261
    TRIAL :  cpu time    3.5475: real time    3.6143
    CORREC:  cpu time    5.8739: real time    5.9296
    CHARGE:  cpu time    1.3071: real time    1.3072
    --------------------------------------------
      LOOP:  cpu time   13.5590: real time   13.6819

 eigenvalue-minimisations  :     0
 total energy-change (2. order) :-0.1227372E-01  (-0.9771922E-02)
 number of electron      12.0000000 magnetization       2.0000000
 augmentation part        3.2920081 magnetization       0.8390447

 Free energy of the ion-electron system (eV)
  ---------------------------------------------------
  alpha Z        PSCENC =         0.45724604
  Ewald energy   TEWEN  =      -196.11110405
  -Hartree energ DENC   =     -1120.47235235
  -exchange      EXHF   =         0.00000000
  -V(xc)+E(xc)   XCENC  =        59.64251113
  PAW double counting   =      1088.18997477    -1048.51519471
  entropy T*S    EENTRO =        -0.00000000
  eigenvalues    EBANDS =      -372.69776790
  atomic energy  EATOM  =      1587.50059644
  ---------------------------------------------------
  free energy    TOTEN  =        -2.00609064 eV

  energy without entropy =       -2.00609064  energy(sigma->0) =       -2.00609064


--------------------------------------------------------------------------------------------------------




--------------------------------------- Iteration      1(  16)  ---------------------------------------


    POTLOK:  cpu time    2.4095: real time    2.4097
    SETDIJ:  cpu time    0.4253: real time    0.4253
    TRIAL :  cpu time    3.5714: real time    3.6654
    CORREC:  cpu time    5.8569: real time    5.9221
    CHARGE:  cpu time    1.3141: real time    1.3142
    --------------------------------------------
      LOOP:  cpu time   13.5963: real time   13.7559

 eigenvalue-minimisations  :     0
 total energy-change (2. order) :-0.9843461E-02  (-0.2023962E-02)
 number of electron      12.0000000 magnetization       2.0000000
 augmentation part        3.2995995 magnetization       0.8380616

 Free energy of the ion-electron system (eV)
  ---------------------------------------------------
  alpha Z        PSCENC =         0.45724604
  Ewald energy   TEWEN  =      -196.11110405
  -Hartree energ DENC   =     -1119.62318421
  -exchange      EXHF   =         0.00000000
  -V(xc)+E(xc)   XCENC  =        59.61405257
  PAW double counting   =      1088.42241383    -1049.30005926
  entropy T*S    EENTRO =        -0.00000000
  eigenvalues    EBANDS =      -372.97589546
  atomic energy  EATOM  =      1587.50059644
  ---------------------------------------------------
  free energy    TOTEN  =        -2.01593410 eV

  energy without entropy =       -2.01593410  energy(sigma->0) =       -2.01593410


--------------------------------------------------------------------------------------------------------




--------------------------------------- Iteration      1(  17)  ---------------------------------------


    POTLOK:  cpu time    2.4211: real time    2.4213
    SETDIJ:  cpu time    0.4279: real time    0.4280
    TRIAL :  cpu time    3.7958: real time    3.8822
    CORREC:  cpu time    5.8952: real time    5.9656
    CHARGE:  cpu time    1.6314: real time    1.6393
    --------------------------------------------
      LOOP:  cpu time   14.1968: real time   14.3640

 eigenvalue-minimisations  :     0
 total energy-change (2. order) :-0.2025034E-02  (-0.4654203E-03)
 number of electron      12.0000000 magnetization       2.0000000
 augmentation part        3.3030081 magnetization       0.8376105

 Free energy of the ion-electron system (eV)
  ---------------------------------------------------
  alpha Z        PSCENC =         0.45724604
  Ewald energy   TEWEN  =      -196.11110405
  -Hartree energ DENC   =     -1119.28692418
  -exchange      EXHF   =         0.00000000
  -V(xc)+E(xc)   XCENC  =        59.60286474
  PAW double counting   =      1088.34971596    -1049.41976913
  entropy T*S    EENTRO =        -0.00000000
  eigenvalues    EBANDS =      -373.11058494
  atomic energy  EATOM  =      1587.50059644
  ---------------------------------------------------
  free energy    TOTEN  =        -2.01795913 eV

  energy without entropy =       -2.01795913  energy(sigma->0) =       -2.01795913


--------------------------------------------------------------------------------------------------------




--------------------------------------- Iteration      1(  18)  ---------------------------------------


    POTLOK:  cpu time    2.4063: real time    2.4286
    SETDIJ:  cpu time    0.4282: real time    0.4282
    TRIAL :  cpu time    3.3862: real time    3.4775
    CORREC:  cpu time    5.9333: real time    5.9916
    CHARGE:  cpu time    1.2990: real time    1.2992
    --------------------------------------------
      LOOP:  cpu time   13.4774: real time   13.6499

 eigenvalue-minimisations  :     0
 total energy-change (2. order) :-0.4662557E-03  (-0.2031594E-03)
 number of electron      12.0000000 magnetization       2.0000000
 augmentation part        3.3050425 magnetization       0.8372589

 Free energy of the ion-electron system (eV)
  ---------------------------------------------------
  alpha Z        PSCENC =         0.45724604
  Ewald energy   TEWEN  =      -196.11110405
  -Hartree energ DENC   =     -1119.14597654
  -exchange      EXHF   =         0.00000000
  -V(xc)+E(xc)   XCENC  =        59.59808629
  PAW double counting   =      1088.18733540    -1049.34283751
  entropy T*S    EENTRO =        -0.00000000
  eigenvalues    EBANDS =      -373.16177146
  atomic energy  EATOM  =      1587.50059644
  ---------------------------------------------------
  free energy    TOTEN  =        -2.01842539 eV

  energy without entropy =       -2.01842539  energy(sigma->0) =       -2.01842539


--------------------------------------------------------------------------------------------------------




--------------------------------------- Iteration      1(  19)  ---------------------------------------


    POTLOK:  cpu time    2.4255: real time    2.4257
    SETDIJ:  cpu time    0.4295: real time    0.4295
    TRIAL :  cpu time    3.5411: real time    3.5973
    CORREC:  cpu time    5.7978: real time    5.8880
    CHARGE:  cpu time    1.3223: real time    1.3227
    --------------------------------------------
      LOOP:  cpu time   13.5373: real time   13.6842

 eigenvalue-minimisations  :     0
 total energy-change (2. order) :-0.2042996E-03  (-0.5662266E-04)
 number of electron      12.0000000 magnetization       2.0000000
 augmentation part        3.3058658 magnetization       0.8369217

 Free energy of the ion-electron system (eV)
  ---------------------------------------------------
  alpha Z        PSCENC =         0.45724604
  Ewald energy   TEWEN  =      -196.11110405
  -Hartree energ DENC   =     -1119.05813283
  -exchange      EXHF   =         0.00000000
  -V(xc)+E(xc)   XCENC  =        59.59507648
  PAW double counting   =      1088.04128051    -1049.25082830
  entropy T*S    EENTRO =        -0.00000000
  eigenvalues    EBANDS =      -373.19276398
  atomic energy  EATOM  =      1587.50059644
  ---------------------------------------------------
  free energy    TOTEN  =        -2.01862969 eV

  energy without entropy =       -2.01862969  energy(sigma->0) =       -2.01862969


--------------------------------------------------------------------------------------------------------




--------------------------------------- Iteration      1(  20)  ---------------------------------------


    POTLOK:  cpu time    2.3811: real time    2.3815
    SETDIJ:  cpu time    0.4256: real time    0.4256
    TRIAL :  cpu time    3.4321: real time    3.5060
    CORREC:  cpu time    6.0274: real time    6.0838
    CHARGE:  cpu time    1.3008: real time    1.3009
    --------------------------------------------
      LOOP:  cpu time   13.5851: real time   13.7162

 eigenvalue-minimisations  :     0
 total energy-change (2. order) :-0.5718748E-04  (-0.1545346E-04)
 number of electron      12.0000000 magnetization       2.0000000
 augmentation part        3.3060390 magnetization       0.8367030

 Free energy of the ion-electron system (eV)
  ---------------------------------------------------
  alpha Z        PSCENC =         0.45724604
  Ewald energy   TEWEN  =      -196.11110405
  -Hartree energ DENC   =     -1118.98441113
  -exchange      EXHF   =         0.00000000
  -V(xc)+E(xc)   XCENC  =        59.59211958
  PAW double counting   =      1087.96257048    -1049.19633038
  entropy T*S    EENTRO =        -0.00000000
  eigenvalues    EBANDS =      -373.23937387
  atomic energy  EATOM  =      1587.50059644
  ---------------------------------------------------
  free energy    TOTEN  =        -2.01868688 eV

  energy without entropy =       -2.01868688  energy(sigma->0) =       -2.01868688


--------------------------------------------------------------------------------------------------------




--------------------------------------- Iteration      1(  21)  ---------------------------------------


    POTLOK:  cpu time    2.4115: real time    2.4118
    SETDIJ:  cpu time    0.4247: real time    0.4247
    TRIAL :  cpu time    3.4845: real time    3.5482
    CORREC:  cpu time    6.0811: real time    6.1933
    CHARGE:  cpu time    1.3130: real time    1.3131
    --------------------------------------------
      LOOP:  cpu time   13.7332: real time   13.9095

 eigenvalue-minimisations  :     0
 total energy-change (2. order) :-0.1548262E-04  (-0.4713787E-05)
 number of electron      12.0000000 magnetization       2.0000000
 augmentation part        3.3061557 magnetization       0.8365767

 Free energy of the ion-electron system (eV)
  ---------------------------------------------------
  alpha Z        PSCENC =         0.45724604
  Ewald energy   TEWEN  =      -196.11110405
  -Hartree energ DENC   =     -1118.96558380
  -exchange      EXHF   =         0.00000000
  -V(xc)+E(xc)   XCENC  =        59.59147863
  PAW double counting   =      1087.96438116    -1049.20266003
  entropy T*S    EENTRO =        -0.00000000
  eigenvalues    EBANDS =      -373.25305675
  atomic energy  EATOM  =      1587.50059644
  ---------------------------------------------------
  free energy    TOTEN  =        -2.01870236 eV

  energy without entropy =       -2.01870236  energy(sigma->0) =       -2.01870236


--------------------------------------------------------------------------------------------------------




--------------------------------------- Iteration      1(  22)  ---------------------------------------


    POTLOK:  cpu time    2.3923: real time    2.3925
    SETDIJ:  cpu time    0.4267: real time    0.4268
    TRIAL :  cpu time    3.6482: real time    3.7293
    CORREC:  cpu time    5.8875: real time    5.9578
    EDDIAG:  cpu time    1.6395: real time    1.6550
    CHARGE:  cpu time    1.3053: real time    1.3055
    --------------------------------------------
      LOOP:  cpu time   15.3209: real time   15.4906

 eigenvalue-minimisations  :     0
 total energy-change (2. order) :-0.4585384E-05  (-0.1532230E-05)
 number of electron      12.0000000 magnetization       2.0000000
 augmentation part        3.3062629 magnetization       0.8364949

 Free energy of the ion-electron system (eV)
  ---------------------------------------------------
  alpha Z        PSCENC =         0.45724604
  Ewald energy   TEWEN  =      -196.11110405
  -Hartree energ DENC   =     -1118.97164048
  -exchange      EXHF   =         0.00000000
  -V(xc)+E(xc)   XCENC  =        59.59188697
  PAW double counting   =      1087.98460331    -1049.22308811
  entropy T*S    EENTRO =        -0.00000000
  eigenvalues    EBANDS =      -373.24720707
  atomic energy  EATOM  =      1587.50059644
  ---------------------------------------------------
  free energy    TOTEN  =        -2.01870695 eV

  energy without entropy =       -2.01870695  energy(sigma->0) =       -2.01870695


--------------------------------------------------------------------------------------------------------


  average scaling for gradient   1.1841


 average (electrostatic) potential at core
  the test charge radii are     1.0397
  (the norm of the test charge is              1.0000)
       1 -62.1639
 
 
 
 E-fermi :  -3.6540     XC(G=0):  -0.4246     alpha+bet : -0.0697


 spin component 1

 k-point     1 :       0.0000    0.0000    0.0000
  band No.  band energies     occupation 
      1     -62.6576      1.00000
      2     -38.9516      1.00000
      3     -38.9515      1.00000
      4     -38.9503      1.00000
      5      -6.1561      1.00000
      6      -6.1555      1.00000
      7      -4.4747      1.00000
      8      -2.4877      0.00000
      9      -2.4873      0.00000
     10      -2.4859      0.00000
     11      -1.4164      0.00000
     12      -1.4164      0.00000
     13      -1.4164      0.00000
     14      -0.1345      0.00000
     15       0.4684      0.00000
     16       0.4684      0.00000
     17       0.6343      0.00000
     18       0.6617      0.00000
     19       0.6617      0.00000
     20       0.6618      0.00000
     21       0.9238      0.00000
     22       0.9238      0.00000
     23       0.9238      0.00000
     24       1.1643      0.00000
     25       1.1643      0.00000
     26       1.2314      0.00000
     27       1.2314      0.00000
     28       1.2314      0.00000
     29       1.4001      0.00000
     30       1.4001      0.00000
     31       1.4001      0.00000
     32       1.4813      0.00000
     33       1.7504      0.00000
     34       1.7504      0.00000
     35       1.7504      0.00000
     36       1.7569      0.00000
     37       1.9167      0.00000
     38       1.9168      0.00000
     39       1.9551      0.00000
     40       1.9551      0.00000
     41       1.9551      0.00000
     42       2.0824      0.00000
     43       2.5655      0.00000
     44       2.5655      0.00000
     45       2.5655      0.00000
     46       2.7239      0.00000
     47       2.7323      0.00000
     48       2.7323      0.00000
     49       2.7324      0.00000
     50       2.8731      0.00000
     51       2.8731      0.00000
     52       2.8731      0.00000
     53       2.8978      0.00000
     54       2.8978      0.00000
     55       3.0688      0.00000
     56       3.0688      0.00000
     57       3.0688      0.00000
     58       3.1483      0.00000
     59       3.1483      0.00000
     60       3.1484      0.00000
     61       3.2252      0.00000
     62       3.2252      0.00000
     63       3.2833      0.00000
     64       3.2833      0.00000
     65       3.2833      0.00000
     66       3.3211      0.00000
     67       3.4474      0.00000
     68       3.5045      0.00000
     69       3.5045      0.00000
     70       3.5045      0.00000
     71       3.5722      0.00000
     72       3.5722      0.00000
     73       3.5722      0.00000
     74       3.6037      0.00000
     75       3.8351      0.00000
     76       3.8351      0.00000
     77       3.8401      0.00000
     78       3.8401      0.00000
     79       3.8401      0.00000
     80       3.8561      0.00000
     81       3.8561      0.00000
     82       3.8561      0.00000
     83       3.8709      0.00000
     84       3.8709      0.00000
     85       3.8709      0.00000
     86       3.8747      0.00000
     87       3.8747      0.00000
     88       3.8747      0.00000
     89       3.8854      0.00000
     90       3.8854      0.00000
     91       4.4242      0.00000
     92       4.4242      0.00000
     93       4.4242      0.00000
     94       4.7429      0.00000
     95       4.7970      0.00000
     96       4.7970      0.00000
     97       4.8820      0.00000
     98       4.8820      0.00000
     99       4.8821      0.00000
    100       4.8874      0.00000
    101       4.8874      0.00000
    102       4.8874      0.00000
    103       5.1989      0.00000
    104       5.1989      0.00000
    105       5.1989      0.00000
    106       5.2043      0.00000
    107       5.2043      0.00000
    108       5.3648      0.00000
    109       5.3812      0.00000
    110       5.4620      0.00000
    111       5.4620      0.00000
    112       5.4621      0.00000
    113       5.4805      0.00000
    114       5.4805      0.00000
    115       5.4805      0.00000
    116       5.6066      0.00000
    117       5.8083      0.00000
    118       5.8083      0.00000
    119       5.8083      0.00000
    120       5.8459      0.00000
    121       5.8459      0.00000
    122       5.8459      0.00000
    123       5.8549      0.00000
    124       5.8549      0.00000
    125       5.8585      0.00000
    126       5.8585      0.00000
    127       5.8585      0.00000
    128       5.8657      0.00000
    129       5.8657      0.00000
    130       5.8657      0.00000
    131       5.8680      0.00000
    132       5.8680      0.00000
    133       6.2055      0.00000
    134       6.2055      0.00000
    135       6.2055      0.00000
    136       6.2218      0.00000
    137       6.2218      0.00000
    138       6.2708      0.00000
    139       6.2708      0.00000
    140       6.2708      0.00000
    141       6.2810      0.00000
    142       6.2810      0.00000
    143       6.2810      0.00000
    144       6.2883      0.00000
    145       6.2888      0.00000
    146       6.2888      0.00000
    147       6.2888      0.00000
    148       6.3307      0.00000
    149       6.3307      0.00000
    150       6.3307      0.00000
    151       6.5786      0.00000
    152       6.5786      0.00000
    153       6.5786      0.00000
    154       6.5790      0.00000
    155       6.5790      0.00000
    156       6.5827      0.00000
    157       6.9605      0.00000
    158       6.9605      0.00000
    159       6.9605      0.00000
    160       7.0235      0.00000
    161       7.0674      0.00000
    162       7.0674      0.00000
    163       7.0675      0.00000
    164       7.0888      0.00000
    165       7.0888      0.00000
    166       7.0888      0.00000
    167       7.0926      0.00000
    168       7.0926      0.00000
    169       7.0967      0.00000
    170       7.0967      0.00000
    171       7.0967      0.00000
    172       7.1105      0.00000
    173       7.1127      0.00000
    174       7.1127      0.00000
    175       7.1127      0.00000
    176       7.1156      0.00000
    177       7.1156      0.00000
    178       7.1174      0.00000
    179       7.1174      0.00000
    180       7.1174      0.00000
    181       7.5605      0.00000
    182       7.5605      0.00000
    183       7.5605      0.00000
    184       7.6322      0.00000
    185       7.6665      0.00000
    186       7.6665      0.00000
    187       7.6665      0.00000
    188       7.6854      0.00000
    189       7.9231      0.00000
    190       7.9231      0.00000
    191       7.9231      0.00000
    192       7.9906      0.00000
    193       7.9906      0.00000
    194       7.9918      0.00000
    195       7.9918      0.00000
    196       7.9918      0.00000
    197       8.0715      0.00000
    198       8.0715      0.00000
    199       8.0715      0.00000
    200       8.1796      0.00000
    201       8.3993      0.00000
    202       8.3993      0.00000
    203       8.3993      0.00000
    204       8.4317      0.00000
    205       8.4317      0.00000
    206       8.4618      0.00000
    207       8.4618      0.00000
    208       8.4618      0.00000
    209       8.4783      0.00000
    210       8.4783      0.00000
    211       8.4783      0.00000
    212       8.4918      0.00000
    213       8.6943      0.00000
    214       8.8151      0.00000
    215       8.8151      0.00000
    216       8.8151      0.00000
    217       8.8348      0.00000
    218       8.8348      0.00000
    219       8.8348      0.00000
    220       8.9695      0.00000
    221       8.9695      0.00000
    222       8.9695      0.00000
    223       8.9844      0.00000
    224       8.9844      0.00000
    225       8.9844      0.00000
    226       8.9863      0.00000
    227       8.9867      0.00000
    228       8.9867      0.00000
    229       8.9943      0.00000
    230       8.9943      0.00000
    231       8.9943      0.00000
    232       8.9999      0.00000
    233       8.9999      0.00000
    234       9.0209      0.00000
    235       9.0209      0.00000
    236       9.0210      0.00000
    237       9.2046      0.00000
    238       9.2046      0.00000
    239       9.2046      0.00000
    240       9.2089      0.00000
    241       9.2089      0.00000
    242       9.2192      0.00000
    243       9.2192      0.00000
    244       9.2192      0.00000
    245       9.2220      0.00000
    246       9.2220      0.00000
    247       9.2220      0.00000
    248       9.2247      0.00000
    249       9.2247      0.00000
    250       9.2247      0.00000
    251       9.2257      0.00000
    252       9.2257      0.00000
    253       9.2991      0.00000
    254       9.2991      0.00000
    255       9.2991      0.00000
    256       9.3044      0.00000

 spin component 2

 k-point     1 :       0.0000    0.0000    0.0000
  band No.  band energies     occupation 
      1     -60.9935      1.00000
      2     -37.3060      1.00000
      3     -37.3058      1.00000
      4     -37.3022      1.00000
      5      -4.0424      1.00000
      6      -1.8124      0.00000
      7      -1.8123      0.00000
      8      -1.8111      0.00000
      9      -1.2375      0.00000
     10      -1.2374      0.00000
     11      -1.2366      0.00000
     12      -1.1303      0.00000
     13      -1.1301      0.00000
     14      -0.1509      0.00000
     15       0.4825      0.00000
     16       0.4825      0.00000
     17       0.6416      0.00000
     18       0.6517      0.00000
     19       0.6517      0.00000
     20       0.6519      0.00000
     21       0.8982      0.00000
     22       0.8982      0.00000
     23       0.8984      0.00000
     24       1.1856      0.00000
     25       1.1856      0.00000
     26       1.1936      0.00000
     27       1.1936      0.00000
     28       1.1936      0.00000
     29       1.4032      0.00000
     30       1.4032      0.00000
     31       1.4033      0.00000
     32       1.4975      0.00000
     33       1.7053      0.00000
     34       1.7337      0.00000
     35       1.7337      0.00000
     36       1.7337      0.00000
     37       1.9266      0.00000
     38       1.9266      0.00000
     39       1.9266      0.00000
     40       2.0636      0.00000
     41       2.1025      0.00000
     42       2.1026      0.00000
     43       2.5549      0.00000
     44       2.5549      0.00000
     45       2.5550      0.00000
     46       2.7137      0.00000
     47       2.7333      0.00000
     48       2.7333      0.00000
     49       2.7334      0.00000
     50       2.8346      0.00000
     51       2.8346      0.00000
     52       2.8346      0.00000
     53       2.9386      0.00000
     54       2.9386      0.00000
     55       3.0389      0.00000
     56       3.0389      0.00000
     57       3.0389      0.00000
     58       3.1003      0.00000
     59       3.1003      0.00000
     60       3.1003      0.00000
     61       3.1904      0.00000
     62       3.1904      0.00000
     63       3.2488      0.00000
     64       3.2488      0.00000
     65       3.2488      0.00000
     66       3.2915      0.00000
     67       3.4062      0.00000
     68       3.4980      0.00000
     69       3.4980      0.00000
     70       3.4980      0.00000
     71       3.5488      0.00000
     72       3.5488      0.00000
     73       3.5488      0.00000
     74       3.5968      0.00000
     75       3.8186      0.00000
     76       3.8186      0.00000
     77       3.8186      0.00000
     78       3.8320      0.00000
     79       3.8320      0.00000
     80       3.8320      0.00000
     81       3.8400      0.00000
     82       3.8400      0.00000
     83       3.8401      0.00000
     84       3.8407      0.00000
     85       3.8407      0.00000
     86       3.8407      0.00000
     87       3.8420      0.00000
     88       3.8420      0.00000
     89       3.8517      0.00000
     90       3.8517      0.00000
     91       4.4513      0.00000
     92       4.4513      0.00000
     93       4.4515      0.00000
     94       4.7715      0.00000
     95       4.8633      0.00000
     96       4.8633      0.00000
     97       4.8633      0.00000
     98       4.8682      0.00000
     99       4.8682      0.00000
    100       4.8683      0.00000
    101       4.9170      0.00000
    102       4.9170      0.00000
    103       5.1748      0.00000
    104       5.1748      0.00000
    105       5.1748      0.00000
    106       5.3127      0.00000
    107       5.3127      0.00000
    108       5.3306      0.00000
    109       5.3523      0.00000
    110       5.4539      0.00000
    111       5.4539      0.00000
    112       5.4539      0.00000
    113       5.4631      0.00000
    114       5.4631      0.00000
    115       5.4631      0.00000
    116       5.5865      0.00000
    117       5.7906      0.00000
    118       5.7907      0.00000
    119       5.7907      0.00000
    120       5.8190      0.00000
    121       5.8190      0.00000
    122       5.8191      0.00000
    123       5.8220      0.00000
    124       5.8220      0.00000
    125       5.8220      0.00000
    126       5.8283      0.00000
    127       5.8283      0.00000
    128       5.8310      0.00000
    129       5.8310      0.00000
    130       5.8310      0.00000
    131       5.8387      0.00000
    132       5.8387      0.00000
    133       6.1875      0.00000
    134       6.1875      0.00000
    135       6.1875      0.00000
    136       6.2362      0.00000
    137       6.2362      0.00000
    138       6.2362      0.00000
    139       6.2384      0.00000
    140       6.2385      0.00000
    141       6.2385      0.00000
    142       6.2465      0.00000
    143       6.2465      0.00000
    144       6.2502      0.00000
    145       6.2502      0.00000
    146       6.2502      0.00000
    147       6.2737      0.00000
    148       6.2872      0.00000
    149       6.2872      0.00000
    150       6.2872      0.00000
    151       6.5445      0.00000
    152       6.5445      0.00000
    153       6.5446      0.00000
    154       6.5460      0.00000
    155       6.5480      0.00000
    156       6.5480      0.00000
    157       6.9692      0.00000
    158       6.9692      0.00000
    159       6.9692      0.00000
    160       6.9816      0.00000
    161       7.0463      0.00000
    162       7.0463      0.00000
    163       7.0463      0.00000
    164       7.0653      0.00000
    165       7.0654      0.00000
    166       7.0654      0.00000
    167       7.0713      0.00000
    168       7.0713      0.00000
    169       7.0753      0.00000
    170       7.0753      0.00000
    171       7.0753      0.00000
    172       7.0791      0.00000
    173       7.0791      0.00000
    174       7.0791      0.00000
    175       7.0946      0.00000
    176       7.0946      0.00000
    177       7.0946      0.00000
    178       7.1064      0.00000
    179       7.1110      0.00000
    180       7.1110      0.00000
    181       7.5597      0.00000
    182       7.5597      0.00000
    183       7.5597      0.00000
    184       7.5927      0.00000
    185       7.6451      0.00000
    186       7.6451      0.00000
    187       7.6451      0.00000
    188       7.6764      0.00000
    189       7.9090      0.00000
    190       7.9091      0.00000
    191       7.9091      0.00000
    192       7.9736      0.00000
    193       7.9736      0.00000
    194       7.9736      0.00000
    195       8.0446      0.00000
    196       8.0446      0.00000
    197       8.0447      0.00000
    198       8.0591      0.00000
    199       8.0591      0.00000
    200       8.1675      0.00000
    201       8.3736      0.00000
    202       8.3736      0.00000
    203       8.3736      0.00000
    204       8.4235      0.00000
    205       8.4236      0.00000
    206       8.4279      0.00000
    207       8.4279      0.00000
    208       8.4279      0.00000
    209       8.4394      0.00000
    210       8.4394      0.00000
    211       8.4394      0.00000
    212       8.4497      0.00000
    213       8.6519      0.00000
    214       8.8080      0.00000
    215       8.8080      0.00000
    216       8.8080      0.00000
    217       8.8157      0.00000
    218       8.8157      0.00000
    219       8.8157      0.00000
    220       8.9502      0.00000
    221       8.9502      0.00000
    222       8.9502      0.00000
    223       8.9513      0.00000
    224       8.9513      0.00000
    225       8.9537      0.00000
    226       8.9538      0.00000
    227       8.9538      0.00000
    228       8.9690      0.00000
    229       8.9690      0.00000
    230       8.9690      0.00000
    231       8.9817      0.00000
    232       8.9910      0.00000
    233       8.9910      0.00000
    234       8.9910      0.00000
    235       9.0211      0.00000
    236       9.0211      0.00000
    237       9.1759      0.00000
    238       9.1759      0.00000
    239       9.1759      0.00000
    240       9.1850      0.00000
    241       9.1850      0.00000
    242       9.1853      0.00000
    243       9.1853      0.00000
    244       9.1853      0.00000
    245       9.1876      0.00000
    246       9.1876      0.00000
    247       9.1891      0.00000
    248       9.1891      0.00000
    249       9.1891      0.00000
    250       9.1915      0.00000
    251       9.1915      0.00000
    252       9.1916      0.00000
    253       9.2660      0.00000
    254       9.2661      0.00000
    255       9.2661      0.00000
    256       9.2686      0.00000


--------------------------------------------------------------------------------------------------------


 soft charge-density along one line, spin component           1
         0         1         2         3         4         5         6         7         8         9
 total charge-density along one line
 
 soft charge-density along one line, spin component           2
         0         1         2         3         4         5         6         7         8         9
 total charge-density along one line
 
 pseudopotential strength for first ion, spin component:           1
-28.875 -23.693   0.000   0.000   0.000  -0.000  -0.000  -0.000
-23.693 -18.087   0.000   0.000   0.000  -0.000  -0.000  -0.000
  0.000   0.000 -36.649   0.000   0.000  21.863  -0.000  -0.000
  0.000   0.000   0.000 -36.649   0.000  -0.000  21.863  -0.000
  0.000   0.000   0.000   0.000 -36.649  -0.000  -0.000  21.863
 -0.000  -0.000  21.863  -0.000  -0.000  -6.197   0.000   0.000
 -0.000  -0.000  -0.000  21.863  -0.000   0.000  -6.197   0.000
 -0.000  -0.000  -0.000  -0.000  21.863   0.000   0.000  -6.197
  0.000   0.000  -0.000   0.000  -0.000   0.000  -0.000   0.000
  0.000   0.000  -0.000  -0.000   0.000   0.000   0.000  -0.000
 -0.000  -0.000  -0.000   0.000  -0.000   0.000  -0.000   0.000
  0.000   0.000   0.000  -0.000  -0.000  -0.000   0.000   0.000
  0.000   0.000  -0.000  -0.000   0.000   0.000  -0.000  -0.000
  0.000   0.000  -0.000   0.000  -0.000   0.000  -0.000   0.000
  0.000   0.000  -0.000  -0.000   0.000   0.000   0.000  -0.000
  0.000  -0.000  -0.000   0.000  -0.000   0.000  -0.000   0.000
  0.000   0.000   0.000  -0.000  -0.000  -0.000   0.000   0.000
 -0.000  -0.000  -0.000   0.000   0.000   0.000   0.000  -0.000
 pseudopotential strength for first ion, spin component:           2
-29.338 -23.037   0.000   0.000   0.000  -0.000  -0.000  -0.000
-23.037 -17.787   0.000   0.000   0.000  -0.000  -0.000  -0.000
  0.000   0.000 -35.666   0.001   0.001  20.958  -0.001  -0.001
  0.000   0.000   0.001 -35.666   0.001  -0.001  20.958  -0.001
  0.000   0.000   0.001   0.001 -35.666  -0.001  -0.001  20.958
 -0.000  -0.000  20.958  -0.001  -0.001  -5.518   0.001   0.000
 -0.000  -0.000  -0.001  20.958  -0.001   0.001  -5.518   0.001
 -0.000  -0.000  -0.001  -0.001  20.958   0.000   0.001  -5.518
  0.001   0.000  -0.000   0.000  -0.000   0.000  -0.000   0.000
  0.001   0.000  -0.000  -0.000   0.000   0.000   0.000  -0.000
  0.000   0.000  -0.000   0.000  -0.000   0.000  -0.000   0.000
  0.001   0.000   0.000  -0.000  -0.000  -0.000   0.000   0.000
  0.000   0.000  -0.000   0.000   0.000   0.000  -0.000  -0.000
  0.000   0.000  -0.000   0.000  -0.000   0.000  -0.000   0.000
  0.000   0.000  -0.000  -0.000   0.000   0.000   0.000  -0.000
  0.000   0.000  -0.000   0.000  -0.000   0.000  -0.000   0.000
  0.000   0.000   0.000  -0.000  -0.000  -0.000   0.000   0.000
  0.000   0.000  -0.000   0.000   0.000   0.000  -0.000  -0.000
 total augmentation occupancy for first ion, spin component:           1
  3.214  -2.071   0.000   0.000   0.000  -0.000  -0.000  -0.000   0.000   0.000  -0.000   0.000   0.000  -0.000  -0.000  -0.000
 -2.071   3.524  -0.000  -0.000  -0.000   0.000   0.000   0.000  -0.000  -0.000   0.000  -0.000  -0.000   0.000   0.000   0.000
  0.000  -0.000   1.974   0.000   0.000  -0.030   0.000   0.000   0.000   0.000  -0.000  -0.000  -0.000   0.000   0.000   0.000
  0.000  -0.000   0.000   1.974   0.000   0.000  -0.030   0.000  -0.000   0.000   0.000   0.000  -0.000  -0.000   0.000  -0.000
  0.000  -0.000   0.000   0.000   1.974   0.000   0.000  -0.030   0.000  -0.000  -0.000   0.000   0.000   0.000  -0.000   0.000
 -0.000   0.000  -0.030   0.000   0.000   0.000  -0.000  -0.000  -0.000  -0.000  -0.000   0.000  -0.000  -0.000  -0.000  -0.000
 -0.000   0.000   0.000  -0.030   0.000  -0.000   0.000  -0.000   0.000  -0.000   0.000  -0.000   0.000   0.000  -0.000   0.000
 -0.000   0.000   0.000   0.000  -0.030  -0.000  -0.000   0.000  -0.000   0.000  -0.000  -0.000   0.000  -0.000   0.000  -0.000
  0.000  -0.000   0.000  -0.000   0.000  -0.000   0.000  -0.000   0.000  -0.000  -0.001  -0.000   0.000   0.000  -0.000  -0.000
  0.000  -0.000   0.000   0.000  -0.000  -0.000  -0.000   0.000  -0.000   0.000   0.001  -0.000  -0.001  -0.000   0.000   0.000
 -0.000   0.000  -0.000   0.000  -0.000  -0.000   0.000  -0.000  -0.001   0.001   1.174   0.001   0.000  -0.000   0.000   0.274
  0.000  -0.000  -0.000   0.000   0.000   0.000  -0.000  -0.000  -0.000  -0.000   0.001   0.000   0.001  -0.000  -0.000   0.000
  0.000  -0.000  -0.000  -0.000   0.000  -0.000   0.000   0.000   0.000  -0.001   0.000   0.001   1.174   0.000  -0.000  -0.000
 -0.000   0.000   0.000  -0.000   0.000  -0.000   0.000  -0.000   0.000  -0.000  -0.000  -0.000   0.000   0.000  -0.000  -0.000
 -0.000   0.000   0.000   0.000  -0.000  -0.000  -0.000   0.000  -0.000   0.000   0.000  -0.000  -0.000  -0.000   0.000   0.000
 -0.000   0.000   0.000  -0.000   0.000  -0.000   0.000  -0.000  -0.000   0.000   0.274   0.000  -0.000  -0.000   0.000   0.064
 -0.000   0.000  -0.000   0.000   0.000   0.000  -0.000  -0.000  -0.000  -0.000   0.000   0.000   0.000  -0.000   0.000   0.000
  0.000  -0.000   0.000   0.000  -0.000  -0.000  -0.000   0.000   0.000  -0.000  -0.000   0.000   0.273   0.000  -0.000  -0.000
 total augmentation occupancy for first ion, spin component:           2
  0.084  -0.150   0.000   0.000   0.000   0.000   0.000   0.000  -0.000  -0.000  -0.000  -0.000   0.000   0.000   0.000  -0.000
 -0.150   0.268  -0.000  -0.000  -0.000  -0.000  -0.000  -0.000   0.000   0.000   0.000   0.000  -0.000  -0.000  -0.000   0.000
  0.000  -0.000  -0.001   0.000   0.000  -0.002   0.000   0.000  -0.000  -0.000  -0.000   0.000  -0.000  -0.000  -0.000   0.000
  0.000  -0.000   0.000  -0.001   0.000   0.000  -0.002   0.000   0.000  -0.000   0.000  -0.000  -0.000   0.000  -0.000  -0.000
  0.000  -0.000   0.000   0.000  -0.001   0.000   0.000  -0.002  -0.000   0.000  -0.000  -0.000   0.000  -0.000   0.000   0.000
  0.000  -0.000  -0.002   0.000   0.000   0.000  -0.000  -0.000   0.000   0.000  -0.000  -0.000  -0.000   0.000   0.000  -0.000
  0.000  -0.000   0.000  -0.002   0.000  -0.000   0.000  -0.000  -0.000   0.000   0.000   0.000   0.000  -0.000   0.000   0.000
  0.000  -0.000   0.000   0.000  -0.002  -0.000  -0.000   0.000   0.000  -0.000  -0.000   0.000   0.000   0.000  -0.000  -0.000
 -0.000   0.000  -0.000   0.000  -0.000   0.000  -0.000   0.000   0.000  -0.000  -0.001  -0.000   0.000   0.000  -0.000  -0.000
 -0.000   0.000  -0.000  -0.000   0.000   0.000   0.000  -0.000  -0.000   0.000   0.001  -0.000  -0.001  -0.000   0.000   0.000
 -0.000   0.000  -0.000   0.000  -0.000  -0.000   0.000  -0.000  -0.001   0.001   1.174   0.001   0.000  -0.000   0.000   0.274
 -0.000   0.000   0.000  -0.000  -0.000  -0.000   0.000   0.000  -0.000  -0.000   0.001   0.000   0.001  -0.000   0.000   0.000
  0.000  -0.000  -0.000  -0.000   0.000  -0.000   0.000   0.000   0.000  -0.001   0.000   0.001   1.174   0.000  -0.000  -0.000
  0.000  -0.000  -0.000   0.000  -0.000   0.000  -0.000   0.000   0.000  -0.000  -0.000  -0.000   0.000   0.000  -0.000  -0.000
  0.000  -0.000  -0.000  -0.000   0.000   0.000   0.000  -0.000  -0.000   0.000   0.000   0.000  -0.000  -0.000   0.000   0.000
 -0.000   0.000   0.000  -0.000   0.000  -0.000   0.000  -0.000  -0.000   0.000   0.274   0.000  -0.000  -0.000   0.000   0.064
  0.000  -0.000   0.000  -0.000  -0.000  -0.000   0.000   0.000  -0.000   0.000   0.000   0.000   0.000  -0.000  -0.000   0.000
  0.000  -0.000   0.000   0.000  -0.000  -0.000  -0.000   0.000   0.000  -0.000  -0.000   0.000   0.273   0.000  -0.000  -0.000


------------------------ aborting loop because EDIFF is reached ----------------------------------------


    FORLOC:  cpu time    0.0084: real time    0.0085
    FORNL :  cpu time    0.0484: real time    0.0613
    FORCOR:  cpu time    2.3372: real time    2.3663
    OFIELD:  cpu time    0.0008: real time    0.0042

 VOLUME and BASIS-vectors are now :
 -----------------------------------------------------------------------------
  energy-cutoff  :      520.00
  volume of cell :     3375.00
      direct lattice vectors                 reciprocal lattice vectors
    15.000000000  0.000000000  0.000000000     0.066666667  0.000000000  0.000000000
     0.000000000 15.000000000  0.000000000     0.000000000  0.066666667  0.000000000
     0.000000000  0.000000000 15.000000000     0.000000000  0.000000000  0.066666667

  length of vectors
    15.000000000 15.000000000 15.000000000     0.066666667  0.066666667  0.066666667


 FORCES acting on ions:
    Electron-Ion                     Ewald-Force                    Non-Local-Force
 -----------------------------------------------------------------------------------------------
   -.691E-04 -.691E-04 -.686E-04   -.195E-16 0.263E-16 -.546E-16   0.422E-03 0.422E-03 0.402E-03
 -----------------------------------------------------------------------------------------------
   -.691E-04 -.691E-04 -.686E-04   -.195E-16 0.263E-16 -.546E-16   0.422E-03 0.422E-03 0.402E-03
 
 
 POSITION                                       TOTAL-FORCE (eV/Angst)
 -----------------------------------------------------------------------------------
      0.15000      0.15000     11.26500         0.000353      0.000353      0.000333
 -----------------------------------------------------------------------------------
    total drift:                                0.000353      0.000353      0.000333


--------------------------------------------------------------------------------------------------------



  FREE ENERGIE OF THE ION-ELECTRON SYSTEM (eV)
  ---------------------------------------------------
  free  energy   TOTEN  =        -2.01870695 eV

  energy  without entropy=       -2.01870695  energy(sigma->0) =       -2.01870695
 


--------------------------------------------------------------------------------------------------------


    POTLOK:  cpu time    2.8440: real time    2.8584


--------------------------------------------------------------------------------------------------------


 stress matrix after NEB project (eV)
      0.00000      0.00000      0.00000
      0.00000      0.00000      0.00000
      0.00000      0.00000      0.00000
  FORCES: max atom, RMS     0.000600    0.000600
  FORCE total and by dimension    0.000600    0.000353
  Stress total and by dimension    0.000000    0.000000
     LOOP+:  cpu time  331.5039: real time  334.5982
    4ORBIT:  cpu time    0.0000: real time    0.0000

 total amount of memory used by VASP MPI-rank0   177231. kBytes
=======================================================================

   base      :      30000. kBytes
   nonl-proj :      14540. kBytes
   fftplans  :       7479. kBytes
   grid      :     116433. kBytes
   one-center:         31. kBytes
   wavefun   :       8748. kBytes
 
  
  
 General timing and accounting informations for this job:
 ========================================================
  
                  Total CPU time used (sec):      345.384
                            User time (sec):      336.475
                          System time (sec):        8.908
                         Elapsed time (sec):      351.443
  
                   Maximum memory used (kb):      453520.
                   Average memory used (kb):           0.
  
                          Minor page faults:        63507
                          Major page faults:            0
                 Voluntary context switches:         2292
