C  N  Ti                                
   1.00000000000000     
    12.3000000000000007    0.0000000000000000    0.0000000000000000
    -6.1499999999999977   10.6521124665485960    0.0000000000000000
     0.0000000000000000    0.0000000000000000   20.0000000000000000
   C    N    Ti
    44     4     1
Direct
  0.9992840815645541  0.0007002916173572  0.7483082412327707
  0.1316151177711437  0.0649060901046849  0.7486833550530267
  0.1982349896819559  0.9982684646572968  0.7486662487937565
  0.3304543361392169  0.0633959117702346  0.7492890868396973
  0.3984742694535397  0.9977413683278472  0.7483070894168562
  0.5321438855288856  0.0667587172073626  0.7479599021221907
  0.5996657165196453  0.0005380147474548  0.7468517750075832
  0.7324901633185669  0.0687142170299603  0.7473613323542777
  0.7996773594816865  0.0015808665915027  0.7476483702785179
  0.9326627003684957  0.0673292816501762  0.7479606327054585
  0.9984160530749838  0.2003089215701638  0.7476444828839666
  0.1310642657450973  0.2651297761662688  0.7482581471101969
  0.1967326155197778  0.1971181205543990  0.7492682167223393
  0.3284626942094019  0.2623460438707950  0.7516394503121233
  0.3956141321404029  0.1951299602098882  0.7516754672140329
  0.5948964351279871  0.2000222976993069  0.7508959366463359
  0.7296936386408582  0.2703053392647579  0.7500641635452822
  0.7974063636756680  0.2025904940229671  0.7480434911359757
  0.9312901652834620  0.2675027523662726  0.7473595834118404
  0.9994850054473871  0.4003250774424080  0.7468490525780427
  0.1339182702275989  0.4663539394162982  0.7467649762809572
  0.2001109078571309  0.3987933948192890  0.7478136076099909
  0.3333810383295842  0.4615980254459233  0.7507501695580903
  0.8000122990263400  0.4050902042369212  0.7508503256139818
  0.9332628632861092  0.4678441195353841  0.7479440932009491
  0.0022575660915436  0.6015163008972615  0.7483129864174618
  0.1349104074541825  0.6663267149480128  0.7476154653595239
  0.2020472361043311  0.5991585363012335  0.7472642658374469
  0.3358934183592387  0.6640962157456507  0.7479239184358870
  0.4036048435766636  0.5963807286792069  0.7499213431796831
  0.5383729818460640  0.6666476905222580  0.7507021178380673
  0.7376330050723866  0.6715295942414592  0.7516317217734959
  0.8048568544500848  0.6043712227940057  0.7516657691865863
  0.9366004625511654  0.6695365671772199  0.7493217838212222
  0.0017177352015175  0.8017510226721648  0.7486973831770459
  0.1340534460464252  0.8659329549742022  0.7483044340918529
  0.2006719418501121  0.7993143497695410  0.7479644174984940
  0.3336657824533812  0.8650889044395822  0.7476094966328115
  0.4008306385140302  0.7979523506611480  0.7472598264567997
  0.5336300545291583  0.8661035288393750  0.7467589322877340
  0.6011878258036649  0.7999074928190931  0.7477951474413446
  0.7348546369955483  0.8689342730186305  0.7482636839904925
  0.8028664226469433  0.8032650141313946  0.7493029701819265
  0.9350788392462810  0.8683786753451361  0.7487147113751549
  0.5254928835317813  0.2596344043237756  0.7560844627582178
  0.3930023009129253  0.3922228040012448  0.7560031882959253
  0.7403899335950225  0.4744764830551110  0.7559909525253736
  0.6077378770433233  0.6070231174892352  0.7559134615118952
  0.5667815387047379  0.4334723628291358  0.7851173622973366
 
  0.00000000E+00  0.00000000E+00  0.00000000E+00
  0.00000000E+00  0.00000000E+00  0.00000000E+00
  0.00000000E+00  0.00000000E+00  0.00000000E+00
  0.00000000E+00  0.00000000E+00  0.00000000E+00
  0.00000000E+00  0.00000000E+00  0.00000000E+00
  0.00000000E+00  0.00000000E+00  0.00000000E+00
  0.00000000E+00  0.00000000E+00  0.00000000E+00
  0.00000000E+00  0.00000000E+00  0.00000000E+00
  0.00000000E+00  0.00000000E+00  0.00000000E+00
  0.00000000E+00  0.00000000E+00  0.00000000E+00
  0.00000000E+00  0.00000000E+00  0.00000000E+00
  0.00000000E+00  0.00000000E+00  0.00000000E+00
  0.00000000E+00  0.00000000E+00  0.00000000E+00
  0.00000000E+00  0.00000000E+00  0.00000000E+00
  0.00000000E+00  0.00000000E+00  0.00000000E+00
  0.00000000E+00  0.00000000E+00  0.00000000E+00
  0.00000000E+00  0.00000000E+00  0.00000000E+00
  0.00000000E+00  0.00000000E+00  0.00000000E+00
  0.00000000E+00  0.00000000E+00  0.00000000E+00
  0.00000000E+00  0.00000000E+00  0.00000000E+00
  0.00000000E+00  0.00000000E+00  0.00000000E+00
  0.00000000E+00  0.00000000E+00  0.00000000E+00
  0.00000000E+00  0.00000000E+00  0.00000000E+00
  0.00000000E+00  0.00000000E+00  0.00000000E+00
  0.00000000E+00  0.00000000E+00  0.00000000E+00
  0.00000000E+00  0.00000000E+00  0.00000000E+00
  0.00000000E+00  0.00000000E+00  0.00000000E+00
  0.00000000E+00  0.00000000E+00  0.00000000E+00
  0.00000000E+00  0.00000000E+00  0.00000000E+00
  0.00000000E+00  0.00000000E+00  0.00000000E+00
  0.00000000E+00  0.00000000E+00  0.00000000E+00
  0.00000000E+00  0.00000000E+00  0.00000000E+00
  0.00000000E+00  0.00000000E+00  0.00000000E+00
  0.00000000E+00  0.00000000E+00  0.00000000E+00
  0.00000000E+00  0.00000000E+00  0.00000000E+00
  0.00000000E+00  0.00000000E+00  0.00000000E+00
  0.00000000E+00  0.00000000E+00  0.00000000E+00
  0.00000000E+00  0.00000000E+00  0.00000000E+00
  0.00000000E+00  0.00000000E+00  0.00000000E+00
  0.00000000E+00  0.00000000E+00  0.00000000E+00
  0.00000000E+00  0.00000000E+00  0.00000000E+00
  0.00000000E+00  0.00000000E+00  0.00000000E+00
  0.00000000E+00  0.00000000E+00  0.00000000E+00
  0.00000000E+00  0.00000000E+00  0.00000000E+00
  0.00000000E+00  0.00000000E+00  0.00000000E+00
  0.00000000E+00  0.00000000E+00  0.00000000E+00
  0.00000000E+00  0.00000000E+00  0.00000000E+00
  0.00000000E+00  0.00000000E+00  0.00000000E+00
  0.00000000E+00  0.00000000E+00  0.00000000E+00
