       N       E                     dE             d eps       ncg     rms          rms(c)
DAV:   1    -0.483313740044E+03   -0.48331E+03   -0.21452E+02  8192   0.174E+01    0.327E+01
DAV:   2    -0.452083607108E+03    0.31230E+02   -0.10101E+02  6400   0.122E+01    0.212E+01
DAV:   3    -0.450811515141E+03    0.12721E+01   -0.14515E+02  7424   0.135E+01    0.140E+01
DAV:   4    -0.442551533398E+03    0.82600E+01   -0.18434E+01  8192   0.593E+00    0.530E+00
DAV:   5    -0.443313074134E+03   -0.76154E+00   -0.15722E+01  7680   0.284E+00    0.951E+00
DAV:   6    -0.442768128884E+03    0.54495E+00   -0.88659E+00  7168   0.280E+00    0.449E+00
DAV:   7    -0.443130097415E+03   -0.36197E+00   -0.41748E-01  6144   0.572E-01    0.401E+00
DAV:   8    -0.443653204279E+03   -0.52311E+00   -0.17692E+00  7936   0.987E-01    0.267E+00
DAV:   9    -0.443444257697E+03    0.20895E+00   -0.13658E+00  4096   0.823E-01    0.307E+00
DAV:  10    -0.443429287931E+03    0.14970E-01   -0.49524E-01  8192   0.874E-01    0.259E+00
DAV:  11    -0.443245161269E+03    0.18413E+00   -0.22243E-01  4608   0.664E-01    0.178E+00
DAV:  12    -0.442923684894E+03    0.32148E+00   -0.41195E-01  4096   0.471E-01    0.188E+00
DAV:  13    -0.443085684212E+03   -0.16200E+00   -0.80912E-02  7680   0.405E-01    0.152E+00
DAV:  14    -0.443539218776E+03   -0.45353E+00   -0.42496E-01  4864   0.590E-01    0.458E-01
DAV:  15    -0.443654618059E+03   -0.11540E+00   -0.21258E-01  5632   0.357E-01    0.206E-01
DAV:  16    -0.443681086890E+03   -0.26469E-01   -0.44340E-02  4864   0.164E-01    0.997E-02
DAV:  17    -0.443686628691E+03   -0.55418E-02   -0.15422E-02  6144   0.118E-01    0.143E-01
DAV:  18    -0.443691796078E+03   -0.51674E-02   -0.42022E-03  5376   0.834E-02    0.159E-01
DAV:  19    -0.443694478243E+03   -0.26822E-02   -0.38114E-03  7680   0.649E-02    0.135E-01
DAV:  20    -0.443696628436E+03   -0.21502E-02   -0.10891E-03  5632   0.339E-02    0.921E-02
DAV:  21    -0.443700864545E+03   -0.42361E-02   -0.11681E-03  4608   0.241E-02    0.559E-02
DAV:  22    -0.443704533849E+03   -0.36693E-02   -0.98480E-04  6400   0.247E-02    0.227E-02
DAV:  23    -0.443705271093E+03   -0.73724E-03   -0.19659E-04  7168   0.157E-02    0.146E-02
DAV:  24    -0.443705650838E+03   -0.37975E-03   -0.60431E-05  5376   0.546E-03    0.909E-03
DAV:  25    -0.443705860263E+03   -0.20942E-03   -0.21383E-05  4864   0.397E-03    0.621E-03
DAV:  26    -0.443705993334E+03   -0.13307E-03   -0.94360E-06  4352   0.193E-03    0.531E-03
DAV:  27    -0.443706072136E+03   -0.78802E-04   -0.14374E-05  7168   0.261E-03    0.345E-03
DAV:  28    -0.443706125845E+03   -0.53709E-04   -0.12943E-05  7168   0.203E-03    0.141E-03
DAV:  29    -0.443706145660E+03   -0.19815E-04   -0.23045E-06  7168   0.962E-04    0.872E-04
DAV:  30    -0.443706162258E+03   -0.16598E-04   -0.14831E-06  6912   0.693E-04    0.100E-03
DAV:  31    -0.443706171509E+03   -0.92511E-05   -0.60234E-07  6912   0.440E-04
   1 F= -.44544814E+03 E0= -.44543217E+03  d E =-.445448E+03  mag=     1.6503
       N       E                     dE             d eps       ncg     rms          rms(c)
DAV:   1    -0.443706815974E+03   -0.65372E-03   -0.70648E-02  7168   0.408E-01    0.612E-02
DAV:   2    -0.443706747240E+03    0.68735E-04   -0.77431E-04  5888   0.458E-02    0.328E-02
DAV:   3    -0.443706730261E+03    0.16978E-04   -0.93851E-05  7680   0.168E-02    0.140E-02
DAV:   4    -0.443706712194E+03    0.18068E-04   -0.13015E-05  5888   0.584E-03    0.472E-03
DAV:   5    -0.443706707464E+03    0.47297E-05   -0.15831E-06  6656   0.178E-03
   2 F= -.44544869E+03 E0= -.44543265E+03  d E =-.547265E-03  mag=     1.6490
       N       E                     dE             d eps       ncg     rms          rms(c)
DAV:   1    -0.443706996722E+03   -0.28453E-03   -0.15919E-02  7168   0.199E-01    0.269E-02
DAV:   2    -0.443706993765E+03    0.29569E-05   -0.14950E-04  7168   0.207E-02    0.149E-02
DAV:   3    -0.443707002250E+03   -0.84847E-05   -0.14393E-05  7424   0.599E-03
   3 F= -.44544900E+03 E0= -.44543300E+03  d E =-.305142E-03  mag=     1.6489
       N       E                     dE             d eps       ncg     rms          rms(c)
DAV:   1    -0.443707280568E+03   -0.28680E-03   -0.20466E-02  6144   0.223E-01    0.269E-02
DAV:   2    -0.443707271159E+03    0.94081E-05   -0.14873E-04  7936   0.217E-02    0.154E-02
DAV:   3    -0.443707272129E+03   -0.96935E-06   -0.20041E-05  5376   0.720E-03
   4 F= -.44544927E+03 E0= -.44543329E+03  d E =-.274472E-03  mag=     1.6490
