C  N  Ti                                
   1.00000000000000     
    12.3000000000000007    0.0000000000000000    0.0000000000000000
    -6.1499999999999977   10.6521124665485960    0.0000000000000000
     0.0000000000000000    0.0000000000000000   20.0000000000000000
   C    N    Ti
    44     4     1
Direct
  0.9992705052163775  0.0007373287201372  0.7483675699664731
  0.1315495684296445  0.0648290823502523  0.7487553889864387
  0.1982065179238764  0.9981842765855556  0.7487346041816344
  0.3304065144220254  0.0633420378335664  0.7493217249559431
  0.3984455249018298  0.9976378881532253  0.7482788121478758
  0.5321483502108385  0.0666991243346245  0.7479462897667640
  0.5997121144551489  0.0005276728018253  0.7468336584747308
  0.7325492525791675  0.0686860093837613  0.7473756985224683
  0.7996721602052669  0.0016144180626620  0.7476341728559738
  0.9326547894716531  0.0673340542953186  0.7480010033445075
  0.9983818739398789  0.2003133554251711  0.7476301453735025
  0.1310151175415281  0.2651207958028009  0.7482862555931200
  0.1966951700647952  0.1970661371173683  0.7492891693647066
  0.3284345412899960  0.2623696867911753  0.7516531422589255
  0.3955750480499154  0.1950488522977906  0.7516851463469885
  0.5948404955156896  0.1999646633185034  0.7508548498505602
  0.7296935090715091  0.2703143540425907  0.7500321749424735
  0.7974130967104857  0.2025895831152887  0.7480293618478338
  0.9313129782831079  0.2674360765581305  0.7473753482142259
  0.9995070296455236  0.4002798555920161  0.7468316801358896
  0.1338784224012609  0.4663420617486645  0.7467411238805099
  0.2000880010663195  0.3988266819052916  0.7477598105300948
  0.3333593967995162  0.4616404155419885  0.7507140278858360
  0.8000673807031258  0.4051582943040319  0.7508129840876225
  0.9333139119747670  0.4678308052691929  0.7479310106471719
  0.0023699858631526  0.6015417435845078  0.7482851536225263
  0.1349603478322832  0.6663607142239992  0.7476643152946663
  0.2019880787854805  0.5992033572433040  0.7472545160247004
  0.3358472068527599  0.6641419592393111  0.7479336603799118
  0.4035793076819517  0.5963978440856059  0.7498804465573635
  0.5383334924220351  0.6666779119202247  0.7506669688945556
  0.7376133783675246  0.6715664861641089  0.7516474950095662
  0.8049349317009075  0.6044061902248240  0.7516764449240230
  0.9366499081452860  0.6695749369286669  0.7493553670203903
  0.0018282057612098  0.8017941417214793  0.7487669543848423
  0.1340750575134484  0.8658756104751532  0.7483894484174988
  0.2007103245732942  0.7992856502108853  0.7479752386832623
  0.3336237075670153  0.8650315851027505  0.7476598953456320
  0.4007806974881599  0.7980070647239937  0.7472502020103217
  0.5336353013074188  0.8661467991749690  0.7467359605577334
  0.6011463785265171  0.7999279853825959  0.7477417118307044
  0.7348606139103716  0.8689827330169264  0.7482923134882232
  0.8029199737824940  0.8033026826495545  0.7493248725397491
  0.9351454407594376  0.8684324742081881  0.7487835011681815
  0.5254596788926738  0.2595913486460257  0.7560186745528344
  0.3929916140939792  0.3922467363201499  0.7559378819185903
  0.7404346108040919  0.4745218808518480  0.7559287951209028
  0.6077135221870025  0.6070313269609535  0.7558525466302189
  0.5667949643082432  0.4334703255890542  0.7850994814613510
 
  0.00000000E+00  0.00000000E+00  0.00000000E+00
  0.00000000E+00  0.00000000E+00  0.00000000E+00
  0.00000000E+00  0.00000000E+00  0.00000000E+00
  0.00000000E+00  0.00000000E+00  0.00000000E+00
  0.00000000E+00  0.00000000E+00  0.00000000E+00
  0.00000000E+00  0.00000000E+00  0.00000000E+00
  0.00000000E+00  0.00000000E+00  0.00000000E+00
  0.00000000E+00  0.00000000E+00  0.00000000E+00
  0.00000000E+00  0.00000000E+00  0.00000000E+00
  0.00000000E+00  0.00000000E+00  0.00000000E+00
  0.00000000E+00  0.00000000E+00  0.00000000E+00
  0.00000000E+00  0.00000000E+00  0.00000000E+00
  0.00000000E+00  0.00000000E+00  0.00000000E+00
  0.00000000E+00  0.00000000E+00  0.00000000E+00
  0.00000000E+00  0.00000000E+00  0.00000000E+00
  0.00000000E+00  0.00000000E+00  0.00000000E+00
  0.00000000E+00  0.00000000E+00  0.00000000E+00
  0.00000000E+00  0.00000000E+00  0.00000000E+00
  0.00000000E+00  0.00000000E+00  0.00000000E+00
  0.00000000E+00  0.00000000E+00  0.00000000E+00
  0.00000000E+00  0.00000000E+00  0.00000000E+00
  0.00000000E+00  0.00000000E+00  0.00000000E+00
  0.00000000E+00  0.00000000E+00  0.00000000E+00
  0.00000000E+00  0.00000000E+00  0.00000000E+00
  0.00000000E+00  0.00000000E+00  0.00000000E+00
  0.00000000E+00  0.00000000E+00  0.00000000E+00
  0.00000000E+00  0.00000000E+00  0.00000000E+00
  0.00000000E+00  0.00000000E+00  0.00000000E+00
  0.00000000E+00  0.00000000E+00  0.00000000E+00
  0.00000000E+00  0.00000000E+00  0.00000000E+00
  0.00000000E+00  0.00000000E+00  0.00000000E+00
  0.00000000E+00  0.00000000E+00  0.00000000E+00
  0.00000000E+00  0.00000000E+00  0.00000000E+00
  0.00000000E+00  0.00000000E+00  0.00000000E+00
  0.00000000E+00  0.00000000E+00  0.00000000E+00
  0.00000000E+00  0.00000000E+00  0.00000000E+00
  0.00000000E+00  0.00000000E+00  0.00000000E+00
  0.00000000E+00  0.00000000E+00  0.00000000E+00
  0.00000000E+00  0.00000000E+00  0.00000000E+00
  0.00000000E+00  0.00000000E+00  0.00000000E+00
  0.00000000E+00  0.00000000E+00  0.00000000E+00
  0.00000000E+00  0.00000000E+00  0.00000000E+00
  0.00000000E+00  0.00000000E+00  0.00000000E+00
  0.00000000E+00  0.00000000E+00  0.00000000E+00
  0.00000000E+00  0.00000000E+00  0.00000000E+00
  0.00000000E+00  0.00000000E+00  0.00000000E+00
  0.00000000E+00  0.00000000E+00  0.00000000E+00
  0.00000000E+00  0.00000000E+00  0.00000000E+00
  0.00000000E+00  0.00000000E+00  0.00000000E+00
