C  N  Dy                                
   1.00000000000000     
    12.3000000000000007    0.0000000000000000    0.0000000000000000
    -6.1499999999999977   10.6521124665485960    0.0000000000000000
     0.0000000000000000    0.0000000000000000   20.0000000000000000
   C    N    Dy
    44     4     1
Direct
  0.9993992736514321  0.0006024556131402  0.7548894860686715
  0.1319555371798841  0.0652711213184841  0.7545788063614979
  0.1985994868433301  0.9986295665577587  0.7545587868663823
  0.3311357111241752  0.0642396142393306  0.7527170614477116
  0.3986758307115453  0.9980443587344762  0.7531808246926834
  0.5319839112653165  0.0665406318689595  0.7524037517984110
  0.5995088843710684  0.0004558559240130  0.7535336364354980
  0.7325840191503593  0.0687802953138507  0.7529579542693881
  0.7997236725340625  0.0017995154082729  0.7537771936004489
  0.9326400345639206  0.0673606350030334  0.7541516837233025
  0.9982000142380297  0.2002768211636350  0.7537770945820393
  0.1313706834560730  0.2653466533228350  0.7532105998954920
  0.1975783804533218  0.1978025073662551  0.7528247967148163
  0.3298101355288527  0.2644122952113511  0.7484423804364467
  0.3977236004565547  0.1964905834380846  0.7483144805506728
  0.5943233185826950  0.2002909170242544  0.7478821810164658
  0.7296189308531381  0.2703805938783411  0.7481913884024372
  0.7972164778188549  0.2027822528029455  0.7514678689687118
  0.9312193170512927  0.2674153549432950  0.7529580331740875
  0.9995421380133598  0.4004904836343265  0.7535334033214377
  0.1338184819329913  0.4662022253549150  0.7536875716955566
  0.1998777923013517  0.3986330911857813  0.7526081205057359
  0.3336468088972951  0.4609858258158181  0.7482373984459464
  0.7997053013291910  0.4056762020564008  0.7478862974148207
  0.9334581559109920  0.4680167661344413  0.7524068518109719
  0.0019544724629102  0.6013233752316911  0.7531833670848180
  0.1351341093600720  0.6663836790952231  0.7539722453784784
  0.2021293839989760  0.5992549769311020  0.7532975256144805
  0.3361191729258646  0.6638815484621505  0.7519093264970029
  0.4037254189577710  0.5962761785119132  0.7486540619785926
  0.5390137992118976  0.6663525672339009  0.7482326231793752
  0.7355917112691984  0.6701940214785236  0.7484383863597507
  0.8035096628732786  0.6022770950821164  0.7483167517087227
  0.9357621314076314  0.6688657174905932  0.7527194891724265
  0.0013712280679792  0.8014007073333019  0.7545587358929123
  0.1339378121483693  0.8660634589729372  0.7549411271681779
  0.2006937424860409  0.7993060325227497  0.7543478541924685
  0.3336171390398286  0.8648666440365090  0.7539718236744418
  0.4007444978957349  0.7978690199855147  0.7532983019923659
  0.5337973262371629  0.8661797143508363  0.7536892250194898
  0.6013673681777361  0.8001212546447669  0.7526073239320441
  0.7346551560909242  0.8686305571813256  0.7532098388207624
  0.8021995093818457  0.8024231688626334  0.7528238162192997
  0.9347318447042213  0.8680468328445161  0.7545789883133669
  0.5260638120602321  0.2600954774200423  0.7421356958778432
  0.3934476043671253  0.3927643321236523  0.7423896923839218
  0.7399013414894939  0.4739372235818317  0.7421424976112320
  0.6072408919440360  0.6065559178725068  0.7423794139985643
  0.5665659652225516  0.4334128754356725  0.6830262357298558
 
  0.00000000E+00  0.00000000E+00  0.00000000E+00
  0.00000000E+00  0.00000000E+00  0.00000000E+00
  0.00000000E+00  0.00000000E+00  0.00000000E+00
  0.00000000E+00  0.00000000E+00  0.00000000E+00
  0.00000000E+00  0.00000000E+00  0.00000000E+00
  0.00000000E+00  0.00000000E+00  0.00000000E+00
  0.00000000E+00  0.00000000E+00  0.00000000E+00
  0.00000000E+00  0.00000000E+00  0.00000000E+00
  0.00000000E+00  0.00000000E+00  0.00000000E+00
  0.00000000E+00  0.00000000E+00  0.00000000E+00
  0.00000000E+00  0.00000000E+00  0.00000000E+00
  0.00000000E+00  0.00000000E+00  0.00000000E+00
  0.00000000E+00  0.00000000E+00  0.00000000E+00
  0.00000000E+00  0.00000000E+00  0.00000000E+00
  0.00000000E+00  0.00000000E+00  0.00000000E+00
  0.00000000E+00  0.00000000E+00  0.00000000E+00
  0.00000000E+00  0.00000000E+00  0.00000000E+00
  0.00000000E+00  0.00000000E+00  0.00000000E+00
  0.00000000E+00  0.00000000E+00  0.00000000E+00
  0.00000000E+00  0.00000000E+00  0.00000000E+00
  0.00000000E+00  0.00000000E+00  0.00000000E+00
  0.00000000E+00  0.00000000E+00  0.00000000E+00
  0.00000000E+00  0.00000000E+00  0.00000000E+00
  0.00000000E+00  0.00000000E+00  0.00000000E+00
  0.00000000E+00  0.00000000E+00  0.00000000E+00
  0.00000000E+00  0.00000000E+00  0.00000000E+00
  0.00000000E+00  0.00000000E+00  0.00000000E+00
  0.00000000E+00  0.00000000E+00  0.00000000E+00
  0.00000000E+00  0.00000000E+00  0.00000000E+00
  0.00000000E+00  0.00000000E+00  0.00000000E+00
  0.00000000E+00  0.00000000E+00  0.00000000E+00
  0.00000000E+00  0.00000000E+00  0.00000000E+00
  0.00000000E+00  0.00000000E+00  0.00000000E+00
  0.00000000E+00  0.00000000E+00  0.00000000E+00
  0.00000000E+00  0.00000000E+00  0.00000000E+00
  0.00000000E+00  0.00000000E+00  0.00000000E+00
  0.00000000E+00  0.00000000E+00  0.00000000E+00
  0.00000000E+00  0.00000000E+00  0.00000000E+00
  0.00000000E+00  0.00000000E+00  0.00000000E+00
  0.00000000E+00  0.00000000E+00  0.00000000E+00
  0.00000000E+00  0.00000000E+00  0.00000000E+00
  0.00000000E+00  0.00000000E+00  0.00000000E+00
  0.00000000E+00  0.00000000E+00  0.00000000E+00
  0.00000000E+00  0.00000000E+00  0.00000000E+00
  0.00000000E+00  0.00000000E+00  0.00000000E+00
  0.00000000E+00  0.00000000E+00  0.00000000E+00
  0.00000000E+00  0.00000000E+00  0.00000000E+00
  0.00000000E+00  0.00000000E+00  0.00000000E+00
  0.00000000E+00  0.00000000E+00  0.00000000E+00
