C  N  Dy                                
   1.00000000000000     
    12.3000000000000007    0.0000000000000000    0.0000000000000000
    -6.1499999999999977   10.6521124665485960    0.0000000000000000
     0.0000000000000000    0.0000000000000000   20.0000000000000000
   C    N    Dy
    44     4     1
Direct
  0.9994126797687986  0.0005900770208495  0.7547535712042489
  0.1320353754264134  0.0653141344213748  0.7544392784445688
  0.1985901105227246  0.9986290961839558  0.7544107909129081
  0.3311948759404272  0.0642803875855705  0.7526882023939179
  0.3987684547303014  0.9981258377804733  0.7531874931679783
  0.5320899525792330  0.0666430611081089  0.7524423757642189
  0.5995437571833053  0.0004766733264434  0.7535304033703133
  0.7326144387786063  0.0687863223431874  0.7529435263776481
  0.7997009747374171  0.0017117223698108  0.7537417044656077
  0.9326851052598917  0.0673137950245535  0.7540672700352339
  0.9982869934908788  0.2002986349075815  0.7537421834294956
  0.1314906061708779  0.2654333166249289  0.7531536221704973
  0.1976612578360157  0.1978770119783206  0.7528133778399396
  0.3298282129832473  0.2644523680490000  0.7485074355110349
  0.3977141044135320  0.1964564522919215  0.7483474459761781
  0.5942760442714328  0.2004112534309118  0.7479714092041089
  0.7295850189211579  0.2704137932371010  0.7482637973497419
  0.7971730296703468  0.2028254544497119  0.7515008415820909
  0.9312143225212974  0.2673846338257254  0.7529433265089785
  0.9995228696220860  0.4004549089965870  0.7535304933264231
  0.1337408499526030  0.4661894579473932  0.7537020101128882
  0.1999583327468534  0.3987365197846442  0.7526646447675369
  0.3337641989334950  0.4609950582725934  0.7483017461480573
  0.7995813631310495  0.4057282675565369  0.7479775387195575
  0.9333569381743362  0.4679117060917382  0.7524448264438313
  0.0018735377151246  0.6012301348651928  0.7531901988974433
  0.1350396724971814  0.6663305561814101  0.7539562898506584
  0.2021221256358563  0.5992607994284883  0.7533272878392219
  0.3361356487810653  0.6638653603222328  0.7519414706021882
  0.4037279646318966  0.5962748616434617  0.7487298002545290
  0.5390059500916797  0.6662344336029858  0.7482957286243442
  0.7355534832124255  0.6701730280349730  0.7485042457175094
  0.8035452225976897  0.6022845559394774  0.7483505982925515
  0.9357169191289104  0.6688042083442739  0.7526889761763467
  0.0013726873358684  0.8014109756880378  0.7544094117242073
  0.1339174166687361  0.8660841407352651  0.7548042409286106
  0.2006969073377414  0.7993037912128106  0.7542932044289181
  0.3336691287504560  0.8649595543813260  0.7539555605543782
  0.4007391374223074  0.7978730553571912  0.7533310742038536
  0.5338040694808889  0.8662515407026001  0.7537029419236657
  0.6012635899724861  0.8000399730550735  0.7526658774049968
  0.7345705852908013  0.8685109090012623  0.7531530143202033
  0.8021266265659175  0.8023394154632734  0.7528124699657371
  0.9346880749184685  0.8679665564848184  0.7544395773938778
  0.5259927550117314  0.2600825893614651  0.7422681515590341
  0.3934440420745082  0.3927151952236057  0.7425170389788600
  0.7399195845463341  0.4740049202416181  0.7422828231443199
  0.6072910162236898  0.6065567346446862  0.7425010256208771
  0.5665849863418987  0.4334117654754489  0.6828116763666734
 
  0.00000000E+00  0.00000000E+00  0.00000000E+00
  0.00000000E+00  0.00000000E+00  0.00000000E+00
  0.00000000E+00  0.00000000E+00  0.00000000E+00
  0.00000000E+00  0.00000000E+00  0.00000000E+00
  0.00000000E+00  0.00000000E+00  0.00000000E+00
  0.00000000E+00  0.00000000E+00  0.00000000E+00
  0.00000000E+00  0.00000000E+00  0.00000000E+00
  0.00000000E+00  0.00000000E+00  0.00000000E+00
  0.00000000E+00  0.00000000E+00  0.00000000E+00
  0.00000000E+00  0.00000000E+00  0.00000000E+00
  0.00000000E+00  0.00000000E+00  0.00000000E+00
  0.00000000E+00  0.00000000E+00  0.00000000E+00
  0.00000000E+00  0.00000000E+00  0.00000000E+00
  0.00000000E+00  0.00000000E+00  0.00000000E+00
  0.00000000E+00  0.00000000E+00  0.00000000E+00
  0.00000000E+00  0.00000000E+00  0.00000000E+00
  0.00000000E+00  0.00000000E+00  0.00000000E+00
  0.00000000E+00  0.00000000E+00  0.00000000E+00
  0.00000000E+00  0.00000000E+00  0.00000000E+00
  0.00000000E+00  0.00000000E+00  0.00000000E+00
  0.00000000E+00  0.00000000E+00  0.00000000E+00
  0.00000000E+00  0.00000000E+00  0.00000000E+00
  0.00000000E+00  0.00000000E+00  0.00000000E+00
  0.00000000E+00  0.00000000E+00  0.00000000E+00
  0.00000000E+00  0.00000000E+00  0.00000000E+00
  0.00000000E+00  0.00000000E+00  0.00000000E+00
  0.00000000E+00  0.00000000E+00  0.00000000E+00
  0.00000000E+00  0.00000000E+00  0.00000000E+00
  0.00000000E+00  0.00000000E+00  0.00000000E+00
  0.00000000E+00  0.00000000E+00  0.00000000E+00
  0.00000000E+00  0.00000000E+00  0.00000000E+00
  0.00000000E+00  0.00000000E+00  0.00000000E+00
  0.00000000E+00  0.00000000E+00  0.00000000E+00
  0.00000000E+00  0.00000000E+00  0.00000000E+00
  0.00000000E+00  0.00000000E+00  0.00000000E+00
  0.00000000E+00  0.00000000E+00  0.00000000E+00
  0.00000000E+00  0.00000000E+00  0.00000000E+00
  0.00000000E+00  0.00000000E+00  0.00000000E+00
  0.00000000E+00  0.00000000E+00  0.00000000E+00
  0.00000000E+00  0.00000000E+00  0.00000000E+00
  0.00000000E+00  0.00000000E+00  0.00000000E+00
  0.00000000E+00  0.00000000E+00  0.00000000E+00
  0.00000000E+00  0.00000000E+00  0.00000000E+00
  0.00000000E+00  0.00000000E+00  0.00000000E+00
  0.00000000E+00  0.00000000E+00  0.00000000E+00
  0.00000000E+00  0.00000000E+00  0.00000000E+00
  0.00000000E+00  0.00000000E+00  0.00000000E+00
  0.00000000E+00  0.00000000E+00  0.00000000E+00
  0.00000000E+00  0.00000000E+00  0.00000000E+00
