C  N  Co                                
   1.00000000000000     
    12.3000000000000007    0.0000000000000000    0.0000000000000000
    -6.1499999999999977   10.6521124665485960    0.0000000000000000
     0.0000000000000000    0.0000000000000000   20.0000000000000000
   C    N    Co
    44     4     1
Direct
  0.9991269230448319  0.0008722822170865  0.7499916091464012
  0.1312648083310782  0.0646075041519119  0.7499803842557782
  0.1979109092462741  0.9979355567864525  0.7499793397554970
  0.3303969799735647  0.0629665124614536  0.7499795793314692
  0.3985005829397564  0.9975109487255833  0.7499870291090528
  0.5314405799428723  0.0674473487537154  0.7499921295192118
  0.5990897796883908  0.0007984677066614  0.7499825784039291
  0.7321608760319406  0.0696603543940882  0.7499970585465529
  0.7993519919554876  0.0025934300522625  0.7499973071810696
  0.9321871869954200  0.0678160467594631  0.7500030834414529
  0.9974092257310446  0.2006520687179361  0.7499969050985119
  0.1307928142398115  0.2651429356990786  0.7499897092196068
  0.1962521023421508  0.1970767911803233  0.7499862090406852
  0.3277280067364026  0.2616150289228664  0.7500550464364907
  0.3948694957790539  0.1944378170709402  0.7500443321490954
  0.5931679787484243  0.2025554517589797  0.7500642435814321
  0.7281876804817181  0.2718114974106491  0.7500453326082032
  0.7961935988477343  0.2038092203980355  0.7500055803764974
  0.9303413213311513  0.2678424759457128  0.7499966881034527
  0.9992013808444525  0.4009141691032484  0.7499825050548438
  0.1341852167809636  0.4657266519095584  0.7499836457107852
  0.2007974954477298  0.3980621060232850  0.7500013675090302
  0.3359082015848011  0.4598550666936036  0.7500609997056247
  0.7974420265925471  0.4068309230952348  0.7500575455648316
  0.9325502679786587  0.4685607217166230  0.7499910462878219
  0.0024877711590189  0.6015002719835800  0.7499863645921616
  0.1358853461631395  0.6659814699859069  0.7499966835639486
  0.2029822978566902  0.5987951982472046  0.7499949462530926
  0.3371385021779841  0.6628643539194954  0.7500023468817247
  0.4051537745976026  0.5948480288085973  0.7500347661578023
  0.5401463717132144  0.6640921467522743  0.7500556328745457
  0.7383829478775447  0.6722693468949786  0.7500468515423533
  0.8055586685438237  0.6051274951436785  0.7500339424060414
  0.9370296382800914  0.6696009771399563  0.7499782748058157
  0.0020607463113447  0.8020859975927920  0.7499804726574638
  0.1342178693216738  0.8657789319661394  0.7499938059957053
  0.2011614021327315  0.7988388876519713  0.7500029997324801
  0.3340195574767237  0.8641146221143540  0.7499965248884826
  0.4012077925636938  0.7970196371881706  0.7499949500217439
  0.5342769685417095  0.8658148851873301  0.7499844375410516
  0.6019407895449942  0.7992032293468390  0.7500011322774932
  0.7348605694397448  0.8692085258172322  0.7499901880937760
  0.8029226490840466  0.8037454735167809  0.7499870536681177
  0.9353911595207656  0.8687337793226867  0.7499820963596674
  0.5235356884229267  0.2621661049967716  0.7501542552671920
  0.3955279327587097  0.3902573205825882  0.7501426855887116
  0.7378312149877164  0.4764622764515485  0.7501378319120612
  0.6097412499331941  0.6044702974515471  0.7501271950192826
  0.5666706599747003  0.4333293642827870  0.7502493067619115
 
  0.00000000E+00  0.00000000E+00  0.00000000E+00
  0.00000000E+00  0.00000000E+00  0.00000000E+00
  0.00000000E+00  0.00000000E+00  0.00000000E+00
  0.00000000E+00  0.00000000E+00  0.00000000E+00
  0.00000000E+00  0.00000000E+00  0.00000000E+00
  0.00000000E+00  0.00000000E+00  0.00000000E+00
  0.00000000E+00  0.00000000E+00  0.00000000E+00
  0.00000000E+00  0.00000000E+00  0.00000000E+00
  0.00000000E+00  0.00000000E+00  0.00000000E+00
  0.00000000E+00  0.00000000E+00  0.00000000E+00
  0.00000000E+00  0.00000000E+00  0.00000000E+00
  0.00000000E+00  0.00000000E+00  0.00000000E+00
  0.00000000E+00  0.00000000E+00  0.00000000E+00
  0.00000000E+00  0.00000000E+00  0.00000000E+00
  0.00000000E+00  0.00000000E+00  0.00000000E+00
  0.00000000E+00  0.00000000E+00  0.00000000E+00
  0.00000000E+00  0.00000000E+00  0.00000000E+00
  0.00000000E+00  0.00000000E+00  0.00000000E+00
  0.00000000E+00  0.00000000E+00  0.00000000E+00
  0.00000000E+00  0.00000000E+00  0.00000000E+00
  0.00000000E+00  0.00000000E+00  0.00000000E+00
  0.00000000E+00  0.00000000E+00  0.00000000E+00
  0.00000000E+00  0.00000000E+00  0.00000000E+00
  0.00000000E+00  0.00000000E+00  0.00000000E+00
  0.00000000E+00  0.00000000E+00  0.00000000E+00
  0.00000000E+00  0.00000000E+00  0.00000000E+00
  0.00000000E+00  0.00000000E+00  0.00000000E+00
  0.00000000E+00  0.00000000E+00  0.00000000E+00
  0.00000000E+00  0.00000000E+00  0.00000000E+00
  0.00000000E+00  0.00000000E+00  0.00000000E+00
  0.00000000E+00  0.00000000E+00  0.00000000E+00
  0.00000000E+00  0.00000000E+00  0.00000000E+00
  0.00000000E+00  0.00000000E+00  0.00000000E+00
  0.00000000E+00  0.00000000E+00  0.00000000E+00
  0.00000000E+00  0.00000000E+00  0.00000000E+00
  0.00000000E+00  0.00000000E+00  0.00000000E+00
  0.00000000E+00  0.00000000E+00  0.00000000E+00
  0.00000000E+00  0.00000000E+00  0.00000000E+00
  0.00000000E+00  0.00000000E+00  0.00000000E+00
  0.00000000E+00  0.00000000E+00  0.00000000E+00
  0.00000000E+00  0.00000000E+00  0.00000000E+00
  0.00000000E+00  0.00000000E+00  0.00000000E+00
  0.00000000E+00  0.00000000E+00  0.00000000E+00
  0.00000000E+00  0.00000000E+00  0.00000000E+00
  0.00000000E+00  0.00000000E+00  0.00000000E+00
  0.00000000E+00  0.00000000E+00  0.00000000E+00
  0.00000000E+00  0.00000000E+00  0.00000000E+00
  0.00000000E+00  0.00000000E+00  0.00000000E+00
  0.00000000E+00  0.00000000E+00  0.00000000E+00
