       N       E                     dE             d eps       ncg     rms          rms(c)
DAV:   1    -0.480129925581E+03   -0.48013E+03   -0.20289E+02  8192   0.186E+01    0.383E+01
DAV:   2    -0.497792807843E+03   -0.17663E+02   -0.99552E+02  6144   0.320E+01    0.462E+01
DAV:   3    -0.451440930913E+03    0.46352E+02   -0.70905E+01  6912   0.330E+01    0.229E+01
DAV:   4    -0.464134263034E+03   -0.12693E+02   -0.39119E+02  5888   0.407E+01    0.516E+01
DAV:   5    -0.442582011753E+03    0.21552E+02   -0.48818E+01  8192   0.485E+00    0.301E+01
DAV:   6    -0.445376912205E+03   -0.27949E+01   -0.22555E+00  7424   0.172E+00    0.309E+01
DAV:   7    -0.440843159731E+03    0.45338E+01   -0.13541E+01  5376   0.353E+00    0.237E+01
DAV:   8    -0.432466459492E+03    0.83767E+01   -0.11304E+01  6144   0.643E+00    0.176E+01
DAV:   9    -0.431074488860E+03    0.13920E+01   -0.22038E+01  8192   0.555E+00    0.116E+01
DAV:  10    -0.432603321290E+03   -0.15288E+01   -0.13727E-01  6400   0.115E+00    0.105E+01
DAV:  11    -0.433232800157E+03   -0.62948E+00   -0.27254E-01  4608   0.836E-01    0.974E+00
DAV:  12    -0.433606861515E+03   -0.37406E+00   -0.95560E-01  7680   0.558E-01    0.965E+00
DAV:  13    -0.433261345652E+03    0.34552E+00   -0.56686E-01  5888   0.699E-01    0.102E+01
DAV:  14    -0.435330187241E+03   -0.20688E+01   -0.28746E+00  7168   0.180E+00    0.739E+00
DAV:  15    -0.438231503668E+03   -0.29013E+01   -0.35886E+00  7424   0.373E+00    0.561E+00
DAV:  16    -0.438448721245E+03   -0.21722E+00   -0.15541E-01  4608   0.483E-01    0.576E+00
DAV:  17    -0.438446772697E+03    0.19485E-02   -0.85273E-03  7936   0.203E-01    0.560E+00
DAV:  18    -0.439602106111E+03   -0.11553E+01   -0.23052E+00  7168   0.440E+00    0.651E+00
DAV:  19    -0.440319524079E+03   -0.71742E+00   -0.14016E+00  5632   0.183E+00    0.507E+00
DAV:  20    -0.440913840261E+03   -0.59432E+00   -0.52911E-01  6144   0.124E+00    0.480E+00
DAV:  21    -0.441320169778E+03   -0.40633E+00   -0.33546E-01  7936   0.821E-01    0.395E+00
DAV:  22    -0.441783565699E+03   -0.46340E+00   -0.72817E-01  6656   0.156E+00    0.282E+00
DAV:  23    -0.442209259017E+03   -0.42569E+00   -0.64423E-01  7424   0.142E+00    0.205E+00
DAV:  24    -0.442334482739E+03   -0.12522E+00   -0.18714E-01  6144   0.846E-01    0.157E+00
DAV:  25    -0.442399823961E+03   -0.65341E-01   -0.92495E-02  6912   0.518E-01    0.179E+00
DAV:  26    -0.442315274666E+03    0.84549E-01   -0.18665E-01  7680   0.857E-01    0.168E+00
DAV:  27    -0.442268079561E+03    0.47195E-01   -0.12507E-01  4608   0.432E-01    0.144E+00
DAV:  28    -0.442247965764E+03    0.20114E-01   -0.11459E-02  7168   0.966E-02    0.144E+00
DAV:  29    -0.442118509010E+03    0.12946E+00   -0.21224E-01  5120   0.401E-01    0.165E+00
DAV:  30    -0.442330303059E+03   -0.21179E+00   -0.88967E-01  6656   0.686E-01    0.144E+00
DAV:  31    -0.442457791538E+03   -0.12749E+00   -0.78793E-01  4608   0.672E-01    0.135E+00
DAV:  32    -0.442529092025E+03   -0.71300E-01   -0.48874E-01  6144   0.564E-01    0.128E+00
DAV:  33    -0.442549112818E+03   -0.20021E-01   -0.21810E-01  5120   0.651E-01    0.148E+00
DAV:  34    -0.442606528349E+03   -0.57416E-01   -0.11880E+00  4864   0.111E+00    0.775E-01
DAV:  35    -0.442547058390E+03    0.59470E-01   -0.16190E+00  5632   0.102E+00    0.917E-01
DAV:  36    -0.442620460836E+03   -0.73402E-01   -0.66529E-01  4608   0.765E-01    0.431E-01
DAV:  37    -0.442634677454E+03   -0.14217E-01   -0.48412E-02  5120   0.244E-01    0.201E-01
DAV:  38    -0.442640211805E+03   -0.55344E-02   -0.50879E-02  7680   0.215E-01    0.768E-02
DAV:  39    -0.442641427223E+03   -0.12154E-02   -0.20780E-03  6656   0.556E-02    0.850E-02
DAV:  40    -0.442642637742E+03   -0.12105E-02   -0.58591E-03  6400   0.664E-02    0.542E-02
DAV:  41    -0.442643100158E+03   -0.46242E-03   -0.60843E-04  4608   0.298E-02    0.450E-02
DAV:  42    -0.442643237656E+03   -0.13750E-03   -0.79942E-04  7168   0.266E-02    0.442E-02
DAV:  43    -0.442643352681E+03   -0.11502E-03   -0.75064E-04  6656   0.355E-02    0.171E-02
DAV:  44    -0.442643386440E+03   -0.33759E-04   -0.13565E-04  6400   0.148E-02    0.193E-02
DAV:  45    -0.442643412183E+03   -0.25743E-04   -0.17044E-04  7680   0.157E-02    0.144E-02
DAV:  46    -0.442643450608E+03   -0.38425E-04   -0.90101E-05  6144   0.950E-03    0.807E-03
DAV:  47    -0.442643465859E+03   -0.15251E-04   -0.32293E-06  6656   0.299E-03    0.587E-03
DAV:  48    -0.442643474300E+03   -0.84411E-05   -0.28928E-06  7936   0.260E-03
   1 F= -.44439184E+03 E0= -.44439164E+03  d E =-.444392E+03  mag=    -0.9999
       N       E                     dE             d eps       ncg     rms          rms(c)
DAV:   1    -0.442643666191E+03   -0.20033E-03   -0.35932E-02  6656   0.296E-01    0.440E-02
DAV:   2    -0.442643642587E+03    0.23604E-04   -0.43906E-04  6912   0.380E-02    0.245E-02
DAV:   3    -0.442643638075E+03    0.45120E-05   -0.52963E-05  7680   0.162E-02
   2 F= -.44439201E+03 E0= -.44439181E+03  d E =-.171958E-03  mag=    -1.0000
       N       E                     dE             d eps       ncg     rms          rms(c)
DAV:   1    -0.442643800959E+03   -0.15837E-03   -0.89692E-03  6144   0.148E-01    0.214E-02
DAV:   2    -0.442643796538E+03    0.44209E-05   -0.14090E-04  7168   0.242E-02    0.124E-02
DAV:   3    -0.442643795767E+03    0.77115E-06   -0.27143E-05  6656   0.124E-02
   3 F= -.44439217E+03 E0= -.44439197E+03  d E =-.156149E-03  mag=    -1.0000
