C  N  Co                                
   1.00000000000000     
    12.3000000000000007    0.0000000000000000    0.0000000000000000
    -6.1499999999999977   10.6521124665485960    0.0000000000000000
     0.0000000000000000    0.0000000000000000   20.0000000000000000
   C    N    Co
    44     4     1
Direct
  0.9991236082416357  0.0008799734706013  0.7499944433116599
  0.1312506447191794  0.0646017477607134  0.7499811827068847
  0.1978812574553222  0.9979090523393898  0.7499812642741653
  0.3303839481187207  0.0629999147523842  0.7499777622249797
  0.3984987295925352  0.9975409578395107  0.7499865429129885
  0.5314545071563185  0.0674169950164753  0.7499884997485918
  0.5990889802304539  0.0007554312599849  0.7499832034373441
  0.7321643301037630  0.0696492568538241  0.7499962527634753
  0.7993200632006443  0.0026042944175279  0.7499988138013425
  0.9321799431367729  0.0678249722529260  0.7500053633570051
  0.9974004538438205  0.2006844572675686  0.7499987130454332
  0.1307568394921253  0.2651238677545900  0.7499869390602139
  0.1961910660201526  0.1970502038490363  0.7499823269954360
  0.3277192945415434  0.2616520223095417  0.7500586922948854
  0.3948141863564867  0.1944148968295406  0.7500346461473525
  0.5931685051104924  0.2025454967311195  0.7500629334561851
  0.7281823947088957  0.2718183536689953  0.7500402159627699
  0.7961921115044260  0.2038121760055258  0.7500028227301829
  0.9303542302761483  0.2678394629623627  0.7499957226614202
  0.9992433311809035  0.4009146425192260  0.7499832890267284
  0.1341659339153642  0.4657080173378387  0.7499828042850519
  0.2007979390681492  0.3980665871216911  0.7500016753223582
  0.3359257822731981  0.4598163176613727  0.7500606388251772
  0.7974482574458903  0.4068303820419000  0.7500562153737438
  0.9325793277397868  0.4685483565488503  0.7499883298502632
  0.0024556443268209  0.6015021958565125  0.7499857308677884
  0.1358270652231534  0.6659107655550206  0.7499984804824238
  0.2030054127603253  0.5987666042782160  0.7499959048290884
  0.3371415981834027  0.6628614197516300  0.7500009035114152
  0.4051692393902401  0.5948338789965677  0.7500265639574134
  0.5401863264488520  0.6640732354118016  0.7500557356281283
  0.7383411183940419  0.6722730773415904  0.7500517548038776
  0.8055777066551292  0.6051790024079596  0.7500244539209270
  0.9369938556174857  0.6696116368110636  0.7499772593384371
  0.0020869758357922  0.8021140174675069  0.7499822793003074
  0.1342288520660785  0.8657673887884586  0.7499975140702221
  0.2011823561508884  0.7988160003609618  0.7500038866050229
  0.3340933744176512  0.8641769224156769  0.7499984439712237
  0.4012353866767440  0.7969972154764612  0.7499958768902045
  0.5342957417667805  0.8658350018686070  0.7499839129523004
  0.6019376820210666  0.7992019266564562  0.7500014458962903
  0.7348805043803474  0.8692456148681462  0.7499873366352257
  0.8029463284042309  0.8038018767451484  0.7499838619858832
  0.9353981355065789  0.8687488230357330  0.7499826735819491
  0.5235093550113229  0.2621604152107291  0.7501619862255334
  0.3955527538710596  0.3902482429769563  0.7501438675463681
  0.7378378510015166  0.4764883710305149  0.7501444987051362
  0.6097492969020444  0.6044429316341834  0.7501268893601851
  0.5666707735557428  0.4333455984815642  0.7502654453589715
 
  0.00000000E+00  0.00000000E+00  0.00000000E+00
  0.00000000E+00  0.00000000E+00  0.00000000E+00
  0.00000000E+00  0.00000000E+00  0.00000000E+00
  0.00000000E+00  0.00000000E+00  0.00000000E+00
  0.00000000E+00  0.00000000E+00  0.00000000E+00
  0.00000000E+00  0.00000000E+00  0.00000000E+00
  0.00000000E+00  0.00000000E+00  0.00000000E+00
  0.00000000E+00  0.00000000E+00  0.00000000E+00
  0.00000000E+00  0.00000000E+00  0.00000000E+00
  0.00000000E+00  0.00000000E+00  0.00000000E+00
  0.00000000E+00  0.00000000E+00  0.00000000E+00
  0.00000000E+00  0.00000000E+00  0.00000000E+00
  0.00000000E+00  0.00000000E+00  0.00000000E+00
  0.00000000E+00  0.00000000E+00  0.00000000E+00
  0.00000000E+00  0.00000000E+00  0.00000000E+00
  0.00000000E+00  0.00000000E+00  0.00000000E+00
  0.00000000E+00  0.00000000E+00  0.00000000E+00
  0.00000000E+00  0.00000000E+00  0.00000000E+00
  0.00000000E+00  0.00000000E+00  0.00000000E+00
  0.00000000E+00  0.00000000E+00  0.00000000E+00
  0.00000000E+00  0.00000000E+00  0.00000000E+00
  0.00000000E+00  0.00000000E+00  0.00000000E+00
  0.00000000E+00  0.00000000E+00  0.00000000E+00
  0.00000000E+00  0.00000000E+00  0.00000000E+00
  0.00000000E+00  0.00000000E+00  0.00000000E+00
  0.00000000E+00  0.00000000E+00  0.00000000E+00
  0.00000000E+00  0.00000000E+00  0.00000000E+00
  0.00000000E+00  0.00000000E+00  0.00000000E+00
  0.00000000E+00  0.00000000E+00  0.00000000E+00
  0.00000000E+00  0.00000000E+00  0.00000000E+00
  0.00000000E+00  0.00000000E+00  0.00000000E+00
  0.00000000E+00  0.00000000E+00  0.00000000E+00
  0.00000000E+00  0.00000000E+00  0.00000000E+00
  0.00000000E+00  0.00000000E+00  0.00000000E+00
  0.00000000E+00  0.00000000E+00  0.00000000E+00
  0.00000000E+00  0.00000000E+00  0.00000000E+00
  0.00000000E+00  0.00000000E+00  0.00000000E+00
  0.00000000E+00  0.00000000E+00  0.00000000E+00
  0.00000000E+00  0.00000000E+00  0.00000000E+00
  0.00000000E+00  0.00000000E+00  0.00000000E+00
  0.00000000E+00  0.00000000E+00  0.00000000E+00
  0.00000000E+00  0.00000000E+00  0.00000000E+00
  0.00000000E+00  0.00000000E+00  0.00000000E+00
  0.00000000E+00  0.00000000E+00  0.00000000E+00
  0.00000000E+00  0.00000000E+00  0.00000000E+00
  0.00000000E+00  0.00000000E+00  0.00000000E+00
  0.00000000E+00  0.00000000E+00  0.00000000E+00
  0.00000000E+00  0.00000000E+00  0.00000000E+00
  0.00000000E+00  0.00000000E+00  0.00000000E+00
