       N       E                     dE             d eps       ncg     rms          rms(c)
DAV:   1    -0.471967972347E+03   -0.47197E+03   -0.13437E+02  8192   0.143E+01    0.306E+01
DAV:   2    -0.445433171718E+03    0.26535E+02   -0.37604E+01  5376   0.121E+01    0.147E+01
DAV:   3    -0.438888054245E+03    0.65451E+01   -0.15535E+01  8192   0.535E+00    0.673E+00
DAV:   4    -0.438172823923E+03    0.71523E+00   -0.41199E+00  6656   0.244E+00    0.238E+00
DAV:   5    -0.438581784230E+03   -0.40896E+00   -0.29449E-01  6144   0.743E-01    0.122E+00
DAV:   6    -0.438854404613E+03   -0.27262E+00   -0.84388E-02  7168   0.412E-01    0.504E-01
DAV:   7    -0.439120361523E+03   -0.26596E+00   -0.21951E-02  7680   0.210E-01    0.371E-01
DAV:   8    -0.439352288188E+03   -0.23193E+00   -0.46768E-02  7936   0.249E-01    0.240E-01
DAV:   9    -0.439375544523E+03   -0.23256E-01   -0.25172E-02  6656   0.179E-01    0.151E-01
DAV:  10    -0.439441650863E+03   -0.66106E-01   -0.16074E-02  7168   0.112E-01    0.898E-02
DAV:  11    -0.439466504101E+03   -0.24853E-01   -0.28239E-03  4608   0.490E-02    0.582E-02
DAV:  12    -0.439485730134E+03   -0.19226E-01   -0.22676E-03  7168   0.420E-02    0.337E-02
DAV:  13    -0.439494545856E+03   -0.88157E-02   -0.90965E-04  4864   0.260E-02    0.197E-02
DAV:  14    -0.439497714946E+03   -0.31691E-02   -0.32516E-04  7424   0.138E-02    0.112E-02
DAV:  15    -0.439499680013E+03   -0.19651E-02   -0.16502E-04  5632   0.972E-03    0.694E-03
DAV:  16    -0.439500731347E+03   -0.10513E-02   -0.64357E-05  5376   0.546E-03    0.479E-03
DAV:  17    -0.439501366588E+03   -0.63524E-03   -0.38901E-05  4864   0.395E-03    0.303E-03
DAV:  18    -0.439501584870E+03   -0.21828E-03   -0.15982E-05  7424   0.248E-03    0.195E-03
DAV:  19    -0.439501678359E+03   -0.93489E-04   -0.41075E-06  7424   0.145E-03    0.115E-03
DAV:  20    -0.439501730551E+03   -0.52192E-04   -0.17073E-06  7424   0.108E-03    0.607E-04
DAV:  21    -0.439501751024E+03   -0.20473E-04   -0.41490E-07  7680   0.647E-04    0.367E-04
DAV:  22    -0.439501762632E+03   -0.11608E-04   -0.19655E-07  6656   0.428E-04    0.192E-04
DAV:  23    -0.439501767032E+03   -0.44001E-05   -0.65632E-08  7168   0.267E-04
   1 F= -.44124905E+03 E0= -.44122234E+03  d E =-.441249E+03  mag=     0.0001
       N       E                     dE             d eps       ncg     rms          rms(c)
DAV:   1    -0.439502127824E+03   -0.36519E-03   -0.61087E-02  6144   0.376E-01    0.541E-02
DAV:   2    -0.439502095387E+03    0.32438E-04   -0.68409E-04  7424   0.437E-02    0.302E-02
DAV:   3    -0.439502078997E+03    0.16389E-04   -0.67687E-05  5888   0.132E-02    0.830E-03
DAV:   4    -0.439502079609E+03   -0.61236E-06   -0.99834E-06  7168   0.471E-03
   2 F= -.44124932E+03 E0= -.44122258E+03  d E =-.272858E-03  mag=     0.0000
       N       E                     dE             d eps       ncg     rms          rms(c)
DAV:   1    -0.439502308354E+03   -0.22936E-03   -0.12996E-02  6144   0.176E-01    0.254E-02
DAV:   2    -0.439502299134E+03    0.92203E-05   -0.14187E-04  7168   0.199E-02    0.142E-02
DAV:   3    -0.439502296123E+03    0.30112E-05   -0.14235E-05  6912   0.601E-03
   3 F= -.44124954E+03 E0= -.44122279E+03  d E =-.216420E-03  mag=     0.0000
