C  N  Bi                                
   1.00000000000000     
    12.3000000000000007    0.0000000000000000    0.0000000000000000
    -6.1499999999999977   10.6521124665485960    0.0000000000000000
     0.0000000000000000    0.0000000000000000   20.0000000000000000
   C    N    Bi
    44     4     1
Direct
  0.9991100645252570  0.0008899443720353  0.7369585464744023
  0.1316441315426832  0.0651064791706092  0.7372379709371160
  0.1983545389314458  0.9982978579986630  0.7372842223224116
  0.3303489460272341  0.0632417063608852  0.7432977945286693
  0.3983412108878399  0.9974876714321537  0.7459835123871013
  0.5318133741576986  0.0670782242806472  0.7505353971363685
  0.5995578465109602  0.0007444065347458  0.7491432809779291
  0.7323798112325007  0.0691677348136911  0.7488538756913027
  0.7995102998175408  0.0019064071387810  0.7446860666550654
  0.9324308761915243  0.0675691288268248  0.7413195990236415
  0.9980935915871966  0.2004897001329262  0.7446860668016977
  0.1308245175429250  0.2650284022442720  0.7459788222515110
  0.1965405597346264  0.1970202444183742  0.7432680569756908
  0.3274998717627400  0.2611983280487007  0.7511821326523063
  0.3944588521524359  0.1941231033373197  0.7511760532395644
  0.5939342051969736  0.2004143971831547  0.7570206606265353
  0.7290237404463640  0.2709762654708174  0.7571566030393475
  0.7968984460969982  0.2031015543859605  0.7517192685537922
  0.9308322615182599  0.2676201875420448  0.7488538750744124
  0.9992555884918942  0.4004421537895789  0.7491432805716757
  0.1341027710984335  0.4662176473782417  0.7490556010419133
  0.2004315066372851  0.3985112957950687  0.7505159871876055
  0.3338072241162669  0.4606322949903725  0.7569988372690838
  0.7995856032120886  0.4060657950000459  0.7570206606579070
  0.9329217681773104  0.4681866212856199  0.7505353965943501
  0.0025123266445796  0.6016587891874924  0.7459835114300812
  0.1352135216772385  0.6661758188059514  0.7446445177172397
  0.2025536043183320  0.5990077315382025  0.7486499199209986
  0.3364191342327006  0.6635808656863118  0.7514681688537641
  0.4043207837382529  0.5956792218683703  0.7570869674747375
  0.5393677061577072  0.6661927764561298  0.7569988379733937
  0.7388016657907388  0.6725001220092378  0.7511821320986947
  0.8058768898590392  0.6055411428974812  0.7511760537730205
  0.9367582955257688  0.6696510569019541  0.7432977951210562
  0.0017021503766185  0.8016454707387937  0.7372842221439481
  0.1341633741360918  0.8658366365623551  0.7371038349128078
  0.2008678332256637  0.7991321710719660  0.7414086675757271
  0.3338241822428420  0.8647864767019605  0.7446445179667370
  0.4009922662371289  0.7974463913352852  0.7486499197214753
  0.5337823517985334  0.8658972225520583  0.7490556001675515
  0.6014886995786332  0.7995684854835183  0.7505159866768637
  0.7349715967636806  0.8691754788746328  0.7459788221821763
  0.8029797570427502  0.8034594412114419  0.7432680566259398
  0.9348935312055613  0.8683558785284927  0.7372379707361464
  0.5222510592762081  0.2583765686028723  0.7616222643455390
  0.3917311886856660  0.3889067589761486  0.7616643436637441
  0.7416234296029770  0.4777489385483811  0.7616222644431855
  0.6110932388760707  0.6082688096442515  0.7616643428752019
  0.5667008054107321  0.4332991938851785  0.8191767129285682
 
  0.00000000E+00  0.00000000E+00  0.00000000E+00
  0.00000000E+00  0.00000000E+00  0.00000000E+00
  0.00000000E+00  0.00000000E+00  0.00000000E+00
  0.00000000E+00  0.00000000E+00  0.00000000E+00
  0.00000000E+00  0.00000000E+00  0.00000000E+00
  0.00000000E+00  0.00000000E+00  0.00000000E+00
  0.00000000E+00  0.00000000E+00  0.00000000E+00
  0.00000000E+00  0.00000000E+00  0.00000000E+00
  0.00000000E+00  0.00000000E+00  0.00000000E+00
  0.00000000E+00  0.00000000E+00  0.00000000E+00
  0.00000000E+00  0.00000000E+00  0.00000000E+00
  0.00000000E+00  0.00000000E+00  0.00000000E+00
  0.00000000E+00  0.00000000E+00  0.00000000E+00
  0.00000000E+00  0.00000000E+00  0.00000000E+00
  0.00000000E+00  0.00000000E+00  0.00000000E+00
  0.00000000E+00  0.00000000E+00  0.00000000E+00
  0.00000000E+00  0.00000000E+00  0.00000000E+00
  0.00000000E+00  0.00000000E+00  0.00000000E+00
  0.00000000E+00  0.00000000E+00  0.00000000E+00
  0.00000000E+00  0.00000000E+00  0.00000000E+00
  0.00000000E+00  0.00000000E+00  0.00000000E+00
  0.00000000E+00  0.00000000E+00  0.00000000E+00
  0.00000000E+00  0.00000000E+00  0.00000000E+00
  0.00000000E+00  0.00000000E+00  0.00000000E+00
  0.00000000E+00  0.00000000E+00  0.00000000E+00
  0.00000000E+00  0.00000000E+00  0.00000000E+00
  0.00000000E+00  0.00000000E+00  0.00000000E+00
  0.00000000E+00  0.00000000E+00  0.00000000E+00
  0.00000000E+00  0.00000000E+00  0.00000000E+00
  0.00000000E+00  0.00000000E+00  0.00000000E+00
  0.00000000E+00  0.00000000E+00  0.00000000E+00
  0.00000000E+00  0.00000000E+00  0.00000000E+00
  0.00000000E+00  0.00000000E+00  0.00000000E+00
  0.00000000E+00  0.00000000E+00  0.00000000E+00
  0.00000000E+00  0.00000000E+00  0.00000000E+00
  0.00000000E+00  0.00000000E+00  0.00000000E+00
  0.00000000E+00  0.00000000E+00  0.00000000E+00
  0.00000000E+00  0.00000000E+00  0.00000000E+00
  0.00000000E+00  0.00000000E+00  0.00000000E+00
  0.00000000E+00  0.00000000E+00  0.00000000E+00
  0.00000000E+00  0.00000000E+00  0.00000000E+00
  0.00000000E+00  0.00000000E+00  0.00000000E+00
  0.00000000E+00  0.00000000E+00  0.00000000E+00
  0.00000000E+00  0.00000000E+00  0.00000000E+00
  0.00000000E+00  0.00000000E+00  0.00000000E+00
  0.00000000E+00  0.00000000E+00  0.00000000E+00
  0.00000000E+00  0.00000000E+00  0.00000000E+00
  0.00000000E+00  0.00000000E+00  0.00000000E+00
  0.00000000E+00  0.00000000E+00  0.00000000E+00
