       N       E                     dE             d eps       ncg     rms          rms(c)
DAV:   1     0.115093073217E+04    0.11509E+04   -0.82187E+04  4096   0.568E+02
DAV:   2    -0.401139979880E+03   -0.15521E+04   -0.15502E+04  6144   0.111E+02
DAV:   3    -0.474977719444E+03   -0.73838E+02   -0.73824E+02  8192   0.361E+01
DAV:   4    -0.475029253903E+03   -0.51534E-01   -0.51534E-01  4096   0.116E+00
DAV:   5    -0.475029557850E+03   -0.30395E-03   -0.30395E-03  8192   0.938E-02    0.278E+01
DAV:   6    -0.451378210854E+03    0.23651E+02   -0.33352E+01  6400   0.641E+00    0.141E+01
DAV:   7    -0.443547914894E+03    0.78303E+01   -0.20134E+01  8192   0.514E+00    0.350E+00
DAV:   8    -0.443185785786E+03    0.36213E+00   -0.77398E-01  7168   0.106E+00    0.173E+00
DAV:   9    -0.443065586242E+03    0.12020E+00   -0.12398E-01  8192   0.450E-01    0.606E-01
DAV:  10    -0.443038765218E+03    0.26821E-01   -0.12830E-02  6656   0.149E-01    0.332E-01
DAV:  11    -0.443017433395E+03    0.21332E-01   -0.19924E-02  8192   0.133E-01    0.218E-01
DAV:  12    -0.443012503035E+03    0.49304E-02   -0.18964E-02  7168   0.135E-01    0.140E-01
DAV:  13    -0.443012884527E+03   -0.38149E-03   -0.52567E-03  7424   0.759E-02    0.904E-02
DAV:  14    -0.443030175424E+03   -0.17291E-01   -0.30773E-03  5632   0.487E-02    0.498E-02
DAV:  15    -0.443043270585E+03   -0.13095E-01   -0.11587E-03  7168   0.295E-02    0.310E-02
DAV:  16    -0.443052315869E+03   -0.90453E-02   -0.99729E-04  7936   0.238E-02    0.155E-02
DAV:  17    -0.443054826565E+03   -0.25107E-02   -0.14569E-04  8192   0.903E-03    0.933E-03
DAV:  18    -0.443056248975E+03   -0.14224E-02   -0.98911E-05  6400   0.701E-03    0.478E-03
DAV:  19    -0.443056792427E+03   -0.54345E-03   -0.37855E-05  4096   0.407E-03    0.275E-03
DAV:  20    -0.443057015820E+03   -0.22339E-03   -0.11374E-05  7168   0.230E-03    0.169E-03
DAV:  21    -0.443057130710E+03   -0.11489E-03   -0.67455E-06  6144   0.164E-03    0.117E-03
DAV:  22    -0.443057186605E+03   -0.55895E-04   -0.14907E-06  8192   0.880E-04    0.857E-04
DAV:  23    -0.443057230721E+03   -0.44116E-04   -0.39964E-07  7168   0.581E-04    0.526E-04
DAV:  24    -0.443057254479E+03   -0.23758E-04   -0.98213E-08  6912   0.364E-04    0.313E-04
DAV:  25    -0.443057266752E+03   -0.12272E-04   -0.71479E-08  7680   0.274E-04    0.161E-04
DAV:  26    -0.443057271333E+03   -0.45810E-05   -0.31833E-08  7680   0.200E-04
   1 F= -.44476509E+03 E0= -.44474229E+03  d E =-.444765E+03  mag=     0.0000
