C  N  Al
 1.0000000000000000
    12.3000000000000007    0.0000000000000000    0.0000000000000000
    -6.1499999999999977   10.6521124665485960    0.0000000000000000
     0.0000000000000000    0.0000000000000000   20.0000000000000000
 C   N   Al 
  44   4   1
Direct
  0.9990690000000000  0.0009310000000000  0.7500010000000001
  0.1311820000000000  0.0646490000000000  0.7499940000000000
  0.1979640000000000  0.9978730000000000  0.7499940000000000
  0.3298520000000000  0.0623950000000000  0.7499810000000000
  0.3982170000000000  0.9971390000000000  0.7500010000000001
  0.5317430000000000  0.0680750000000000  0.7499930000000000
  0.5993900000000000  0.0010740000000000  0.7499900000000000
  0.7318390000000000  0.0695870000000000  0.7499990000000000
  0.7992620000000000  0.0021050000000000  0.7500040000000001
  0.9322530000000000  0.0677470000000000  0.7500010000000001
  0.9978950000000000  0.2007380000000000  0.7500040000000001
  0.1304930000000000  0.2648900000000000  0.7500010000000001
  0.1957570000000000  0.1965290000000000  0.7499810000000000
  0.3271000000000001  0.2605290000000000  0.7499910000000001
  0.3938610000000000  0.1937550000000000  0.7499910000000001
  0.5936030000000000  0.2021250000000000  0.7500410000000000
  0.7281430000000000  0.2718570000000000  0.7500130000000000
  0.7963760000000001  0.2036240000000000  0.7499960000000000
  0.9304130000000002  0.2681610000000000  0.7499990000000000
  0.9989260000000001  0.4006100000000001  0.7499900000000000
  0.1344040000000000  0.4660640000000000  0.7499900000000000
  0.2013850000000000  0.3983820000000000  0.7499930000000000
  0.3354340000000000  0.4602560000000000  0.7500400000000003
  0.7978750000000000  0.4063970000000000  0.7500410000000000
  0.9319250000000000  0.4682580000000000  0.7499930000000000
  0.0028610000000000  0.6017830000000000  0.7500010000000001
  0.1354330000000000  0.6659440000000000  0.7500040000000001
  0.2029020000000000  0.5985110000000000  0.7499990000000000
  0.3369540000000000  0.6630460000000000  0.7499960000000000
  0.4052020000000000  0.5947980000000000  0.7500130000000000
  0.5397440000000000  0.6645660000000000  0.7500400000000003
  0.7394710000000001  0.6729000000000001  0.7499910000000001
  0.8062450000000000  0.6061390000000000  0.7499910000000001
  0.9376050000000000  0.6701480000000000  0.7499810000000000
  0.0021270000000000  0.8020360000000000  0.7499940000000000
  0.1342690000000000  0.8657310000000000  0.7500010000000001
  0.2010700000000001  0.7989300000000001  0.7500010000000001
  0.3340560000000001  0.8645670000000000  0.7500040000000001
  0.4014890000000001  0.7970980000000000  0.7499990000000000
  0.5339360000000000  0.8655960000000000  0.7499900000000000
  0.6016180000000000  0.7986150000000000  0.7499930000000000
  0.7351100000000003  0.8695070000000000  0.7500010000000001
  0.8034710000000000  0.8042430000000000  0.7499810000000000
  0.9353510000000000  0.8688180000000000  0.7499940000000000
  0.5228880000000000  0.2630630000000000  0.7501360000000000
  0.3963860000000000  0.3895600000000000  0.7501370000000001
  0.7369370000000000  0.4771120000000000  0.7501360000000000
  0.6104400000000000  0.6036140000000000  0.7501370000000001
  0.5666660000000000  0.4333340000000001  0.7504610000000000
