       N       E                     dE             d eps       ncg     rms          ort
DAV:   1     0.991697537988E+03    0.99170E+03   -0.86678E+04  3328   0.664E+02
DAV:   2    -0.368263916125E+03   -0.13600E+04   -0.13594E+04  3328   0.972E+01
DAV:   3    -0.442857634620E+03   -0.74594E+02   -0.74593E+02  3328   0.361E+01
DAV:   4    -0.443624652969E+03   -0.76702E+00   -0.76701E+00  3328   0.398E+00
DAV:   5    -0.443624785543E+03   -0.13257E-03   -0.13257E-03  3328   0.635E-02
SDA:   6    -0.443624785543E+03    0.00000E+00   -0.13257E-03  3328   0.188E-05 0.000E+00
   1 F= -.44538750E+03 E0= -.44538635E+03  d E =-.231685E-02  mag=     1.9971
