C  N  Fe                                
   1.00000000000000     
    12.3000000000000007    0.0000000000000000    0.0000000000000000
    -6.1499999999999977   10.6521124665485960    0.0000000000000000
     0.0000000000000000    0.0000000000000000   20.0000000000000000
   C    N    Fe
    44     4     1
Direct
  0.9991241788638376  0.0008758358450933  0.7499987727050126
  0.1311233993173957  0.0644386508125621  0.7499848143158374
  0.1977659732530554  0.9978011064779224  0.7499848971176846
  0.3301324595749335  0.0626518032896257  0.7499740367204097
  0.3984496657336010  0.9973755480492912  0.7499879894066268
  0.5314481825813928  0.0671329298237424  0.7499898963607734
  0.5991249016864160  0.0007134662328880  0.7499847559640855
  0.7321933319841918  0.0696458069158012  0.7499990180775171
  0.7993892720488844  0.0026170003363859  0.7500002622460258
  0.9321989785969933  0.0678007151485502  0.7500068841336116
  0.9973831951553009  0.2006104138667482  0.7500000524328669
  0.1306536798797069  0.2650879434265434  0.7499853679008055
  0.1959197773367904  0.1967904351846599  0.7499742760585235
  0.3271917921502947  0.2611347480462527  0.7500239852904826
  0.3943994673981948  0.1939232222767515  0.7500214422172249
  0.5932210288298094  0.2019468184829236  0.7500493607978882
  0.7282876020239044  0.2717123824048500  0.7500330898513994
  0.7962598166671455  0.2037403102405193  0.7500037860288771
  0.9303543324291255  0.2678064802924638  0.7499990058621009
  0.9992865392547401  0.4008750399788426  0.7499847466024434
  0.1340897501362051  0.4657548536695089  0.7499833454682445
  0.2004796121800538  0.3980620758576023  0.7499871585202982
  0.3352939109765103  0.4599007048649213  0.7500534989689669
  0.7980531731733223  0.4067789452272237  0.7500495105124116
  0.9328670370038665  0.4685517956702725  0.7499899091419877
  0.0026244358252612  0.6015503146738439  0.7499879431079108
  0.1359060209585792  0.6660185082194516  0.7500014592587476
  0.2029555760491490  0.5988203297195085  0.7499996161545965
  0.3370533110819167  0.6629466925168330  0.7500088529851965
  0.4050429665710524  0.5949570802111595  0.7500401632745906
  0.5400993341905931  0.6647061198343636  0.7500536338730299
  0.7388652542837022  0.6728082452306552  0.7500240502589008
  0.8060767751889131  0.6056005447749229  0.7500215200449247
  0.9373481592902095  0.6698675129238083  0.7499739321516898
  0.0021989095360269  0.8022340500049978  0.7499847858353093
  0.1342317899548959  0.8657681593283115  0.7499993014097512
  0.2011552323573440  0.7988447565981218  0.7500057069516259
  0.3339814584923815  0.8640939431578403  0.7500014794822292
  0.4011796635388407  0.7970444219006083  0.7499996232308206
  0.5342451700686510  0.8659102743006102  0.7499833454597038
  0.6019379788866672  0.7995204021489144  0.7499871675655783
  0.7349120315742255  0.8693464842455541  0.7499853458884189
  0.8032096407904774  0.8040803361655904  0.7499741675818470
  0.9355613648562695  0.8688765992278249  0.7499847114788167
  0.5232458705691627  0.2610510878878856  0.7501460500297981
  0.3944002106079765  0.3899579961345694  0.7501467159846413
  0.7389489172786128  0.4767541508080910  0.7501463659128618
  0.6100420176335533  0.6055998009175667  0.7501470066208427
  0.5666738521798891  0.4333261566470270  0.7503451927559865
 
  0.00000000E+00  0.00000000E+00  0.00000000E+00
  0.00000000E+00  0.00000000E+00  0.00000000E+00
  0.00000000E+00  0.00000000E+00  0.00000000E+00
  0.00000000E+00  0.00000000E+00  0.00000000E+00
  0.00000000E+00  0.00000000E+00  0.00000000E+00
  0.00000000E+00  0.00000000E+00  0.00000000E+00
  0.00000000E+00  0.00000000E+00  0.00000000E+00
  0.00000000E+00  0.00000000E+00  0.00000000E+00
  0.00000000E+00  0.00000000E+00  0.00000000E+00
  0.00000000E+00  0.00000000E+00  0.00000000E+00
  0.00000000E+00  0.00000000E+00  0.00000000E+00
  0.00000000E+00  0.00000000E+00  0.00000000E+00
  0.00000000E+00  0.00000000E+00  0.00000000E+00
  0.00000000E+00  0.00000000E+00  0.00000000E+00
  0.00000000E+00  0.00000000E+00  0.00000000E+00
  0.00000000E+00  0.00000000E+00  0.00000000E+00
  0.00000000E+00  0.00000000E+00  0.00000000E+00
  0.00000000E+00  0.00000000E+00  0.00000000E+00
  0.00000000E+00  0.00000000E+00  0.00000000E+00
  0.00000000E+00  0.00000000E+00  0.00000000E+00
  0.00000000E+00  0.00000000E+00  0.00000000E+00
  0.00000000E+00  0.00000000E+00  0.00000000E+00
  0.00000000E+00  0.00000000E+00  0.00000000E+00
  0.00000000E+00  0.00000000E+00  0.00000000E+00
  0.00000000E+00  0.00000000E+00  0.00000000E+00
  0.00000000E+00  0.00000000E+00  0.00000000E+00
  0.00000000E+00  0.00000000E+00  0.00000000E+00
  0.00000000E+00  0.00000000E+00  0.00000000E+00
  0.00000000E+00  0.00000000E+00  0.00000000E+00
  0.00000000E+00  0.00000000E+00  0.00000000E+00
  0.00000000E+00  0.00000000E+00  0.00000000E+00
  0.00000000E+00  0.00000000E+00  0.00000000E+00
  0.00000000E+00  0.00000000E+00  0.00000000E+00
  0.00000000E+00  0.00000000E+00  0.00000000E+00
  0.00000000E+00  0.00000000E+00  0.00000000E+00
  0.00000000E+00  0.00000000E+00  0.00000000E+00
  0.00000000E+00  0.00000000E+00  0.00000000E+00
  0.00000000E+00  0.00000000E+00  0.00000000E+00
  0.00000000E+00  0.00000000E+00  0.00000000E+00
  0.00000000E+00  0.00000000E+00  0.00000000E+00
  0.00000000E+00  0.00000000E+00  0.00000000E+00
  0.00000000E+00  0.00000000E+00  0.00000000E+00
  0.00000000E+00  0.00000000E+00  0.00000000E+00
  0.00000000E+00  0.00000000E+00  0.00000000E+00
  0.00000000E+00  0.00000000E+00  0.00000000E+00
  0.00000000E+00  0.00000000E+00  0.00000000E+00
  0.00000000E+00  0.00000000E+00  0.00000000E+00
  0.00000000E+00  0.00000000E+00  0.00000000E+00
  0.00000000E+00  0.00000000E+00  0.00000000E+00
