C  N  La                                
   1.00000000000000     
    12.3000000000000007    0.0000000000000000    0.0000000000000000
    -6.1499999999999977   10.6521124665485960    0.0000000000000000
     0.0000000000000000    0.0000000000000000   20.0000000000000000
   C    N    La
    44     4     1
Direct
  0.9994030000000009  0.0005969999999991  0.7490360000000038
  0.1321349999999981  0.0656379999999999  0.7495550000000009
  0.1989489999999989  0.9988310000000027  0.7495540000000034
  0.3310540000000017  0.0643069999999994  0.7496289999999988
  0.3986400000000003  0.9981399999999994  0.7477039999999988
  0.5322859999999991  0.0665750000000003  0.7464149999999989
  0.5997649999999979  0.0005129999999980  0.7454090000000022
  0.7326160000000002  0.0684100000000001  0.7460870000000028
  0.7997560000000021  0.0012589999999975  0.7471060000000023
  0.9328229999999991  0.0671770000000009  0.7479939999999985
  0.9987410000000025  0.2002439999999979  0.7471060000000023
  0.1314500000000010  0.2653120000000015  0.7477110000000025
  0.1976289999999992  0.1977430000000027  0.7496689999999973
  0.3306690000000003  0.2649899999999974  0.7518400000000014
  0.3983050000000006  0.1973500000000001  0.7518450000000030
  0.5953149999999994  0.1999360000000010  0.7489479999999986
  0.7301440000000028  0.2698559999999972  0.7483390000000014
  0.7977440000000016  0.2022559999999984  0.7465800000000016
  0.9315899999999999  0.2673839999999998  0.7460870000000028
  0.9994870000000020  0.4002350000000021  0.7454090000000022
  0.1338739999999987  0.4664339999999996  0.7454079999999976
  0.1999169999999992  0.3989369999999965  0.7464039999999983
  0.3332880000000031  0.4619819999999990  0.7489429999999970
  0.8000639999999990  0.4046850000000006  0.7489479999999986
  0.9334249999999997  0.4677140000000009  0.7464149999999989
  0.0018600000000006  0.6013599999999997  0.7477039999999988
  0.1345949999999974  0.6664099999999991  0.7470879999999980
  0.2017579999999981  0.5992809999999977  0.7460870000000028
  0.3355900000000034  0.6644099999999966  0.7465710000000030
  0.4031859999999980  0.5968140000000020  0.7483489999999975
  0.5380180000000010  0.6667119999999969  0.7489429999999970
  0.7350100000000026  0.6693309999999997  0.7518400000000014
  0.8026499999999999  0.6016949999999994  0.7518450000000030
  0.9356930000000006  0.6689459999999983  0.7496289999999988
  0.0011689999999973  0.8010510000000011  0.7495540000000034
  0.1339180000000013  0.8660819999999987  0.7490409999999983
  0.2005089999999967  0.7994910000000033  0.7480040000000017
  0.3335900000000009  0.8654050000000026  0.7470879999999980
  0.4007190000000023  0.7982420000000019  0.7460870000000028
  0.5335660000000004  0.8661260000000013  0.7454079999999976
  0.6010630000000035  0.8000830000000008  0.7464039999999983
  0.7346879999999985  0.8685499999999990  0.7477110000000025
  0.8022569999999973  0.8023710000000008  0.7496689999999973
  0.9343620000000001  0.8678650000000019  0.7495550000000009
  0.5275299999999987  0.2606230000000025  0.7543620000000004
  0.3939629999999994  0.3942070000000015  0.7543530000000018
  0.7393769999999975  0.4724700000000013  0.7543620000000004
  0.6057929999999985  0.6060370000000006  0.7543530000000018
  0.5666560000000018  0.4333439999999982  0.8188540000000017
 
  0.00000000E+00  0.00000000E+00  0.00000000E+00
  0.00000000E+00  0.00000000E+00  0.00000000E+00
  0.00000000E+00  0.00000000E+00  0.00000000E+00
  0.00000000E+00  0.00000000E+00  0.00000000E+00
  0.00000000E+00  0.00000000E+00  0.00000000E+00
  0.00000000E+00  0.00000000E+00  0.00000000E+00
  0.00000000E+00  0.00000000E+00  0.00000000E+00
  0.00000000E+00  0.00000000E+00  0.00000000E+00
  0.00000000E+00  0.00000000E+00  0.00000000E+00
  0.00000000E+00  0.00000000E+00  0.00000000E+00
  0.00000000E+00  0.00000000E+00  0.00000000E+00
  0.00000000E+00  0.00000000E+00  0.00000000E+00
  0.00000000E+00  0.00000000E+00  0.00000000E+00
  0.00000000E+00  0.00000000E+00  0.00000000E+00
  0.00000000E+00  0.00000000E+00  0.00000000E+00
  0.00000000E+00  0.00000000E+00  0.00000000E+00
  0.00000000E+00  0.00000000E+00  0.00000000E+00
  0.00000000E+00  0.00000000E+00  0.00000000E+00
  0.00000000E+00  0.00000000E+00  0.00000000E+00
  0.00000000E+00  0.00000000E+00  0.00000000E+00
  0.00000000E+00  0.00000000E+00  0.00000000E+00
  0.00000000E+00  0.00000000E+00  0.00000000E+00
  0.00000000E+00  0.00000000E+00  0.00000000E+00
  0.00000000E+00  0.00000000E+00  0.00000000E+00
  0.00000000E+00  0.00000000E+00  0.00000000E+00
  0.00000000E+00  0.00000000E+00  0.00000000E+00
  0.00000000E+00  0.00000000E+00  0.00000000E+00
  0.00000000E+00  0.00000000E+00  0.00000000E+00
  0.00000000E+00  0.00000000E+00  0.00000000E+00
  0.00000000E+00  0.00000000E+00  0.00000000E+00
  0.00000000E+00  0.00000000E+00  0.00000000E+00
  0.00000000E+00  0.00000000E+00  0.00000000E+00
  0.00000000E+00  0.00000000E+00  0.00000000E+00
  0.00000000E+00  0.00000000E+00  0.00000000E+00
  0.00000000E+00  0.00000000E+00  0.00000000E+00
  0.00000000E+00  0.00000000E+00  0.00000000E+00
  0.00000000E+00  0.00000000E+00  0.00000000E+00
  0.00000000E+00  0.00000000E+00  0.00000000E+00
  0.00000000E+00  0.00000000E+00  0.00000000E+00
  0.00000000E+00  0.00000000E+00  0.00000000E+00
  0.00000000E+00  0.00000000E+00  0.00000000E+00
  0.00000000E+00  0.00000000E+00  0.00000000E+00
  0.00000000E+00  0.00000000E+00  0.00000000E+00
  0.00000000E+00  0.00000000E+00  0.00000000E+00
  0.00000000E+00  0.00000000E+00  0.00000000E+00
  0.00000000E+00  0.00000000E+00  0.00000000E+00
  0.00000000E+00  0.00000000E+00  0.00000000E+00
  0.00000000E+00  0.00000000E+00  0.00000000E+00
  0.00000000E+00  0.00000000E+00  0.00000000E+00
