       N       E                     dE             d eps       ncg     rms          ort
SDA:   1    -0.337051990559E+03   -0.33705E+03    0.00000E+00  3328   0.134E+03 0.000E+00
CGA:   2    -0.412909634692E+03   -0.75858E+02   -0.73021E+02  3328   0.642E+02 0.468E+01
CGA:   3    -0.432033270470E+03   -0.19124E+02   -0.19021E+02  3328   0.261E+02 0.770E+00
CGA:   4    -0.439770771430E+03   -0.77375E+01   -0.77207E+01  3328   0.122E+02 0.957E-01
CGA:   5    -0.442462344497E+03   -0.26916E+01   -0.26920E+01  3328   0.475E+01 0.796E-02
CGA:   6    -0.443538321869E+03   -0.10760E+01   -0.10759E+01  3328   0.162E+01 0.101E-01
CGA:   7    -0.443999799059E+03   -0.46148E+00   -0.46200E+00  3328   0.532E+00-0.797E-02
CGA:   8    -0.444146153341E+03   -0.14635E+00   -0.14646E+00  3328   0.201E+00-0.167E-02
CGA:   9    -0.444203077476E+03   -0.56924E-01   -0.56933E-01  3328   0.658E-01-0.148E-03
CGA:  10    -0.444225887857E+03   -0.22810E-01   -0.22811E-01  3328   0.268E-01-0.157E-04
CGA:  11    -0.444235606830E+03   -0.97190E-02   -0.97260E-02  3328   0.112E-01-0.569E-04
CGA:  12    -0.444239762995E+03   -0.41562E-02   -0.41620E-02  3328   0.408E-02-0.416E-04
CGA:  13    -0.444241311759E+03   -0.15488E-02   -0.15508E-02  3328   0.137E-02-0.130E-04
CGA:  14    -0.444241849439E+03   -0.53768E-03   -0.53842E-03  3328   0.499E-03-0.331E-05
CGA:  15    -0.444242065195E+03   -0.21576E-03   -0.21522E-03  3328   0.208E-03 0.512E-05
CGA:  16    -0.444242163394E+03   -0.98198E-04   -0.97531E-04  3328   0.102E-03 0.455E-05
CGA:  17    -0.444242211305E+03   -0.47912E-04   -0.47264E-04  3328   0.468E-04 0.431E-05
CGA:  18    -0.444242233408E+03   -0.22102E-04   -0.21715E-04  3328   0.221E-04 0.281E-05
CGA:  19    -0.444242244124E+03   -0.10716E-04   -0.10394E-04  3328   0.109E-04 0.214E-05
CGA:  20    -0.444242249867E+03   -0.57433E-05   -0.55774E-05  3328   0.567E-05 0.102E-05
   1 F= -.44599105E+03 E0= -.44597936E+03  d E =-.233863E-01  mag=     0.0000
