 vasp.5.4.4.18Apr17-6-g9f103f2a35 (build Nov 21 2023 15:34:30) complex          
  
 executed on             LinuxIFC date 2026.09.21  18:32:35
 running on  256 total cores
 distrk:  each k-point on  256 cores,    1 groups
 distr:  one band on NCORES_PER_BAND=   1 cores,  256 groups


--------------------------------------------------------------------------------------------------------


 INCAR:
 POTCAR:   PAW_PBE Sb 06Sep2000                   

 ----------------------------------------------------------------------------- 
|                                                                             |
|           W    W    AA    RRRRR   N    N  II  N    N   GGGG   !!!           |
|           W    W   A  A   R    R  NN   N  II  NN   N  G    G  !!!           |
|           W    W  A    A  R    R  N N  N  II  N N  N  G       !!!           |
|           W WW W  AAAAAA  RRRRR   N  N N  II  N  N N  G  GGG   !            |
|           WW  WW  A    A  R   R   N   NN  II  N   NN  G    G                |
|           W    W  A    A  R    R  N    N  II  N    N   GGGG   !!!           |
|                                                                             |
|      For optimal performance we recommend to set                            |
|        NCORE= 4 - approx SQRT( number of cores)                             |
|      NCORE specifies how many cores store one orbital (NPAR=cpu/NCORE).     |
|      This setting can  greatly improve the performance of VASP for DFT.     |
|      The default,   NCORE=1            might be grossly inefficient         |
|      on modern multi-core architectures or massively parallel machines.     |
|      Do your own testing !!!!                                               |
|      Unfortunately you need to use the default for GW and RPA calculations. |
|      (for HF NCORE is supported but not extensively tested yet)             |
|                                                                             |
 ----------------------------------------------------------------------------- 

 POTCAR:   PAW_PBE Sb 06Sep2000                   
   VRHFIN =Sb: s2p3                                                             
   LEXCH  = PE                                                                  
   EATOM  =   149.8037 eV,   11.0103 Ry                                         
                                                                                
   TITEL  = PAW_PBE Sb 06Sep2000                                                
   LULTRA =        F    use ultrasoft PP ?                                      
   IUNSCR =        1    unscreen: 0-lin 1-nonlin 2-no                           
   RPACOR =    2.200    partial core radius                                     
   POMASS =  121.750; ZVAL   =    5.000    mass and valenz                      
   RCORE  =    2.300    outmost cutoff radius                                   
   RWIGS  =    2.980; RWIGS  =    1.577    wigner-seitz radius (au A)           
   ENMAX  =  172.037; ENMIN  =  129.028 eV                                      
   ICORE  =        3    local potential                                         
   LCOR   =        T    correct aug charges                                     
   LPAW   =        T    paw PP                                                  
   EAUG   =  380.513                                                            
   DEXC   =    -.415                                                            
   RMAX   =    3.515    core radius for proj-oper                               
   RAUG   =    1.300    factor for augmentation sphere                          
   RDEP   =    2.360    radius for radial grids                                 
   QCUT   =   -3.556; QGAM   =    7.112    optimization parameters              
                                                                                
   Description                                                                  
     l     E      TYP  RCUT    TYP  RCUT                                        
     0   .000     23  2.300                                                     
     0  1.000     23  2.300                                                     
     1   .000     23  2.300                                                     
     1   .000     23  2.300                                                     
     2   .000     23  2.300                                                     
     3  -.100     23  2.300                                                     
  local pseudopotential read in
  partial core-charges read in
  atomic valenz-charges read in
  non local Contribution for L=           0  read in
    real space projection operators read in
  non local Contribution for L=           0  read in
    real space projection operators read in
  non local Contribution for L=           1  read in
    real space projection operators read in
  non local Contribution for L=           1  read in
    real space projection operators read in
  non local Contribution for L=           2  read in
    real space projection operators read in
    PAW grid and wavefunctions read in
 
   number of l-projection  operators is LMAX  =           5
   number of lm-projection operators is LMMAX =          13
 
 PAW_PBE Sb 06Sep2000                   :
 energy of atom  1       EATOM= -149.8037
 kinetic energy error for atom=    0.0005 (will be added to EATOM!!)
 
 
 POSCAR: Sb                                      
  positions in direct lattice
  No initial velocities read in
 exchange correlation table for  LEXCH =        8
   RHO(1)=    0.500       N(1)  =     2000
   RHO(2)=  100.500       N(2)  =     4000

 VTST: version 3.2, (02/03/18)

 CHAIN: initializing optimizer
 
 OPT: Using VASP Dynamics algorithm
 CHAIN: Read ICHAIN            0
 
 POSCAR: Sb                                      
  positions in direct lattice
  No initial velocities read in
 


--------------------------------------------------------------------------------------------------------


 ion  position               nearest neighbor table
   1  0.010  0.010  0.751-
 

IMPORTANT INFORMATION: All symmetrisations will be switched off!
NOSYMM: (Re-)initialisation of all symmetry stuff for point group C_1.

 
 

Automatic generation of k-mesh.
 generate k-points for:    1    1    1
Space group operators:
 irot       det(A)        alpha          n_x          n_y          n_z        tau_x        tau_y        tau_z
    1     1.000000     0.000000     1.000000     0.000000     0.000000     0.000000     0.000000     0.000000
 
 Subroutine IBZKPT returns following result:
 ===========================================
 
 Found      1 irreducible k-points:
 
 Following reciprocal coordinates:
            Coordinates               Weight
  0.000000  0.000000  0.000000      1.000000
 
 Following cartesian coordinates:
            Coordinates               Weight
  0.000000  0.000000  0.000000      1.000000
 


--------------------------------------------------------------------------------------------------------




 Dimension of arrays:
   k-points           NKPTS =      1   k-points in BZ     NKDIM =      1   number of bands    NBANDS=    256
   number of dos      NEDOS =    301   number of ions     NIONS =      1
   non local maximal  LDIM  =      5   non local SUM 2l+1 LMDIM =     13
   total plane-waves  NPLWV = ******
   max r-space proj   IRMAX =      1   max aug-charges    IRDMAX=  23299
   dimension x,y,z NGX =   112 NGY =  112 NGZ =  112
   dimension x,y,z NGXF=   224 NGYF=  224 NGZF=  224
   support grid    NGXF=   224 NGYF=  224 NGZF=  224
   ions per type =               1
   NGX,Y,Z   is equivalent  to a cutoff of  12.41, 12.41, 12.41 a.u.
   NGXF,Y,Z  is equivalent  to a cutoff of  24.83, 24.83, 24.83 a.u.

 SYSTEM =  Sb                                      
 POSCAR =  Sb                                      

 Startparameter for this run:
   NWRITE =      2    write-flag & timer
   PREC   = accura    normal or accurate (medium, high low for compatibility)
   ISTART =      0    job   : 0-new  1-cont  2-samecut
   ICHARG =      2    charge: 1-file 2-atom 10-const
   ISPIN  =      2    spin polarized calculation?
   LNONCOLLINEAR =      F non collinear calculations
   LSORBIT =      F    spin-orbit coupling
   INIWAV =      1    electr: 0-lowe 1-rand  2-diag
   LASPH  =      T    aspherical Exc in radial PAW
   METAGGA=      F    non-selfconsistent MetaGGA calc.

 Electronic Relaxation 1
   ENCUT  =  520.0 eV  38.22 Ry    6.18 a.u.  27.89 27.89 27.89*2*pi/ulx,y,z
   ENINI  =  520.0     initial cutoff
   ENAUG  =  380.5 eV  augmentation charge cutoff
   NELM   =    200;   NELMIN=  2; NELMDL= -5     # of ELM steps 
   EDIFF  = 0.1E-04   stopping-criterion for ELM
   LREAL  =      F    real-space projection
   NLSPLINE    = F    spline interpolate recip. space projectors
   LCOMPAT=      F    compatible to vasp.4.4
   GGA_COMPAT  = T    GGA compatible to vasp.4.4-vasp.4.6
   LMAXPAW     = -100 max onsite density
   LMAXMIX     =    2 max onsite mixed and CHGCAR
   VOSKOWN=      0    Vosko Wilk Nusair interpolation
   ROPT   =    0.00000
 Ionic relaxation
   EDIFFG = 0.1E-03   stopping-criterion for IOM
   NSW    =      0    number of steps for IOM
   NBLOCK =      1;   KBLOCK =      1    inner block; outer block 
   IBRION =     -1    ionic relax: 0-MD 1-quasi-New 2-CG
   NFREE  =      0    steps in history (QN), initial steepest desc. (CG)
   ISIF   =      0    stress and relaxation
   IWAVPR =     10    prediction:  0-non 1-charg 2-wave 3-comb
   ISYM   =      0    0-nonsym 1-usesym 2-fastsym
   LCORR  =      T    Harris-Foulkes like correction to forces

   POTIM  = 0.5000    time-step for ionic-motion
   TEIN   =    0.0    initial temperature
   TEBEG  =    0.0;   TEEND  =   0.0 temperature during run
   SMASS  =  -3.00    Nose mass-parameter (am)
   estimated Nose-frequenzy (Omega)   =  0.10E-29 period in steps =****** mass=  -0.514E-26a.u.
   SCALEE = 1.0000    scale energy and forces
   NPACO  =    256;   APACO  = 16.0  distance and # of slots for P.C.
   PSTRESS=    0.0 pullay stress

  Mass of Ions in am
   POMASS = 121.75
  Ionic Valenz
   ZVAL   =   5.00
  Atomic Wigner-Seitz radii
   RWIGS  =  -1.00
  virtual crystal weights 
   VCA    =   1.00
   NELECT =       5.0000    total number of electrons
   NUPDOWN=       3.0000    fix difference up-down

 DOS related values:
   EMIN   =  10.00;   EMAX   =-10.00  energy-range for DOS
   EFERMI =   0.00
   ISMEAR =     0;   SIGMA  =   0.05  broadening in eV -4-tet -1-fermi 0-gaus

 Electronic relaxation 2 (details)
   IALGO  =     58    algorithm
   LDIAG  =      T    sub-space diagonalisation (order eigenvalues)
   LSUBROT=      F    optimize rotation matrix (better conditioning)
   TURBO    =      0    0=normal 1=particle mesh
   IRESTART =      0    0=no restart 2=restart with 2 vectors
   NREBOOT  =      0    no. of reboots
   NMIN     =      0    reboot dimension
   EREF     =   0.00    reference energy to select bands
   IMIX   =      4    mixing-type and parameters
     AMIX     =   0.40;   BMIX     =  1.00
     AMIX_MAG =   1.60;   BMIX_MAG =  1.00
     AMIN     =   0.10
     WC   =   100.;   INIMIX=   1;  MIXPRE=   1;  MAXMIX= -45

 Intra band minimization:
   WEIMIN = 0.0000     energy-eigenvalue tresh-hold
   EBREAK =  0.98E-08  absolut break condition
   DEPER  =   0.30     relativ break condition  

   TIME   =   0.40     timestep for ELM

  volume/ion in A,a.u.               =    3375.00     22775.62
  Fermi-wavevector in a.u.,A,eV,Ry     =   0.186627  0.352673  0.473884  0.034829
  Thomas-Fermi vector in A             =   0.921172
 
 Write flags
   LWAVE        =      F    write WAVECAR
   LDOWNSAMPLE  =      F    k-point downsampling of WAVECAR
   LCHARG       =      F    write CHGCAR
   LVTOT        =      F    write LOCPOT, total local potential
   LVHAR        =      F    write LOCPOT, Hartree potential only
   LELF         =      F    write electronic localiz. function (ELF)
   LORBIT       =      0    0 simple, 1 ext, 2 COOP (PROOUT), +10 PAW based schemes


 Dipole corrections
   LMONO  =      F    monopole corrections only (constant potential shift)
   LDIPOL =      F    correct potential (dipole corrections)
   IDIPOL =      0    1-x, 2-y, 3-z, 4-all directions 
   EPSILON=  1.0000000 bulk dielectric constant

 Exchange correlation treatment:
   GGA     =    --    GGA type
   LEXCH   =     8    internal setting for exchange type
   VOSKOWN=      0    Vosko Wilk Nusair interpolation
   LHFCALC =     F    Hartree Fock is set to
   LHFONE  =     F    Hartree Fock one center treatment
   AEXX    =    0.0000 exact exchange contribution

 Linear response parameters
   LEPSILON=     F    determine dielectric tensor
   LRPA    =     F    only Hartree local field effects (RPA)
   LNABLA  =     F    use nabla operator in PAW spheres
   LVEL    =     F    velocity operator in full k-point grid
   LINTERFAST=   F  fast interpolation
   KINTER  =     0    interpolate to denser k-point grid
   CSHIFT  =0.1000    complex shift for real part using Kramers Kronig
   OMEGAMAX=  -1.0    maximum frequency
   DEG_THRESHOLD= 0.2000000E-02 threshold for treating states as degnerate
   RTIME   =   -0.100 relaxation time in fs
  (WPLASMAI=    0.000 imaginary part of plasma frequency in eV, 0.658/RTIME)
   DFIELD  = 0.0000000 0.0000000 0.0000000 field for delta impulse in time
 
 Orbital magnetization related:
   ORBITALMAG=     F  switch on orbital magnetization
   LCHIMAG   =     F  perturbation theory with respect to B field
   DQ        =  0.001000  dq finite difference perturbation B field
   LLRAUG    =     F  two centre corrections for induced B field



--------------------------------------------------------------------------------------------------------


 Static calculation
 charge density and potential will be updated during run
 spin polarized calculation
 Conjugate gradient for all bands (Freysoldt, et al. PRB 79, 241103 (2009))
 preconditioned conjugated gradient                                        
 perform sub-space diagonalisation
    before iterative eigenvector-optimisation
 modified Broyden-mixing scheme, WC =      100.0
 initial mixing is a Kerker type mixing with AMIX =  0.4000 and BMIX =      1.0000
 Hartree-type preconditioning will be used
 using additional bands          253
 reciprocal scheme for non local part
 use partial core corrections
 no Harris-corrections to forces 
 use gradient corrections 
 use of overlap-Matrix (Vanderbilt PP)
 Gauss-broadening in eV      SIGMA  =   0.05


--------------------------------------------------------------------------------------------------------


  energy-cutoff  :      520.00
  volume of cell :     3375.00
      direct lattice vectors                 reciprocal lattice vectors
    15.000000000  0.000000000  0.000000000     0.066666667  0.000000000  0.000000000
     0.000000000 15.000000000  0.000000000     0.000000000  0.066666667  0.000000000
     0.000000000  0.000000000 15.000000000     0.000000000  0.000000000  0.066666667

  length of vectors
    15.000000000 15.000000000 15.000000000     0.066666667  0.066666667  0.066666667


 
 k-points in units of 2pi/SCALE and weight: read from INCAR                         
   0.00000000  0.00000000  0.00000000       1.000
 
 k-points in reciprocal lattice and weights: read from INCAR                         
   0.00000000  0.00000000  0.00000000       1.000
 
 position of ions in fractional coordinates (direct lattice) 
   0.01000000  0.01000000  0.75100000
 
 position of ions in cartesian coordinates  (Angst):
   0.15000000  0.15000000 11.26500000
 


--------------------------------------------------------------------------------------------------------


 k-point  1 :   0.0000 0.0000 0.0000  plane waves:   90879

 maximum and minimum number of plane-waves per node :     90879    90879

 maximum number of plane-waves:     90879
 maximum index in each direction: 
   IXMAX=   27   IYMAX=   27   IZMAX=   27
   IXMIN=  -27   IYMIN=  -27   IZMIN=  -27


 serial   3D FFT for wavefunctions
 parallel 3D FFT for charge:
    minimum data exchange during FFTs selected (reduces bandwidth)


 total amount of memory used by VASP MPI-rank0   173581. kBytes
=======================================================================

   base      :      30000. kBytes
   nonl-proj :      10905. kBytes
   fftplans  :       7479. kBytes
   grid      :     116433. kBytes
   one-center:         16. kBytes
   wavefun   :       8748. kBytes
 
     INWAV:  cpu time    0.0000: real time    0.0000
 Broyden mixing: mesh for mixing (old mesh)
   NGX = 55   NGY = 55   NGZ = 55
  (NGX  =224   NGY  =224   NGZ  =224)
  gives a total of 166375 points

 initial charge density was supplied:
 charge density of overlapping atoms calculated
 number of electron       5.0000000 magnetization       3.0000000
 keeping initial charge density in first step


--------------------------------------------------------------------------------------------------------


 Maximum index for augmentation-charges          946 (set IRDMAX)


--------------------------------------------------------------------------------------------------------


 First call to EWALD:  gamma=   0.118
 Maximum number of real-space cells 3x 3x 3
 Maximum number of reciprocal cells 3x 3x 3

    FEWALD:  cpu time    0.0150: real time    0.0150


--------------------------------------- Iteration      1(   1)  ---------------------------------------


    POTLOK:  cpu time    2.4640: real time    2.4842
    SETDIJ:  cpu time    0.4113: real time    0.4306
    TRIAL :  cpu time    8.8620: real time    8.9274
    CORREC:  cpu time    0.0327: real time    0.0328
    --------------------------------------------
      LOOP:  cpu time   11.7794: real time   11.8929

 eigenvalue-minimisations  :  1024
 total energy-change (2. order) : 0.1028266E+02  (-0.1778214E+03)
 number of electron       5.0000000 magnetization       3.0000000
 augmentation part        5.0000000 magnetization       3.0000000

 Free energy of the ion-electron system (eV)
  ---------------------------------------------------
  alpha Z        PSCENC =        -0.01770493
  Ewald energy   TEWEN  =       -34.04706668
  -Hartree energ DENC   =       -82.77248169
  -exchange      EXHF   =         0.00000000
  -V(xc)+E(xc)   XCENC  =       -46.70392752
  PAW double counting   =        85.33599120      -31.26923009
  entropy T*S    EENTRO =        -0.00000000
  eigenvalues    EBANDS =       -30.04615343
  atomic energy  EATOM  =       149.80323287
  ---------------------------------------------------
  free energy    TOTEN  =        10.28265973 eV

  energy without entropy =       10.28265973  energy(sigma->0) =       10.28265973


--------------------------------------------------------------------------------------------------------




--------------------------------------- Iteration      1(   2)  ---------------------------------------


    TRIAL :  cpu time   31.3686: real time   31.3728
    CORREC:  cpu time    0.1018: real time    0.1018
    --------------------------------------------
      LOOP:  cpu time   31.4793: real time   31.5148

 eigenvalue-minimisations  :  1536
 total energy-change (2. order) :-0.1162782E+02  (-0.1162782E+02)
 number of electron       5.0000000 magnetization       3.0000000
 augmentation part        5.0000000 magnetization       3.0000000

 Free energy of the ion-electron system (eV)
  ---------------------------------------------------
  alpha Z        PSCENC =        -0.01770493
  Ewald energy   TEWEN  =       -34.04706668
  -Hartree energ DENC   =       -82.77248169
  -exchange      EXHF   =         0.00000000
  -V(xc)+E(xc)   XCENC  =       -46.70392752
  PAW double counting   =        85.33599120      -31.26923009
  entropy T*S    EENTRO =        -0.00000000
  eigenvalues    EBANDS =       -41.67397000
  atomic energy  EATOM  =       149.80323287
  ---------------------------------------------------
  free energy    TOTEN  =        -1.34515684 eV

  energy without entropy =       -1.34515684  energy(sigma->0) =       -1.34515684


--------------------------------------------------------------------------------------------------------




--------------------------------------- Iteration      1(   3)  ---------------------------------------


    TRIAL :  cpu time   15.3232: real time   15.3244
    CORREC:  cpu time    0.0333: real time    0.0333
    --------------------------------------------
      LOOP:  cpu time   15.3956: real time   15.3970

 eigenvalue-minimisations  :  1024
 total energy-change (2. order) :-0.1250614E-01  (-0.1250614E-01)
 number of electron       5.0000000 magnetization       3.0000000
 augmentation part        5.0000000 magnetization       3.0000000

 Free energy of the ion-electron system (eV)
  ---------------------------------------------------
  alpha Z        PSCENC =        -0.01770493
  Ewald energy   TEWEN  =       -34.04706668
  -Hartree energ DENC   =       -82.77248169
  -exchange      EXHF   =         0.00000000
  -V(xc)+E(xc)   XCENC  =       -46.70392752
  PAW double counting   =        85.33599120      -31.26923009
  entropy T*S    EENTRO =        -0.00000000
  eigenvalues    EBANDS =       -41.68647614
  atomic energy  EATOM  =       149.80323287
  ---------------------------------------------------
  free energy    TOTEN  =        -1.35766298 eV

  energy without entropy =       -1.35766298  energy(sigma->0) =       -1.35766298


--------------------------------------------------------------------------------------------------------




--------------------------------------- Iteration      1(   4)  ---------------------------------------


    TRIAL :  cpu time   17.5590: real time   17.6071
    CORREC:  cpu time    0.0336: real time    0.0336
    --------------------------------------------
      LOOP:  cpu time   17.6010: real time   17.6491

 eigenvalue-minimisations  :  1792
 total energy-change (2. order) :-0.5735868E-04  (-0.5735868E-04)
 number of electron       5.0000000 magnetization       3.0000000
 augmentation part        5.0000000 magnetization       3.0000000

 Free energy of the ion-electron system (eV)
  ---------------------------------------------------
  alpha Z        PSCENC =        -0.01770493
  Ewald energy   TEWEN  =       -34.04706668
  -Hartree energ DENC   =       -82.77248169
  -exchange      EXHF   =         0.00000000
  -V(xc)+E(xc)   XCENC  =       -46.70392752
  PAW double counting   =        85.33599120      -31.26923009
  entropy T*S    EENTRO =        -0.00000000
  eigenvalues    EBANDS =       -41.68653350
  atomic energy  EATOM  =       149.80323287
  ---------------------------------------------------
  free energy    TOTEN  =        -1.35772034 eV

  energy without entropy =       -1.35772034  energy(sigma->0) =       -1.35772034


--------------------------------------------------------------------------------------------------------




--------------------------------------- Iteration      1(   5)  ---------------------------------------


    TRIAL :  cpu time    8.3609: real time    8.3630
    CORREC:  cpu time    0.0329: real time    0.0329
    CHARGE:  cpu time    1.2958: real time    1.3189
    --------------------------------------------
      LOOP:  cpu time    9.6983: real time    9.7235

 eigenvalue-minimisations  :  1024
 total energy-change (2. order) :-0.3786624E-08  (-0.3732780E-08)
 number of electron       5.0000000 magnetization       3.0000000
 augmentation part       -0.8233153 magnetization      -0.1682473

 Free energy of the ion-electron system (eV)
  ---------------------------------------------------
  alpha Z        PSCENC =        -0.01770493
  Ewald energy   TEWEN  =       -34.04706668
  -Hartree energ DENC   =       -82.77248169
  -exchange      EXHF   =         0.00000000
  -V(xc)+E(xc)   XCENC  =       -46.70392752
  PAW double counting   =        85.33599120      -31.26923009
  entropy T*S    EENTRO =        -0.00000000
  eigenvalues    EBANDS =       -41.68653350
  atomic energy  EATOM  =       149.80323287
  ---------------------------------------------------
  free energy    TOTEN  =        -1.35772034 eV

  energy without entropy =       -1.35772034  energy(sigma->0) =       -1.35772034


--------------------------------------------------------------------------------------------------------




--------------------------------------- Iteration      1(   6)  ---------------------------------------


    POTLOK:  cpu time    2.4363: real time    2.4366
    SETDIJ:  cpu time    0.4121: real time    0.4122
    TRIAL :  cpu time    3.6535: real time    3.9736
    CORREC:  cpu time    5.9080: real time    6.0043
    CHARGE:  cpu time    1.2854: real time    1.2855
    --------------------------------------------
      LOOP:  cpu time   13.7118: real time   14.1285

 eigenvalue-minimisations  :     0
 total energy-change (2. order) :-0.4206785E-01  (-0.7966226E-02)
 number of electron       5.0000000 magnetization       3.0000000
 augmentation part       -0.8130033 magnetization      -0.1582178

 Free energy of the ion-electron system (eV)
  ---------------------------------------------------
  alpha Z        PSCENC =        -0.01770493
  Ewald energy   TEWEN  =       -34.04706668
  -Hartree energ DENC   =       -84.48930491
  -exchange      EXHF   =         0.00000000
  -V(xc)+E(xc)   XCENC  =       -46.58955660
  PAW double counting   =        87.30085499      -33.27337306
  entropy T*S    EENTRO =        -0.00000000
  eigenvalues    EBANDS =       -40.08686987
  atomic energy  EATOM  =       149.80323287
  ---------------------------------------------------
  free energy    TOTEN  =        -1.39978819 eV

  energy without entropy =       -1.39978819  energy(sigma->0) =       -1.39978819


--------------------------------------------------------------------------------------------------------




--------------------------------------- Iteration      1(   7)  ---------------------------------------


    POTLOK:  cpu time    2.4104: real time    2.4106
    SETDIJ:  cpu time    0.4199: real time    0.4200
    TRIAL :  cpu time    3.5280: real time    3.5829
    CORREC:  cpu time    5.9559: real time    6.0204
    CHARGE:  cpu time    1.3283: real time    1.3284
    --------------------------------------------
      LOOP:  cpu time   13.6606: real time   13.7826

 eigenvalue-minimisations  :     0
 total energy-change (2. order) :-0.7996399E-02  (-0.1913274E-02)
 number of electron       5.0000000 magnetization       3.0000000
 augmentation part       -0.8132444 magnetization      -0.1554415

 Free energy of the ion-electron system (eV)
  ---------------------------------------------------
  alpha Z        PSCENC =        -0.01770493
  Ewald energy   TEWEN  =       -34.04706668
  -Hartree energ DENC   =       -83.94873349
  -exchange      EXHF   =         0.00000000
  -V(xc)+E(xc)   XCENC  =       -46.60763005
  PAW double counting   =        86.51919791      -32.47398369
  entropy T*S    EENTRO =        -0.00000000
  eigenvalues    EBANDS =       -40.63509654
  atomic energy  EATOM  =       149.80323287
  ---------------------------------------------------
  free energy    TOTEN  =        -1.40778459 eV

  energy without entropy =       -1.40778459  energy(sigma->0) =       -1.40778459


--------------------------------------------------------------------------------------------------------




--------------------------------------- Iteration      1(   8)  ---------------------------------------


    POTLOK:  cpu time    2.4379: real time    2.4383
    SETDIJ:  cpu time    0.4107: real time    0.4107
    TRIAL :  cpu time    3.4405: real time    3.5033
    CORREC:  cpu time    6.1584: real time    6.2815
    CHARGE:  cpu time    1.3609: real time    1.3610
    --------------------------------------------
      LOOP:  cpu time   13.8283: real time   14.0148

 eigenvalue-minimisations  :     0
 total energy-change (2. order) :-0.1921713E-02  (-0.6138736E-03)
 number of electron       5.0000000 magnetization       3.0000000
 augmentation part       -0.8136744 magnetization      -0.1543560

 Free energy of the ion-electron system (eV)
  ---------------------------------------------------
  alpha Z        PSCENC =        -0.01770493
  Ewald energy   TEWEN  =       -34.04706668
  -Hartree energ DENC   =       -83.82325805
  -exchange      EXHF   =         0.00000000
  -V(xc)+E(xc)   XCENC  =       -46.61673477
  PAW double counting   =        86.38899161      -32.34053385
  entropy T*S    EENTRO =        -0.00000000
  eigenvalues    EBANDS =       -40.75663251
  atomic energy  EATOM  =       149.80323287
  ---------------------------------------------------
  free energy    TOTEN  =        -1.40970631 eV

  energy without entropy =       -1.40970631  energy(sigma->0) =       -1.40970631


--------------------------------------------------------------------------------------------------------




--------------------------------------- Iteration      1(   9)  ---------------------------------------


    POTLOK:  cpu time    2.4272: real time    2.4275
    SETDIJ:  cpu time    0.4111: real time    0.4111
    TRIAL :  cpu time    3.4682: real time    3.5256
    CORREC:  cpu time    6.2577: real time    6.3354
    CHARGE:  cpu time    1.3078: real time    1.3079
    --------------------------------------------
      LOOP:  cpu time   13.8832: real time   14.0188

 eigenvalue-minimisations  :     0
 total energy-change (2. order) :-0.6161410E-03  (-0.1977572E-03)
 number of electron       5.0000000 magnetization       3.0000000
 augmentation part       -0.8139208 magnetization      -0.1540033

 Free energy of the ion-electron system (eV)
  ---------------------------------------------------
  alpha Z        PSCENC =        -0.01770493
  Ewald energy   TEWEN  =       -34.04706668
  -Hartree energ DENC   =       -83.76033441
  -exchange      EXHF   =         0.00000000
  -V(xc)+E(xc)   XCENC  =       -46.62405942
  PAW double counting   =        86.35569755      -32.30679810
  entropy T*S    EENTRO =        -0.00000000
  eigenvalues    EBANDS =       -40.81328933
  atomic energy  EATOM  =       149.80323287
  ---------------------------------------------------
  free energy    TOTEN  =        -1.41032245 eV

  energy without entropy =       -1.41032245  energy(sigma->0) =       -1.41032245


--------------------------------------------------------------------------------------------------------




--------------------------------------- Iteration      1(  10)  ---------------------------------------


    POTLOK:  cpu time    2.4488: real time    2.4490
    SETDIJ:  cpu time    0.4129: real time    0.4129
    TRIAL :  cpu time    3.4047: real time    3.4615
    CORREC:  cpu time    5.9729: real time    6.0401
    CHARGE:  cpu time    1.3742: real time    1.3743
    --------------------------------------------
      LOOP:  cpu time   13.6291: real time   13.7553

 eigenvalue-minimisations  :     0
 total energy-change (2. order) :-0.1987751E-03  (-0.4166945E-04)
 number of electron       5.0000000 magnetization       3.0000000
 augmentation part       -0.8141056 magnetization      -0.1538698

 Free energy of the ion-electron system (eV)
  ---------------------------------------------------
  alpha Z        PSCENC =        -0.01770493
  Ewald energy   TEWEN  =       -34.04706668
  -Hartree energ DENC   =       -83.72508069
  -exchange      EXHF   =         0.00000000
  -V(xc)+E(xc)   XCENC  =       -46.62916577
  PAW double counting   =        86.34728219      -32.29850976
  entropy T*S    EENTRO =        -0.00000000
  eigenvalues    EBANDS =       -40.84350845
  atomic energy  EATOM  =       149.80323287
  ---------------------------------------------------
  free energy    TOTEN  =        -1.41052122 eV

  energy without entropy =       -1.41052122  energy(sigma->0) =       -1.41052122


--------------------------------------------------------------------------------------------------------




--------------------------------------- Iteration      1(  11)  ---------------------------------------


    POTLOK:  cpu time    2.4393: real time    2.4396
    SETDIJ:  cpu time    0.4097: real time    0.4097
    TRIAL :  cpu time    3.4616: real time    3.5201
    CORREC:  cpu time    6.0299: real time    6.1062
    CHARGE:  cpu time    1.3198: real time    1.3198
    --------------------------------------------
      LOOP:  cpu time   13.6757: real time   13.8131

 eigenvalue-minimisations  :     0
 total energy-change (2. order) :-0.4176894E-04  (-0.8633204E-05)
 number of electron       5.0000000 magnetization       3.0000000
 augmentation part       -0.8141467 magnetization      -0.1537765

 Free energy of the ion-electron system (eV)
  ---------------------------------------------------
  alpha Z        PSCENC =        -0.01770493
  Ewald energy   TEWEN  =       -34.04706668
  -Hartree energ DENC   =       -83.72238041
  -exchange      EXHF   =         0.00000000
  -V(xc)+E(xc)   XCENC  =       -46.63026007
  PAW double counting   =        86.35415221      -32.30564348
  entropy T*S    EENTRO =        -0.00000000
  eigenvalues    EBANDS =       -40.84489250
  atomic energy  EATOM  =       149.80323287
  ---------------------------------------------------
  free energy    TOTEN  =        -1.41056299 eV

  energy without entropy =       -1.41056299  energy(sigma->0) =       -1.41056299


--------------------------------------------------------------------------------------------------------




--------------------------------------- Iteration      1(  12)  ---------------------------------------


    POTLOK:  cpu time    2.4990: real time    2.4996
    SETDIJ:  cpu time    0.4110: real time    0.4111
    TRIAL :  cpu time    3.4587: real time    3.5098
    CORREC:  cpu time    5.8590: real time    5.9585
    EDDIAG:  cpu time    1.6556: real time    1.6716
    CHARGE:  cpu time    1.3083: real time    1.3085
    --------------------------------------------
      LOOP:  cpu time   15.2099: real time   15.3774

 eigenvalue-minimisations  :     0
 total energy-change (2. order) :-0.8543113E-05  (-0.2173250E-05)
 number of electron       5.0000000 magnetization       3.0000000
 augmentation part       -0.8141779 magnetization      -0.1537216

 Free energy of the ion-electron system (eV)
  ---------------------------------------------------
  alpha Z        PSCENC =        -0.01770493
  Ewald energy   TEWEN  =       -34.04706668
  -Hartree energ DENC   =       -83.72775111
  -exchange      EXHF   =         0.00000000
  -V(xc)+E(xc)   XCENC  =       -46.62988387
  PAW double counting   =        86.35913248      -32.31077166
  entropy T*S    EENTRO =        -0.00000000
  eigenvalues    EBANDS =       -40.83975863
  atomic energy  EATOM  =       149.80323287
  ---------------------------------------------------
  free energy    TOTEN  =        -1.41057153 eV

  energy without entropy =       -1.41057153  energy(sigma->0) =       -1.41057153


--------------------------------------------------------------------------------------------------------


  average scaling for gradient   1.1634


 average (electrostatic) potential at core
  the test charge radii are     1.1712
  (the norm of the test charge is              1.0000)
       1 -97.1144
 
 
 
 E-fermi : -11.2015     XC(G=0):  -0.2847     alpha+bet : -0.1062


 spin component 1

 k-point     1 :       0.0000    0.0000    0.0000
  band No.  band energies     occupation 
      1     -13.2815      1.00000
      2      -5.3601      1.00000
      3      -5.3601      1.00000
      4      -5.3601      1.00000
      5      -0.5596      0.00000
      6       0.3331      0.00000
      7       0.3969      0.00000
      8       0.3969      0.00000
      9       0.3969      0.00000
     10       0.4923      0.00000
     11       0.4923      0.00000
     12       0.7759      0.00000
     13       0.7759      0.00000
     14       0.7759      0.00000
     15       1.1184      0.00000
     16       1.1184      0.00000
     17       1.1184      0.00000
     18       1.1370      0.00000
     19       1.1370      0.00000
     20       1.1850      0.00000
     21       1.3014      0.00000
     22       1.3014      0.00000
     23       1.3014      0.00000
     24       1.6798      0.00000
     25       1.6798      0.00000
     26       1.6798      0.00000
     27       1.7045      0.00000
     28       1.7045      0.00000
     29       1.8332      0.00000
     30       1.9225      0.00000
     31       1.9225      0.00000
     32       1.9225      0.00000
     33       1.9961      0.00000
     34       2.3837      0.00000
     35       2.3837      0.00000
     36       2.3837      0.00000
     37       2.4522      0.00000
     38       2.4522      0.00000
     39       2.4522      0.00000
     40       2.6270      0.00000
     41       2.8654      0.00000
     42       2.8654      0.00000
     43       2.9464      0.00000
     44       2.9464      0.00000
     45       2.9464      0.00000
     46       3.1348      0.00000
     47       3.1348      0.00000
     48       3.1348      0.00000
     49       3.2288      0.00000
     50       3.2288      0.00000
     51       3.2288      0.00000
     52       3.2664      0.00000
     53       3.2664      0.00000
     54       3.2664      0.00000
     55       3.2936      0.00000
     56       3.2936      0.00000
     57       3.3507      0.00000
     58       3.3507      0.00000
     59       3.3507      0.00000
     60       3.3850      0.00000
     61       3.3988      0.00000
     62       3.5006      0.00000
     63       3.5008      0.00000
     64       3.5008      0.00000
     65       3.5008      0.00000
     66       3.7643      0.00000
     67       3.7643      0.00000
     68       3.8283      0.00000
     69       3.8283      0.00000
     70       3.8283      0.00000
     71       3.9114      0.00000
     72       3.9114      0.00000
     73       3.9114      0.00000
     74       3.9302      0.00000
     75       3.9302      0.00000
     76       3.9302      0.00000
     77       3.9337      0.00000
     78       3.9337      0.00000
     79       3.9337      0.00000
     80       3.9572      0.00000
     81       3.9572      0.00000
     82       4.0117      0.00000
     83       4.0117      0.00000
     84       4.0117      0.00000
     85       4.1158      0.00000
     86       4.3789      0.00000
     87       4.3789      0.00000
     88       4.4622      0.00000
     89       4.4622      0.00000
     90       4.4622      0.00000
     91       4.9406      0.00000
     92       4.9406      0.00000
     93       4.9406      0.00000
     94       5.1753      0.00000
     95       5.1753      0.00000
     96       5.2068      0.00000
     97       5.2068      0.00000
     98       5.2068      0.00000
     99       5.3356      0.00000
    100       5.3853      0.00000
    101       5.3859      0.00000
    102       5.3859      0.00000
    103       5.3859      0.00000
    104       5.4699      0.00000
    105       5.4699      0.00000
    106       5.4699      0.00000
    107       5.6532      0.00000
    108       5.8522      0.00000
    109       5.8522      0.00000
    110       5.8522      0.00000
    111       5.8769      0.00000
    112       5.8769      0.00000
    113       5.8769      0.00000
    114       5.9023      0.00000
    115       5.9023      0.00000
    116       5.9243      0.00000
    117       5.9243      0.00000
    118       5.9243      0.00000
    119       5.9285      0.00000
    120       5.9285      0.00000
    121       5.9285      0.00000
    122       5.9379      0.00000
    123       5.9379      0.00000
    124       6.0924      0.00000
    125       6.0924      0.00000
    126       6.0924      0.00000
    127       6.1872      0.00000
    128       6.1872      0.00000
    129       6.1977      0.00000
    130       6.2421      0.00000
    131       6.2421      0.00000
    132       6.2421      0.00000
    133       6.3125      0.00000
    134       6.3125      0.00000
    135       6.3125      0.00000
    136       6.3507      0.00000
    137       6.3507      0.00000
    138       6.3507      0.00000
    139       6.3669      0.00000
    140       6.3669      0.00000
    141       6.3669      0.00000
    142       6.6434      0.00000
    143       6.6434      0.00000
    144       6.6466      0.00000
    145       6.6466      0.00000
    146       6.6466      0.00000
    147       6.6535      0.00000
    148       6.6905      0.00000
    149       6.6905      0.00000
    150       6.6905      0.00000
    151       6.8356      0.00000
    152       6.8356      0.00000
    153       6.8356      0.00000
    154       6.8424      0.00000
    155       7.0069      0.00000
    156       7.0069      0.00000
    157       7.0569      0.00000
    158       7.1342      0.00000
    159       7.1342      0.00000
    160       7.1342      0.00000
    161       7.1391      0.00000
    162       7.1391      0.00000
    163       7.1391      0.00000
    164       7.1738      0.00000
    165       7.1738      0.00000
    166       7.1738      0.00000
    167       7.1802      0.00000
    168       7.1802      0.00000
    169       7.1802      0.00000
    170       7.1895      0.00000
    171       7.1895      0.00000
    172       7.4211      0.00000
    173       7.4211      0.00000
    174       7.4211      0.00000
    175       7.4839      0.00000
    176       7.4839      0.00000
    177       7.4839      0.00000
    178       7.5251      0.00000
    179       7.6629      0.00000
    180       7.7187      0.00000
    181       7.7187      0.00000
    182       7.8925      0.00000
    183       7.8925      0.00000
    184       7.8925      0.00000
    185       7.9286      0.00000
    186       7.9286      0.00000
    187       7.9286      0.00000
    188       7.9521      0.00000
    189       7.9521      0.00000
    190       7.9521      0.00000
    191       7.9909      0.00000
    192       8.4187      0.00000
    193       8.4187      0.00000
    194       8.4235      0.00000
    195       8.4235      0.00000
    196       8.4235      0.00000
    197       8.5327      0.00000
    198       8.5327      0.00000
    199       8.5327      0.00000
    200       8.5503      0.00000
    201       8.5503      0.00000
    202       8.5503      0.00000
    203       8.5705      0.00000
    204       8.6813      0.00000
    205       8.7172      0.00000
    206       8.7172      0.00000
    207       8.7172      0.00000
    208       8.7207      0.00000
    209       8.7207      0.00000
    210       8.7207      0.00000
    211       8.8503      0.00000
    212       8.8523      0.00000
    213       8.8523      0.00000
    214       8.9414      0.00000
    215       8.9414      0.00000
    216       8.9414      0.00000
    217       9.0343      0.00000
    218       9.0343      0.00000
    219       9.0343      0.00000
    220       9.0518      0.00000
    221       9.0518      0.00000
    222       9.0531      0.00000
    223       9.0531      0.00000
    224       9.0531      0.00000
    225       9.0541      0.00000
    226       9.0541      0.00000
    227       9.0541      0.00000
    228       9.2525      0.00000
    229       9.2525      0.00000
    230       9.2528      0.00000
    231       9.2528      0.00000
    232       9.2529      0.00000
    233       9.2827      0.00000
    234       9.2827      0.00000
    235       9.2827      0.00000
    236       9.2831      0.00000
    237       9.2831      0.00000
    238       9.2831      0.00000
    239       9.2899      0.00000
    240       9.2899      0.00000
    241       9.2899      0.00000
    242       9.2977      0.00000
    243       9.2977      0.00000
    244       9.3475      0.00000
    245       9.3569      0.00000
    246       9.3569      0.00000
    247       9.3569      0.00000
    248       9.3636      0.00000
    249       9.3636      0.00000
    250       9.3636      0.00000
    251       9.3695      0.00000
    252       9.4032      0.00000
    253       9.4032      0.00000
    254       9.4032      0.00000
    255       9.4177      0.00000
    256       9.4177      0.00000

 spin component 2

 k-point     1 :       0.0000    0.0000    0.0000
  band No.  band energies     occupation 
      1     -11.4755      1.00000
      2      -3.4421      0.00000
      3      -3.4421      0.00000
      4      -3.4421      0.00000
      5       0.0266      0.00000
      6       0.6427      0.00000
      7       0.7361      0.00000
      8       0.7361      0.00000
      9       0.7579      0.00000
     10       0.7579      0.00000
     11       0.7579      0.00000
     12       1.3328      0.00000
     13       1.3328      0.00000
     14       1.3328      0.00000
     15       1.3851      0.00000
     16       1.3851      0.00000
     17       1.3949      0.00000
     18       1.4230      0.00000
     19       1.4230      0.00000
     20       1.4230      0.00000
     21       1.4337      0.00000
     22       1.4337      0.00000
     23       1.4337      0.00000
     24       1.9620      0.00000
     25       1.9620      0.00000
     26       1.9620      0.00000
     27       2.0709      0.00000
     28       2.1058      0.00000
     29       2.1058      0.00000
     30       2.1058      0.00000
     31       2.1223      0.00000
     32       2.3993      0.00000
     33       2.3993      0.00000
     34       2.7615      0.00000
     35       2.7615      0.00000
     36       2.7615      0.00000
     37       2.7963      0.00000
     38       2.9520      0.00000
     39       2.9520      0.00000
     40       2.9520      0.00000
     41       3.0597      0.00000
     42       3.0597      0.00000
     43       3.3430      0.00000
     44       3.3430      0.00000
     45       3.3430      0.00000
     46       3.3782      0.00000
     47       3.3782      0.00000
     48       3.3782      0.00000
     49       3.4221      0.00000
     50       3.4221      0.00000
     51       3.4221      0.00000
     52       3.4237      0.00000
     53       3.4237      0.00000
     54       3.4354      0.00000
     55       3.4354      0.00000
     56       3.4354      0.00000
     57       3.4386      0.00000
     58       3.5286      0.00000
     59       3.5286      0.00000
     60       3.5286      0.00000
     61       3.6032      0.00000
     62       3.7457      0.00000
     63       3.7457      0.00000
     64       3.7457      0.00000
     65       3.9324      0.00000
     66       3.9324      0.00000
     67       3.9434      0.00000
     68       4.0406      0.00000
     69       4.0406      0.00000
     70       4.0406      0.00000
     71       4.0494      0.00000
     72       4.0494      0.00000
     73       4.0494      0.00000
     74       4.0827      0.00000
     75       4.0827      0.00000
     76       4.0827      0.00000
     77       4.0871      0.00000
     78       4.0871      0.00000
     79       4.0871      0.00000
     80       4.1000      0.00000
     81       4.1000      0.00000
     82       4.2503      0.00000
     83       4.2503      0.00000
     84       4.2503      0.00000
     85       4.4163      0.00000
     86       4.9290      0.00000
     87       4.9290      0.00000
     88       4.9290      0.00000
     89       4.9523      0.00000
     90       4.9523      0.00000
     91       5.2930      0.00000
     92       5.2930      0.00000
     93       5.2930      0.00000
     94       5.4849      0.00000
     95       5.4849      0.00000
     96       5.4849      0.00000
     97       5.5364      0.00000
     98       5.5364      0.00000
     99       5.5397      0.00000
    100       5.6441      0.00000
    101       5.6441      0.00000
    102       5.6441      0.00000
    103       5.8105      0.00000
    104       5.8811      0.00000
    105       5.8811      0.00000
    106       5.8811      0.00000
    107       6.0011      0.00000
    108       6.0011      0.00000
    109       6.0011      0.00000
    110       6.0141      0.00000
    111       6.0589      0.00000
    112       6.0590      0.00000
    113       6.0611      0.00000
    114       6.0611      0.00000
    115       6.0611      0.00000
    116       6.0898      0.00000
    117       6.0898      0.00000
    118       6.0899      0.00000
    119       6.0949      0.00000
    120       6.0949      0.00000
    121       6.0949      0.00000
    122       6.0972      0.00000
    123       6.0972      0.00000
    124       6.2593      0.00000
    125       6.2593      0.00000
    126       6.2593      0.00000
    127       6.3211      0.00000
    128       6.3212      0.00000
    129       6.3412      0.00000
    130       6.5666      0.00000
    131       6.5666      0.00000
    132       6.5666      0.00000
    133       6.6302      0.00000
    134       6.6302      0.00000
    135       6.6302      0.00000
    136       6.6570      0.00000
    137       6.6570      0.00000
    138       6.6570      0.00000
    139       6.7030      0.00000
    140       6.7030      0.00000
    141       6.7030      0.00000
    142       6.7590      0.00000
    143       6.7590      0.00000
    144       6.7658      0.00000
    145       6.7658      0.00000
    146       6.7658      0.00000
    147       6.7731      0.00000
    148       6.9140      0.00000
    149       6.9140      0.00000
    150       6.9140      0.00000
    151       7.0406      0.00000
    152       7.0759      0.00000
    153       7.0759      0.00000
    154       7.0759      0.00000
    155       7.1773      0.00000
    156       7.1773      0.00000
    157       7.2956      0.00000
    158       7.2956      0.00000
    159       7.2956      0.00000
    160       7.3120      0.00000
    161       7.3120      0.00000
    162       7.3120      0.00000
    163       7.3151      0.00000
    164       7.3556      0.00000
    165       7.3556      0.00000
    166       7.3556      0.00000
    167       7.4002      0.00000
    168       7.4002      0.00000
    169       7.4002      0.00000
    170       7.4131      0.00000
    171       7.4131      0.00000
    172       7.6214      0.00000
    173       7.6214      0.00000
    174       7.6214      0.00000
    175       7.7569      0.00000
    176       7.7591      0.00000
    177       7.7591      0.00000
    178       7.7591      0.00000
    179       7.9132      0.00000
    180       8.1361      0.00000
    181       8.1361      0.00000
    182       8.1361      0.00000
    183       8.1795      0.00000
    184       8.1795      0.00000
    185       8.2338      0.00000
    186       8.2522      0.00000
    187       8.2522      0.00000
    188       8.2522      0.00000
    189       8.3760      0.00000
    190       8.3760      0.00000
    191       8.3760      0.00000
    192       8.6746      0.00000
    193       8.6746      0.00000
    194       8.6746      0.00000
    195       8.6998      0.00000
    196       8.6998      0.00000
    197       8.7298      0.00000
    198       8.7298      0.00000
    199       8.7298      0.00000
    200       8.7496      0.00000
    201       8.7496      0.00000
    202       8.7496      0.00000
    203       8.7622      0.00000
    204       8.9178      0.00000
    205       8.9178      0.00000
    206       8.9178      0.00000
    207       8.9657      0.00000
    208       8.9657      0.00000
    209       8.9657      0.00000
    210       8.9974      0.00000
    211       9.0134      0.00000
    212       9.0628      0.00000
    213       9.0628      0.00000
    214       9.2031      0.00000
    215       9.2031      0.00000
    216       9.2031      0.00000
    217       9.2158      0.00000
    218       9.2158      0.00000
    219       9.2158      0.00000
    220       9.3037      0.00000
    221       9.3037      0.00000
    222       9.3037      0.00000
    223       9.3249      0.00000
    224       9.3249      0.00000
    225       9.3249      0.00000
    226       9.3589      0.00000
    227       9.3589      0.00000
    228       9.3847      0.00000
    229       9.3847      0.00000
    230       9.4165      0.00000
    231       9.4165      0.00000
    232       9.4165      0.00000
    233       9.4165      0.00000
    234       9.4165      0.00000
    235       9.4165      0.00000
    236       9.4311      0.00000
    237       9.4311      0.00000
    238       9.4311      0.00000
    239       9.4346      0.00000
    240       9.4346      0.00000
    241       9.4346      0.00000
    242       9.4373      0.00000
    243       9.4452      0.00000
    244       9.4452      0.00000
    245       9.4496      0.00000
    246       9.4496      0.00000
    247       9.4496      0.00000
    248       9.4534      0.00000
    249       9.4534      0.00000
    250       9.4534      0.00000
    251       9.4562      0.00000
    252       9.8304      0.00000
    253       9.8304      0.00000
    254       9.8304      0.00000
    255       9.9099      0.00000
    256       9.9099      0.00000


--------------------------------------------------------------------------------------------------------


 soft charge-density along one line, spin component           1
         0         1         2         3         4         5         6         7         8         9
 total charge-density along one line
 
 soft charge-density along one line, spin component           2
         0         1         2         3         4         5         6         7         8         9
 total charge-density along one line
 
 pseudopotential strength for first ion, spin component:           1
 43.037  -0.040  -0.000  -0.000  -0.000  -0.000  -0.000  -0.000
 -0.040   1.483  -0.000  -0.000  -0.000   0.000   0.000   0.000
 -0.000  -0.000   9.816   0.000   0.000   0.004  -0.000  -0.000
 -0.000  -0.000   0.000   9.816   0.000  -0.000   0.004  -0.000
 -0.000  -0.000   0.000   0.000   9.816  -0.000  -0.000   0.004
 -0.000   0.000   0.004  -0.000  -0.000   0.007   0.000   0.000
 -0.000   0.000  -0.000   0.004  -0.000   0.000   0.007   0.000
 -0.000   0.000  -0.000  -0.000   0.004   0.000   0.000   0.007
  0.000   0.000   0.000   0.000   0.000  -0.000  -0.000  -0.000
  0.000   0.000   0.000   0.000   0.000  -0.000  -0.000  -0.000
  0.000   0.000   0.000  -0.000   0.000   0.000  -0.000   0.000
  0.000   0.000   0.000   0.000   0.000  -0.000  -0.000  -0.000
 -0.000  -0.000   0.000   0.000  -0.000   0.000  -0.000  -0.000
 pseudopotential strength for first ion, spin component:           2
 42.852  -0.119  -0.000  -0.000  -0.000  -0.000  -0.000  -0.000
 -0.119   1.456  -0.000  -0.000  -0.000   0.000   0.000   0.000
 -0.000  -0.000   9.703   0.000   0.000   0.008  -0.000  -0.000
 -0.000  -0.000   0.000   9.703   0.000  -0.000   0.008  -0.000
 -0.000  -0.000   0.000   0.000   9.703  -0.000  -0.000   0.008
 -0.000   0.000   0.008  -0.000  -0.000   0.006   0.000   0.000
 -0.000   0.000  -0.000   0.008  -0.000   0.000   0.006   0.000
 -0.000   0.000  -0.000  -0.000   0.008   0.000   0.000   0.006
  0.000   0.000   0.000   0.000   0.000  -0.000  -0.000  -0.000
  0.000   0.000   0.000   0.000   0.000  -0.000  -0.000  -0.000
  0.000   0.000   0.000  -0.000   0.000   0.000  -0.000   0.000
  0.000   0.000   0.000   0.000   0.000  -0.000  -0.000  -0.000
  0.000   0.000   0.000  -0.000  -0.000   0.000   0.000  -0.000
 total augmentation occupancy for first ion, spin component:           1
  2.003   0.005   0.000   0.000   0.000   0.000   0.000   0.000  -0.000  -0.000   0.000  -0.000   0.000
  0.005   0.001  -0.000  -0.000  -0.000   0.000   0.000   0.000  -0.000  -0.000  -0.000  -0.000  -0.000
  0.000  -0.000   1.002  -0.000  -0.000  -0.147  -0.000  -0.000  -0.000  -0.000  -0.000  -0.000  -0.000
  0.000  -0.000  -0.000   1.002  -0.000  -0.000  -0.147  -0.000  -0.000  -0.000   0.000  -0.000   0.000
  0.000  -0.000  -0.000  -0.000   1.002  -0.000  -0.000  -0.147  -0.000  -0.000  -0.000  -0.000   0.000
  0.000   0.000  -0.147  -0.000  -0.000   0.022   0.000   0.000   0.000   0.000   0.000   0.000   0.000
  0.000   0.000  -0.000  -0.147  -0.000   0.000   0.022   0.000   0.000   0.000  -0.000   0.000  -0.000
  0.000   0.000  -0.000  -0.000  -0.147   0.000   0.000   0.022   0.000   0.000   0.000   0.000  -0.000
 -0.000  -0.000  -0.000  -0.000  -0.000   0.000   0.000   0.000   0.000   0.000   0.000   0.000  -0.000
 -0.000  -0.000  -0.000  -0.000  -0.000   0.000   0.000   0.000   0.000   0.000  -0.000   0.000   0.000
  0.000  -0.000  -0.000   0.000  -0.000   0.000  -0.000   0.000   0.000  -0.000   0.000  -0.000   0.000
 -0.000  -0.000  -0.000  -0.000  -0.000   0.000   0.000   0.000   0.000   0.000  -0.000   0.000  -0.000
  0.000  -0.000  -0.000   0.000   0.000   0.000  -0.000  -0.000  -0.000   0.000   0.000  -0.000   0.000
 total augmentation occupancy for first ion, spin component:           2
 -0.054   0.046   0.000   0.000   0.000   0.000   0.000   0.000  -0.000  -0.000  -0.000  -0.000  -0.000
  0.046   0.000  -0.000  -0.000  -0.000   0.000   0.000   0.000  -0.000  -0.000  -0.000  -0.000   0.000
  0.000  -0.000   1.002  -0.000  -0.000  -0.147  -0.000  -0.000  -0.000  -0.000  -0.000  -0.000  -0.000
  0.000  -0.000  -0.000   1.002  -0.000  -0.000  -0.147  -0.000  -0.000  -0.000   0.000  -0.000   0.000
  0.000  -0.000  -0.000  -0.000   1.002  -0.000  -0.000  -0.147  -0.000  -0.000  -0.000  -0.000   0.000
  0.000   0.000  -0.147  -0.000  -0.000   0.022   0.000   0.000   0.000   0.000   0.000   0.000   0.000
  0.000   0.000  -0.000  -0.147  -0.000   0.000   0.022   0.000   0.000   0.000  -0.000   0.000  -0.000
  0.000   0.000  -0.000  -0.000  -0.147   0.000   0.000   0.022   0.000   0.000   0.000   0.000  -0.000
 -0.000  -0.000  -0.000  -0.000  -0.000   0.000   0.000   0.000   0.000   0.000   0.000   0.000   0.000
 -0.000  -0.000  -0.000  -0.000  -0.000   0.000   0.000   0.000   0.000   0.000  -0.000   0.000   0.000
 -0.000  -0.000  -0.000   0.000  -0.000   0.000  -0.000   0.000   0.000  -0.000   0.000  -0.000  -0.000
 -0.000  -0.000  -0.000  -0.000  -0.000   0.000   0.000   0.000   0.000   0.000  -0.000   0.000  -0.000
 -0.000   0.000  -0.000   0.000   0.000   0.000  -0.000  -0.000   0.000   0.000  -0.000  -0.000   0.000


------------------------ aborting loop because EDIFF is reached ----------------------------------------


    FORLOC:  cpu time    0.0063: real time    0.0063
    FORNL :  cpu time    0.0398: real time    0.0519
    FORCOR:  cpu time    2.5054: real time    2.5530
    OFIELD:  cpu time    0.0009: real time    0.0047

 VOLUME and BASIS-vectors are now :
 -----------------------------------------------------------------------------
  energy-cutoff  :      520.00
  volume of cell :     3375.00
      direct lattice vectors                 reciprocal lattice vectors
    15.000000000  0.000000000  0.000000000     0.066666667  0.000000000  0.000000000
     0.000000000 15.000000000  0.000000000     0.000000000  0.066666667  0.000000000
     0.000000000  0.000000000 15.000000000     0.000000000  0.000000000  0.066666667

  length of vectors
    15.000000000 15.000000000 15.000000000     0.066666667  0.066666667  0.066666667


 FORCES acting on ions:
    Electron-Ion                     Ewald-Force                    Non-Local-Force
 -----------------------------------------------------------------------------------------------
   0.618E-05 0.618E-05 0.573E-05   0.375E-17 0.613E-17 -.123E-16   -.382E-05 -.381E-05 -.156E-05
 -----------------------------------------------------------------------------------------------
   0.635E-05 0.634E-05 0.619E-05   0.375E-17 0.613E-17 -.123E-16   -.382E-05 -.381E-05 -.156E-05
 
 
 POSITION                                       TOTAL-FORCE (eV/Angst)
 -----------------------------------------------------------------------------------
      0.15000      0.15000     11.26500         0.000003      0.000003      0.000005
 -----------------------------------------------------------------------------------
    total drift:                                0.000003      0.000003      0.000005


--------------------------------------------------------------------------------------------------------



  FREE ENERGIE OF THE ION-ELECTRON SYSTEM (eV)
  ---------------------------------------------------
  free  energy   TOTEN  =        -1.41057153 eV

  energy  without entropy=       -1.41057153  energy(sigma->0) =       -1.41057153
 


--------------------------------------------------------------------------------------------------------


    POTLOK:  cpu time    2.8291: real time    2.8429


--------------------------------------------------------------------------------------------------------


 stress matrix after NEB project (eV)
      0.00000      0.00000      0.00000
      0.00000      0.00000      0.00000
      0.00000      0.00000      0.00000
  FORCES: max atom, RMS     0.000006    0.000006
  FORCE total and by dimension    0.000006    0.000005
  Stress total and by dimension    0.000000    0.000000
     LOOP+:  cpu time  188.9804: real time  190.6404
    4ORBIT:  cpu time    0.0000: real time    0.0000

 total amount of memory used by VASP MPI-rank0   173581. kBytes
=======================================================================

   base      :      30000. kBytes
   nonl-proj :      10905. kBytes
   fftplans  :       7479. kBytes
   grid      :     116433. kBytes
   one-center:         16. kBytes
   wavefun   :       8748. kBytes
 
  
  
 General timing and accounting informations for this job:
 ========================================================
  
                  Total CPU time used (sec):      206.972
                            User time (sec):      201.804
                          System time (sec):        5.168
                         Elapsed time (sec):      212.014
  
                   Maximum memory used (kb):      448928.
                   Average memory used (kb):           0.
  
                          Minor page faults:        55837
                          Major page faults:            0
                 Voluntary context switches:         2333
