       N       E                     dE             d eps       ncg     rms          ort
DAV:   1     0.102301613585E+04    0.10230E+04   -0.90467E+04  3328   0.689E+02
DAV:   2    -0.359258727095E+03   -0.13823E+04   -0.13821E+04  3328   0.999E+01
DAV:   3    -0.438562533298E+03   -0.79304E+02   -0.79298E+02  3328   0.375E+01
DAV:   4    -0.439503280975E+03   -0.94075E+00   -0.94043E+00  3328   0.466E+00
DAV:   5    -0.439503456341E+03   -0.17537E-03   -0.17537E-03  3328   0.767E-02
SDA:   6    -0.439503456341E+03    0.00000E+00   -0.17537E-03  3328   0.289E-05 0.000E+00
   1 F= -.44125070E+03 E0= -.44124405E+03  d E =-.133036E-01  mag=     0.0000
