       N       E                     dE             d eps       ncg     rms          ort
DAV:   1     0.111522319344E+02    0.11152E+02   -0.24298E+03   256   0.213E+01
DAV:   2     0.272219618983E+00   -0.10880E+02   -0.10880E+02   256   0.306E+00
DAV:   3     0.258467950943E+00   -0.13752E-01   -0.13752E-01   256   0.141E-01
DAV:   4     0.258211610018E+00   -0.25634E-03   -0.25634E-03   256   0.214E-02
DAV:   5     0.258211361470E+00   -0.24855E-06   -0.24856E-06   256   0.452E-04
SDA:   6    -0.210710984291E+00   -0.46892E+00   -0.24856E-06   256   0.623E-01 0.000E+00
CGA:   7    -0.221417685789E+00   -0.10707E-01   -0.10703E-01   256   0.120E-01-0.362E-03
CGA:   8    -0.224569587733E+00   -0.31519E-02   -0.31604E-02   256   0.794E-02-0.104E-03
CGA:   9    -0.227419649300E+00   -0.28501E-02   -0.28462E-02   256   0.404E-02 0.424E-04
CGA:  10    -0.228467573027E+00   -0.10479E-02   -0.10478E-02   256   0.887E-03 0.919E-06
CGA:  11    -0.228691696412E+00   -0.22412E-03   -0.22424E-03   256   0.207E-03-0.374E-05
CGA:  12    -0.228748644747E+00   -0.56948E-04   -0.56989E-04   256   0.507E-04-0.814E-06
CGA:  13    -0.228763297257E+00   -0.14653E-04   -0.14670E-04   256   0.932E-05-0.269E-06
CGA:  14    -0.228765687640E+00   -0.23904E-05   -0.23806E-05   256   0.157E-05 0.265E-06
   1 F= -.22876569E+00 E0= -.22876569E+00  d E =-.312640E-13  mag=     1.0000
