 vasp.5.4.4.18Apr17-6-g9f103f2a35 (build Nov 21 2023 15:34:30) complex          
  
 executed on             LinuxIFC date 2026.09.21  18:07:34
 running on  256 total cores
 distrk:  each k-point on  256 cores,    1 groups
 distr:  one band on NCORES_PER_BAND=   1 cores,  256 groups


--------------------------------------------------------------------------------------------------------


 INCAR:
 POTCAR:    PAW_PBE Na_pv 19Sep2006               

 ----------------------------------------------------------------------------- 
|                                                                             |
|           W    W    AA    RRRRR   N    N  II  N    N   GGGG   !!!           |
|           W    W   A  A   R    R  NN   N  II  NN   N  G    G  !!!           |
|           W    W  A    A  R    R  N N  N  II  N N  N  G       !!!           |
|           W WW W  AAAAAA  RRRRR   N  N N  II  N  N N  G  GGG   !            |
|           WW  WW  A    A  R   R   N   NN  II  N   NN  G    G                |
|           W    W  A    A  R    R  N    N  II  N    N   GGGG   !!!           |
|                                                                             |
|      For optimal performance we recommend to set                            |
|        NCORE= 4 - approx SQRT( number of cores)                             |
|      NCORE specifies how many cores store one orbital (NPAR=cpu/NCORE).     |
|      This setting can  greatly improve the performance of VASP for DFT.     |
|      The default,   NCORE=1            might be grossly inefficient         |
|      on modern multi-core architectures or massively parallel machines.     |
|      Do your own testing !!!!                                               |
|      Unfortunately you need to use the default for GW and RPA calculations. |
|      (for HF NCORE is supported but not extensively tested yet)             |
|                                                                             |
 ----------------------------------------------------------------------------- 

 POTCAR:    PAW_PBE Na_pv 19Sep2006               
   VRHFIN =Na: p6s1                                                             
   LEXCH  = PE                                                                  
   EATOM  =   766.0439 eV,   56.3026 Ry                                         
                                                                                
   TITEL  = PAW_PBE Na_pv 19Sep2006                                             
   LULTRA =        F    use ultrasoft PP ?                                      
   IUNSCR =        1    unscreen: 0-lin 1-nonlin 2-no                           
   RPACOR =    1.800    partial core radius                                     
   POMASS =   22.990; ZVAL   =    7.000    mass and valenz                      
   RCORE  =    2.200    outmost cutoff radius                                   
   RWIGS  =    2.200; RWIGS  =    1.164    wigner-seitz radius (au A)           
   ENMAX  =  259.561; ENMIN  =  194.671 eV                                      
   ICORE  =        2    local potential                                         
   LCOR   =        T    correct aug charges                                     
   LPAW   =        T    paw PP                                                  
   EAUG   =  368.056                                                            
   DEXC   =     .000                                                            
   RMAX   =    2.862    core radius for proj-oper                               
   RAUG   =    1.300    factor for augmentation sphere                          
   RDEP   =    2.259    radius for radial grids                                 
   QCUT   =   -4.368; QGAM   =    8.735    optimization parameters              
                                                                                
   Description                                                                  
     l     E      TYP  RCUT    TYP  RCUT                                        
     1   .000     23  2.000                                                     
     1   .500     23  2.000                                                     
     0   .000     23  2.200                                                     
     0  2.500     23  2.200                                                     
     2  -.100     23  2.200                                                     
  local pseudopotential read in
  partial core-charges read in
  atomic valenz-charges read in
  non local Contribution for L=           1  read in
    real space projection operators read in
  non local Contribution for L=           1  read in
    real space projection operators read in
  non local Contribution for L=           0  read in
    real space projection operators read in
  non local Contribution for L=           0  read in
    real space projection operators read in
    PAW grid and wavefunctions read in
 
   number of l-projection  operators is LMAX  =           4
   number of lm-projection operators is LMMAX =           8
 
  PAW_PBE Na_pv 19Sep2006               :
 energy of atom  1       EATOM= -766.0439
 kinetic energy error for atom=    0.0019 (will be added to EATOM!!)
 
 
 POSCAR: Na                                      
  positions in direct lattice
  No initial velocities read in
 exchange correlation table for  LEXCH =        8
   RHO(1)=    0.500       N(1)  =     2000
   RHO(2)=  100.500       N(2)  =     4000

 VTST: version 3.2, (02/03/18)

 CHAIN: initializing optimizer
 
 OPT: Using VASP Dynamics algorithm
 CHAIN: Read ICHAIN            0
 
 POSCAR: Na                                      
  positions in direct lattice
  No initial velocities read in
 


--------------------------------------------------------------------------------------------------------


 ion  position               nearest neighbor table
   1  0.010  0.010  0.751-
 

IMPORTANT INFORMATION: All symmetrisations will be switched off!
NOSYMM: (Re-)initialisation of all symmetry stuff for point group C_1.

 
 

Automatic generation of k-mesh.
 generate k-points for:    1    1    1
Space group operators:
 irot       det(A)        alpha          n_x          n_y          n_z        tau_x        tau_y        tau_z
    1     1.000000     0.000000     1.000000     0.000000     0.000000     0.000000     0.000000     0.000000
 
 Subroutine IBZKPT returns following result:
 ===========================================
 
 Found      1 irreducible k-points:
 
 Following reciprocal coordinates:
            Coordinates               Weight
  0.000000  0.000000  0.000000      1.000000
 
 Following cartesian coordinates:
            Coordinates               Weight
  0.000000  0.000000  0.000000      1.000000
 


--------------------------------------------------------------------------------------------------------




 Dimension of arrays:
   k-points           NKPTS =      1   k-points in BZ     NKDIM =      1   number of bands    NBANDS=    256
   number of dos      NEDOS =    301   number of ions     NIONS =      1
   non local maximal  LDIM  =      4   non local SUM 2l+1 LMDIM =      8
   total plane-waves  NPLWV = ******
   max r-space proj   IRMAX =      1   max aug-charges    IRDMAX=  11591
   dimension x,y,z NGX =   112 NGY =  112 NGZ =  112
   dimension x,y,z NGXF=   224 NGYF=  224 NGZF=  224
   support grid    NGXF=   224 NGYF=  224 NGZF=  224
   ions per type =               1
   NGX,Y,Z   is equivalent  to a cutoff of  12.41, 12.41, 12.41 a.u.
   NGXF,Y,Z  is equivalent  to a cutoff of  24.83, 24.83, 24.83 a.u.

 SYSTEM =  Na                                      
 POSCAR =  Na                                      

 Startparameter for this run:
   NWRITE =      2    write-flag & timer
   PREC   = accura    normal or accurate (medium, high low for compatibility)
   ISTART =      0    job   : 0-new  1-cont  2-samecut
   ICHARG =      2    charge: 1-file 2-atom 10-const
   ISPIN  =      2    spin polarized calculation?
   LNONCOLLINEAR =      F non collinear calculations
   LSORBIT =      F    spin-orbit coupling
   INIWAV =      1    electr: 0-lowe 1-rand  2-diag
   LASPH  =      T    aspherical Exc in radial PAW
   METAGGA=      F    non-selfconsistent MetaGGA calc.

 Electronic Relaxation 1
   ENCUT  =  520.0 eV  38.22 Ry    6.18 a.u.  27.89 27.89 27.89*2*pi/ulx,y,z
   ENINI  =  520.0     initial cutoff
   ENAUG  =  368.1 eV  augmentation charge cutoff
   NELM   =    200;   NELMIN=  2; NELMDL= -5     # of ELM steps 
   EDIFF  = 0.1E-04   stopping-criterion for ELM
   LREAL  =      F    real-space projection
   NLSPLINE    = F    spline interpolate recip. space projectors
   LCOMPAT=      F    compatible to vasp.4.4
   GGA_COMPAT  = T    GGA compatible to vasp.4.4-vasp.4.6
   LMAXPAW     = -100 max onsite density
   LMAXMIX     =    2 max onsite mixed and CHGCAR
   VOSKOWN=      0    Vosko Wilk Nusair interpolation
   ROPT   =    0.00000
 Ionic relaxation
   EDIFFG = 0.1E-03   stopping-criterion for IOM
   NSW    =      0    number of steps for IOM
   NBLOCK =      1;   KBLOCK =      1    inner block; outer block 
   IBRION =     -1    ionic relax: 0-MD 1-quasi-New 2-CG
   NFREE  =      0    steps in history (QN), initial steepest desc. (CG)
   ISIF   =      0    stress and relaxation
   IWAVPR =     10    prediction:  0-non 1-charg 2-wave 3-comb
   ISYM   =      0    0-nonsym 1-usesym 2-fastsym
   LCORR  =      T    Harris-Foulkes like correction to forces

   POTIM  = 0.5000    time-step for ionic-motion
   TEIN   =    0.0    initial temperature
   TEBEG  =    0.0;   TEEND  =   0.0 temperature during run
   SMASS  =  -3.00    Nose mass-parameter (am)
   estimated Nose-frequenzy (Omega)   =  0.10E-29 period in steps =****** mass=  -0.514E-26a.u.
   SCALEE = 1.0000    scale energy and forces
   NPACO  =    256;   APACO  = 16.0  distance and # of slots for P.C.
   PSTRESS=    0.0 pullay stress

  Mass of Ions in am
   POMASS =  22.99
  Ionic Valenz
   ZVAL   =   7.00
  Atomic Wigner-Seitz radii
   RWIGS  =  -1.00
  virtual crystal weights 
   VCA    =   1.00
   NELECT =       7.0000    total number of electrons
   NUPDOWN=       1.0000    fix difference up-down

 DOS related values:
   EMIN   =  10.00;   EMAX   =-10.00  energy-range for DOS
   EFERMI =   0.00
   ISMEAR =     0;   SIGMA  =   0.05  broadening in eV -4-tet -1-fermi 0-gaus

 Electronic relaxation 2 (details)
   IALGO  =     58    algorithm
   LDIAG  =      T    sub-space diagonalisation (order eigenvalues)
   LSUBROT=      F    optimize rotation matrix (better conditioning)
   TURBO    =      0    0=normal 1=particle mesh
   IRESTART =      0    0=no restart 2=restart with 2 vectors
   NREBOOT  =      0    no. of reboots
   NMIN     =      0    reboot dimension
   EREF     =   0.00    reference energy to select bands
   IMIX   =      4    mixing-type and parameters
     AMIX     =   0.40;   BMIX     =  1.00
     AMIX_MAG =   1.60;   BMIX_MAG =  1.00
     AMIN     =   0.10
     WC   =   100.;   INIMIX=   1;  MIXPRE=   1;  MAXMIX= -45

 Intra band minimization:
   WEIMIN = 0.0000     energy-eigenvalue tresh-hold
   EBREAK =  0.98E-08  absolut break condition
   DEPER  =   0.30     relativ break condition  

   TIME   =   0.40     timestep for ELM

  volume/ion in A,a.u.               =    3375.00     22775.62
  Fermi-wavevector in a.u.,A,eV,Ry     =   0.208777  0.394532  0.593049  0.043588
  Thomas-Fermi vector in A             =   0.974306
 
 Write flags
   LWAVE        =      F    write WAVECAR
   LDOWNSAMPLE  =      F    k-point downsampling of WAVECAR
   LCHARG       =      F    write CHGCAR
   LVTOT        =      F    write LOCPOT, total local potential
   LVHAR        =      F    write LOCPOT, Hartree potential only
   LELF         =      F    write electronic localiz. function (ELF)
   LORBIT       =      0    0 simple, 1 ext, 2 COOP (PROOUT), +10 PAW based schemes


 Dipole corrections
   LMONO  =      F    monopole corrections only (constant potential shift)
   LDIPOL =      F    correct potential (dipole corrections)
   IDIPOL =      0    1-x, 2-y, 3-z, 4-all directions 
   EPSILON=  1.0000000 bulk dielectric constant

 Exchange correlation treatment:
   GGA     =    --    GGA type
   LEXCH   =     8    internal setting for exchange type
   VOSKOWN=      0    Vosko Wilk Nusair interpolation
   LHFCALC =     F    Hartree Fock is set to
   LHFONE  =     F    Hartree Fock one center treatment
   AEXX    =    0.0000 exact exchange contribution

 Linear response parameters
   LEPSILON=     F    determine dielectric tensor
   LRPA    =     F    only Hartree local field effects (RPA)
   LNABLA  =     F    use nabla operator in PAW spheres
   LVEL    =     F    velocity operator in full k-point grid
   LINTERFAST=   F  fast interpolation
   KINTER  =     0    interpolate to denser k-point grid
   CSHIFT  =0.1000    complex shift for real part using Kramers Kronig
   OMEGAMAX=  -1.0    maximum frequency
   DEG_THRESHOLD= 0.2000000E-02 threshold for treating states as degnerate
   RTIME   =   -0.100 relaxation time in fs
  (WPLASMAI=    0.000 imaginary part of plasma frequency in eV, 0.658/RTIME)
   DFIELD  = 0.0000000 0.0000000 0.0000000 field for delta impulse in time
 
 Orbital magnetization related:
   ORBITALMAG=     F  switch on orbital magnetization
   LCHIMAG   =     F  perturbation theory with respect to B field
   DQ        =  0.001000  dq finite difference perturbation B field
   LLRAUG    =     F  two centre corrections for induced B field



--------------------------------------------------------------------------------------------------------


 Static calculation
 charge density and potential will be updated during run
 spin polarized calculation
 Conjugate gradient for all bands (Freysoldt, et al. PRB 79, 241103 (2009))
 preconditioned conjugated gradient                                        
 perform sub-space diagonalisation
    before iterative eigenvector-optimisation
 modified Broyden-mixing scheme, WC =      100.0
 initial mixing is a Kerker type mixing with AMIX =  0.4000 and BMIX =      1.0000
 Hartree-type preconditioning will be used
 using additional bands          252
 reciprocal scheme for non local part
 use partial core corrections
 no Harris-corrections to forces 
 use gradient corrections 
 use of overlap-Matrix (Vanderbilt PP)
 Gauss-broadening in eV      SIGMA  =   0.05


--------------------------------------------------------------------------------------------------------


  energy-cutoff  :      520.00
  volume of cell :     3375.00
      direct lattice vectors                 reciprocal lattice vectors
    15.000000000  0.000000000  0.000000000     0.066666667  0.000000000  0.000000000
     0.000000000 15.000000000  0.000000000     0.000000000  0.066666667  0.000000000
     0.000000000  0.000000000 15.000000000     0.000000000  0.000000000  0.066666667

  length of vectors
    15.000000000 15.000000000 15.000000000     0.066666667  0.066666667  0.066666667


 
 k-points in units of 2pi/SCALE and weight: read from INCAR                         
   0.00000000  0.00000000  0.00000000       1.000
 
 k-points in reciprocal lattice and weights: read from INCAR                         
   0.00000000  0.00000000  0.00000000       1.000
 
 position of ions in fractional coordinates (direct lattice) 
   0.01000000  0.01000000  0.75100000
 
 position of ions in cartesian coordinates  (Angst):
   0.15000000  0.15000000 11.26500000
 


--------------------------------------------------------------------------------------------------------


 k-point  1 :   0.0000 0.0000 0.0000  plane waves:   90879

 maximum and minimum number of plane-waves per node :     90879    90879

 maximum number of plane-waves:     90879
 maximum index in each direction: 
   IXMAX=   27   IYMAX=   27   IZMAX=   27
   IXMIN=  -27   IYMIN=  -27   IZMIN=  -27


 serial   3D FFT for wavefunctions
 parallel 3D FFT for charge:
    minimum data exchange during FFTs selected (reduces bandwidth)


 total amount of memory used by VASP MPI-rank0   169936. kBytes
=======================================================================

   base      :      30000. kBytes
   nonl-proj :       7270. kBytes
   fftplans  :       7479. kBytes
   grid      :     116433. kBytes
   one-center:          6. kBytes
   wavefun   :       8748. kBytes
 
     INWAV:  cpu time    0.0000: real time    0.0000
 Broyden mixing: mesh for mixing (old mesh)
   NGX = 55   NGY = 55   NGZ = 55
  (NGX  =224   NGY  =224   NGZ  =224)
  gives a total of 166375 points

 initial charge density was supplied:
 charge density of overlapping atoms calculated
 number of electron       7.0000000 magnetization       1.0000000
 keeping initial charge density in first step


--------------------------------------------------------------------------------------------------------


 Maximum index for augmentation-charges          585 (set IRDMAX)


--------------------------------------------------------------------------------------------------------


 First call to EWALD:  gamma=   0.118
 Maximum number of real-space cells 3x 3x 3
 Maximum number of reciprocal cells 3x 3x 3

    FEWALD:  cpu time    0.0088: real time    0.0090


--------------------------------------- Iteration      1(   1)  ---------------------------------------


    POTLOK:  cpu time    2.4944: real time    2.5251
    SETDIJ:  cpu time    0.2025: real time    0.2206
    TRIAL :  cpu time    8.6230: real time    8.6728
    CORREC:  cpu time    0.0292: real time    0.0342
    --------------------------------------------
      LOOP:  cpu time   11.3579: real time   11.4657

 eigenvalue-minimisations  :  1024
 total energy-change (2. order) : 0.1115223E+02  (-0.2429822E+03)
 number of electron       7.0000000 magnetization       1.0000000
 augmentation part        7.0000000 magnetization       1.0000000

 Free energy of the ion-electron system (eV)
  ---------------------------------------------------
  alpha Z        PSCENC =         0.09034084
  Ewald energy   TEWEN  =       -66.73225068
  -Hartree energ DENC   =      -460.39620037
  -exchange      EXHF   =         0.00000000
  -V(xc)+E(xc)   XCENC  =        24.11663409
  PAW double counting   =       475.40412281     -563.92244351
  entropy T*S    EENTRO =        -0.00000000
  eigenvalues    EBANDS =      -163.44997560
  atomic energy  EATOM  =       766.04200436
  ---------------------------------------------------
  free energy    TOTEN  =        11.15223193 eV

  energy without entropy =       11.15223193  energy(sigma->0) =       11.15223193


--------------------------------------------------------------------------------------------------------




--------------------------------------- Iteration      1(   2)  ---------------------------------------


    TRIAL :  cpu time   34.8233: real time   34.9489
    CORREC:  cpu time    0.1494: real time    0.1499
    --------------------------------------------
      LOOP:  cpu time   34.9871: real time   35.1472

 eigenvalue-minimisations  :  1536
 total energy-change (2. order) :-0.1088001E+02  (-0.1088001E+02)
 number of electron       7.0000000 magnetization       1.0000000
 augmentation part        7.0000000 magnetization       1.0000000

 Free energy of the ion-electron system (eV)
  ---------------------------------------------------
  alpha Z        PSCENC =         0.09034084
  Ewald energy   TEWEN  =       -66.73225068
  -Hartree energ DENC   =      -460.39620037
  -exchange      EXHF   =         0.00000000
  -V(xc)+E(xc)   XCENC  =        24.11663409
  PAW double counting   =       475.40412281     -563.92244351
  entropy T*S    EENTRO =        -0.00000000
  eigenvalues    EBANDS =      -174.32998791
  atomic energy  EATOM  =       766.04200436
  ---------------------------------------------------
  free energy    TOTEN  =         0.27221962 eV

  energy without entropy =        0.27221962  energy(sigma->0) =        0.27221962


--------------------------------------------------------------------------------------------------------




--------------------------------------- Iteration      1(   3)  ---------------------------------------


    TRIAL :  cpu time   11.1392: real time   11.1649
    CORREC:  cpu time    0.0541: real time    0.0541
    --------------------------------------------
      LOOP:  cpu time   11.2512: real time   11.2771

 eigenvalue-minimisations  :  1024
 total energy-change (2. order) :-0.1375167E-01  (-0.1375167E-01)
 number of electron       7.0000000 magnetization       1.0000000
 augmentation part        7.0000000 magnetization       1.0000000

 Free energy of the ion-electron system (eV)
  ---------------------------------------------------
  alpha Z        PSCENC =         0.09034084
  Ewald energy   TEWEN  =       -66.73225068
  -Hartree energ DENC   =      -460.39620037
  -exchange      EXHF   =         0.00000000
  -V(xc)+E(xc)   XCENC  =        24.11663409
  PAW double counting   =       475.40412281     -563.92244351
  entropy T*S    EENTRO =        -0.00000000
  eigenvalues    EBANDS =      -174.34373958
  atomic energy  EATOM  =       766.04200436
  ---------------------------------------------------
  free energy    TOTEN  =         0.25846795 eV

  energy without entropy =        0.25846795  energy(sigma->0) =        0.25846795


--------------------------------------------------------------------------------------------------------




--------------------------------------- Iteration      1(   4)  ---------------------------------------


    TRIAL :  cpu time   18.0651: real time   18.0848
    CORREC:  cpu time    0.0532: real time    0.0532
    --------------------------------------------
      LOOP:  cpu time   18.1259: real time   18.1456

 eigenvalue-minimisations  :  1792
 total energy-change (2. order) :-0.2563409E-03  (-0.2563409E-03)
 number of electron       7.0000000 magnetization       1.0000000
 augmentation part        7.0000000 magnetization       1.0000000

 Free energy of the ion-electron system (eV)
  ---------------------------------------------------
  alpha Z        PSCENC =         0.09034084
  Ewald energy   TEWEN  =       -66.73225068
  -Hartree energ DENC   =      -460.39620037
  -exchange      EXHF   =         0.00000000
  -V(xc)+E(xc)   XCENC  =        24.11663409
  PAW double counting   =       475.40412281     -563.92244351
  entropy T*S    EENTRO =        -0.00000000
  eigenvalues    EBANDS =      -174.34399592
  atomic energy  EATOM  =       766.04200436
  ---------------------------------------------------
  free energy    TOTEN  =         0.25821161 eV

  energy without entropy =        0.25821161  energy(sigma->0) =        0.25821161


--------------------------------------------------------------------------------------------------------




--------------------------------------- Iteration      1(   5)  ---------------------------------------


    TRIAL :  cpu time    8.6539: real time    8.6637
    CORREC:  cpu time    0.0366: real time    0.0367
    CHARGE:  cpu time    1.3201: real time    1.3483
    --------------------------------------------
      LOOP:  cpu time   10.0205: real time   10.0593

 eigenvalue-minimisations  :  1024
 total energy-change (2. order) :-0.2485483E-06  (-0.2485597E-06)
 number of electron       6.9999999 magnetization       1.0000000
 augmentation part        4.4629954 magnetization       0.0297490

 Free energy of the ion-electron system (eV)
  ---------------------------------------------------
  alpha Z        PSCENC =         0.09034084
  Ewald energy   TEWEN  =       -66.73225068
  -Hartree energ DENC   =      -460.39620037
  -exchange      EXHF   =         0.00000000
  -V(xc)+E(xc)   XCENC  =        24.11663409
  PAW double counting   =       475.40412281     -563.92244351
  entropy T*S    EENTRO =        -0.00000000
  eigenvalues    EBANDS =      -174.34399617
  atomic energy  EATOM  =       766.04200436
  ---------------------------------------------------
  free energy    TOTEN  =         0.25821136 eV

  energy without entropy =        0.25821136  energy(sigma->0) =        0.25821136


--------------------------------------------------------------------------------------------------------




--------------------------------------- Iteration      1(   6)  ---------------------------------------


    POTLOK:  cpu time    2.5802: real time    2.5824
    SETDIJ:  cpu time    0.1937: real time    0.1938
    TRIAL :  cpu time    3.6931: real time    4.0343
    CORREC:  cpu time    5.9932: real time    6.0981
    CHARGE:  cpu time    1.3366: real time    1.3379
    --------------------------------------------
      LOOP:  cpu time   13.8270: real time   14.2772

 eigenvalue-minimisations  :     0
 total energy-change (2. order) :-0.4689223E+00  (-0.1070284E-01)
 number of electron       6.9999999 magnetization       1.0000000
 augmentation part        4.4649721 magnetization       0.0055715

 Free energy of the ion-electron system (eV)
  ---------------------------------------------------
  alpha Z        PSCENC =         0.09034084
  Ewald energy   TEWEN  =       -66.73225068
  -Hartree energ DENC   =      -460.69075516
  -exchange      EXHF   =         0.00000000
  -V(xc)+E(xc)   XCENC  =        24.06280680
  PAW double counting   =       476.45553658     -565.02747569
  entropy T*S    EENTRO =        -0.00000000
  eigenvalues    EBANDS =      -174.41091803
  atomic energy  EATOM  =       766.04200436
  ---------------------------------------------------
  free energy    TOTEN  =        -0.21071098 eV

  energy without entropy =       -0.21071098  energy(sigma->0) =       -0.21071098


--------------------------------------------------------------------------------------------------------




--------------------------------------- Iteration      1(   7)  ---------------------------------------


    POTLOK:  cpu time    2.4851: real time    2.4878
    SETDIJ:  cpu time    0.2190: real time    0.2191
    TRIAL :  cpu time    3.5446: real time    3.6256
    CORREC:  cpu time    6.0246: real time    6.1144
    CHARGE:  cpu time    1.3129: real time    1.3152
    --------------------------------------------
      LOOP:  cpu time   13.6103: real time   13.7860

 eigenvalue-minimisations  :     0
 total energy-change (2. order) :-0.1070670E-01  (-0.3160434E-02)
 number of electron       6.9999999 magnetization       1.0000000
 augmentation part        4.4639247 magnetization       0.0002011

 Free energy of the ion-electron system (eV)
  ---------------------------------------------------
  alpha Z        PSCENC =         0.09034084
  Ewald energy   TEWEN  =       -66.73225068
  -Hartree energ DENC   =      -460.77348838
  -exchange      EXHF   =         0.00000000
  -V(xc)+E(xc)   XCENC  =        24.07228257
  PAW double counting   =       476.45475065     -565.08663118
  entropy T*S    EENTRO =        -0.00000000
  eigenvalues    EBANDS =      -174.28842587
  atomic energy  EATOM  =       766.04200436
  ---------------------------------------------------
  free energy    TOTEN  =        -0.22141769 eV

  energy without entropy =       -0.22141769  energy(sigma->0) =       -0.22141769


--------------------------------------------------------------------------------------------------------




--------------------------------------- Iteration      1(   8)  ---------------------------------------


    POTLOK:  cpu time    2.5071: real time    2.5307
    SETDIJ:  cpu time    0.1932: real time    0.1933
    TRIAL :  cpu time    3.6624: real time    3.7283
    CORREC:  cpu time    5.9659: real time    6.0437
    CHARGE:  cpu time    1.5149: real time    1.5156
    --------------------------------------------
      LOOP:  cpu time   13.8679: real time   14.0360

 eigenvalue-minimisations  :     0
 total energy-change (2. order) :-0.3151902E-02  (-0.2846224E-02)
 number of electron       6.9999999 magnetization       1.0000000
 augmentation part        4.4655266 magnetization      -0.0018408

 Free energy of the ion-electron system (eV)
  ---------------------------------------------------
  alpha Z        PSCENC =         0.09034084
  Ewald energy   TEWEN  =       -66.73225068
  -Hartree energ DENC   =      -460.73441813
  -exchange      EXHF   =         0.00000000
  -V(xc)+E(xc)   XCENC  =        24.07058991
  PAW double counting   =       476.26175632     -564.81965680
  entropy T*S    EENTRO =        -0.00000000
  eigenvalues    EBANDS =      -174.40293540
  atomic energy  EATOM  =       766.04200436
  ---------------------------------------------------
  free energy    TOTEN  =        -0.22456959 eV

  energy without entropy =       -0.22456959  energy(sigma->0) =       -0.22456959


--------------------------------------------------------------------------------------------------------




--------------------------------------- Iteration      1(   9)  ---------------------------------------


    POTLOK:  cpu time    2.5029: real time    2.5040
    SETDIJ:  cpu time    0.1988: real time    0.1989
    TRIAL :  cpu time    3.7493: real time    3.8140
    CORREC:  cpu time    5.9083: real time    5.9880
    CHARGE:  cpu time    1.4667: real time    1.4675
    --------------------------------------------
      LOOP:  cpu time   13.8487: real time   13.9949

 eigenvalue-minimisations  :     0
 total energy-change (2. order) :-0.2850062E-02  (-0.1047752E-02)
 number of electron       6.9999999 magnetization       1.0000000
 augmentation part        4.4642869 magnetization      -0.0031653

 Free energy of the ion-electron system (eV)
  ---------------------------------------------------
  alpha Z        PSCENC =         0.09034084
  Ewald energy   TEWEN  =       -66.73225068
  -Hartree energ DENC   =      -460.98629324
  -exchange      EXHF   =         0.00000000
  -V(xc)+E(xc)   XCENC  =        24.08477478
  PAW double counting   =       475.91780203     -564.54864331
  entropy T*S    EENTRO =        -0.00000000
  eigenvalues    EBANDS =      -174.09515442
  atomic energy  EATOM  =       766.04200436
  ---------------------------------------------------
  free energy    TOTEN  =        -0.22741965 eV

  energy without entropy =       -0.22741965  energy(sigma->0) =       -0.22741965


--------------------------------------------------------------------------------------------------------




--------------------------------------- Iteration      1(  10)  ---------------------------------------


    POTLOK:  cpu time    2.4901: real time    2.4909
    SETDIJ:  cpu time    0.1945: real time    0.1946
    TRIAL :  cpu time    3.6155: real time    3.6942
    CORREC:  cpu time    5.8316: real time    5.9435
    CHARGE:  cpu time    1.3392: real time    1.3412
    --------------------------------------------
      LOOP:  cpu time   13.4932: real time   13.6865

 eigenvalue-minimisations  :     0
 total energy-change (2. order) :-0.1047924E-02  (-0.2242435E-03)
 number of electron       6.9999999 magnetization       1.0000000
 augmentation part        4.4644945 magnetization      -0.0039820

 Free energy of the ion-electron system (eV)
  ---------------------------------------------------
  alpha Z        PSCENC =         0.09034084
  Ewald energy   TEWEN  =       -66.73225068
  -Hartree energ DENC   =      -461.04725324
  -exchange      EXHF   =         0.00000000
  -V(xc)+E(xc)   XCENC  =        24.08376117
  PAW double counting   =       475.58027908     -564.17804048
  entropy T*S    EENTRO =        -0.00000000
  eigenvalues    EBANDS =      -174.06730861
  atomic energy  EATOM  =       766.04200436
  ---------------------------------------------------
  free energy    TOTEN  =        -0.22846757 eV

  energy without entropy =       -0.22846757  energy(sigma->0) =       -0.22846757


--------------------------------------------------------------------------------------------------------




--------------------------------------- Iteration      1(  11)  ---------------------------------------


    POTLOK:  cpu time    2.5268: real time    2.5292
    SETDIJ:  cpu time    0.2113: real time    0.2115
    TRIAL :  cpu time    3.5291: real time    3.6124
    CORREC:  cpu time    5.9570: real time    6.0566
    CHARGE:  cpu time    1.4459: real time    1.4466
    --------------------------------------------
      LOOP:  cpu time   13.7062: real time   13.8924

 eigenvalue-minimisations  :     0
 total energy-change (2. order) :-0.2241234E-03  (-0.5698941E-04)
 number of electron       6.9999999 magnetization       1.0000000
 augmentation part        4.4641656 magnetization      -0.0046065

 Free energy of the ion-electron system (eV)
  ---------------------------------------------------
  alpha Z        PSCENC =         0.09034084
  Ewald energy   TEWEN  =       -66.73225068
  -Hartree energ DENC   =      -461.12964284
  -exchange      EXHF   =         0.00000000
  -V(xc)+E(xc)   XCENC  =        24.08630574
  PAW double counting   =       475.52819241     -564.15243254
  entropy T*S    EENTRO =        -0.00000000
  eigenvalues    EBANDS =      -173.96120898
  atomic energy  EATOM  =       766.04200436
  ---------------------------------------------------
  free energy    TOTEN  =        -0.22869170 eV

  energy without entropy =       -0.22869170  energy(sigma->0) =       -0.22869170


--------------------------------------------------------------------------------------------------------




--------------------------------------- Iteration      1(  12)  ---------------------------------------


    POTLOK:  cpu time    2.4761: real time    2.4772
    SETDIJ:  cpu time    0.1937: real time    0.1938
    TRIAL :  cpu time    3.5445: real time    3.6147
    CORREC:  cpu time    5.9700: real time    6.1006
    CHARGE:  cpu time    1.3335: real time    1.3342
    --------------------------------------------
      LOOP:  cpu time   13.5464: real time   13.7492

 eigenvalue-minimisations  :     0
 total energy-change (2. order) :-0.5694833E-04  (-0.1466996E-04)
 number of electron       6.9999999 magnetization       1.0000000
 augmentation part        4.4643183 magnetization      -0.0047428

 Free energy of the ion-electron system (eV)
  ---------------------------------------------------
  alpha Z        PSCENC =         0.09034084
  Ewald energy   TEWEN  =       -66.73225068
  -Hartree energ DENC   =      -461.12717357
  -exchange      EXHF   =         0.00000000
  -V(xc)+E(xc)   XCENC  =        24.08500522
  PAW double counting   =       475.54645050     -564.15900092
  entropy T*S    EENTRO =        -0.00000000
  eigenvalues    EBANDS =      -173.97412439
  atomic energy  EATOM  =       766.04200436
  ---------------------------------------------------
  free energy    TOTEN  =        -0.22874864 eV

  energy without entropy =       -0.22874864  energy(sigma->0) =       -0.22874864


--------------------------------------------------------------------------------------------------------




--------------------------------------- Iteration      1(  13)  ---------------------------------------


    POTLOK:  cpu time    2.5629: real time    2.5649
    SETDIJ:  cpu time    0.1946: real time    0.1946
    TRIAL :  cpu time    3.6404: real time    3.7160
    CORREC:  cpu time    5.8641: real time    5.9491
    CHARGE:  cpu time    1.4307: real time    1.4311
    --------------------------------------------
      LOOP:  cpu time   13.7335: real time   13.8989

 eigenvalue-minimisations  :     0
 total energy-change (2. order) :-0.1465251E-04  (-0.2380606E-05)
 number of electron       6.9999999 magnetization       1.0000000
 augmentation part        4.4642838 magnetization      -0.0047045

 Free energy of the ion-electron system (eV)
  ---------------------------------------------------
  alpha Z        PSCENC =         0.09034084
  Ewald energy   TEWEN  =       -66.73225068
  -Hartree energ DENC   =      -461.13549815
  -exchange      EXHF   =         0.00000000
  -V(xc)+E(xc)   XCENC  =        24.08543361
  PAW double counting   =       475.60894582     -564.22676153
  entropy T*S    EENTRO =        -0.00000000
  eigenvalues    EBANDS =      -173.96097757
  atomic energy  EATOM  =       766.04200436
  ---------------------------------------------------
  free energy    TOTEN  =        -0.22876330 eV

  energy without entropy =       -0.22876330  energy(sigma->0) =       -0.22876330


--------------------------------------------------------------------------------------------------------




--------------------------------------- Iteration      1(  14)  ---------------------------------------


    POTLOK:  cpu time    2.5718: real time    2.5727
    SETDIJ:  cpu time    0.2012: real time    0.2012
    TRIAL :  cpu time    3.4663: real time    3.5319
    CORREC:  cpu time    6.0172: real time    6.0943
    EDDIAG:  cpu time    1.6974: real time    1.7155
    CHARGE:  cpu time    1.3600: real time    1.3605
    --------------------------------------------
      LOOP:  cpu time   15.3373: real time   15.4999

 eigenvalue-minimisations  :     0
 total energy-change (2. order) :-0.2390383E-05  (-0.5865554E-06)
 number of electron       6.9999999 magnetization       1.0000000
 augmentation part        4.4642925 magnetization      -0.0046613

 Free energy of the ion-electron system (eV)
  ---------------------------------------------------
  alpha Z        PSCENC =         0.09034084
  Ewald energy   TEWEN  =       -66.73225068
  -Hartree energ DENC   =      -461.13016849
  -exchange      EXHF   =         0.00000000
  -V(xc)+E(xc)   XCENC  =        24.08511294
  PAW double counting   =       475.63595365     -564.25085934
  entropy T*S    EENTRO =        -0.00000000
  eigenvalues    EBANDS =      -173.96889896
  atomic energy  EATOM  =       766.04200436
  ---------------------------------------------------
  free energy    TOTEN  =        -0.22876569 eV

  energy without entropy =       -0.22876569  energy(sigma->0) =       -0.22876569


--------------------------------------------------------------------------------------------------------


  average scaling for gradient   1.1709


 average (electrostatic) potential at core
  the test charge radii are     0.9254
  (the norm of the test charge is              1.0000)
       1 -54.2981
 
 
 
 E-fermi : -28.1882     XC(G=0):  -0.2889     alpha+bet : -0.0517


 spin component 1

 k-point     1 :       0.0000    0.0000    0.0000
  band No.  band energies     occupation 
      1     -28.5387      1.00000
      2     -28.5387      1.00000
      3     -28.5387      1.00000
      4      -2.9935      1.00000
      5      -0.8788      0.00000
      6      -0.8788      0.00000
      7      -0.8788      0.00000
      8      -0.2537      0.00000
      9       0.2472      0.00000
     10       0.2472      0.00000
     11       0.5807      0.00000
     12       0.5807      0.00000
     13       0.5807      0.00000
     14       0.5999      0.00000
     15       0.6154      0.00000
     16       0.6154      0.00000
     17       0.6154      0.00000
     18       1.0206      0.00000
     19       1.0206      0.00000
     20       1.0318      0.00000
     21       1.0318      0.00000
     22       1.0319      0.00000
     23       1.3713      0.00000
     24       1.3713      0.00000
     25       1.3713      0.00000
     26       1.4744      0.00000
     27       1.5249      0.00000
     28       1.5678      0.00000
     29       1.5678      0.00000
     30       1.5678      0.00000
     31       1.7251      0.00000
     32       1.7252      0.00000
     33       1.7932      0.00000
     34       1.7932      0.00000
     35       1.7932      0.00000
     36       1.9342      0.00000
     37       2.4188      0.00000
     38       2.4189      0.00000
     39       2.4189      0.00000
     40       2.4631      0.00000
     41       2.4631      0.00000
     42       2.4631      0.00000
     43       2.6297      0.00000
     44       2.6980      0.00000
     45       2.6980      0.00000
     46       2.6980      0.00000
     47       2.7368      0.00000
     48       2.7368      0.00000
     49       2.8999      0.00000
     50       2.9000      0.00000
     51       2.9000      0.00000
     52       2.9061      0.00000
     53       2.9062      0.00000
     54       2.9062      0.00000
     55       3.0403      0.00000
     56       3.0403      0.00000
     57       3.0928      0.00000
     58       3.0928      0.00000
     59       3.0928      0.00000
     60       3.1499      0.00000
     61       3.3095      0.00000
     62       3.3468      0.00000
     63       3.3468      0.00000
     64       3.3469      0.00000
     65       3.4069      0.00000
     66       3.4069      0.00000
     67       3.4069      0.00000
     68       3.5089      0.00000
     69       3.6640      0.00000
     70       3.6640      0.00000
     71       3.6843      0.00000
     72       3.6843      0.00000
     73       3.6843      0.00000
     74       3.6981      0.00000
     75       3.6981      0.00000
     76       3.7084      0.00000
     77       3.7084      0.00000
     78       3.7084      0.00000
     79       3.7105      0.00000
     80       3.7105      0.00000
     81       3.7105      0.00000
     82       3.7187      0.00000
     83       3.7188      0.00000
     84       3.7188      0.00000
     85       4.4369      0.00000
     86       4.4369      0.00000
     87       4.4369      0.00000
     88       4.5386      0.00000
     89       4.5386      0.00000
     90       4.5506      0.00000
     91       4.5507      0.00000
     92       4.5507      0.00000
     93       4.7148      0.00000
     94       4.7554      0.00000
     95       4.7554      0.00000
     96       4.7554      0.00000
     97       4.9686      0.00000
     98       4.9686      0.00000
     99       5.0578      0.00000
    100       5.0578      0.00000
    101       5.0579      0.00000
    102       5.2143      0.00000
    103       5.2556      0.00000
    104       5.2556      0.00000
    105       5.2556      0.00000
    106       5.2822      0.00000
    107       5.3534      0.00000
    108       5.3534      0.00000
    109       5.3534      0.00000
    110       5.4727      0.00000
    111       5.6638      0.00000
    112       5.6638      0.00000
    113       5.6638      0.00000
    114       5.6669      0.00000
    115       5.6669      0.00000
    116       5.6855      0.00000
    117       5.6855      0.00000
    118       5.6855      0.00000
    119       5.6867      0.00000
    120       5.6867      0.00000
    121       5.6867      0.00000
    122       5.6995      0.00000
    123       5.6995      0.00000
    124       5.6995      0.00000
    125       5.7106      0.00000
    126       5.7106      0.00000
    127       6.0369      0.00000
    128       6.0369      0.00000
    129       6.0369      0.00000
    130       6.0512      0.00000
    131       6.0512      0.00000
    132       6.0723      0.00000
    133       6.0724      0.00000
    134       6.0724      0.00000
    135       6.0821      0.00000
    136       6.0821      0.00000
    137       6.0821      0.00000
    138       6.0851      0.00000
    139       6.0851      0.00000
    140       6.0851      0.00000
    141       6.0947      0.00000
    142       6.0948      0.00000
    143       6.0948      0.00000
    144       6.1685      0.00000
    145       6.3874      0.00000
    146       6.3929      0.00000
    147       6.3929      0.00000
    148       6.3929      0.00000
    149       6.3958      0.00000
    150       6.3958      0.00000
    151       6.8368      0.00000
    152       6.8368      0.00000
    153       6.8368      0.00000
    154       6.8640      0.00000
    155       6.8952      0.00000
    156       6.8952      0.00000
    157       6.8952      0.00000
    158       6.9046      0.00000
    159       6.9046      0.00000
    160       6.9139      0.00000
    161       6.9139      0.00000
    162       6.9139      0.00000
    163       6.9423      0.00000
    164       6.9423      0.00000
    165       6.9586      0.00000
    166       6.9586      0.00000
    167       6.9586      0.00000
    168       6.9780      0.00000
    169       6.9781      0.00000
    170       6.9781      0.00000
    171       6.9790      0.00000
    172       6.9790      0.00000
    173       6.9790      0.00000
    174       7.0165      0.00000
    175       7.4055      0.00000
    176       7.4055      0.00000
    177       7.4055      0.00000
    178       7.4586      0.00000
    179       7.4586      0.00000
    180       7.4586      0.00000
    181       7.4960      0.00000
    182       7.5602      0.00000
    183       7.7960      0.00000
    184       7.7960      0.00000
    185       7.8059      0.00000
    186       7.8059      0.00000
    187       7.8059      0.00000
    188       7.8544      0.00000
    189       7.8544      0.00000
    190       7.8544      0.00000
    191       7.8586      0.00000
    192       7.8586      0.00000
    193       7.8586      0.00000
    194       8.0434      0.00000
    195       8.2274      0.00000
    196       8.2274      0.00000
    197       8.2413      0.00000
    198       8.2414      0.00000
    199       8.2414      0.00000
    200       8.2718      0.00000
    201       8.2718      0.00000
    202       8.2718      0.00000
    203       8.2781      0.00000
    204       8.2781      0.00000
    205       8.2782      0.00000
    206       8.2812      0.00000
    207       8.6034      0.00000
    208       8.6255      0.00000
    209       8.6255      0.00000
    210       8.6255      0.00000
    211       8.7047      0.00000
    212       8.7048      0.00000
    213       8.7048      0.00000
    214       8.8114      0.00000
    215       8.8114      0.00000
    216       8.8172      0.00000
    217       8.8172      0.00000
    218       8.8172      0.00000
    219       8.8192      0.00000
    220       8.8192      0.00000
    221       8.8412      0.00000
    222       8.8412      0.00000
    223       8.8412      0.00000
    224       8.8485      0.00000
    225       8.8485      0.00000
    226       8.8485      0.00000
    227       8.8590      0.00000
    228       8.8591      0.00000
    229       8.8591      0.00000
    230       8.8801      0.00000
    231       9.0190      0.00000
    232       9.0190      0.00000
    233       9.0373      0.00000
    234       9.0373      0.00000
    235       9.0373      0.00000
    236       9.0385      0.00000
    237       9.0385      0.00000
    238       9.0385      0.00000
    239       9.0527      0.00000
    240       9.0528      0.00000
    241       9.0528      0.00000
    242       9.0545      0.00000
    243       9.0545      0.00000
    244       9.0546      0.00000
    245       9.0685      0.00000
    246       9.0685      0.00000
    247       9.1086      0.00000
    248       9.1233      0.00000
    249       9.1234      0.00000
    250       9.1234      0.00000
    251       9.1349      0.00000
    252       9.1349      0.00000
    253       9.1349      0.00000
    254       9.1435      0.00000
    255       9.4266      0.00000
    256       9.4267      0.00000

 spin component 2

 k-point     1 :       0.0000    0.0000    0.0000
  band No.  band energies     occupation 
      1     -28.4534      1.00000
      2     -28.4534      1.00000
      3     -28.4534      1.00000
      4      -1.3661      0.00000
      5       0.1368      0.00000
      6       0.6542      0.00000
      7       0.6542      0.00000
      8       0.6543      0.00000
      9       0.7287      0.00000
     10       0.7288      0.00000
     11       0.9704      0.00000
     12       1.1397      0.00000
     13       1.1398      0.00000
     14       1.1398      0.00000
     15       1.3951      0.00000
     16       1.3952      0.00000
     17       1.3978      0.00000
     18       1.3978      0.00000
     19       1.3978      0.00000
     20       1.3993      0.00000
     21       1.3993      0.00000
     22       1.3993      0.00000
     23       1.8395      0.00000
     24       1.8460      0.00000
     25       1.8460      0.00000
     26       1.8460      0.00000
     27       2.0599      0.00000
     28       2.0599      0.00000
     29       2.0599      0.00000
     30       2.0719      0.00000
     31       2.4662      0.00000
     32       2.4663      0.00000
     33       2.4664      0.00000
     34       2.5338      0.00000
     35       2.7154      0.00000
     36       2.7155      0.00000
     37       2.9257      0.00000
     38       2.9257      0.00000
     39       2.9257      0.00000
     40       3.0084      0.00000
     41       3.3313      0.00000
     42       3.3316      0.00000
     43       3.3544      0.00000
     44       3.3544      0.00000
     45       3.3544      0.00000
     46       3.4029      0.00000
     47       3.4032      0.00000
     48       3.4033      0.00000
     49       3.4038      0.00000
     50       3.4038      0.00000
     51       3.4038      0.00000
     52       3.4067      0.00000
     53       3.4067      0.00000
     54       3.4067      0.00000
     55       3.4075      0.00000
     56       3.4076      0.00000
     57       3.4077      0.00000
     58       3.4090      0.00000
     59       3.4090      0.00000
     60       3.4091      0.00000
     61       3.7918      0.00000
     62       3.7919      0.00000
     63       3.7919      0.00000
     64       3.8605      0.00000
     65       3.9673      0.00000
     66       3.9673      0.00000
     67       3.9673      0.00000
     68       4.0195      0.00000
     69       4.0195      0.00000
     70       4.0748      0.00000
     71       4.0748      0.00000
     72       4.0749      0.00000
     73       4.0751      0.00000
     74       4.0753      0.00000
     75       4.0753      0.00000
     76       4.0753      0.00000
     77       4.0753      0.00000
     78       4.0753      0.00000
     79       4.0754      0.00000
     80       4.0754      0.00000
     81       4.0762      0.00000
     82       4.0762      0.00000
     83       4.0762      0.00000
     84       4.0798      0.00000
     85       5.0552      0.00000
     86       5.0553      0.00000
     87       5.0553      0.00000
     88       5.2674      0.00000
     89       5.2815      0.00000
     90       5.2815      0.00000
     91       5.2815      0.00000
     92       5.3410      0.00000
     93       5.3411      0.00000
     94       5.4093      0.00000
     95       5.4093      0.00000
     96       5.4093      0.00000
     97       5.6815      0.00000
     98       5.6816      0.00000
     99       5.6816      0.00000
    100       5.8300      0.00000
    101       5.8300      0.00000
    102       5.8300      0.00000
    103       5.8389      0.00000
    104       5.8390      0.00000
    105       5.8512      0.00000
    106       6.0669      0.00000
    107       6.0731      0.00000
    108       6.0731      0.00000
    109       6.0731      0.00000
    110       6.0742      0.00000
    111       6.0742      0.00000
    112       6.0743      0.00000
    113       6.0801      0.00000
    114       6.0802      0.00000
    115       6.0803      0.00000
    116       6.0808      0.00000
    117       6.0808      0.00000
    118       6.0808      0.00000
    119       6.0809      0.00000
    120       6.0809      0.00000
    121       6.0826      0.00000
    122       6.0826      0.00000
    123       6.0841      0.00000
    124       6.0841      0.00000
    125       6.0841      0.00000
    126       6.0884      0.00000
    127       6.4380      0.00000
    128       6.4381      0.00000
    129       6.5086      0.00000
    130       6.5087      0.00000
    131       6.5088      0.00000
    132       6.6274      0.00000
    133       6.6685      0.00000
    134       6.6685      0.00000
    135       6.6685      0.00000
    136       6.7396      0.00000
    137       6.7396      0.00000
    138       6.7397      0.00000
    139       6.7417      0.00000
    140       6.7419      0.00000
    141       6.7419      0.00000
    142       6.7461      0.00000
    143       6.7475      0.00000
    144       6.7477      0.00000
    145       6.7478      0.00000
    146       6.7478      0.00000
    147       6.7478      0.00000
    148       6.7546      0.00000
    149       6.7546      0.00000
    150       6.7547      0.00000
    151       7.2014      0.00000
    152       7.2015      0.00000
    153       7.2015      0.00000
    154       7.2350      0.00000
    155       7.2350      0.00000
    156       7.2362      0.00000
    157       7.2362      0.00000
    158       7.2362      0.00000
    159       7.3051      0.00000
    160       7.3987      0.00000
    161       7.3990      0.00000
    162       7.3990      0.00000
    163       7.4026      0.00000
    164       7.4027      0.00000
    165       7.4027      0.00000
    166       7.4044      0.00000
    167       7.4212      0.00000
    168       7.4212      0.00000
    169       7.4212      0.00000
    170       7.4213      0.00000
    171       7.4213      0.00000
    172       7.4258      0.00000
    173       7.4258      0.00000
    174       7.4258      0.00000
    175       7.9301      0.00000
    176       7.9301      0.00000
    177       7.9301      0.00000
    178       7.9781      0.00000
    179       7.9782      0.00000
    180       7.9782      0.00000
    181       8.0508      0.00000
    182       8.0566      0.00000
    183       8.4678      0.00000
    184       8.4678      0.00000
    185       8.4678      0.00000
    186       8.4772      0.00000
    187       8.4773      0.00000
    188       8.4773      0.00000
    189       8.5179      0.00000
    190       8.5179      0.00000
    191       8.6589      0.00000
    192       8.6874      0.00000
    193       8.6875      0.00000
    194       8.6875      0.00000
    195       8.7388      0.00000
    196       8.7388      0.00000
    197       8.7388      0.00000
    198       8.7542      0.00000
    199       8.7559      0.00000
    200       8.7559      0.00000
    201       8.7559      0.00000
    202       8.7570      0.00000
    203       8.7570      0.00000
    204       8.7571      0.00000
    205       8.7591      0.00000
    206       8.7593      0.00000
    207       9.0781      0.00000
    208       9.0781      0.00000
    209       9.0781      0.00000
    210       9.1146      0.00000
    211       9.1146      0.00000
    212       9.1146      0.00000
    213       9.1841      0.00000
    214       9.1842      0.00000
    215       9.2914      0.00000
    216       9.3099      0.00000
    217       9.3337      0.00000
    218       9.3337      0.00000
    219       9.3337      0.00000
    220       9.3800      0.00000
    221       9.3802      0.00000
    222       9.3802      0.00000
    223       9.4211      0.00000
    224       9.4211      0.00000
    225       9.4211      0.00000
    226       9.4215      0.00000
    227       9.4215      0.00000
    228       9.4215      0.00000
    229       9.4216      0.00000
    230       9.4221      0.00000
    231       9.4221      0.00000
    232       9.4221      0.00000
    233       9.4228      0.00000
    234       9.4228      0.00000
    235       9.4228      0.00000
    236       9.4234      0.00000
    237       9.4234      0.00000
    238       9.4234      0.00000
    239       9.4237      0.00000
    240       9.4238      0.00000
    241       9.4266      0.00000
    242       9.4267      0.00000
    243       9.4268      0.00000
    244       9.4268      0.00000
    245       9.4269      0.00000
    246       9.4270      0.00000
    247       9.4286      0.00000
    248       9.4286      0.00000
    249       9.4287      0.00000
    250       9.4289      0.00000
    251       9.4289      0.00000
    252       9.4289      0.00000
    253       9.4366      0.00000
    254       9.4366      0.00000
    255      10.4423      0.00000
    256      10.4424      0.00000


--------------------------------------------------------------------------------------------------------


 soft charge-density along one line, spin component           1
         0         1         2         3         4         5         6         7         8         9
 total charge-density along one line
 
 soft charge-density along one line, spin component           2
         0         1         2         3         4         5         6         7         8         9
 total charge-density along one line
 
 pseudopotential strength for first ion, spin component:           1
-30.765  -0.000  -0.000  18.497   0.000   0.000   0.000  -0.000
 -0.000 -30.765  -0.000   0.000  18.497   0.000   0.000  -0.000
 -0.000  -0.000 -30.765   0.000   0.000  18.497   0.000  -0.000
 18.497   0.000   0.000  -6.372  -0.000  -0.000  -0.000   0.000
  0.000  18.497   0.000  -0.000  -6.372  -0.000  -0.000   0.000
  0.000   0.000  18.497  -0.000  -0.000  -6.372  -0.000   0.000
  0.000   0.000   0.000  -0.000  -0.000  -0.000   1.416   0.014
 -0.000  -0.000  -0.000   0.000   0.000   0.000   0.014  -0.024
 pseudopotential strength for first ion, spin component:           2
-30.736  -0.000  -0.000  18.476   0.000   0.000   0.000  -0.000
 -0.000 -30.736  -0.000   0.000  18.476   0.000   0.000  -0.000
 -0.000  -0.000 -30.736   0.000   0.000  18.476   0.000  -0.000
 18.476   0.000   0.000  -6.356  -0.000  -0.000  -0.000   0.000
  0.000  18.476   0.000  -0.000  -6.356  -0.000  -0.000   0.000
  0.000   0.000  18.476  -0.000  -0.000  -6.356  -0.000   0.000
  0.000   0.000   0.000  -0.000  -0.000  -0.000   1.415   0.014
 -0.000  -0.000  -0.000   0.000   0.000   0.000   0.014  -0.024
 total augmentation occupancy for first ion, spin component:           1
  2.000   0.000   0.000  -0.000   0.000   0.000  -0.000  -0.000
  0.000   2.000   0.000   0.000  -0.000   0.000  -0.000  -0.000
  0.000   0.000   2.000   0.000   0.000  -0.000  -0.000  -0.000
 -0.000   0.000   0.000   0.000  -0.000  -0.000   0.000   0.000
  0.000  -0.000   0.000  -0.000   0.000  -0.000   0.000   0.000
  0.000   0.000  -0.000  -0.000  -0.000   0.000   0.000   0.000
 -0.000  -0.000  -0.000   0.000   0.000   0.000   1.018   0.008
 -0.000  -0.000  -0.000   0.000   0.000   0.000   0.008   0.000
 total augmentation occupancy for first ion, spin component:           2
  0.005  -0.000  -0.000   0.004  -0.000  -0.000  -0.000  -0.000
 -0.000   0.005  -0.000  -0.000   0.004  -0.000   0.000   0.000
 -0.000  -0.000   0.005  -0.000  -0.000   0.004  -0.000   0.000
  0.004  -0.000  -0.000  -0.000   0.000   0.000   0.000   0.000
 -0.000   0.004  -0.000   0.000  -0.000   0.000   0.000   0.000
 -0.000  -0.000   0.004   0.000   0.000  -0.000   0.000   0.000
 -0.000   0.000  -0.000   0.000   0.000   0.000   1.018   0.008
 -0.000   0.000   0.000   0.000   0.000   0.000   0.008   0.000


------------------------ aborting loop because EDIFF is reached ----------------------------------------


    FORLOC:  cpu time    0.0034: real time    0.0070
    FORNL :  cpu time    0.0337: real time    0.0463
    FORCOR:  cpu time    2.1677: real time    2.1765
    OFIELD:  cpu time    0.0012: real time    0.0052

 VOLUME and BASIS-vectors are now :
 -----------------------------------------------------------------------------
  energy-cutoff  :      520.00
  volume of cell :     3375.00
      direct lattice vectors                 reciprocal lattice vectors
    15.000000000  0.000000000  0.000000000     0.066666667  0.000000000  0.000000000
     0.000000000 15.000000000  0.000000000     0.000000000  0.066666667  0.000000000
     0.000000000  0.000000000 15.000000000     0.000000000  0.000000000  0.066666667

  length of vectors
    15.000000000 15.000000000 15.000000000     0.066666667  0.066666667  0.066666667


 FORCES acting on ions:
    Electron-Ion                     Ewald-Force                    Non-Local-Force
 -----------------------------------------------------------------------------------------------
   0.436E-04 0.435E-04 0.403E-04   -.602E-19 -.187E-16 -.115E-16   0.558E-03 0.558E-03 0.569E-03
 -----------------------------------------------------------------------------------------------
   0.478E-04 0.477E-04 0.442E-04   -.602E-19 -.187E-16 -.115E-16   0.558E-03 0.558E-03 0.569E-03
 
 
 POSITION                                       TOTAL-FORCE (eV/Angst)
 -----------------------------------------------------------------------------------
      0.15000      0.15000     11.26500         0.000605      0.000605      0.000613
 -----------------------------------------------------------------------------------
    total drift:                                0.000605      0.000605      0.000613


--------------------------------------------------------------------------------------------------------



  FREE ENERGIE OF THE ION-ELECTRON SYSTEM (eV)
  ---------------------------------------------------
  free  energy   TOTEN  =        -0.22876569 eV

  energy  without entropy=       -0.22876569  energy(sigma->0) =       -0.22876569
 


--------------------------------------------------------------------------------------------------------


    POTLOK:  cpu time    2.6758: real time    2.6896


--------------------------------------------------------------------------------------------------------


 stress matrix after NEB project (eV)
      0.00000      0.00000      0.00000
      0.00000      0.00000      0.00000
      0.00000      0.00000      0.00000
  FORCES: max atom, RMS     0.001053    0.001053
  FORCE total and by dimension    0.001053    0.000613
  Stress total and by dimension    0.000000    0.000000
     LOOP+:  cpu time  215.9668: real time  218.2695
    4ORBIT:  cpu time    0.0000: real time    0.0000

 total amount of memory used by VASP MPI-rank0   169936. kBytes
=======================================================================

   base      :      30000. kBytes
   nonl-proj :       7270. kBytes
   fftplans  :       7479. kBytes
   grid      :     116433. kBytes
   one-center:          6. kBytes
   wavefun   :       8748. kBytes
 
  
  
 General timing and accounting informations for this job:
 ========================================================
  
                  Total CPU time used (sec):      229.673
                            User time (sec):      224.171
                          System time (sec):        5.502
                         Elapsed time (sec):      235.062
  
                   Maximum memory used (kb):      444520.
                   Average memory used (kb):           0.
  
                          Minor page faults:        56373
                          Major page faults:            0
                 Voluntary context switches:         2398
