       N       E                     dE             d eps       ncg     rms          ort
DAV:   1     0.101780714069E+04    0.10178E+04   -0.90069E+04  3328   0.717E+02
DAV:   2    -0.362425320286E+03   -0.13802E+04   -0.13799E+04  3328   0.991E+01
DAV:   3    -0.440605791798E+03   -0.78180E+02   -0.78180E+02  3328   0.374E+01
DAV:   4    -0.441459792437E+03   -0.85400E+00   -0.85390E+00  3328   0.434E+00
DAV:   5    -0.441460003797E+03   -0.21136E-03   -0.21136E-03  3328   0.828E-02
SDA:   6    -0.441460003797E+03    0.00000E+00   -0.21136E-03  3328   0.993E-05 0.000E+00
   1 F= -.44318328E+03 E0= -.44318167E+03  d E =-.321375E-02  mag=     0.0000
