       N       E                     dE             d eps       ncg     rms          ort
DAV:   1     0.184780269288E+03    0.18478E+03   -0.97056E+04  3328   0.680E+02
DAV:   2    -0.416428546326E+03   -0.60121E+03   -0.60037E+03  3328   0.870E+01
DAV:   3    -0.444344764379E+03   -0.27916E+02   -0.27914E+02  3328   0.220E+01
DAV:   4    -0.444355746981E+03   -0.10983E-01   -0.10983E-01  3328   0.541E-01
DAV:   5    -0.444355816928E+03   -0.69947E-04   -0.69947E-04  3328   0.416E-02
SDA:   6    -0.444355816928E+03   -0.72760E-11   -0.69947E-04  3328   0.358E-07 0.000E+00
   1 F= -.44609065E+03 E0= -.44608928E+03  d E =-.273143E-02  mag=     2.9582
