 vasp.5.4.4.18Apr17-6-g9f103f2a35 (build Nov 21 2023 15:34:30) complex          
  
 executed on             LinuxIFC date 2026.09.24  02:59:28
 running on  256 total cores
 distrk:  each k-point on  256 cores,    1 groups
 distr:  one band on NCORES_PER_BAND=   1 cores,  256 groups


--------------------------------------------------------------------------------------------------------


 INCAR:
 POTCAR:   PAW_PBE C 08Apr2002                    
 POTCAR:   PAW_PBE N 08Apr2002                    
 POTCAR:   PAW_PBE V_sv 07Sep2000                 

 ----------------------------------------------------------------------------- 
|                                                                             |
|           W    W    AA    RRRRR   N    N  II  N    N   GGGG   !!!           |
|           W    W   A  A   R    R  NN   N  II  NN   N  G    G  !!!           |
|           W    W  A    A  R    R  N N  N  II  N N  N  G       !!!           |
|           W WW W  AAAAAA  RRRRR   N  N N  II  N  N N  G  GGG   !            |
|           WW  WW  A    A  R   R   N   NN  II  N   NN  G    G                |
|           W    W  A    A  R    R  N    N  II  N    N   GGGG   !!!           |
|                                                                             |
|      For optimal performance we recommend to set                            |
|        NCORE= 4 - approx SQRT( number of cores)                             |
|      NCORE specifies how many cores store one orbital (NPAR=cpu/NCORE).     |
|      This setting can  greatly improve the performance of VASP for DFT.     |
|      The default,   NCORE=1            might be grossly inefficient         |
|      on modern multi-core architectures or massively parallel machines.     |
|      Do your own testing !!!!                                               |
|      Unfortunately you need to use the default for GW and RPA calculations. |
|      (for HF NCORE is supported but not extensively tested yet)             |
|                                                                             |
 ----------------------------------------------------------------------------- 

 POTCAR:   PAW_PBE C 08Apr2002                    
   VRHFIN =C: s2p2                                                              
   LEXCH  = PE                                                                  
   EATOM  =   147.1560 eV,   10.8157 Ry                                         
                                                                                
   TITEL  = PAW_PBE C 08Apr2002                                                 
   LULTRA =        F    use ultrasoft PP ?                                      
   IUNSCR =        0    unscreen: 0-lin 1-nonlin 2-no                           
   RPACOR =     .000    partial core radius                                     
   POMASS =   12.011; ZVAL   =    4.000    mass and valenz                      
   RCORE  =    1.500    outmost cutoff radius                                   
   RWIGS  =    1.630; RWIGS  =     .863    wigner-seitz radius (au A)           
   ENMAX  =  400.000; ENMIN  =  300.000 eV                                      
   ICORE  =        2    local potential                                         
   LCOR   =        T    correct aug charges                                     
   LPAW   =        T    paw PP                                                  
   EAUG   =  644.873                                                            
   DEXC   =     .000                                                            
   RMAX   =    2.266    core radius for proj-oper                               
   RAUG   =    1.300    factor for augmentation sphere                          
   RDEP   =    1.501    radius for radial grids                                 
   RDEPT  =    1.300    core radius for aug-charge                              
   QCUT   =   -5.516; QGAM   =   11.032    optimization parameters              
                                                                                
   Description                                                                  
     l     E      TYP  RCUT    TYP  RCUT                                        
     0   .000     23  1.200                                                     
     0   .000     23  1.200                                                     
     1   .000     23  1.500                                                     
     1  2.500     23  1.500                                                     
     2   .000      7  1.500                                                     
  local pseudopotential read in
  atomic valenz-charges read in
  non local Contribution for L=           0  read in
    real space projection operators read in
  non local Contribution for L=           0  read in
    real space projection operators read in
  non local Contribution for L=           1  read in
    real space projection operators read in
  non local Contribution for L=           1  read in
    real space projection operators read in
    PAW grid and wavefunctions read in
 
   number of l-projection  operators is LMAX  =           4
   number of lm-projection operators is LMMAX =           8
 
 POTCAR:   PAW_PBE N 08Apr2002                    
   VRHFIN =N: s2p3                                                              
   LEXCH  = PE                                                                  
   EATOM  =   264.5486 eV,   19.4438 Ry                                         
                                                                                
   TITEL  = PAW_PBE N 08Apr2002                                                 
   LULTRA =        F    use ultrasoft PP ?                                      
   IUNSCR =        0    unscreen: 0-lin 1-nonlin 2-no                           
   RPACOR =     .000    partial core radius                                     
   POMASS =   14.001; ZVAL   =    5.000    mass and valenz                      
   RCORE  =    1.500    outmost cutoff radius                                   
   RWIGS  =    1.400; RWIGS  =     .741    wigner-seitz radius (au A)           
   ENMAX  =  400.000; ENMIN  =  300.000 eV                                      
   ICORE  =        2    local potential                                         
   LCOR   =        T    correct aug charges                                     
   LPAW   =        T    paw PP                                                  
   EAUG   =  627.112                                                            
   DEXC   =     .000                                                            
   RMAX   =    2.247    core radius for proj-oper                               
   RAUG   =    1.300    factor for augmentation sphere                          
   RDEP   =    1.514    radius for radial grids                                 
   QCUT   =   -5.562; QGAM   =   11.124    optimization parameters              
                                                                                
   Description                                                                  
     l     E      TYP  RCUT    TYP  RCUT                                        
     0   .000     23  1.200                                                     
     0   .000     23  1.200                                                     
     1   .000     23  1.500                                                     
     1   .700     23  1.500                                                     
     2   .000      7  1.500                                                     
  local pseudopotential read in
  atomic valenz-charges read in
  non local Contribution for L=           0  read in
    real space projection operators read in
  non local Contribution for L=           0  read in
    real space projection operators read in
  non local Contribution for L=           1  read in
    real space projection operators read in
  non local Contribution for L=           1  read in
    real space projection operators read in
    PAW grid and wavefunctions read in
 
   number of l-projection  operators is LMAX  =           4
   number of lm-projection operators is LMMAX =           8
 
 POTCAR:   PAW_PBE V_sv 07Sep2000                 
   VRHFIN =V: p6 d4 s1                                                          
   LEXCH  = PE                                                                  
   EATOM  =  1951.3925 eV,  143.4233 Ry                                         
                                                                                
   TITEL  = PAW_PBE V_sv 07Sep2000                                              
   LULTRA =        F    use ultrasoft PP ?                                      
   IUNSCR =        1    unscreen: 0-lin 1-nonlin 2-no                           
   RPACOR =    2.000    partial core radius                                     
   POMASS =   50.941; ZVAL   =   13.000    mass and valenz                      
   RCORE  =    2.300    outmost cutoff radius                                   
   RWIGS  =    2.300; RWIGS  =    1.217    wigner-seitz radius (au A)           
   ENMAX  =  263.675; ENMIN  =  197.756 eV                                      
   RCLOC  =    1.779    cutoff for local pot                                    
   LCOR   =        T    correct aug charges                                     
   LPAW   =        T    paw PP                                                  
   EAUG   =  526.568                                                            
   DEXC   =     .000                                                            
   RMAX   =    2.839    core radius for proj-oper                               
   RAUG   =    1.300    factor for augmentation sphere                          
   RDEP   =    2.430    radius for radial grids                                 
   QCUT   =   -4.402; QGAM   =    8.804    optimization parameters              
                                                                                
   Description                                                                  
     l     E      TYP  RCUT    TYP  RCUT                                        
     0   .000     23  1.800                                                     
     0   .000     23  2.300                                                     
     0   .000     23  1.800                                                     
     0   .000     23  2.300                                                     
     1   .000     23  2.000                                                     
     1   .400     23  2.000                                                     
     2   .000     23  2.300                                                     
     2   .000     23  2.300                                                     
     3   .000      7   .000                                                     
  local pseudopotential read in
  partial core-charges read in
  atomic valenz-charges read in
  non local Contribution for L=           0  read in
    real space projection operators read in
  non local Contribution for L=           0  read in
    real space projection operators read in
  non local Contribution for L=           1  read in
    real space projection operators read in
  non local Contribution for L=           1  read in
    real space projection operators read in
  non local Contribution for L=           2  read in
    real space projection operators read in
  non local Contribution for L=           2  read in
    real space projection operators read in
    PAW grid and wavefunctions read in
 
   number of l-projection  operators is LMAX  =           6
   number of lm-projection operators is LMMAX =          18
 

 ----------------------------------------------------------------------------- 
|                                                                             |
|  ADVICE TO THIS USER RUNNING 'VASP/VAMP'   (HEAR YOUR MASTER'S VOICE ...):  |
|                                                                             |
|      You have a (more or less) 'large supercell' and for larger cells       |
|      it might be more efficient to use real space projection operators      |
|      So try LREAL= Auto  in the INCAR   file.                               |
|      Mind: If you want to do a very accurate calculations keep the          |
|      reciprocal projection scheme          (i.e. LREAL=.FALSE.)             |
|                                                                             |
 ----------------------------------------------------------------------------- 

 PAW_PBE C 08Apr2002                    :
 energy of atom  1       EATOM= -147.1560
 kinetic energy error for atom=    0.0071 (will be added to EATOM!!)
 PAW_PBE N 08Apr2002                    :
 energy of atom  2       EATOM= -264.5486
 kinetic energy error for atom=    0.0125 (will be added to EATOM!!)
 PAW_PBE V_sv 07Sep2000                 :
 energy of atom  3       EATOM=-1951.3925
 kinetic energy error for atom=    0.0065 (will be added to EATOM!!)
 
 
 POSCAR: C  N  V                                 
  positions in direct lattice
  velocities in cartesian coordinates
 exchange correlation table for  LEXCH =        8
   RHO(1)=    0.500       N(1)  =     2000
   RHO(2)=  100.500       N(2)  =     4000

 VTST: version 3.2, (02/03/18)

 CHAIN: initializing optimizer
 
 OPT: Using VASP Dynamics algorithm
 CHAIN: Read ICHAIN            0
 
 POSCAR: C  N  V                                 
  positions in direct lattice
  velocities in cartesian coordinates
 


--------------------------------------------------------------------------------------------------------


 ion  position               nearest neighbor table
   1  0.999  0.001  0.742-   2 1.41  44 1.41  10 1.42
   2  0.131  0.065  0.742-   1 1.41  13 1.41   3 1.42
   3  0.198  0.998  0.742-  36 1.41   4 1.41   2 1.42
   4  0.330  0.063  0.746-  15 1.40   3 1.41   5 1.42
   5  0.399  0.998  0.747-  38 1.42   6 1.42   4 1.42
   6  0.532  0.066  0.750-   5 1.42   7 1.42  16 1.43
   7  0.599  0.000  0.749-   8 1.42   6 1.42  40 1.43
   8  0.733  0.069  0.749-   7 1.42  18 1.43   9 1.43
   9  0.800  0.002  0.746-  10 1.42  42 1.42   8 1.43
  10  0.932  0.068  0.744-  11 1.42   9 1.42   1 1.42
  11  0.998  0.200  0.746-  10 1.42  12 1.42  19 1.43
  12  0.131  0.265  0.747-  11 1.42  22 1.42  13 1.43
  13  0.197  0.197  0.746-  14 1.40   2 1.41  12 1.43
  14  0.328  0.262  0.752-  46 1.38  13 1.40  15 1.44
  15  0.395  0.194  0.752-  45 1.38   4 1.40  14 1.44
  16  0.594  0.200  0.755-  45 1.37   6 1.43  17 1.44
  17  0.729  0.271  0.755-  16 1.44  24 1.44  18 1.44
  18  0.797  0.203  0.750-  19 1.43   8 1.43  17 1.44
  19  0.931  0.267  0.749-  20 1.42  18 1.43  11 1.43
  20  1.000  0.401  0.749-  19 1.42  25 1.42  21 1.43
  21  0.134  0.466  0.749-  28 1.42  22 1.42  20 1.43
  22  0.200  0.398  0.750-  12 1.42  21 1.42  23 1.43
  23  0.333  0.460  0.755-  46 1.37  22 1.43  30 1.44
  24  0.800  0.406  0.755-  47 1.37  25 1.43  17 1.44
  25  0.934  0.468  0.750-  26 1.42  20 1.42  24 1.43
  26  0.002  0.601  0.747-  27 1.42  25 1.42  34 1.42
  27  0.136  0.666  0.746-  37 1.42  26 1.42  28 1.43
  28  0.202  0.599  0.748-  21 1.42  29 1.43  27 1.43
  29  0.336  0.664  0.750-  39 1.43  28 1.43  30 1.44
  30  0.404  0.596  0.755-  23 1.44  31 1.44  29 1.44
  31  0.540  0.667  0.755-  48 1.37  41 1.43  30 1.44
  32  0.738  0.672  0.752-  48 1.38  43 1.40  33 1.44
  33  0.806  0.605  0.752-  47 1.38  34 1.40  32 1.44
  34  0.937  0.670  0.746-  33 1.40  35 1.41  26 1.42
  35  0.002  0.802  0.742-  36 1.41  34 1.41  44 1.42
  36  0.134  0.866  0.742-   3 1.41  35 1.41  37 1.42
  37  0.201  0.799  0.744-  38 1.42  27 1.42  36 1.42
  38  0.334  0.864  0.746-  37 1.42   5 1.42  39 1.43
  39  0.401  0.798  0.748-  40 1.42  29 1.43  38 1.43
  40  0.534  0.866  0.749-  39 1.42  41 1.42   7 1.43
  41  0.602  0.800  0.750-  42 1.42  40 1.42  31 1.43
  42  0.735  0.869  0.747-   9 1.42  41 1.42  43 1.43
  43  0.803  0.803  0.746-  32 1.40  44 1.41  42 1.43
  44  0.935  0.869  0.742-   1 1.41  43 1.41  35 1.42
  45  0.524  0.258  0.761-  16 1.37  15 1.38  49 2.01
  46  0.391  0.390  0.760-  23 1.37  14 1.38  49 2.01
  47  0.742  0.476  0.761-  24 1.37  33 1.38  49 2.01
  48  0.610  0.609  0.760-  31 1.37  32 1.38  49 2.01
  49  0.567  0.433  0.785-  47 2.01  45 2.01  48 2.01  46 2.01
 

IMPORTANT INFORMATION: All symmetrisations will be switched off!
NOSYMM: (Re-)initialisation of all symmetry stuff for point group C_1.

 
 
 KPOINTS: K-POINTS                                

Automatic generation of k-mesh.
Space group operators:
 irot       det(A)        alpha          n_x          n_y          n_z        tau_x        tau_y        tau_z
    1     1.000000     0.000000     1.000000     0.000000     0.000000     0.000000     0.000000     0.000000
 
 Subroutine IBZKPT returns following result:
 ===========================================
 
 Found     13 irreducible k-points:
 
 Following reciprocal coordinates:
            Coordinates               Weight
  0.000000  0.000000  0.000000      1.000000
  0.200000  0.000000  0.000000      2.000000
  0.400000  0.000000  0.000000      2.000000
  0.000000  0.200000  0.000000      2.000000
  0.200000  0.200000  0.000000      2.000000
  0.400000  0.200000  0.000000      2.000000
 -0.400000  0.200000  0.000000      2.000000
 -0.200000  0.200000  0.000000      2.000000
  0.000000  0.400000  0.000000      2.000000
  0.200000  0.400000  0.000000      2.000000
  0.400000  0.400000  0.000000      2.000000
 -0.400000  0.400000  0.000000      2.000000
 -0.200000  0.400000  0.000000      2.000000
 
 Following cartesian coordinates:
            Coordinates               Weight
  0.000000  0.000000  0.000000      1.000000
  0.016260  0.009388  0.000000      2.000000
  0.032520  0.018776  0.000000      2.000000
  0.000000  0.018776  0.000000      2.000000
  0.016260  0.028163  0.000000      2.000000
  0.032520  0.037551  0.000000      2.000000
 -0.032520  0.000000  0.000000      2.000000
 -0.016260  0.009388  0.000000      2.000000
  0.000000  0.037551  0.000000      2.000000
  0.016260  0.046939  0.000000      2.000000
  0.032520  0.056327  0.000000      2.000000
 -0.032520  0.018776  0.000000      2.000000
 -0.016260  0.028163  0.000000      2.000000
 


--------------------------------------------------------------------------------------------------------




 Dimension of arrays:
   k-points           NKPTS =     13   k-points in BZ     NKDIM =     13   number of bands    NBANDS=    256
   number of dos      NEDOS =   2000   number of ions     NIONS =     49
   non local maximal  LDIM  =      6   non local SUM 2l+1 LMDIM =     18
   total plane-waves  NPLWV = ******
   max r-space proj   IRMAX =      1   max aug-charges    IRDMAX=  18182
   dimension x,y,z NGX =    96 NGY =   96 NGZ =  150
   dimension x,y,z NGXF=   192 NGYF=  192 NGZF=  300
   support grid    NGXF=   192 NGYF=  192 NGZF=  300
   ions per type =              44   4   1
   NGX,Y,Z   is equivalent  to a cutoff of  12.98, 12.98, 12.47 a.u.
   NGXF,Y,Z  is equivalent  to a cutoff of  25.95, 25.95, 24.94 a.u.

 SYSTEM =  V-N-C                                   
 POSCAR =  C  N  V                                 

 Startparameter for this run:
   NWRITE =      2    write-flag & timer
   PREC   = accura    normal or accurate (medium, high low for compatibility)
   ISTART =      0    job   : 0-new  1-cont  2-samecut
   ICHARG =     11    charge: 1-file 2-atom 10-const
   ISPIN  =      2    spin polarized calculation?
   LNONCOLLINEAR =      F non collinear calculations
   LSORBIT =      F    spin-orbit coupling
   INIWAV =      1    electr: 0-lowe 1-rand  2-diag
   LASPH  =      T    aspherical Exc in radial PAW
   METAGGA=      F    non-selfconsistent MetaGGA calc.

 Electronic Relaxation 1
   ENCUT  =  520.0 eV  38.22 Ry    6.18 a.u.  22.87 22.87 37.19*2*pi/ulx,y,z
   ENINI  =  520.0     initial cutoff
   ENAUG  =  644.9 eV  augmentation charge cutoff
   NELM   =    200;   NELMIN=  2; NELMDL= -5     # of ELM steps 
   EDIFF  = 0.1E-04   stopping-criterion for ELM
   LREAL  =      F    real-space projection
   NLSPLINE    = F    spline interpolate recip. space projectors
   LCOMPAT=      F    compatible to vasp.4.4
   GGA_COMPAT  = T    GGA compatible to vasp.4.4-vasp.4.6
   LMAXPAW     = -100 max onsite density
   LMAXMIX     =    4 max onsite mixed and CHGCAR
   VOSKOWN=      0    Vosko Wilk Nusair interpolation
   ROPT   =    0.00000   0.00000   0.00000
 Ionic relaxation
   EDIFFG = 0.1E-03   stopping-criterion for IOM
   NSW    =      0    number of steps for IOM
   NBLOCK =      1;   KBLOCK =      1    inner block; outer block 
   IBRION =     -1    ionic relax: 0-MD 1-quasi-New 2-CG
   NFREE  =      0    steps in history (QN), initial steepest desc. (CG)
   ISIF   =      2    stress and relaxation
   IWAVPR =     10    prediction:  0-non 1-charg 2-wave 3-comb
   ISYM   =      0    0-nonsym 1-usesym 2-fastsym
   LCORR  =      T    Harris-Foulkes like correction to forces

   POTIM  = 0.5000    time-step for ionic-motion
   TEIN   =    0.0    initial temperature
   TEBEG  =    0.0;   TEEND  =   0.0 temperature during run
   SMASS  =  -3.00    Nose mass-parameter (am)
   estimated Nose-frequenzy (Omega)   =  0.10E-29 period in steps =****** mass=  -0.346E-26a.u.
   SCALEE = 1.0000    scale energy and forces
   NPACO  =    256;   APACO  = 16.0  distance and # of slots for P.C.
   PSTRESS=    0.0 pullay stress

  Mass of Ions in am
   POMASS =  12.01 14.00 50.94
  Ionic Valenz
   ZVAL   =   4.00  5.00 13.00
  Atomic Wigner-Seitz radii
   RWIGS  =  -1.00 -1.00 -1.00
  virtual crystal weights 
   VCA    =   1.00  1.00  1.00
   NELECT =     209.0000    total number of electrons
   NUPDOWN=      -1.0000    fix difference up-down

 DOS related values:
   EMIN   =  10.00;   EMAX   =-10.00  energy-range for DOS
   EFERMI =   0.00
   ISMEAR =     0;   SIGMA  =   0.05  broadening in eV -4-tet -1-fermi 0-gaus

 Electronic relaxation 2 (details)
   IALGO  =     58    algorithm
   LDIAG  =      T    sub-space diagonalisation (order eigenvalues)
   LSUBROT=      F    optimize rotation matrix (better conditioning)
   TURBO    =      0    0=normal 1=particle mesh
   IRESTART =      0    0=no restart 2=restart with 2 vectors
   NREBOOT  =      0    no. of reboots
   NMIN     =      0    reboot dimension
   EREF     =   0.00    reference energy to select bands
   IMIX   =      4    mixing-type and parameters
     AMIX     =   0.40;   BMIX     =  1.00
     AMIX_MAG =   1.60;   BMIX_MAG =  1.00
     AMIN     =   0.10
     WC   =   100.;   INIMIX=   1;  MIXPRE=   1;  MAXMIX= -45

 Intra band minimization:
   WEIMIN = 0.0000     energy-eigenvalue tresh-hold
   EBREAK =  0.98E-08  absolut break condition
   DEPER  =   0.30     relativ break condition  

   TIME   =   0.40     timestep for ELM

  volume/ion in A,a.u.               =      53.48       360.89
  Fermi-wavevector in a.u.,A,eV,Ry     =   0.704693  1.331677  6.756548  0.496592
  Thomas-Fermi vector in A             =   1.790004
 
 Write flags
   LWAVE        =      F    write WAVECAR
   LDOWNSAMPLE  =      F    k-point downsampling of WAVECAR
   LCHARG       =      F    write CHGCAR
   LVTOT        =      F    write LOCPOT, total local potential
   LVHAR        =      F    write LOCPOT, Hartree potential only
   LELF         =      F    write electronic localiz. function (ELF)
   LORBIT       =     11    0 simple, 1 ext, 2 COOP (PROOUT), +10 PAW based schemes


 Dipole corrections
   LMONO  =      F    monopole corrections only (constant potential shift)
   LDIPOL =      F    correct potential (dipole corrections)
   IDIPOL =      0    1-x, 2-y, 3-z, 4-all directions 
   EPSILON=  1.0000000 bulk dielectric constant

 LDA+U is selected, type is set to LDAUTYPE =  2
   angular momentum for each species LDAUL =    -1   -1    2
   U (eV)           for each species LDAUU =   0.0  0.0  4.0
   J (eV)           for each species LDAUJ =   0.0  0.0  0.0
 Exchange correlation treatment:
   GGA     =    --    GGA type
   LEXCH   =     8    internal setting for exchange type
   VOSKOWN=      0    Vosko Wilk Nusair interpolation
   LHFCALC =     F    Hartree Fock is set to
   LHFONE  =     F    Hartree Fock one center treatment
   AEXX    =    0.0000 exact exchange contribution

 Linear response parameters
   LEPSILON=     F    determine dielectric tensor
   LRPA    =     F    only Hartree local field effects (RPA)
   LNABLA  =     F    use nabla operator in PAW spheres
   LVEL    =     F    velocity operator in full k-point grid
   LINTERFAST=   F  fast interpolation
   KINTER  =     0    interpolate to denser k-point grid
   CSHIFT  =0.1000    complex shift for real part using Kramers Kronig
   OMEGAMAX=  -1.0    maximum frequency
   DEG_THRESHOLD= 0.2000000E-02 threshold for treating states as degnerate
   RTIME   =   -0.100 relaxation time in fs
  (WPLASMAI=    0.000 imaginary part of plasma frequency in eV, 0.658/RTIME)
   DFIELD  = 0.0000000 0.0000000 0.0000000 field for delta impulse in time
 
 Orbital magnetization related:
   ORBITALMAG=     F  switch on orbital magnetization
   LCHIMAG   =     F  perturbation theory with respect to B field
   DQ        =  0.001000  dq finite difference perturbation B field
   LLRAUG    =     F  two centre corrections for induced B field



--------------------------------------------------------------------------------------------------------


 Static calculation
 charge density and potential remain constant during run
 spin polarized calculation
 Conjugate gradient for all bands (Freysoldt, et al. PRB 79, 241103 (2009))
 preconditioned conjugated gradient   charged. constant during bandupdate  
 perform sub-space diagonalisation
    before iterative eigenvector-optimisation
 no mixing
 using additional bands          151
 reciprocal scheme for non local part
 use partial core corrections
 calculate Harris-corrections to forces 
   (improved forces if not selfconsistent)
 use gradient corrections 
 WARNING: stress and forces are not correct
  (second derivative of E(xc) not defined)
 use of overlap-Matrix (Vanderbilt PP)
 Gauss-broadening in eV      SIGMA  =   0.05


--------------------------------------------------------------------------------------------------------


  energy-cutoff  :      520.00
  volume of cell :     2620.42
      direct lattice vectors                 reciprocal lattice vectors
    12.300000000  0.000000000  0.000000000     0.081300813  0.046939046  0.000000000
    -6.150000000 10.652112467  0.000000000     0.000000000  0.093878093  0.000000000
     0.000000000  0.000000000 20.000000000     0.000000000  0.000000000  0.050000000

  length of vectors
    12.300000000 12.300000000 20.000000000     0.093878093  0.093878093  0.050000000


 
 k-points in units of 2pi/SCALE and weight: K-POINTS                                
   0.00000000  0.00000000  0.00000000       0.040
   0.01626016  0.00938781  0.00000000       0.080
   0.03252033  0.01877562  0.00000000       0.080
   0.00000000  0.01877562  0.00000000       0.080
   0.01626016  0.02816343  0.00000000       0.080
   0.03252033  0.03755124  0.00000000       0.080
  -0.03252033  0.00000000  0.00000000       0.080
  -0.01626016  0.00938781  0.00000000       0.080
   0.00000000  0.03755124  0.00000000       0.080
   0.01626016  0.04693905  0.00000000       0.080
   0.03252033  0.05632686  0.00000000       0.080
  -0.03252033  0.01877562  0.00000000       0.080
  -0.01626016  0.02816343  0.00000000       0.080
 
 k-points in reciprocal lattice and weights: K-POINTS                                
   0.00000000  0.00000000  0.00000000       0.040
   0.20000000  0.00000000  0.00000000       0.080
   0.40000000  0.00000000  0.00000000       0.080
   0.00000000  0.20000000  0.00000000       0.080
   0.20000000  0.20000000  0.00000000       0.080
   0.40000000  0.20000000  0.00000000       0.080
  -0.40000000  0.20000000  0.00000000       0.080
  -0.20000000  0.20000000  0.00000000       0.080
   0.00000000  0.40000000  0.00000000       0.080
   0.20000000  0.40000000  0.00000000       0.080
   0.40000000  0.40000000  0.00000000       0.080
  -0.40000000  0.40000000  0.00000000       0.080
  -0.20000000  0.40000000  0.00000000       0.080
 
 position of ions in fractional coordinates (direct lattice) 
   0.99925175  0.00074827  0.74177327
   0.13146963  0.06474680  0.74217794
   0.19805869  0.99812999  0.74223237
   0.33039428  0.06321115  0.74610182
   0.39853780  0.99760758  0.74713854
   0.53170938  0.06630027  0.74967799
   0.59936887  0.00042237  0.74860895
   0.73250359  0.06912054  0.74854235
   0.79962879  0.00220345  0.74605592
   0.93244595  0.06755406  0.74421875
   0.99779654  0.20037122  0.74605592
   0.13093816  0.26522333  0.74704506
   0.19654479  0.19707213  0.74601096
   0.32756354  0.26196229  0.75227469
   0.39528080  0.19425285  0.75233293
   0.59383811  0.19996028  0.75497509
   0.72921507  0.27078492  0.75467421
   0.79690589  0.20309410  0.75047527
   0.93087945  0.26749641  0.74854235
   0.99957761  0.40063113  0.74860895
   0.13374840  0.46604801  0.74856589
   0.19961441  0.39837171  0.74958027
   0.33329975  0.46049872  0.75484651
   0.80003971  0.40616189  0.75497509
   0.93369971  0.46829062  0.74967799
   0.00239241  0.60146221  0.74713852
   0.13553508  0.66628389  0.74614746
   0.20246734  0.59916598  0.74848881
   0.33644096  0.66355903  0.75037917
   0.40412844  0.59587155  0.75455357
   0.53950128  0.66670024  0.75484651
   0.73803771  0.67243646  0.75227468
   0.80574715  0.60471920  0.75233292
   0.93678886  0.66960573  0.74610182
   0.00187004  0.80194134  0.74223236
   0.13409166  0.86590837  0.74188523
   0.20090235  0.79909766  0.74437166
   0.33371612  0.86446491  0.74614747
   0.40083402  0.79753264  0.74848882
   0.53395199  0.86625158  0.74856589
   0.60162829  0.80038557  0.74958027
   0.73477668  0.86906183  0.74704506
   0.80292788  0.80345521  0.74601095
   0.93525322  0.86853039  0.74217794
   0.52354403  0.25760598  0.76056616
   0.39093043  0.39022765  0.76047346
   0.74239401  0.47645597  0.76056616
   0.60977235  0.60906956  0.76047346
   0.56664901  0.43335098  0.78497957
 
 position of ions in cartesian coordinates  (Angst):
  12.28619466  0.00797068 14.83546538
   1.21888366  0.68969021 14.84355875
  -3.70237754 10.63219288 14.84464733
   3.67510115  0.67333223 14.92203647
  -1.23327173 10.62662818 14.94277073
   6.13227872  0.70623795 14.99355984
   7.36963949  0.00449913 14.97217909
   8.58470282  0.73627977 14.97084698
   9.82188286  0.02347136 14.92111832
  11.05362770  0.71959345 14.88437505
  11.04061449  2.13437679 14.92111835
  -0.02058405  2.82518869 14.94090125
   1.20550734  2.09923452 14.92021919
   2.41796344  2.79045178 15.04549379
   3.66729884  2.06920316 15.04665855
   6.07445308  2.12999934 15.09950180
   7.30401815  2.88443142 15.09348426
   8.55291373  2.16338119 15.00950545
   9.80471425  2.84940186 14.97084697
   9.83092312  4.26756790 14.97217904
  -1.22108997  4.96439579 14.97131780
   0.00527124  4.24350024 14.99160549
   1.26751978  4.90528412 15.09693020
   7.34259284  4.32648209 15.09950182
   8.60451913  4.98828439 14.99355974
  -3.66956598  6.40684312 14.94277049
  -2.43056444  7.09733090 14.92294927
  -1.19452247  6.38238337 14.96977624
   0.05733575  7.06830541 15.00758342
   1.30616981  6.34729076 15.09107142
   2.53565927  7.10176590 15.09693014
   4.94237962  7.16286879 15.04549361
   6.19166689  6.44153698 15.04665847
   7.40442769  7.13271559 14.92203641
  -4.90893778  8.54236930 14.84464730
  -3.67600908  9.22375332 14.83770461
  -2.44335170  8.51207815 14.88743311
  -1.21175094  9.20837749 14.92294949
   0.02543271  8.49540743 14.96977632
   1.24016229  9.22740928 14.97131777
   2.47765675  8.52579714 14.99160535
   3.69302294  9.25734433 14.94090113
   4.93476343  8.55849525 14.92021901
   6.16215273  9.25168339 14.84355871
   4.85531486  2.74404785 15.21132319
   2.40854425  4.15674879 15.20946923
   6.20124215  5.07526253 15.21132313
   3.75442213  6.48787745 15.20946917
   4.30467434  4.61610334 15.69959134
 


--------------------------------------------------------------------------------------------------------


 k-point  1 :   0.0000 0.0000 0.0000  plane waves:   70503
 k-point  2 :   0.2000 0.0000 0.0000  plane waves:   70568
 k-point  3 :   0.4000 0.0000 0.0000  plane waves:   70572
 k-point  4 :   0.0000 0.2000 0.0000  plane waves:   70568
 k-point  5 :   0.2000 0.2000 0.0000  plane waves:   70519
 k-point  6 :   0.4000 0.2000 0.0000  plane waves:   70609
 k-point  7 :  -0.4000 0.2000 0.0000  plane waves:   70519
 k-point  8 :  -0.2000 0.2000 0.0000  plane waves:   70568
 k-point  9 :   0.0000 0.4000 0.0000  plane waves:   70572
 k-point 10 :   0.2000 0.4000 0.0000  plane waves:   70609
 k-point 11 :   0.4000 0.4000 0.0000  plane waves:   70609
 k-point 12 :  -0.4000 0.4000 0.0000  plane waves:   70572
 k-point 13 :  -0.2000 0.4000 0.0000  plane waves:   70519

 maximum and minimum number of plane-waves per node :     70609    70503

 maximum number of plane-waves:     70609
 maximum index in each direction: 
   IXMAX=   23   IYMAX=   22   IZMAX=   37
   IXMIN=  -23   IYMIN=  -23   IZMIN=  -37


 serial   3D FFT for wavefunctions
 parallel 3D FFT for charge:
    minimum data exchange during FFTs selected (reduces bandwidth)


 total amount of memory used by VASP MPI-rank0   696067. kBytes
=======================================================================

   base      :      30000. kBytes
   nonl-proj :     452198. kBytes
   fftplans  :       7547. kBytes
   grid      :     115983. kBytes
   one-center:       1524. kBytes
   wavefun   :      88815. kBytes
 
     INWAV:  cpu time    0.0001: real time    0.0000
 initial charge density was supplied:
 number of electron     208.9999997 magnetization       2.9582113
 keeping initial charge density in first step


--------------------------------------------------------------------------------------------------------


 Maximum index for augmentation-charges          361 (set IRDMAX)


--------------------------------------------------------------------------------------------------------


 First call to EWALD:  gamma=   0.129
 Maximum number of real-space cells 3x 3x 2
 Maximum number of reciprocal cells 3x 3x 4

    FEWALD:  cpu time    0.0090: real time    0.0093


--------------------------------------- Iteration      1(   1)  ---------------------------------------


    POTLOK:  cpu time    2.2940: real time    2.3283
    SETDIJ:  cpu time    0.4422: real time    0.4543
    TRIAL :  cpu time  219.9500: real time  220.1013
    CORREC:  cpu time    0.0465: real time    0.0468
    --------------------------------------------
      LOOP:  cpu time  222.8098: real time  223.0355

 eigenvalue-minimisations  : 19968
 total energy-change (2. order) : 0.1847803E+03  (-0.9705599E+04)
 number of electron     208.9999997 magnetization       2.9582113
 augmentation part      208.9999997 magnetization       2.9582113

 Free energy of the ion-electron system (eV)
  ---------------------------------------------------
  alpha Z        PSCENC =        90.11582226
  Ewald energy   TEWEN  =     34767.67599477
  -Hartree energ DENC   =    -42756.15867749
  -exchange      EXHF   =         0.00000000
  -V(xc)+E(xc)   XCENC  =       787.40774268
  PAW double counting   =      5126.97182143    -5204.43395112
  entropy T*S    EENTRO =        -0.03072896
  eigenvalues    EBANDS =     -2110.84936726
  atomic energy  EATOM  =      9484.08161297
  ---------------------------------------------------
  free energy    TOTEN  =       184.78026929 eV

  energy without entropy =      184.81099825  energy(sigma->0) =      184.79563377


--------------------------------------------------------------------------------------------------------




--------------------------------------- Iteration      1(   2)  ---------------------------------------


    TRIAL :  cpu time  142.2252: real time  142.5491
    CORREC:  cpu time    0.0376: real time    0.0376
    --------------------------------------------
      LOOP:  cpu time  142.2926: real time  142.6273

 eigenvalue-minimisations  : 13312
 total energy-change (2. order) :-0.6012088E+03  (-0.6003739E+03)
 number of electron     208.9999997 magnetization       2.9582113
 augmentation part      208.9999997 magnetization       2.9582113

 Free energy of the ion-electron system (eV)
  ---------------------------------------------------
  alpha Z        PSCENC =        90.11582226
  Ewald energy   TEWEN  =     34767.67599477
  -Hartree energ DENC   =    -42756.15867749
  -exchange      EXHF   =         0.00000000
  -V(xc)+E(xc)   XCENC  =       787.40774268
  PAW double counting   =      5126.97182143    -5204.43395112
  entropy T*S    EENTRO =        -0.00164385
  eigenvalues    EBANDS =     -2712.08726798
  atomic energy  EATOM  =      9484.08161297
  ---------------------------------------------------
  free energy    TOTEN  =      -416.42854633 eV

  energy without entropy =     -416.42690247  energy(sigma->0) =     -416.42772440


--------------------------------------------------------------------------------------------------------




--------------------------------------- Iteration      1(   3)  ---------------------------------------


    TRIAL :  cpu time  338.3814: real time  338.6481
    CORREC:  cpu time    0.0417: real time    0.0417
    --------------------------------------------
      LOOP:  cpu time  338.4299: real time  338.6966

 eigenvalue-minimisations  : 26624
 total energy-change (2. order) :-0.2791622E+02  (-0.2791384E+02)
 number of electron     208.9999997 magnetization       2.9582113
 augmentation part      208.9999997 magnetization       2.9582113

 Free energy of the ion-electron system (eV)
  ---------------------------------------------------
  alpha Z        PSCENC =        90.11582226
  Ewald energy   TEWEN  =     34767.67599477
  -Hartree energ DENC   =    -42756.15867749
  -exchange      EXHF   =         0.00000000
  -V(xc)+E(xc)   XCENC  =       787.40774268
  PAW double counting   =      5126.97182143    -5204.43395112
  entropy T*S    EENTRO =        -0.00273117
  eigenvalues    EBANDS =     -2740.00239872
  atomic energy  EATOM  =      9484.08161297
  ---------------------------------------------------
  free energy    TOTEN  =      -444.34476438 eV

  energy without entropy =     -444.34203321  energy(sigma->0) =     -444.34339880


--------------------------------------------------------------------------------------------------------




--------------------------------------- Iteration      1(   4)  ---------------------------------------


    TRIAL :  cpu time  140.9095: real time  141.1132
    CORREC:  cpu time    0.0426: real time    0.0426
    --------------------------------------------
      LOOP:  cpu time  140.9573: real time  141.1610

 eigenvalue-minimisations  : 13312
 total energy-change (2. order) :-0.1098260E-01  (-0.1098260E-01)
 number of electron     208.9999997 magnetization       2.9582113
 augmentation part      208.9999997 magnetization       2.9582113

 Free energy of the ion-electron system (eV)
  ---------------------------------------------------
  alpha Z        PSCENC =        90.11582226
  Ewald energy   TEWEN  =     34767.67599477
  -Hartree energ DENC   =    -42756.15867749
  -exchange      EXHF   =         0.00000000
  -V(xc)+E(xc)   XCENC  =       787.40774268
  PAW double counting   =      5126.97182143    -5204.43395112
  entropy T*S    EENTRO =        -0.00273142
  eigenvalues    EBANDS =     -2740.01338107
  atomic energy  EATOM  =      9484.08161297
  ---------------------------------------------------
  free energy    TOTEN  =      -444.35574698 eV

  energy without entropy =     -444.35301556  energy(sigma->0) =     -444.35438127


--------------------------------------------------------------------------------------------------------




--------------------------------------- Iteration      1(   5)  ---------------------------------------


    TRIAL :  cpu time  333.7553: real time  333.9855
    CORREC:  cpu time    0.0404: real time    0.0404
    --------------------------------------------
      LOOP:  cpu time  333.8031: real time  334.0333

 eigenvalue-minimisations  : 26624
 total energy-change (2. order) :-0.6994710E-04  (-0.6994739E-04)
 number of electron     208.9999997 magnetization       2.9582113
 augmentation part      208.9999997 magnetization       2.9582113

 Free energy of the ion-electron system (eV)
  ---------------------------------------------------
  alpha Z        PSCENC =        90.11582226
  Ewald energy   TEWEN  =     34767.67599477
  -Hartree energ DENC   =    -42756.15867749
  -exchange      EXHF   =         0.00000000
  -V(xc)+E(xc)   XCENC  =       787.40774268
  PAW double counting   =      5126.97182143    -5204.43395112
  entropy T*S    EENTRO =        -0.00273143
  eigenvalues    EBANDS =     -2740.01345100
  atomic energy  EATOM  =      9484.08161297
  ---------------------------------------------------
  free energy    TOTEN  =      -444.35581693 eV

  energy without entropy =     -444.35308550  energy(sigma->0) =     -444.35445121


--------------------------------------------------------------------------------------------------------




--------------------------------------- Iteration      1(   6)  ---------------------------------------


    TRIAL :  cpu time   59.7281: real time   60.8137
    CORREC:  cpu time   21.1367: real time   22.0335
    EDDIAG:  cpu time   20.0707: real time   20.2052
    --------------------------------------------
      LOOP:  cpu time  100.9407: real time  103.0576

 eigenvalue-minimisations  :     0
 total energy-change (2. order) :-0.7275958E-11  (-0.9107987E-08)
 number of electron     208.9999997 magnetization       2.9582113
 augmentation part      208.9999997 magnetization       2.9582113

 Free energy of the ion-electron system (eV)
  ---------------------------------------------------
  alpha Z        PSCENC =        90.11582226
  Ewald energy   TEWEN  =     34767.67599477
  -Hartree energ DENC   =    -42756.15867749
  -exchange      EXHF   =         0.00000000
  -V(xc)+E(xc)   XCENC  =       787.40774268
  PAW double counting   =      5126.97182143    -5204.43395112
  entropy T*S    EENTRO =        -0.00273143
  eigenvalues    EBANDS =     -2740.01345100
  atomic energy  EATOM  =      9484.08161297
  ---------------------------------------------------
  free energy    TOTEN  =      -444.35581693 eV

  energy without entropy =     -444.35308550  energy(sigma->0) =     -444.35445121


--------------------------------------------------------------------------------------------------------


  average scaling for gradient   0.9897


 average (electrostatic) potential at core
  the test charge radii are     0.6991  0.7089  0.9956
  (the norm of the test charge is              1.0000)
       1 -58.0017       2 -57.9697       3 -57.9696       4 -58.0826       5 -58.1698
       6 -58.1619       7 -58.0808       8 -58.0445       9 -58.0188      10 -57.9368
      11 -58.0188      12 -58.1695      13 -58.0827      14 -58.7550      15 -58.7551
      16 -58.8840      17 -57.9989      18 -58.1404      19 -58.0445      20 -58.0809
      21 -58.0809      22 -58.1617      23 -58.8844      24 -58.8841      25 -58.1620
      26 -58.1699      27 -58.0188      28 -58.0444      29 -58.1404      30 -57.9985
      31 -58.8842      32 -58.7548      33 -58.7553      34 -58.0826      35 -57.9697
      36 -58.0021      37 -57.9371      38 -58.0188      39 -58.0444      40 -58.0809
      41 -58.1616      42 -58.1694      43 -58.0827      44 -57.9697      45 -72.6185
      46 -72.6190      47 -72.6186      48 -72.6190      49 -53.0569
 
 
 
 E-fermi :  -2.3684     XC(G=0):  -2.1785     alpha+bet : -1.8940


 spin component 1

 k-point     1 :       0.0000    0.0000    0.0000
  band No.  band energies     occupation 
      1     -67.0414      1.00000
      2     -41.1576      1.00000
      3     -41.1225      1.00000
      4     -40.8794      1.00000
      5     -23.1367      1.00000
      6     -22.7996      1.00000
      7     -22.5222      1.00000
      8     -22.2423      1.00000
      9     -21.6965      1.00000
     10     -21.3102      1.00000
     11     -21.2240      1.00000
     12     -20.8058      1.00000
     13     -20.2962      1.00000
     14     -20.0601      1.00000
     15     -19.6091      1.00000
     16     -19.4822      1.00000
     17     -19.1801      1.00000
     18     -19.0981      1.00000
     19     -18.9064      1.00000
     20     -18.7320      1.00000
     21     -18.7055      1.00000
     22     -18.4716      1.00000
     23     -17.9850      1.00000
     24     -17.1912      1.00000
     25     -17.1308      1.00000
     26     -16.6653      1.00000
     27     -16.5387      1.00000
     28     -16.3683      1.00000
     29     -15.9274      1.00000
     30     -15.6448      1.00000
     31     -15.5968      1.00000
     32     -15.4586      1.00000
     33     -15.4239      1.00000
     34     -15.0721      1.00000
     35     -14.5319      1.00000
     36     -14.4195      1.00000
     37     -14.3955      1.00000
     38     -14.3364      1.00000
     39     -14.0841      1.00000
     40     -13.2477      1.00000
     41     -12.5503      1.00000
     42     -12.4829      1.00000
     43     -12.3278      1.00000
     44     -12.1201      1.00000
     45     -11.7716      1.00000
     46     -11.7193      1.00000
     47     -11.6532      1.00000
     48     -11.6041      1.00000
     49     -11.5920      1.00000
     50     -11.4839      1.00000
     51     -11.0967      1.00000
     52     -10.6662      1.00000
     53     -10.6542      1.00000
     54     -10.5289      1.00000
     55     -10.4034      1.00000
     56     -10.1764      1.00000
     57     -10.0382      1.00000
     58     -10.0376      1.00000
     59      -9.7242      1.00000
     60      -9.7010      1.00000
     61      -9.6265      1.00000
     62      -9.4556      1.00000
     63      -9.3389      1.00000
     64      -9.3307      1.00000
     65      -9.2715      1.00000
     66      -9.1801      1.00000
     67      -9.1291      1.00000
     68      -9.1183      1.00000
     69      -9.0754      1.00000
     70      -8.9817      1.00000
     71      -8.9434      1.00000
     72      -8.9076      1.00000
     73      -8.7999      1.00000
     74      -8.4712      1.00000
     75      -8.4618      1.00000
     76      -7.7625      1.00000
     77      -7.7145      1.00000
     78      -7.6053      1.00000
     79      -7.6025      1.00000
     80      -7.5085      1.00000
     81      -7.2993      1.00000
     82      -7.2875      1.00000
     83      -7.2076      1.00000
     84      -7.1670      1.00000
     85      -7.0419      1.00000
     86      -6.8897      1.00000
     87      -6.7062      1.00000
     88      -6.6886      1.00000
     89      -6.5586      1.00000
     90      -6.3462      1.00000
     91      -6.2826      1.00000
     92      -6.2334      1.00000
     93      -6.1150      1.00000
     94      -6.0381      1.00000
     95      -5.7051      1.00000
     96      -5.5385      1.00000
     97      -5.3305      1.00000
     98      -4.5846      1.00000
     99      -4.5004      1.00000
    100      -4.2371      1.00000
    101      -4.1994      1.00000
    102      -4.1027      1.00000
    103      -4.0567      1.00000
    104      -3.7397      1.00000
    105      -3.0734      1.00000
    106      -2.7036      1.00000
    107      -1.6468      0.00000
    108      -1.5987      0.00000
    109      -1.3431      0.00000
    110      -1.2766      0.00000
    111      -1.2065      0.00000
    112      -0.4481      0.00000
    113      -0.2645      0.00000
    114       0.2797      0.00000
    115       0.3050      0.00000
    116       0.3367      0.00000
    117       0.3961      0.00000
    118       0.5048      0.00000
    119       0.8621      0.00000
    120       1.3274      0.00000
    121       1.4231      0.00000
    122       1.6563      0.00000
    123       1.6619      0.00000
    124       1.6662      0.00000
    125       1.7487      0.00000
    126       1.7802      0.00000
    127       1.8153      0.00000
    128       1.8316      0.00000
    129       1.8635      0.00000
    130       2.1042      0.00000
    131       2.1087      0.00000
    132       2.1406      0.00000
    133       2.1543      0.00000
    134       2.3764      0.00000
    135       2.4958      0.00000
    136       2.5220      0.00000
    137       2.5421      0.00000
    138       2.6162      0.00000
    139       2.6190      0.00000
    140       2.6487      0.00000
    141       2.8771      0.00000
    142       2.9636      0.00000
    143       2.9796      0.00000
    144       2.9946      0.00000
    145       2.9953      0.00000
    146       3.0034      0.00000
    147       3.0206      0.00000
    148       3.3631      0.00000
    149       3.7667      0.00000
    150       3.8387      0.00000
    151       3.8698      0.00000
    152       3.8798      0.00000
    153       3.8908      0.00000
    154       3.8926      0.00000
    155       3.9393      0.00000
    156       4.0042      0.00000
    157       4.1725      0.00000
    158       4.2307      0.00000
    159       4.2692      0.00000
    160       4.2860      0.00000
    161       4.2960      0.00000
    162       4.3267      0.00000
    163       4.3418      0.00000
    164       4.3441      0.00000
    165       4.3573      0.00000
    166       4.3606      0.00000
    167       4.3748      0.00000
    168       4.4895      0.00000
    169       4.5074      0.00000
    170       4.6567      0.00000
    171       4.7963      0.00000
    172       4.8259      0.00000
    173       5.0043      0.00000
    174       5.0240      0.00000
    175       5.0260      0.00000
    176       5.0970      0.00000
    177       5.1249      0.00000
    178       5.1378      0.00000
    179       5.1471      0.00000
    180       5.1563      0.00000
    181       5.3161      0.00000
    182       5.3836      0.00000
    183       5.4173      0.00000
    184       5.4426      0.00000
    185       5.5241      0.00000
    186       5.5373      0.00000
    187       5.5607      0.00000
    188       5.5809      0.00000
    189       5.5901      0.00000
    190       5.6134      0.00000
    191       5.6232      0.00000
    192       5.6252      0.00000
    193       5.6279      0.00000
    194       5.6292      0.00000
    195       5.6305      0.00000
    196       5.6310      0.00000
    197       5.6348      0.00000
    198       5.6553      0.00000
    199       5.7392      0.00000
    200       5.7663      0.00000
    201       5.8616      0.00000
    202       5.9091      0.00000
    203       5.9489      0.00000
    204       5.9542      0.00000
    205       6.0217      0.00000
    206       6.0259      0.00000
    207       6.0270      0.00000
    208       6.1138      0.00000
    209       6.1559      0.00000
    210       6.2300      0.00000
    211       6.2932      0.00000
    212       6.3716      0.00000
    213       6.3777      0.00000
    214       6.3928      0.00000
    215       6.4124      0.00000
    216       6.4306      0.00000
    217       6.4447      0.00000
    218       6.4549      0.00000
    219       6.4621      0.00000
    220       6.4652      0.00000
    221       6.4764      0.00000
    222       6.4788      0.00000
    223       6.4881      0.00000
    224       6.4968      0.00000
    225       6.6042      0.00000
    226       6.6208      0.00000
    227       6.6668      0.00000
    228       6.6723      0.00000
    229       6.6959      0.00000
    230       6.8793      0.00000
    231       6.8853      0.00000
    232       6.9140      0.00000
    233       6.9276      0.00000
    234       6.9338      0.00000
    235       6.9477      0.00000
    236       6.9548      0.00000
    237       6.9556      0.00000
    238       6.9589      0.00000
    239       6.9637      0.00000
    240       6.9666      0.00000
    241       6.9738      0.00000
    242       7.1926      0.00000
    243       7.4893      0.00000
    244       7.6535      0.00000
    245       7.6880      0.00000
    246       7.7002      0.00000
    247       7.7439      0.00000
    248       7.7638      0.00000
    249       7.7700      0.00000
    250       7.7804      0.00000
    251       7.7984      0.00000
    252       7.9153      0.00000
    253       7.9476      0.00000
    254       7.9797      0.00000
    255       8.0413      0.00000
    256       8.0943      0.00000

 k-point     2 :       0.2000    0.0000    0.0000
  band No.  band energies     occupation 
      1     -67.0414      1.00000
      2     -41.1576      1.00000
      3     -41.1225      1.00000
      4     -40.8794      1.00000
      5     -23.1259      1.00000
      6     -22.8154      1.00000
      7     -22.5331      1.00000
      8     -22.2445      1.00000
      9     -21.6641      1.00000
     10     -21.3580      1.00000
     11     -21.1452      1.00000
     12     -20.7554      1.00000
     13     -20.3805      1.00000
     14     -20.1049      1.00000
     15     -19.7364      1.00000
     16     -19.3843      1.00000
     17     -19.2506      1.00000
     18     -19.1188      1.00000
     19     -19.0908      1.00000
     20     -18.6293      1.00000
     21     -18.3774      1.00000
     22     -18.3178      1.00000
     23     -17.8998      1.00000
     24     -17.3443      1.00000
     25     -17.0665      1.00000
     26     -16.9800      1.00000
     27     -16.7242      1.00000
     28     -16.4542      1.00000
     29     -16.0592      1.00000
     30     -15.5554      1.00000
     31     -15.4458      1.00000
     32     -15.2757      1.00000
     33     -15.1701      1.00000
     34     -15.0703      1.00000
     35     -14.8742      1.00000
     36     -14.7441      1.00000
     37     -14.2985      1.00000
     38     -13.9561      1.00000
     39     -13.5615      1.00000
     40     -13.2324      1.00000
     41     -12.8456      1.00000
     42     -12.5661      1.00000
     43     -12.4867      1.00000
     44     -12.1960      1.00000
     45     -12.1162      1.00000
     46     -12.0320      1.00000
     47     -11.7119      1.00000
     48     -11.4959      1.00000
     49     -11.3065      1.00000
     50     -11.2852      1.00000
     51     -11.1031      1.00000
     52     -10.7117      1.00000
     53     -10.5490      1.00000
     54     -10.3866      1.00000
     55     -10.3610      1.00000
     56     -10.2462      1.00000
     57      -9.9158      1.00000
     58      -9.8516      1.00000
     59      -9.8315      1.00000
     60      -9.8011      1.00000
     61      -9.6646      1.00000
     62      -9.5710      1.00000
     63      -9.5279      1.00000
     64      -9.4497      1.00000
     65      -9.3232      1.00000
     66      -9.1156      1.00000
     67      -9.0950      1.00000
     68      -9.0308      1.00000
     69      -9.0111      1.00000
     70      -8.9070      1.00000
     71      -8.8123      1.00000
     72      -8.7881      1.00000
     73      -8.6160      1.00000
     74      -8.4281      1.00000
     75      -8.3278      1.00000
     76      -7.9399      1.00000
     77      -7.9185      1.00000
     78      -7.8035      1.00000
     79      -7.7172      1.00000
     80      -7.6306      1.00000
     81      -7.3925      1.00000
     82      -7.2985      1.00000
     83      -7.1669      1.00000
     84      -7.0589      1.00000
     85      -6.8893      1.00000
     86      -6.8875      1.00000
     87      -6.7419      1.00000
     88      -6.5983      1.00000
     89      -6.5762      1.00000
     90      -6.5294      1.00000
     91      -6.1545      1.00000
     92      -6.0812      1.00000
     93      -5.9484      1.00000
     94      -5.8454      1.00000
     95      -5.7448      1.00000
     96      -5.5817      1.00000
     97      -5.3207      1.00000
     98      -4.7778      1.00000
     99      -4.6059      1.00000
    100      -4.5255      1.00000
    101      -4.2580      1.00000
    102      -4.0361      1.00000
    103      -3.9074      1.00000
    104      -3.7486      1.00000
    105      -3.0552      1.00000
    106      -2.7677      1.00000
    107      -1.6837      0.00000
    108      -1.4954      0.00000
    109      -1.1734      0.00000
    110      -1.1044      0.00000
    111      -1.0195      0.00000
    112      -0.6126      0.00000
    113      -0.4114      0.00000
    114      -0.1993      0.00000
    115       0.1805      0.00000
    116       0.3885      0.00000
    117       0.5981      0.00000
    118       0.8723      0.00000
    119       0.9326      0.00000
    120       1.1527      0.00000
    121       1.2234      0.00000
    122       1.3442      0.00000
    123       1.5276      0.00000
    124       1.5826      0.00000
    125       1.7060      0.00000
    126       1.7699      0.00000
    127       1.8257      0.00000
    128       1.8982      0.00000
    129       2.0503      0.00000
    130       2.0662      0.00000
    131       2.1002      0.00000
    132       2.2780      0.00000
    133       2.3512      0.00000
    134       2.3587      0.00000
    135       2.4806      0.00000
    136       2.5503      0.00000
    137       2.5664      0.00000
    138       2.7495      0.00000
    139       2.7632      0.00000
    140       2.7737      0.00000
    141       2.8729      0.00000
    142       2.8978      0.00000
    143       3.0207      0.00000
    144       3.1036      0.00000
    145       3.2282      0.00000
    146       3.2974      0.00000
    147       3.3069      0.00000
    148       3.4832      0.00000
    149       3.5454      0.00000
    150       3.5982      0.00000
    151       3.6209      0.00000
    152       3.6639      0.00000
    153       3.7655      0.00000
    154       3.7964      0.00000
    155       3.9311      0.00000
    156       4.0480      0.00000
    157       4.0553      0.00000
    158       4.1345      0.00000
    159       4.1815      0.00000
    160       4.2458      0.00000
    161       4.3171      0.00000
    162       4.3525      0.00000
    163       4.3952      0.00000
    164       4.4157      0.00000
    165       4.4389      0.00000
    166       4.5588      0.00000
    167       4.5974      0.00000
    168       4.6118      0.00000
    169       4.6537      0.00000
    170       4.7661      0.00000
    171       4.8255      0.00000
    172       4.8642      0.00000
    173       4.8857      0.00000
    174       4.8910      0.00000
    175       4.9295      0.00000
    176       4.9673      0.00000
    177       5.0337      0.00000
    178       5.0677      0.00000
    179       5.0966      0.00000
    180       5.1377      0.00000
    181       5.1672      0.00000
    182       5.2036      0.00000
    183       5.2262      0.00000
    184       5.2536      0.00000
    185       5.2835      0.00000
    186       5.3644      0.00000
    187       5.4451      0.00000
    188       5.4668      0.00000
    189       5.4971      0.00000
    190       5.5975      0.00000
    191       5.6169      0.00000
    192       5.6716      0.00000
    193       5.6769      0.00000
    194       5.7063      0.00000
    195       5.7158      0.00000
    196       5.7292      0.00000
    197       5.7629      0.00000
    198       5.7722      0.00000
    199       5.8115      0.00000
    200       5.8547      0.00000
    201       5.9065      0.00000
    202       5.9476      0.00000
    203       5.9564      0.00000
    204       5.9601      0.00000
    205       6.0306      0.00000
    206       6.0927      0.00000
    207       6.1174      0.00000
    208       6.1526      0.00000
    209       6.1555      0.00000
    210       6.2031      0.00000
    211       6.2141      0.00000
    212       6.2760      0.00000
    213       6.2831      0.00000
    214       6.3390      0.00000
    215       6.3805      0.00000
    216       6.4281      0.00000
    217       6.4517      0.00000
    218       6.4598      0.00000
    219       6.4639      0.00000
    220       6.4824      0.00000
    221       6.4852      0.00000
    222       6.4993      0.00000
    223       6.5241      0.00000
    224       6.5364      0.00000
    225       6.6517      0.00000
    226       6.7344      0.00000
    227       6.7418      0.00000
    228       6.8074      0.00000
    229       6.8665      0.00000
    230       6.9261      0.00000
    231       6.9419      0.00000
    232       6.9728      0.00000
    233       7.0102      0.00000
    234       7.0451      0.00000
    235       7.0671      0.00000
    236       7.1426      0.00000
    237       7.1871      0.00000
    238       7.2522      0.00000
    239       7.2597      0.00000
    240       7.2686      0.00000
    241       7.2855      0.00000
    242       7.3361      0.00000
    243       7.3930      0.00000
    244       7.4903      0.00000
    245       7.4996      0.00000
    246       7.5156      0.00000
    247       7.5516      0.00000
    248       7.5898      0.00000
    249       7.6678      0.00000
    250       7.7117      0.00000
    251       7.7241      0.00000
    252       7.7571      0.00000
    253       7.7705      0.00000
    254       7.7904      0.00000
    255       7.8421      0.00000
    256       7.9653      0.00000

 k-point     3 :       0.4000    0.0000    0.0000
  band No.  band energies     occupation 
      1     -67.0414      1.00000
      2     -41.1576      1.00000
      3     -41.1225      1.00000
      4     -40.8794      1.00000
      5     -23.1057      1.00000
      6     -22.8437      1.00000
      7     -22.5489      1.00000
      8     -22.2492      1.00000
      9     -21.5991      1.00000
     10     -21.3989      1.00000
     11     -21.0733      1.00000
     12     -20.6198      1.00000
     13     -20.5140      1.00000
     14     -20.2037      1.00000
     15     -19.7618      1.00000
     16     -19.6457      1.00000
     17     -19.2871      1.00000
     18     -19.2666      1.00000
     19     -18.7729      1.00000
     20     -18.4431      1.00000
     21     -18.1231      1.00000
     22     -17.9827      1.00000
     23     -17.8323      1.00000
     24     -17.5080      1.00000
     25     -17.4091      1.00000
     26     -17.2461      1.00000
     27     -16.8720      1.00000
     28     -16.4469      1.00000
     29     -16.1022      1.00000
     30     -15.7932      1.00000
     31     -15.3611      1.00000
     32     -15.3375      1.00000
     33     -15.1381      1.00000
     34     -15.0491      1.00000
     35     -14.6606      1.00000
     36     -14.3173      1.00000
     37     -14.1165      1.00000
     38     -13.5649      1.00000
     39     -13.4836      1.00000
     40     -13.3151      1.00000
     41     -12.9844      1.00000
     42     -12.7793      1.00000
     43     -12.7465      1.00000
     44     -12.6709      1.00000
     45     -12.3128      1.00000
     46     -11.8872      1.00000
     47     -11.6249      1.00000
     48     -11.5675      1.00000
     49     -11.3695      1.00000
     50     -11.3163      1.00000
     51     -10.9175      1.00000
     52     -10.7246      1.00000
     53     -10.5444      1.00000
     54     -10.3151      1.00000
     55     -10.2411      1.00000
     56     -10.1384      1.00000
     57     -10.0508      1.00000
     58      -9.9403      1.00000
     59      -9.8322      1.00000
     60      -9.7493      1.00000
     61      -9.6350      1.00000
     62      -9.5831      1.00000
     63      -9.5132      1.00000
     64      -9.4751      1.00000
     65      -9.2853      1.00000
     66      -9.1845      1.00000
     67      -9.1148      1.00000
     68      -8.8958      1.00000
     69      -8.8064      1.00000
     70      -8.7259      1.00000
     71      -8.6288      1.00000
     72      -8.5501      1.00000
     73      -8.5251      1.00000
     74      -8.4194      1.00000
     75      -8.3467      1.00000
     76      -8.2529      1.00000
     77      -8.1668      1.00000
     78      -8.0791      1.00000
     79      -7.7912      1.00000
     80      -7.7313      1.00000
     81      -7.5230      1.00000
     82      -7.3628      1.00000
     83      -7.0748      1.00000
     84      -7.0564      1.00000
     85      -6.8959      1.00000
     86      -6.8619      1.00000
     87      -6.8142      1.00000
     88      -6.7226      1.00000
     89      -6.4017      1.00000
     90      -6.3007      1.00000
     91      -6.0450      1.00000
     92      -5.9613      1.00000
     93      -5.7562      1.00000
     94      -5.6815      1.00000
     95      -5.5565      1.00000
     96      -5.4901      1.00000
     97      -5.2852      1.00000
     98      -5.0811      1.00000
     99      -5.0425      1.00000
    100      -4.9721      1.00000
    101      -4.2537      1.00000
    102      -3.9938      1.00000
    103      -3.7951      1.00000
    104      -3.6980      1.00000
    105      -3.0299      1.00000
    106      -2.8790      1.00000
    107      -1.7569      0.00000
    108      -1.3242      0.00000
    109      -0.9651      0.00000
    110      -0.8782      0.00000
    111      -0.6948      0.00000
    112      -0.5791      0.00000
    113      -0.5135      0.00000
    114      -0.4508      0.00000
    115      -0.0040      0.00000
    116       0.2093      0.00000
    117       0.3967      0.00000
    118       0.7376      0.00000
    119       0.8327      0.00000
    120       0.9793      0.00000
    121       1.1769      0.00000
    122       1.4834      0.00000
    123       1.5214      0.00000
    124       1.6369      0.00000
    125       1.6798      0.00000
    126       1.7016      0.00000
    127       1.8604      0.00000
    128       1.9105      0.00000
    129       2.0359      0.00000
    130       2.1353      0.00000
    131       2.1498      0.00000
    132       2.2493      0.00000
    133       2.4003      0.00000
    134       2.5115      0.00000
    135       2.5831      0.00000
    136       2.6683      0.00000
    137       2.6857      0.00000
    138       2.8278      0.00000
    139       2.9194      0.00000
    140       2.9465      0.00000
    141       3.0205      0.00000
    142       3.0317      0.00000
    143       3.1481      0.00000
    144       3.2035      0.00000
    145       3.2832      0.00000
    146       3.4242      0.00000
    147       3.4435      0.00000
    148       3.5242      0.00000
    149       3.5569      0.00000
    150       3.6338      0.00000
    151       3.6603      0.00000
    152       3.7091      0.00000
    153       3.7250      0.00000
    154       3.7983      0.00000
    155       3.8325      0.00000
    156       3.8570      0.00000
    157       3.9436      0.00000
    158       4.0017      0.00000
    159       4.1649      0.00000
    160       4.2022      0.00000
    161       4.2377      0.00000
    162       4.2536      0.00000
    163       4.2821      0.00000
    164       4.2938      0.00000
    165       4.3704      0.00000
    166       4.4553      0.00000
    167       4.4959      0.00000
    168       4.5695      0.00000
    169       4.5931      0.00000
    170       4.6246      0.00000
    171       4.7290      0.00000
    172       4.7638      0.00000
    173       4.7918      0.00000
    174       4.9716      0.00000
    175       4.9763      0.00000
    176       5.0048      0.00000
    177       5.0465      0.00000
    178       5.0513      0.00000
    179       5.1090      0.00000
    180       5.1144      0.00000
    181       5.1483      0.00000
    182       5.1613      0.00000
    183       5.2704      0.00000
    184       5.3089      0.00000
    185       5.3249      0.00000
    186       5.3955      0.00000
    187       5.5022      0.00000
    188       5.5309      0.00000
    189       5.5458      0.00000
    190       5.5540      0.00000
    191       5.5855      0.00000
    192       5.6135      0.00000
    193       5.6389      0.00000
    194       5.6445      0.00000
    195       5.6768      0.00000
    196       5.6910      0.00000
    197       5.7488      0.00000
    198       5.7688      0.00000
    199       5.8198      0.00000
    200       5.8345      0.00000
    201       5.8368      0.00000
    202       5.8765      0.00000
    203       5.9102      0.00000
    204       5.9651      0.00000
    205       5.9905      0.00000
    206       6.0774      0.00000
    207       6.0888      0.00000
    208       6.1027      0.00000
    209       6.1150      0.00000
    210       6.1463      0.00000
    211       6.2119      0.00000
    212       6.2344      0.00000
    213       6.2895      0.00000
    214       6.3418      0.00000
    215       6.3678      0.00000
    216       6.4368      0.00000
    217       6.4909      0.00000
    218       6.5724      0.00000
    219       6.5975      0.00000
    220       6.6550      0.00000
    221       6.6807      0.00000
    222       6.6902      0.00000
    223       6.7084      0.00000
    224       6.7511      0.00000
    225       6.7769      0.00000
    226       6.7950      0.00000
    227       6.8324      0.00000
    228       6.8838      0.00000
    229       6.8943      0.00000
    230       6.9260      0.00000
    231       7.0211      0.00000
    232       7.0356      0.00000
    233       7.0692      0.00000
    234       7.1000      0.00000
    235       7.1348      0.00000
    236       7.1810      0.00000
    237       7.1909      0.00000
    238       7.2766      0.00000
    239       7.3290      0.00000
    240       7.3438      0.00000
    241       7.3612      0.00000
    242       7.3998      0.00000
    243       7.4002      0.00000
    244       7.4190      0.00000
    245       7.4292      0.00000
    246       7.4418      0.00000
    247       7.5156      0.00000
    248       7.5303      0.00000
    249       7.5965      0.00000
    250       7.6369      0.00000
    251       7.6683      0.00000
    252       7.6994      0.00000
    253       7.7408      0.00000
    254       7.7993      0.00000
    255       7.8205      0.00000
    256       7.8686      0.00000

 k-point     4 :       0.0000    0.2000    0.0000
  band No.  band energies     occupation 
      1     -67.0414      1.00000
      2     -41.1576      1.00000
      3     -41.1225      1.00000
      4     -40.8794      1.00000
      5     -23.1259      1.00000
      6     -22.8154      1.00000
      7     -22.5331      1.00000
      8     -22.2444      1.00000
      9     -21.6641      1.00000
     10     -21.3580      1.00000
     11     -21.1452      1.00000
     12     -20.7554      1.00000
     13     -20.3805      1.00000
     14     -20.1049      1.00000
     15     -19.7365      1.00000
     16     -19.3842      1.00000
     17     -19.2506      1.00000
     18     -19.1188      1.00000
     19     -19.0908      1.00000
     20     -18.6293      1.00000
     21     -18.3775      1.00000
     22     -18.3177      1.00000
     23     -17.8998      1.00000
     24     -17.3443      1.00000
     25     -17.0665      1.00000
     26     -16.9800      1.00000
     27     -16.7242      1.00000
     28     -16.4542      1.00000
     29     -16.0592      1.00000
     30     -15.5554      1.00000
     31     -15.4458      1.00000
     32     -15.2757      1.00000
     33     -15.1701      1.00000
     34     -15.0703      1.00000
     35     -14.8742      1.00000
     36     -14.7440      1.00000
     37     -14.2985      1.00000
     38     -13.9561      1.00000
     39     -13.5615      1.00000
     40     -13.2324      1.00000
     41     -12.8456      1.00000
     42     -12.5661      1.00000
     43     -12.4866      1.00000
     44     -12.1960      1.00000
     45     -12.1162      1.00000
     46     -12.0321      1.00000
     47     -11.7119      1.00000
     48     -11.4959      1.00000
     49     -11.3065      1.00000
     50     -11.2852      1.00000
     51     -11.1031      1.00000
     52     -10.7117      1.00000
     53     -10.5490      1.00000
     54     -10.3866      1.00000
     55     -10.3610      1.00000
     56     -10.2462      1.00000
     57      -9.9158      1.00000
     58      -9.8516      1.00000
     59      -9.8314      1.00000
     60      -9.8011      1.00000
     61      -9.6646      1.00000
     62      -9.5710      1.00000
     63      -9.5279      1.00000
     64      -9.4496      1.00000
     65      -9.3232      1.00000
     66      -9.1156      1.00000
     67      -9.0950      1.00000
     68      -9.0308      1.00000
     69      -9.0111      1.00000
     70      -8.9070      1.00000
     71      -8.8123      1.00000
     72      -8.7881      1.00000
     73      -8.6160      1.00000
     74      -8.4281      1.00000
     75      -8.3278      1.00000
     76      -7.9398      1.00000
     77      -7.9186      1.00000
     78      -7.8035      1.00000
     79      -7.7172      1.00000
     80      -7.6306      1.00000
     81      -7.3925      1.00000
     82      -7.2985      1.00000
     83      -7.1669      1.00000
     84      -7.0589      1.00000
     85      -6.8893      1.00000
     86      -6.8875      1.00000
     87      -6.7418      1.00000
     88      -6.5983      1.00000
     89      -6.5763      1.00000
     90      -6.5293      1.00000
     91      -6.1544      1.00000
     92      -6.0812      1.00000
     93      -5.9484      1.00000
     94      -5.8454      1.00000
     95      -5.7448      1.00000
     96      -5.5818      1.00000
     97      -5.3207      1.00000
     98      -4.7778      1.00000
     99      -4.6059      1.00000
    100      -4.5254      1.00000
    101      -4.2580      1.00000
    102      -4.0361      1.00000
    103      -3.9074      1.00000
    104      -3.7486      1.00000
    105      -3.0551      1.00000
    106      -2.7677      1.00000
    107      -1.6839      0.00000
    108      -1.4954      0.00000
    109      -1.1738      0.00000
    110      -1.1046      0.00000
    111      -1.0188      0.00000
    112      -0.6117      0.00000
    113      -0.4115      0.00000
    114      -0.2001      0.00000
    115       0.1805      0.00000
    116       0.3886      0.00000
    117       0.5981      0.00000
    118       0.8723      0.00000
    119       0.9327      0.00000
    120       1.1527      0.00000
    121       1.2234      0.00000
    122       1.3442      0.00000
    123       1.5276      0.00000
    124       1.5826      0.00000
    125       1.7060      0.00000
    126       1.7699      0.00000
    127       1.8257      0.00000
    128       1.8982      0.00000
    129       2.0504      0.00000
    130       2.0662      0.00000
    131       2.1001      0.00000
    132       2.2780      0.00000
    133       2.3512      0.00000
    134       2.3587      0.00000
    135       2.4806      0.00000
    136       2.5503      0.00000
    137       2.5664      0.00000
    138       2.7495      0.00000
    139       2.7632      0.00000
    140       2.7737      0.00000
    141       2.8729      0.00000
    142       2.8978      0.00000
    143       3.0206      0.00000
    144       3.1036      0.00000
    145       3.2281      0.00000
    146       3.2974      0.00000
    147       3.3069      0.00000
    148       3.4832      0.00000
    149       3.5454      0.00000
    150       3.5982      0.00000
    151       3.6209      0.00000
    152       3.6639      0.00000
    153       3.7655      0.00000
    154       3.7964      0.00000
    155       3.9311      0.00000
    156       4.0480      0.00000
    157       4.0553      0.00000
    158       4.1345      0.00000
    159       4.1815      0.00000
    160       4.2458      0.00000
    161       4.3171      0.00000
    162       4.3526      0.00000
    163       4.3952      0.00000
    164       4.4156      0.00000
    165       4.4389      0.00000
    166       4.5588      0.00000
    167       4.5974      0.00000
    168       4.6118      0.00000
    169       4.6537      0.00000
    170       4.7661      0.00000
    171       4.8255      0.00000
    172       4.8642      0.00000
    173       4.8857      0.00000
    174       4.8910      0.00000
    175       4.9295      0.00000
    176       4.9673      0.00000
    177       5.0337      0.00000
    178       5.0678      0.00000
    179       5.0966      0.00000
    180       5.1377      0.00000
    181       5.1671      0.00000
    182       5.2036      0.00000
    183       5.2262      0.00000
    184       5.2536      0.00000
    185       5.2835      0.00000
    186       5.3644      0.00000
    187       5.4451      0.00000
    188       5.4668      0.00000
    189       5.4971      0.00000
    190       5.5975      0.00000
    191       5.6169      0.00000
    192       5.6716      0.00000
    193       5.6769      0.00000
    194       5.7064      0.00000
    195       5.7158      0.00000
    196       5.7292      0.00000
    197       5.7628      0.00000
    198       5.7722      0.00000
    199       5.8115      0.00000
    200       5.8547      0.00000
    201       5.9065      0.00000
    202       5.9476      0.00000
    203       5.9564      0.00000
    204       5.9601      0.00000
    205       6.0306      0.00000
    206       6.0927      0.00000
    207       6.1174      0.00000
    208       6.1526      0.00000
    209       6.1555      0.00000
    210       6.2031      0.00000
    211       6.2141      0.00000
    212       6.2760      0.00000
    213       6.2831      0.00000
    214       6.3390      0.00000
    215       6.3805      0.00000
    216       6.4281      0.00000
    217       6.4517      0.00000
    218       6.4598      0.00000
    219       6.4639      0.00000
    220       6.4824      0.00000
    221       6.4852      0.00000
    222       6.4993      0.00000
    223       6.5241      0.00000
    224       6.5364      0.00000
    225       6.6517      0.00000
    226       6.7343      0.00000
    227       6.7418      0.00000
    228       6.8074      0.00000
    229       6.8665      0.00000
    230       6.9260      0.00000
    231       6.9419      0.00000
    232       6.9728      0.00000
    233       7.0103      0.00000
    234       7.0451      0.00000
    235       7.0671      0.00000
    236       7.1426      0.00000
    237       7.1871      0.00000
    238       7.2522      0.00000
    239       7.2597      0.00000
    240       7.2686      0.00000
    241       7.2855      0.00000
    242       7.3359      0.00000
    243       7.3931      0.00000
    244       7.4905      0.00000
    245       7.4997      0.00000
    246       7.5157      0.00000
    247       7.5522      0.00000
    248       7.5899      0.00000
    249       7.6688      0.00000
    250       7.7118      0.00000
    251       7.7244      0.00000
    252       7.7573      0.00000
    253       7.7705      0.00000
    254       7.7905      0.00000
    255       7.8438      0.00000
    256       7.9736      0.00000

 k-point     5 :       0.2000    0.2000    0.0000
  band No.  band energies     occupation 
      1     -67.0414      1.00000
      2     -41.1576      1.00000
      3     -41.1225      1.00000
      4     -40.8794      1.00000
      5     -23.1097      1.00000
      6     -22.8392      1.00000
      7     -22.5436      1.00000
      8     -22.2495      1.00000
      9     -21.6306      1.00000
     10     -21.2991      1.00000
     11     -21.1954      1.00000
     12     -20.5876      1.00000
     13     -20.5335      1.00000
     14     -20.0405      1.00000
     15     -19.9268      1.00000
     16     -19.6426      1.00000
     17     -19.3683      1.00000
     18     -18.8558      1.00000
     19     -18.7599      1.00000
     20     -18.7254      1.00000
     21     -18.3901      1.00000
     22     -18.1009      1.00000
     23     -17.7008      1.00000
     24     -17.3672      1.00000
     25     -17.1846      1.00000
     26     -17.1816      1.00000
     27     -16.9916      1.00000
     28     -16.4612      1.00000
     29     -16.1248      1.00000
     30     -15.7686      1.00000
     31     -15.4931      1.00000
     32     -15.4019      1.00000
     33     -15.0013      1.00000
     34     -14.7867      1.00000
     35     -14.7513      1.00000
     36     -14.4219      1.00000
     37     -14.2649      1.00000
     38     -13.9005      1.00000
     39     -13.3927      1.00000
     40     -13.1777      1.00000
     41     -12.9767      1.00000
     42     -12.8574      1.00000
     43     -12.5532      1.00000
     44     -12.4353      1.00000
     45     -12.1185      1.00000
     46     -11.9390      1.00000
     47     -11.7947      1.00000
     48     -11.6637      1.00000
     49     -11.6308      1.00000
     50     -11.0101      1.00000
     51     -10.9417      1.00000
     52     -10.7193      1.00000
     53     -10.6153      1.00000
     54     -10.3446      1.00000
     55     -10.2763      1.00000
     56     -10.2748      1.00000
     57      -9.9635      1.00000
     58      -9.8887      1.00000
     59      -9.7866      1.00000
     60      -9.7678      1.00000
     61      -9.6426      1.00000
     62      -9.4802      1.00000
     63      -9.3803      1.00000
     64      -9.2869      1.00000
     65      -9.2833      1.00000
     66      -9.2724      1.00000
     67      -9.1348      1.00000
     68      -9.0901      1.00000
     69      -8.9155      1.00000
     70      -8.8561      1.00000
     71      -8.8316      1.00000
     72      -8.6025      1.00000
     73      -8.5011      1.00000
     74      -8.4187      1.00000
     75      -8.3329      1.00000
     76      -8.1238      1.00000
     77      -7.9602      1.00000
     78      -7.8081      1.00000
     79      -7.7978      1.00000
     80      -7.7384      1.00000
     81      -7.5412      1.00000
     82      -7.5042      1.00000
     83      -7.3209      1.00000
     84      -7.1519      1.00000
     85      -6.9145      1.00000
     86      -6.7276      1.00000
     87      -6.7268      1.00000
     88      -6.3640      1.00000
     89      -6.3473      1.00000
     90      -6.2204      1.00000
     91      -6.2012      1.00000
     92      -6.0853      1.00000
     93      -5.8899      1.00000
     94      -5.8576      1.00000
     95      -5.7420      1.00000
     96      -5.5186      1.00000
     97      -5.2825      1.00000
     98      -4.9698      1.00000
     99      -4.8397      1.00000
    100      -4.6373      1.00000
    101      -4.5190      1.00000
    102      -4.0532      1.00000
    103      -3.8409      1.00000
    104      -3.4334      1.00000
    105      -3.0427      1.00000
    106      -3.0136      1.00000
    107      -1.8560      0.00000
    108      -1.0871      0.00000
    109      -1.0086      0.00000
    110      -0.8783      0.00000
    111      -0.8065      0.00000
    112      -0.7414      0.00000
    113      -0.5976      0.00000
    114      -0.2979      0.00000
    115       0.0653      0.00000
    116       0.3337      0.00000
    117       0.3627      0.00000
    118       0.8006      0.00000
    119       0.8066      0.00000
    120       1.0285      0.00000
    121       1.2204      0.00000
    122       1.2975      0.00000
    123       1.3512      0.00000
    124       1.6078      0.00000
    125       1.7766      0.00000
    126       1.8226      0.00000
    127       1.9280      0.00000
    128       1.9506      0.00000
    129       2.0070      0.00000
    130       2.0129      0.00000
    131       2.2933      0.00000
    132       2.3622      0.00000
    133       2.3659      0.00000
    134       2.5244      0.00000
    135       2.5790      0.00000
    136       2.6615      0.00000
    137       2.6907      0.00000
    138       2.7303      0.00000
    139       2.7723      0.00000
    140       2.8702      0.00000
    141       3.0531      0.00000
    142       3.1198      0.00000
    143       3.1425      0.00000
    144       3.1673      0.00000
    145       3.1772      0.00000
    146       3.2663      0.00000
    147       3.3424      0.00000
    148       3.5356      0.00000
    149       3.5606      0.00000
    150       3.5774      0.00000
    151       3.7120      0.00000
    152       3.7230      0.00000
    153       3.7449      0.00000
    154       3.8643      0.00000
    155       3.9187      0.00000
    156       3.9444      0.00000
    157       3.9487      0.00000
    158       4.0192      0.00000
    159       4.0807      0.00000
    160       4.0938      0.00000
    161       4.1991      0.00000
    162       4.2050      0.00000
    163       4.2615      0.00000
    164       4.3405      0.00000
    165       4.4200      0.00000
    166       4.4376      0.00000
    167       4.5313      0.00000
    168       4.5647      0.00000
    169       4.6359      0.00000
    170       4.7857      0.00000
    171       4.8064      0.00000
    172       4.8350      0.00000
    173       4.9246      0.00000
    174       4.9606      0.00000
    175       4.9824      0.00000
    176       5.0019      0.00000
    177       5.0535      0.00000
    178       5.0652      0.00000
    179       5.1013      0.00000
    180       5.1601      0.00000
    181       5.1683      0.00000
    182       5.1966      0.00000
    183       5.2433      0.00000
    184       5.2544      0.00000
    185       5.3290      0.00000
    186       5.3502      0.00000
    187       5.3803      0.00000
    188       5.4645      0.00000
    189       5.4695      0.00000
    190       5.4970      0.00000
    191       5.5154      0.00000
    192       5.5391      0.00000
    193       5.6318      0.00000
    194       5.6455      0.00000
    195       5.6778      0.00000
    196       5.6924      0.00000
    197       5.7574      0.00000
    198       5.8137      0.00000
    199       5.8192      0.00000
    200       5.8631      0.00000
    201       5.9151      0.00000
    202       5.9276      0.00000
    203       5.9495      0.00000
    204       5.9975      0.00000
    205       6.0102      0.00000
    206       6.0172      0.00000
    207       6.0653      0.00000
    208       6.0924      0.00000
    209       6.1262      0.00000
    210       6.2574      0.00000
    211       6.2872      0.00000
    212       6.2980      0.00000
    213       6.3293      0.00000
    214       6.3729      0.00000
    215       6.4785      0.00000
    216       6.5139      0.00000
    217       6.5492      0.00000
    218       6.5623      0.00000
    219       6.5642      0.00000
    220       6.5702      0.00000
    221       6.6389      0.00000
    222       6.6587      0.00000
    223       6.6620      0.00000
    224       6.7071      0.00000
    225       6.7667      0.00000
    226       6.7961      0.00000
    227       6.8092      0.00000
    228       6.8259      0.00000
    229       6.8798      0.00000
    230       6.9272      0.00000
    231       6.9385      0.00000
    232       7.0135      0.00000
    233       7.0549      0.00000
    234       7.0706      0.00000
    235       7.1012      0.00000
    236       7.1102      0.00000
    237       7.1498      0.00000
    238       7.2302      0.00000
    239       7.2825      0.00000
    240       7.3146      0.00000
    241       7.3498      0.00000
    242       7.3536      0.00000
    243       7.3576      0.00000
    244       7.3699      0.00000
    245       7.4537      0.00000
    246       7.4655      0.00000
    247       7.5215      0.00000
    248       7.5864      0.00000
    249       7.6826      0.00000
    250       7.7286      0.00000
    251       7.7563      0.00000
    252       7.8175      0.00000
    253       7.8516      0.00000
    254       7.8608      0.00000
    255       7.8868      0.00000
    256       7.9023      0.00000

 k-point     6 :       0.4000    0.2000    0.0000
  band No.  band energies     occupation 
      1     -67.0414      1.00000
      2     -41.1576      1.00000
      3     -41.1225      1.00000
      4     -40.8794      1.00000
      5     -23.0997      1.00000
      6     -22.8468      1.00000
      7     -22.5694      1.00000
      8     -22.2333      1.00000
      9     -21.6012      1.00000
     10     -21.3860      1.00000
     11     -21.0836      1.00000
     12     -20.5806      1.00000
     13     -20.4594      1.00000
     14     -20.1631      1.00000
     15     -19.9232      1.00000
     16     -19.8429      1.00000
     17     -19.4189      1.00000
     18     -18.8186      1.00000
     19     -18.7146      1.00000
     20     -18.4021      1.00000
     21     -18.2078      1.00000
     22     -18.0291      1.00000
     23     -17.8842      1.00000
     24     -17.4402      1.00000
     25     -17.3433      1.00000
     26     -17.2298      1.00000
     27     -17.0299      1.00000
     28     -16.4826      1.00000
     29     -16.0380      1.00000
     30     -15.9849      1.00000
     31     -15.6650      1.00000
     32     -15.4750      1.00000
     33     -14.7734      1.00000
     34     -14.6351      1.00000
     35     -14.4900      1.00000
     36     -14.1225      1.00000
     37     -14.0022      1.00000
     38     -13.8749      1.00000
     39     -13.7517      1.00000
     40     -13.5115      1.00000
     41     -13.1996      1.00000
     42     -12.8622      1.00000
     43     -12.5134      1.00000
     44     -12.2465      1.00000
     45     -12.1744      1.00000
     46     -12.0030      1.00000
     47     -11.8823      1.00000
     48     -11.8225      1.00000
     49     -11.3625      1.00000
     50     -11.2387      1.00000
     51     -10.9109      1.00000
     52     -10.8108      1.00000
     53     -10.4464      1.00000
     54     -10.2116      1.00000
     55     -10.1507      1.00000
     56     -10.1194      1.00000
     57     -10.0426      1.00000
     58      -9.9533      1.00000
     59      -9.8643      1.00000
     60      -9.8166      1.00000
     61      -9.7255      1.00000
     62      -9.5650      1.00000
     63      -9.4664      1.00000
     64      -9.3235      1.00000
     65      -9.2663      1.00000
     66      -9.1704      1.00000
     67      -8.9940      1.00000
     68      -8.9149      1.00000
     69      -8.8936      1.00000
     70      -8.7563      1.00000
     71      -8.7113      1.00000
     72      -8.6069      1.00000
     73      -8.4877      1.00000
     74      -8.4736      1.00000
     75      -8.3369      1.00000
     76      -8.1351      1.00000
     77      -8.0593      1.00000
     78      -7.9703      1.00000
     79      -7.8722      1.00000
     80      -7.7191      1.00000
     81      -7.6154      1.00000
     82      -7.4555      1.00000
     83      -7.3597      1.00000
     84      -7.2635      1.00000
     85      -6.8842      1.00000
     86      -6.8558      1.00000
     87      -6.6454      1.00000
     88      -6.4438      1.00000
     89      -6.2931      1.00000
     90      -6.1705      1.00000
     91      -6.1094      1.00000
     92      -5.9712      1.00000
     93      -5.7376      1.00000
     94      -5.6588      1.00000
     95      -5.6304      1.00000
     96      -5.5572      1.00000
     97      -5.2315      1.00000
     98      -5.0740      1.00000
     99      -5.0432      1.00000
    100      -4.9749      1.00000
    101      -4.5278      1.00000
    102      -4.0715      1.00000
    103      -3.8902      1.00000
    104      -3.3591      1.00000
    105      -3.0246      1.00000
    106      -2.8925      1.00000
    107      -1.9952      0.00000
    108      -1.0428      0.00000
    109      -0.9790      0.00000
    110      -0.9448      0.00000
    111      -0.6294      0.00000
    112      -0.5484      0.00000
    113      -0.4133      0.00000
    114      -0.2760      0.00000
    115       0.0342      0.00000
    116       0.0946      0.00000
    117       0.2380      0.00000
    118       0.4884      0.00000
    119       0.8453      0.00000
    120       0.8863      0.00000
    121       1.0530      0.00000
    122       1.2855      0.00000
    123       1.3918      0.00000
    124       1.6651      0.00000
    125       1.8329      0.00000
    126       1.8802      0.00000
    127       1.9358      0.00000
    128       1.9894      0.00000
    129       2.0420      0.00000
    130       2.1134      0.00000
    131       2.2976      0.00000
    132       2.3598      0.00000
    133       2.3666      0.00000
    134       2.4910      0.00000
    135       2.5585      0.00000
    136       2.7234      0.00000
    137       2.9087      0.00000
    138       2.9421      0.00000
    139       3.0427      0.00000
    140       3.0771      0.00000
    141       3.0874      0.00000
    142       3.1518      0.00000
    143       3.1722      0.00000
    144       3.1838      0.00000
    145       3.2756      0.00000
    146       3.3054      0.00000
    147       3.3954      0.00000
    148       3.4089      0.00000
    149       3.4154      0.00000
    150       3.4300      0.00000
    151       3.5924      0.00000
    152       3.6168      0.00000
    153       3.6437      0.00000
    154       3.7365      0.00000
    155       3.8377      0.00000
    156       3.9544      0.00000
    157       3.9735      0.00000
    158       3.9851      0.00000
    159       4.1280      0.00000
    160       4.1851      0.00000
    161       4.2717      0.00000
    162       4.2939      0.00000
    163       4.3293      0.00000
    164       4.3890      0.00000
    165       4.4212      0.00000
    166       4.4259      0.00000
    167       4.4860      0.00000
    168       4.5426      0.00000
    169       4.6266      0.00000
    170       4.6607      0.00000
    171       4.6731      0.00000
    172       4.6921      0.00000
    173       4.7793      0.00000
    174       4.7960      0.00000
    175       4.9330      0.00000
    176       4.9515      0.00000
    177       5.0399      0.00000
    178       5.0637      0.00000
    179       5.1241      0.00000
    180       5.1851      0.00000
    181       5.2035      0.00000
    182       5.2175      0.00000
    183       5.2369      0.00000
    184       5.2747      0.00000
    185       5.3032      0.00000
    186       5.3382      0.00000
    187       5.3970      0.00000
    188       5.4760      0.00000
    189       5.4926      0.00000
    190       5.5117      0.00000
    191       5.5422      0.00000
    192       5.5713      0.00000
    193       5.6335      0.00000
    194       5.6815      0.00000
    195       5.6932      0.00000
    196       5.7301      0.00000
    197       5.7707      0.00000
    198       5.8237      0.00000
    199       5.8534      0.00000
    200       5.8806      0.00000
    201       5.9134      0.00000
    202       5.9702      0.00000
    203       5.9988      0.00000
    204       6.0254      0.00000
    205       6.0566      0.00000
    206       6.0782      0.00000
    207       6.0969      0.00000
    208       6.1309      0.00000
    209       6.1449      0.00000
    210       6.2133      0.00000
    211       6.2655      0.00000
    212       6.3115      0.00000
    213       6.3570      0.00000
    214       6.3692      0.00000
    215       6.3941      0.00000
    216       6.4484      0.00000
    217       6.4857      0.00000
    218       6.5210      0.00000
    219       6.5256      0.00000
    220       6.5472      0.00000
    221       6.5700      0.00000
    222       6.6049      0.00000
    223       6.6503      0.00000
    224       6.7260      0.00000
    225       6.7336      0.00000
    226       6.7756      0.00000
    227       6.7918      0.00000
    228       6.8051      0.00000
    229       6.8280      0.00000
    230       6.8699      0.00000
    231       6.9419      0.00000
    232       6.9478      0.00000
    233       7.0485      0.00000
    234       7.0900      0.00000
    235       7.1834      0.00000
    236       7.1969      0.00000
    237       7.2551      0.00000
    238       7.2665      0.00000
    239       7.3022      0.00000
    240       7.3341      0.00000
    241       7.4224      0.00000
    242       7.4766      0.00000
    243       7.5262      0.00000
    244       7.5404      0.00000
    245       7.5530      0.00000
    246       7.5758      0.00000
    247       7.5809      0.00000
    248       7.5938      0.00000
    249       7.6158      0.00000
    250       7.6408      0.00000
    251       7.6669      0.00000
    252       7.7492      0.00000
    253       7.7668      0.00000
    254       7.8424      0.00000
    255       7.8449      0.00000
    256       7.9129      0.00000

 k-point     7 :      -0.4000    0.2000    0.0000
  band No.  band energies     occupation 
      1     -67.0414      1.00000
      2     -41.1576      1.00000
      3     -41.1225      1.00000
      4     -40.8794      1.00000
      5     -23.1115      1.00000
      6     -22.8254      1.00000
      7     -22.5750      1.00000
      8     -22.2179      1.00000
      9     -21.6233      1.00000
     10     -21.4471      1.00000
     11     -20.9874      1.00000
     12     -20.6990      1.00000
     13     -20.4209      1.00000
     14     -20.1946      1.00000
     15     -19.8458      1.00000
     16     -19.7060      1.00000
     17     -19.3578      1.00000
     18     -18.9569      1.00000
     19     -18.8368      1.00000
     20     -18.4740      1.00000
     21     -18.2629      1.00000
     22     -17.9567      1.00000
     23     -17.7644      1.00000
     24     -17.6036      1.00000
     25     -17.4004      1.00000
     26     -17.1003      1.00000
     27     -16.9164      1.00000
     28     -16.6188      1.00000
     29     -15.9767      1.00000
     30     -15.6670      1.00000
     31     -15.4930      1.00000
     32     -15.4079      1.00000
     33     -14.9648      1.00000
     34     -14.8204      1.00000
     35     -14.6517      1.00000
     36     -14.4469      1.00000
     37     -14.3091      1.00000
     38     -13.7224      1.00000
     39     -13.4600      1.00000
     40     -13.2185      1.00000
     41     -13.0755      1.00000
     42     -12.9217      1.00000
     43     -12.8261      1.00000
     44     -12.4481      1.00000
     45     -12.0440      1.00000
     46     -11.9972      1.00000
     47     -11.8009      1.00000
     48     -11.5483      1.00000
     49     -11.2718      1.00000
     50     -11.2256      1.00000
     51     -10.6933      1.00000
     52     -10.6132      1.00000
     53     -10.5664      1.00000
     54     -10.4407      1.00000
     55     -10.2970      1.00000
     56     -10.2648      1.00000
     57     -10.0179      1.00000
     58      -9.9268      1.00000
     59      -9.8674      1.00000
     60      -9.7845      1.00000
     61      -9.7515      1.00000
     62      -9.5810      1.00000
     63      -9.4344      1.00000
     64      -9.4055      1.00000
     65      -9.2965      1.00000
     66      -9.2050      1.00000
     67      -9.1310      1.00000
     68      -9.0221      1.00000
     69      -8.9275      1.00000
     70      -8.7645      1.00000
     71      -8.6868      1.00000
     72      -8.6100      1.00000
     73      -8.4833      1.00000
     74      -8.3431      1.00000
     75      -8.2969      1.00000
     76      -8.0913      1.00000
     77      -8.0206      1.00000
     78      -7.9082      1.00000
     79      -7.8593      1.00000
     80      -7.6474      1.00000
     81      -7.4762      1.00000
     82      -7.4025      1.00000
     83      -7.2704      1.00000
     84      -7.2299      1.00000
     85      -7.1244      1.00000
     86      -6.7987      1.00000
     87      -6.7022      1.00000
     88      -6.4913      1.00000
     89      -6.3445      1.00000
     90      -6.3187      1.00000
     91      -6.2583      1.00000
     92      -6.0531      1.00000
     93      -5.8823      1.00000
     94      -5.6343      1.00000
     95      -5.5199      1.00000
     96      -5.3625      1.00000
     97      -5.2391      1.00000
     98      -5.1340      1.00000
     99      -5.0348      1.00000
    100      -4.5831      1.00000
    101      -4.4935      1.00000
    102      -4.0968      1.00000
    103      -3.9682      1.00000
    104      -3.6034      1.00000
    105      -2.9837      1.00000
    106      -2.5976      1.00000
    107      -1.9711      0.00000
    108      -1.1950      0.00000
    109      -1.0953      0.00000
    110      -0.9849      0.00000
    111      -0.7712      0.00000
    112      -0.6940      0.00000
    113      -0.5479      0.00000
    114      -0.1476      0.00000
    115       0.0153      0.00000
    116       0.3507      0.00000
    117       0.4428      0.00000
    118       0.8268      0.00000
    119       0.8375      0.00000
    120       0.9804      0.00000
    121       1.1630      0.00000
    122       1.1935      0.00000
    123       1.3161      0.00000
    124       1.6630      0.00000
    125       1.7831      0.00000
    126       1.8167      0.00000
    127       1.8844      0.00000
    128       1.9653      0.00000
    129       1.9990      0.00000
    130       2.0973      0.00000
    131       2.2399      0.00000
    132       2.3562      0.00000
    133       2.3593      0.00000
    134       2.4205      0.00000
    135       2.6668      0.00000
    136       2.6875      0.00000
    137       2.7072      0.00000
    138       2.7262      0.00000
    139       2.7656      0.00000
    140       2.9130      0.00000
    141       3.0454      0.00000
    142       3.1356      0.00000
    143       3.1435      0.00000
    144       3.1628      0.00000
    145       3.2577      0.00000
    146       3.2770      0.00000
    147       3.3732      0.00000
    148       3.5436      0.00000
    149       3.5577      0.00000
    150       3.5863      0.00000
    151       3.6434      0.00000
    152       3.6974      0.00000
    153       3.7239      0.00000
    154       3.7490      0.00000
    155       3.8912      0.00000
    156       3.9430      0.00000
    157       3.9515      0.00000
    158       4.0200      0.00000
    159       4.1664      0.00000
    160       4.1851      0.00000
    161       4.2066      0.00000
    162       4.2370      0.00000
    163       4.2982      0.00000
    164       4.3451      0.00000
    165       4.3816      0.00000
    166       4.4708      0.00000
    167       4.5384      0.00000
    168       4.5872      0.00000
    169       4.6273      0.00000
    170       4.7956      0.00000
    171       4.8225      0.00000
    172       4.8908      0.00000
    173       4.9272      0.00000
    174       4.9661      0.00000
    175       4.9854      0.00000
    176       4.9889      0.00000
    177       5.0548      0.00000
    178       5.0672      0.00000
    179       5.0736      0.00000
    180       5.1157      0.00000
    181       5.1896      0.00000
    182       5.2034      0.00000
    183       5.2212      0.00000
    184       5.2744      0.00000
    185       5.3284      0.00000
    186       5.3401      0.00000
    187       5.3691      0.00000
    188       5.4030      0.00000
    189       5.4332      0.00000
    190       5.4951      0.00000
    191       5.5109      0.00000
    192       5.5253      0.00000
    193       5.5407      0.00000
    194       5.5987      0.00000
    195       5.6566      0.00000
    196       5.6875      0.00000
    197       5.7130      0.00000
    198       5.7954      0.00000
    199       5.8307      0.00000
    200       5.8438      0.00000
    201       5.9023      0.00000
    202       5.9488      0.00000
    203       5.9729      0.00000
    204       6.0238      0.00000
    205       6.0345      0.00000
    206       6.0651      0.00000
    207       6.0788      0.00000
    208       6.1154      0.00000
    209       6.1203      0.00000
    210       6.1294      0.00000
    211       6.2547      0.00000
    212       6.2690      0.00000
    213       6.3340      0.00000
    214       6.3631      0.00000
    215       6.3819      0.00000
    216       6.4127      0.00000
    217       6.5054      0.00000
    218       6.5370      0.00000
    219       6.5587      0.00000
    220       6.5740      0.00000
    221       6.5760      0.00000
    222       6.6455      0.00000
    223       6.7347      0.00000
    224       6.7518      0.00000
    225       6.7684      0.00000
    226       6.8043      0.00000
    227       6.8272      0.00000
    228       6.8464      0.00000
    229       6.9052      0.00000
    230       6.9434      0.00000
    231       6.9823      0.00000
    232       7.0342      0.00000
    233       7.0905      0.00000
    234       7.0976      0.00000
    235       7.1153      0.00000
    236       7.1398      0.00000
    237       7.2243      0.00000
    238       7.2386      0.00000
    239       7.2661      0.00000
    240       7.2947      0.00000
    241       7.3064      0.00000
    242       7.3552      0.00000
    243       7.3623      0.00000
    244       7.3645      0.00000
    245       7.4112      0.00000
    246       7.4498      0.00000
    247       7.4995      0.00000
    248       7.5717      0.00000
    249       7.6985      0.00000
    250       7.7304      0.00000
    251       7.7486      0.00000
    252       7.8211      0.00000
    253       7.8438      0.00000
    254       7.8506      0.00000
    255       7.8833      0.00000
    256       7.9111      0.00000

 k-point     8 :      -0.2000    0.2000    0.0000
  band No.  band energies     occupation 
      1     -67.0414      1.00000
      2     -41.1576      1.00000
      3     -41.1225      1.00000
      4     -40.8794      1.00000
      5     -23.1268      1.00000
      6     -22.8065      1.00000
      7     -22.5547      1.00000
      8     -22.2224      1.00000
      9     -21.6610      1.00000
     10     -21.4421      1.00000
     11     -20.9794      1.00000
     12     -20.8578      1.00000
     13     -20.2546      1.00000
     14     -20.2330      1.00000
     15     -19.6983      1.00000
     16     -19.5295      1.00000
     17     -19.3085      1.00000
     18     -19.0185      1.00000
     19     -18.9755      1.00000
     20     -18.5742      1.00000
     21     -18.5558      1.00000
     22     -18.1555      1.00000
     23     -17.8246      1.00000
     24     -17.5288      1.00000
     25     -17.0251      1.00000
     26     -16.9121      1.00000
     27     -16.8792      1.00000
     28     -16.5954      1.00000
     29     -15.7323      1.00000
     30     -15.6430      1.00000
     31     -15.3636      1.00000
     32     -15.3092      1.00000
     33     -15.1629      1.00000
     34     -15.0642      1.00000
     35     -14.9529      1.00000
     36     -14.7093      1.00000
     37     -14.3643      1.00000
     38     -13.7180      1.00000
     39     -13.5989      1.00000
     40     -13.3277      1.00000
     41     -13.0301      1.00000
     42     -12.6324      1.00000
     43     -12.3725      1.00000
     44     -12.3131      1.00000
     45     -12.1231      1.00000
     46     -12.0492      1.00000
     47     -11.7424      1.00000
     48     -11.4207      1.00000
     49     -11.2680      1.00000
     50     -11.0129      1.00000
     51     -10.9295      1.00000
     52     -10.8621      1.00000
     53     -10.5085      1.00000
     54     -10.3797      1.00000
     55     -10.3495      1.00000
     56     -10.3337      1.00000
     57     -10.1376      1.00000
     58      -9.9382      1.00000
     59      -9.8409      1.00000
     60      -9.7680      1.00000
     61      -9.7065      1.00000
     62      -9.5713      1.00000
     63      -9.3817      1.00000
     64      -9.3227      1.00000
     65      -9.2075      1.00000
     66      -9.1950      1.00000
     67      -9.1864      1.00000
     68      -9.1113      1.00000
     69      -9.0949      1.00000
     70      -8.9383      1.00000
     71      -8.7925      1.00000
     72      -8.7193      1.00000
     73      -8.6827      1.00000
     74      -8.3512      1.00000
     75      -8.1723      1.00000
     76      -8.0351      1.00000
     77      -7.8190      1.00000
     78      -7.7280      1.00000
     79      -7.6617      1.00000
     80      -7.5723      1.00000
     81      -7.5116      1.00000
     82      -7.3886      1.00000
     83      -7.3177      1.00000
     84      -7.0496      1.00000
     85      -6.9861      1.00000
     86      -6.8000      1.00000
     87      -6.7213      1.00000
     88      -6.6475      1.00000
     89      -6.5782      1.00000
     90      -6.4841      1.00000
     91      -6.1863      1.00000
     92      -6.0725      1.00000
     93      -6.0657      1.00000
     94      -5.7735      1.00000
     95      -5.6682      1.00000
     96      -5.4755      1.00000
     97      -5.2607      1.00000
     98      -4.8837      1.00000
     99      -4.5588      1.00000
    100      -4.4834      1.00000
    101      -4.2281      1.00000
    102      -4.2067      1.00000
    103      -4.0473      1.00000
    104      -3.7008      1.00000
    105      -3.0102      1.00000
    106      -2.5539      1.00000
    107      -1.8112      0.00000
    108      -1.4325      0.00000
    109      -1.3514      0.00000
    110      -1.0514      0.00000
    111      -1.0310      0.00000
    112      -0.6352      0.00000
    113      -0.3079      0.00000
    114      -0.1133      0.00000
    115       0.0328      0.00000
    116       0.4521      0.00000
    117       0.7085      0.00000
    118       0.7290      0.00000
    119       0.9895      0.00000
    120       1.2145      0.00000
    121       1.2424      0.00000
    122       1.3596      0.00000
    123       1.5227      0.00000
    124       1.5397      0.00000
    125       1.6511      0.00000
    126       1.6904      0.00000
    127       1.7105      0.00000
    128       1.8407      0.00000
    129       2.0503      0.00000
    130       2.1028      0.00000
    131       2.2702      0.00000
    132       2.3105      0.00000
    133       2.3438      0.00000
    134       2.3599      0.00000
    135       2.4597      0.00000
    136       2.5320      0.00000
    137       2.5744      0.00000
    138       2.7567      0.00000
    139       2.7686      0.00000
    140       2.7757      0.00000
    141       2.8651      0.00000
    142       2.9839      0.00000
    143       3.0072      0.00000
    144       3.1229      0.00000
    145       3.2299      0.00000
    146       3.2952      0.00000
    147       3.3177      0.00000
    148       3.4782      0.00000
    149       3.5641      0.00000
    150       3.5671      0.00000
    151       3.6308      0.00000
    152       3.6591      0.00000
    153       3.6829      0.00000
    154       3.7962      0.00000
    155       3.9530      0.00000
    156       3.9861      0.00000
    157       4.0612      0.00000
    158       4.1207      0.00000
    159       4.1801      0.00000
    160       4.2504      0.00000
    161       4.3327      0.00000
    162       4.4037      0.00000
    163       4.4111      0.00000
    164       4.4124      0.00000
    165       4.4994      0.00000
    166       4.5661      0.00000
    167       4.6407      0.00000
    168       4.6447      0.00000
    169       4.6531      0.00000
    170       4.7493      0.00000
    171       4.7669      0.00000
    172       4.8652      0.00000
    173       4.8844      0.00000
    174       4.8878      0.00000
    175       4.9198      0.00000
    176       4.9658      0.00000
    177       5.0430      0.00000
    178       5.0431      0.00000
    179       5.1253      0.00000
    180       5.1627      0.00000
    181       5.1759      0.00000
    182       5.1788      0.00000
    183       5.2371      0.00000
    184       5.2491      0.00000
    185       5.2894      0.00000
    186       5.3497      0.00000
    187       5.3724      0.00000
    188       5.4614      0.00000
    189       5.5457      0.00000
    190       5.5559      0.00000
    191       5.5767      0.00000
    192       5.6567      0.00000
    193       5.6641      0.00000
    194       5.6676      0.00000
    195       5.7107      0.00000
    196       5.7248      0.00000
    197       5.7547      0.00000
    198       5.7591      0.00000
    199       5.8210      0.00000
    200       5.8461      0.00000
    201       5.9085      0.00000
    202       5.9414      0.00000
    203       5.9450      0.00000
    204       5.9564      0.00000
    205       6.0750      0.00000
    206       6.0874      0.00000
    207       6.1302      0.00000
    208       6.1700      0.00000
    209       6.1746      0.00000
    210       6.1871      0.00000
    211       6.2261      0.00000
    212       6.2714      0.00000
    213       6.3275      0.00000
    214       6.3405      0.00000
    215       6.3615      0.00000
    216       6.4228      0.00000
    217       6.4228      0.00000
    218       6.4591      0.00000
    219       6.4610      0.00000
    220       6.4715      0.00000
    221       6.4843      0.00000
    222       6.5049      0.00000
    223       6.5230      0.00000
    224       6.5425      0.00000
    225       6.6659      0.00000
    226       6.7404      0.00000
    227       6.7682      0.00000
    228       6.8187      0.00000
    229       6.8448      0.00000
    230       6.8895      0.00000
    231       6.9705      0.00000
    232       6.9772      0.00000
    233       7.0086      0.00000
    234       7.0715      0.00000
    235       7.0752      0.00000
    236       7.1163      0.00000
    237       7.1508      0.00000
    238       7.1667      0.00000
    239       7.2333      0.00000
    240       7.2550      0.00000
    241       7.2647      0.00000
    242       7.2783      0.00000
    243       7.2835      0.00000
    244       7.4186      0.00000
    245       7.5033      0.00000
    246       7.5211      0.00000
    247       7.5227      0.00000
    248       7.6085      0.00000
    249       7.6577      0.00000
    250       7.7280      0.00000
    251       7.7441      0.00000
    252       7.7660      0.00000
    253       7.7757      0.00000
    254       7.7781      0.00000
    255       7.7898      0.00000
    256       7.9790      0.00000

 k-point     9 :       0.0000    0.4000    0.0000
  band No.  band energies     occupation 
      1     -67.0414      1.00000
      2     -41.1576      1.00000
      3     -41.1225      1.00000
      4     -40.8794      1.00000
      5     -23.1057      1.00000
      6     -22.8437      1.00000
      7     -22.5489      1.00000
      8     -22.2492      1.00000
      9     -21.5991      1.00000
     10     -21.3990      1.00000
     11     -21.0733      1.00000
     12     -20.6198      1.00000
     13     -20.5140      1.00000
     14     -20.2037      1.00000
     15     -19.7619      1.00000
     16     -19.6457      1.00000
     17     -19.2871      1.00000
     18     -19.2665      1.00000
     19     -18.7729      1.00000
     20     -18.4431      1.00000
     21     -18.1231      1.00000
     22     -17.9827      1.00000
     23     -17.8323      1.00000
     24     -17.5080      1.00000
     25     -17.4091      1.00000
     26     -17.2461      1.00000
     27     -16.8720      1.00000
     28     -16.4469      1.00000
     29     -16.1021      1.00000
     30     -15.7932      1.00000
     31     -15.3611      1.00000
     32     -15.3375      1.00000
     33     -15.1381      1.00000
     34     -15.0491      1.00000
     35     -14.6606      1.00000
     36     -14.3174      1.00000
     37     -14.1165      1.00000
     38     -13.5649      1.00000
     39     -13.4836      1.00000
     40     -13.3150      1.00000
     41     -12.9844      1.00000
     42     -12.7792      1.00000
     43     -12.7465      1.00000
     44     -12.6709      1.00000
     45     -12.3128      1.00000
     46     -11.8872      1.00000
     47     -11.6250      1.00000
     48     -11.5675      1.00000
     49     -11.3695      1.00000
     50     -11.3163      1.00000
     51     -10.9175      1.00000
     52     -10.7245      1.00000
     53     -10.5444      1.00000
     54     -10.3152      1.00000
     55     -10.2411      1.00000
     56     -10.1384      1.00000
     57     -10.0508      1.00000
     58      -9.9403      1.00000
     59      -9.8323      1.00000
     60      -9.7493      1.00000
     61      -9.6350      1.00000
     62      -9.5831      1.00000
     63      -9.5132      1.00000
     64      -9.4751      1.00000
     65      -9.2853      1.00000
     66      -9.1845      1.00000
     67      -9.1148      1.00000
     68      -8.8958      1.00000
     69      -8.8064      1.00000
     70      -8.7259      1.00000
     71      -8.6288      1.00000
     72      -8.5501      1.00000
     73      -8.5250      1.00000
     74      -8.4194      1.00000
     75      -8.3467      1.00000
     76      -8.2530      1.00000
     77      -8.1669      1.00000
     78      -8.0792      1.00000
     79      -7.7912      1.00000
     80      -7.7313      1.00000
     81      -7.5231      1.00000
     82      -7.3629      1.00000
     83      -7.0747      1.00000
     84      -7.0562      1.00000
     85      -6.8960      1.00000
     86      -6.8619      1.00000
     87      -6.8142      1.00000
     88      -6.7225      1.00000
     89      -6.4016      1.00000
     90      -6.3009      1.00000
     91      -6.0449      1.00000
     92      -5.9614      1.00000
     93      -5.7563      1.00000
     94      -5.6815      1.00000
     95      -5.5565      1.00000
     96      -5.4901      1.00000
     97      -5.2851      1.00000
     98      -5.0811      1.00000
     99      -5.0425      1.00000
    100      -4.9721      1.00000
    101      -4.2537      1.00000
    102      -3.9938      1.00000
    103      -3.7951      1.00000
    104      -3.6980      1.00000
    105      -3.0297      1.00000
    106      -2.8790      1.00000
    107      -1.7572      0.00000
    108      -1.3242      0.00000
    109      -0.9647      0.00000
    110      -0.8778      0.00000
    111      -0.6949      0.00000
    112      -0.5796      0.00000
    113      -0.5135      0.00000
    114      -0.4508      0.00000
    115      -0.0038      0.00000
    116       0.2094      0.00000
    117       0.3967      0.00000
    118       0.7375      0.00000
    119       0.8325      0.00000
    120       0.9793      0.00000
    121       1.1769      0.00000
    122       1.4834      0.00000
    123       1.5214      0.00000
    124       1.6369      0.00000
    125       1.6799      0.00000
    126       1.7016      0.00000
    127       1.8604      0.00000
    128       1.9105      0.00000
    129       2.0358      0.00000
    130       2.1353      0.00000
    131       2.1499      0.00000
    132       2.2494      0.00000
    133       2.4003      0.00000
    134       2.5116      0.00000
    135       2.5830      0.00000
    136       2.6683      0.00000
    137       2.6857      0.00000
    138       2.8278      0.00000
    139       2.9194      0.00000
    140       2.9465      0.00000
    141       3.0205      0.00000
    142       3.0317      0.00000
    143       3.1480      0.00000
    144       3.2034      0.00000
    145       3.2832      0.00000
    146       3.4242      0.00000
    147       3.4435      0.00000
    148       3.5242      0.00000
    149       3.5570      0.00000
    150       3.6337      0.00000
    151       3.6603      0.00000
    152       3.7091      0.00000
    153       3.7250      0.00000
    154       3.7983      0.00000
    155       3.8325      0.00000
    156       3.8570      0.00000
    157       3.9436      0.00000
    158       4.0017      0.00000
    159       4.1649      0.00000
    160       4.2022      0.00000
    161       4.2377      0.00000
    162       4.2536      0.00000
    163       4.2821      0.00000
    164       4.2938      0.00000
    165       4.3704      0.00000
    166       4.4553      0.00000
    167       4.4960      0.00000
    168       4.5695      0.00000
    169       4.5931      0.00000
    170       4.6246      0.00000
    171       4.7290      0.00000
    172       4.7638      0.00000
    173       4.7918      0.00000
    174       4.9716      0.00000
    175       4.9763      0.00000
    176       5.0048      0.00000
    177       5.0465      0.00000
    178       5.0513      0.00000
    179       5.1090      0.00000
    180       5.1144      0.00000
    181       5.1483      0.00000
    182       5.1613      0.00000
    183       5.2703      0.00000
    184       5.3089      0.00000
    185       5.3249      0.00000
    186       5.3955      0.00000
    187       5.5022      0.00000
    188       5.5309      0.00000
    189       5.5458      0.00000
    190       5.5540      0.00000
    191       5.5855      0.00000
    192       5.6135      0.00000
    193       5.6389      0.00000
    194       5.6445      0.00000
    195       5.6768      0.00000
    196       5.6910      0.00000
    197       5.7489      0.00000
    198       5.7687      0.00000
    199       5.8198      0.00000
    200       5.8345      0.00000
    201       5.8368      0.00000
    202       5.8766      0.00000
    203       5.9102      0.00000
    204       5.9651      0.00000
    205       5.9905      0.00000
    206       6.0774      0.00000
    207       6.0888      0.00000
    208       6.1027      0.00000
    209       6.1151      0.00000
    210       6.1463      0.00000
    211       6.2119      0.00000
    212       6.2344      0.00000
    213       6.2895      0.00000
    214       6.3418      0.00000
    215       6.3678      0.00000
    216       6.4368      0.00000
    217       6.4909      0.00000
    218       6.5724      0.00000
    219       6.5976      0.00000
    220       6.6550      0.00000
    221       6.6807      0.00000
    222       6.6902      0.00000
    223       6.7084      0.00000
    224       6.7511      0.00000
    225       6.7768      0.00000
    226       6.7950      0.00000
    227       6.8323      0.00000
    228       6.8838      0.00000
    229       6.8943      0.00000
    230       6.9260      0.00000
    231       7.0211      0.00000
    232       7.0356      0.00000
    233       7.0691      0.00000
    234       7.1000      0.00000
    235       7.1348      0.00000
    236       7.1810      0.00000
    237       7.1909      0.00000
    238       7.2766      0.00000
    239       7.3264      0.00000
    240       7.3443      0.00000
    241       7.3612      0.00000
    242       7.3993      0.00000
    243       7.4002      0.00000
    244       7.4191      0.00000
    245       7.4293      0.00000
    246       7.4407      0.00000
    247       7.5153      0.00000
    248       7.5298      0.00000
    249       7.5964      0.00000
    250       7.6369      0.00000
    251       7.6682      0.00000
    252       7.6997      0.00000
    253       7.7411      0.00000
    254       7.7996      0.00000
    255       7.8205      0.00000
    256       7.8692      0.00000

 k-point    10 :       0.2000    0.4000    0.0000
  band No.  band energies     occupation 
      1     -67.0414      1.00000
      2     -41.1576      1.00000
      3     -41.1225      1.00000
      4     -40.8794      1.00000
      5     -23.0997      1.00000
      6     -22.8468      1.00000
      7     -22.5694      1.00000
      8     -22.2333      1.00000
      9     -21.6012      1.00000
     10     -21.3860      1.00000
     11     -21.0836      1.00000
     12     -20.5806      1.00000
     13     -20.4594      1.00000
     14     -20.1631      1.00000
     15     -19.9232      1.00000
     16     -19.8429      1.00000
     17     -19.4189      1.00000
     18     -18.8186      1.00000
     19     -18.7146      1.00000
     20     -18.4021      1.00000
     21     -18.2078      1.00000
     22     -18.0291      1.00000
     23     -17.8842      1.00000
     24     -17.4402      1.00000
     25     -17.3433      1.00000
     26     -17.2298      1.00000
     27     -17.0299      1.00000
     28     -16.4826      1.00000
     29     -16.0380      1.00000
     30     -15.9849      1.00000
     31     -15.6650      1.00000
     32     -15.4750      1.00000
     33     -14.7734      1.00000
     34     -14.6351      1.00000
     35     -14.4901      1.00000
     36     -14.1225      1.00000
     37     -14.0022      1.00000
     38     -13.8749      1.00000
     39     -13.7517      1.00000
     40     -13.5114      1.00000
     41     -13.1996      1.00000
     42     -12.8622      1.00000
     43     -12.5134      1.00000
     44     -12.2465      1.00000
     45     -12.1743      1.00000
     46     -12.0030      1.00000
     47     -11.8823      1.00000
     48     -11.8225      1.00000
     49     -11.3625      1.00000
     50     -11.2387      1.00000
     51     -10.9109      1.00000
     52     -10.8108      1.00000
     53     -10.4463      1.00000
     54     -10.2116      1.00000
     55     -10.1507      1.00000
     56     -10.1194      1.00000
     57     -10.0426      1.00000
     58      -9.9533      1.00000
     59      -9.8643      1.00000
     60      -9.8166      1.00000
     61      -9.7255      1.00000
     62      -9.5650      1.00000
     63      -9.4664      1.00000
     64      -9.3235      1.00000
     65      -9.2663      1.00000
     66      -9.1705      1.00000
     67      -8.9940      1.00000
     68      -8.9149      1.00000
     69      -8.8936      1.00000
     70      -8.7563      1.00000
     71      -8.7114      1.00000
     72      -8.6068      1.00000
     73      -8.4877      1.00000
     74      -8.4736      1.00000
     75      -8.3369      1.00000
     76      -8.1352      1.00000
     77      -8.0593      1.00000
     78      -7.9703      1.00000
     79      -7.8722      1.00000
     80      -7.7191      1.00000
     81      -7.6154      1.00000
     82      -7.4555      1.00000
     83      -7.3597      1.00000
     84      -7.2635      1.00000
     85      -6.8841      1.00000
     86      -6.8557      1.00000
     87      -6.6454      1.00000
     88      -6.4438      1.00000
     89      -6.2931      1.00000
     90      -6.1707      1.00000
     91      -6.1093      1.00000
     92      -5.9712      1.00000
     93      -5.7377      1.00000
     94      -5.6590      1.00000
     95      -5.6304      1.00000
     96      -5.5571      1.00000
     97      -5.2315      1.00000
     98      -5.0740      1.00000
     99      -5.0433      1.00000
    100      -4.9749      1.00000
    101      -4.5278      1.00000
    102      -4.0715      1.00000
    103      -3.8902      1.00000
    104      -3.3592      1.00000
    105      -3.0241      1.00000
    106      -2.8927      1.00000
    107      -1.9954      0.00000
    108      -1.0430      0.00000
    109      -0.9789      0.00000
    110      -0.9445      0.00000
    111      -0.6294      0.00000
    112      -0.5484      0.00000
    113      -0.4133      0.00000
    114      -0.2761      0.00000
    115       0.0344      0.00000
    116       0.0946      0.00000
    117       0.2379      0.00000
    118       0.4883      0.00000
    119       0.8453      0.00000
    120       0.8863      0.00000
    121       1.0530      0.00000
    122       1.2856      0.00000
    123       1.3918      0.00000
    124       1.6651      0.00000
    125       1.8329      0.00000
    126       1.8802      0.00000
    127       1.9359      0.00000
    128       1.9894      0.00000
    129       2.0420      0.00000
    130       2.1134      0.00000
    131       2.2976      0.00000
    132       2.3598      0.00000
    133       2.3665      0.00000
    134       2.4910      0.00000
    135       2.5586      0.00000
    136       2.7234      0.00000
    137       2.9088      0.00000
    138       2.9421      0.00000
    139       3.0427      0.00000
    140       3.0770      0.00000
    141       3.0874      0.00000
    142       3.1518      0.00000
    143       3.1722      0.00000
    144       3.1839      0.00000
    145       3.2756      0.00000
    146       3.3054      0.00000
    147       3.3954      0.00000
    148       3.4089      0.00000
    149       3.4154      0.00000
    150       3.4300      0.00000
    151       3.5924      0.00000
    152       3.6168      0.00000
    153       3.6437      0.00000
    154       3.7365      0.00000
    155       3.8377      0.00000
    156       3.9544      0.00000
    157       3.9735      0.00000
    158       3.9851      0.00000
    159       4.1280      0.00000
    160       4.1851      0.00000
    161       4.2717      0.00000
    162       4.2939      0.00000
    163       4.3293      0.00000
    164       4.3891      0.00000
    165       4.4212      0.00000
    166       4.4259      0.00000
    167       4.4859      0.00000
    168       4.5426      0.00000
    169       4.6266      0.00000
    170       4.6607      0.00000
    171       4.6731      0.00000
    172       4.6921      0.00000
    173       4.7793      0.00000
    174       4.7960      0.00000
    175       4.9330      0.00000
    176       4.9515      0.00000
    177       5.0398      0.00000
    178       5.0637      0.00000
    179       5.1241      0.00000
    180       5.1851      0.00000
    181       5.2035      0.00000
    182       5.2175      0.00000
    183       5.2369      0.00000
    184       5.2747      0.00000
    185       5.3032      0.00000
    186       5.3382      0.00000
    187       5.3970      0.00000
    188       5.4760      0.00000
    189       5.4926      0.00000
    190       5.5117      0.00000
    191       5.5422      0.00000
    192       5.5713      0.00000
    193       5.6335      0.00000
    194       5.6815      0.00000
    195       5.6932      0.00000
    196       5.7301      0.00000
    197       5.7707      0.00000
    198       5.8237      0.00000
    199       5.8534      0.00000
    200       5.8806      0.00000
    201       5.9134      0.00000
    202       5.9702      0.00000
    203       5.9988      0.00000
    204       6.0255      0.00000
    205       6.0565      0.00000
    206       6.0782      0.00000
    207       6.0969      0.00000
    208       6.1309      0.00000
    209       6.1448      0.00000
    210       6.2134      0.00000
    211       6.2655      0.00000
    212       6.3115      0.00000
    213       6.3570      0.00000
    214       6.3691      0.00000
    215       6.3941      0.00000
    216       6.4484      0.00000
    217       6.4857      0.00000
    218       6.5210      0.00000
    219       6.5256      0.00000
    220       6.5472      0.00000
    221       6.5700      0.00000
    222       6.6048      0.00000
    223       6.6504      0.00000
    224       6.7260      0.00000
    225       6.7335      0.00000
    226       6.7756      0.00000
    227       6.7917      0.00000
    228       6.8051      0.00000
    229       6.8280      0.00000
    230       6.8699      0.00000
    231       6.9418      0.00000
    232       6.9478      0.00000
    233       7.0484      0.00000
    234       7.0902      0.00000
    235       7.1830      0.00000
    236       7.1968      0.00000
    237       7.2552      0.00000
    238       7.2665      0.00000
    239       7.3022      0.00000
    240       7.3341      0.00000
    241       7.4223      0.00000
    242       7.4765      0.00000
    243       7.5262      0.00000
    244       7.5401      0.00000
    245       7.5532      0.00000
    246       7.5757      0.00000
    247       7.5805      0.00000
    248       7.5943      0.00000
    249       7.6159      0.00000
    250       7.6411      0.00000
    251       7.6671      0.00000
    252       7.7497      0.00000
    253       7.7674      0.00000
    254       7.8425      0.00000
    255       7.8450      0.00000
    256       7.9141      0.00000

 k-point    11 :       0.4000    0.4000    0.0000
  band No.  band energies     occupation 
      1     -67.0414      1.00000
      2     -41.1576      1.00000
      3     -41.1225      1.00000
      4     -40.8794      1.00000
      5     -23.1019      1.00000
      6     -22.8304      1.00000
      7     -22.6025      1.00000
      8     -22.1985      1.00000
      9     -21.6298      1.00000
     10     -21.4253      1.00000
     11     -21.0095      1.00000
     12     -20.5644      1.00000
     13     -20.3562      1.00000
     14     -20.1992      1.00000
     15     -20.0821      1.00000
     16     -19.9346      1.00000
     17     -19.2823      1.00000
     18     -18.8945      1.00000
     19     -18.5399      1.00000
     20     -18.3808      1.00000
     21     -18.2394      1.00000
     22     -18.0237      1.00000
     23     -17.8696      1.00000
     24     -17.5106      1.00000
     25     -17.3216      1.00000
     26     -17.2281      1.00000
     27     -17.0538      1.00000
     28     -16.7283      1.00000
     29     -16.0755      1.00000
     30     -15.8549      1.00000
     31     -15.6607      1.00000
     32     -15.2616      1.00000
     33     -14.8185      1.00000
     34     -14.5239      1.00000
     35     -14.2581      1.00000
     36     -14.2432      1.00000
     37     -14.0530      1.00000
     38     -13.9912      1.00000
     39     -13.8140      1.00000
     40     -13.5485      1.00000
     41     -13.2316      1.00000
     42     -12.8516      1.00000
     43     -12.7350      1.00000
     44     -12.3460      1.00000
     45     -12.1809      1.00000
     46     -11.8541      1.00000
     47     -11.8440      1.00000
     48     -11.5415      1.00000
     49     -11.4429      1.00000
     50     -11.3030      1.00000
     51     -10.9799      1.00000
     52     -10.4832      1.00000
     53     -10.4637      1.00000
     54     -10.1589      1.00000
     55     -10.1111      1.00000
     56     -10.1096      1.00000
     57     -10.0123      1.00000
     58     -10.0021      1.00000
     59      -9.9724      1.00000
     60      -9.8865      1.00000
     61      -9.7274      1.00000
     62      -9.7093      1.00000
     63      -9.6162      1.00000
     64      -9.3289      1.00000
     65      -9.2571      1.00000
     66      -9.2248      1.00000
     67      -8.9556      1.00000
     68      -8.9005      1.00000
     69      -8.8724      1.00000
     70      -8.7954      1.00000
     71      -8.6888      1.00000
     72      -8.5065      1.00000
     73      -8.4257      1.00000
     74      -8.3325      1.00000
     75      -8.1979      1.00000
     76      -8.1963      1.00000
     77      -8.1116      1.00000
     78      -7.9551      1.00000
     79      -7.8773      1.00000
     80      -7.8020      1.00000
     81      -7.6551      1.00000
     82      -7.4373      1.00000
     83      -7.3976      1.00000
     84      -7.2018      1.00000
     85      -7.0016      1.00000
     86      -6.9384      1.00000
     87      -6.5617      1.00000
     88      -6.5152      1.00000
     89      -6.3630      1.00000
     90      -6.2614      1.00000
     91      -6.0733      1.00000
     92      -5.8867      1.00000
     93      -5.6893      1.00000
     94      -5.6682      1.00000
     95      -5.5216      1.00000
     96      -5.4081      1.00000
     97      -5.2011      1.00000
     98      -5.1238      1.00000
     99      -5.0327      1.00000
    100      -5.0239      1.00000
    101      -4.6235      1.00000
    102      -4.1086      1.00000
    103      -3.9559      1.00000
    104      -3.5206      1.00000
    105      -2.9319      1.00000
    106      -2.4319      0.96367
    107      -2.2665      0.00198
    108      -1.1293      0.00000
    109      -0.9941      0.00000
    110      -0.9371      0.00000
    111      -0.7528      0.00000
    112      -0.3799      0.00000
    113      -0.3607      0.00000
    114      -0.3087      0.00000
    115       0.1178      0.00000
    116       0.1526      0.00000
    117       0.2799      0.00000
    118       0.3461      0.00000
    119       0.8029      0.00000
    120       0.9142      0.00000
    121       1.0353      0.00000
    122       1.2928      0.00000
    123       1.2970      0.00000
    124       1.6767      0.00000
    125       1.8075      0.00000
    126       1.8584      0.00000
    127       1.9846      0.00000
    128       2.0432      0.00000
    129       2.0534      0.00000
    130       2.1203      0.00000
    131       2.3035      0.00000
    132       2.3935      0.00000
    133       2.4007      0.00000
    134       2.5270      0.00000
    135       2.5914      0.00000
    136       2.6829      0.00000
    137       2.7617      0.00000
    138       2.9519      0.00000
    139       3.0340      0.00000
    140       3.0759      0.00000
    141       3.1242      0.00000
    142       3.1287      0.00000
    143       3.1815      0.00000
    144       3.1857      0.00000
    145       3.2751      0.00000
    146       3.3000      0.00000
    147       3.4000      0.00000
    148       3.4133      0.00000
    149       3.4323      0.00000
    150       3.4442      0.00000
    151       3.5867      0.00000
    152       3.6186      0.00000
    153       3.6436      0.00000
    154       3.7268      0.00000
    155       3.8070      0.00000
    156       3.9574      0.00000
    157       3.9789      0.00000
    158       3.9798      0.00000
    159       4.1504      0.00000
    160       4.1984      0.00000
    161       4.2629      0.00000
    162       4.3503      0.00000
    163       4.3694      0.00000
    164       4.4076      0.00000
    165       4.4250      0.00000
    166       4.4864      0.00000
    167       4.5315      0.00000
    168       4.5816      0.00000
    169       4.5997      0.00000
    170       4.6491      0.00000
    171       4.6750      0.00000
    172       4.7000      0.00000
    173       4.7921      0.00000
    174       4.8070      0.00000
    175       4.9058      0.00000
    176       4.9806      0.00000
    177       5.0436      0.00000
    178       5.0653      0.00000
    179       5.1105      0.00000
    180       5.1567      0.00000
    181       5.1886      0.00000
    182       5.1988      0.00000
    183       5.2271      0.00000
    184       5.2691      0.00000
    185       5.2704      0.00000
    186       5.3037      0.00000
    187       5.3529      0.00000
    188       5.4696      0.00000
    189       5.4873      0.00000
    190       5.5109      0.00000
    191       5.5300      0.00000
    192       5.5484      0.00000
    193       5.6137      0.00000
    194       5.6441      0.00000
    195       5.7107      0.00000
    196       5.7211      0.00000
    197       5.7433      0.00000
    198       5.8110      0.00000
    199       5.8293      0.00000
    200       5.8793      0.00000
    201       5.9115      0.00000
    202       5.9632      0.00000
    203       6.0009      0.00000
    204       6.0109      0.00000
    205       6.0192      0.00000
    206       6.0629      0.00000
    207       6.0649      0.00000
    208       6.0978      0.00000
    209       6.1301      0.00000
    210       6.1629      0.00000
    211       6.1827      0.00000
    212       6.3112      0.00000
    213       6.3563      0.00000
    214       6.4029      0.00000
    215       6.4098      0.00000
    216       6.4310      0.00000
    217       6.4813      0.00000
    218       6.4951      0.00000
    219       6.5381      0.00000
    220       6.5399      0.00000
    221       6.5746      0.00000
    222       6.6360      0.00000
    223       6.6465      0.00000
    224       6.7412      0.00000
    225       6.7557      0.00000
    226       6.7970      0.00000
    227       6.8046      0.00000
    228       6.8651      0.00000
    229       6.8659      0.00000
    230       6.8997      0.00000
    231       6.9140      0.00000
    232       6.9652      0.00000
    233       7.0279      0.00000
    234       7.0794      0.00000
    235       7.1406      0.00000
    236       7.1826      0.00000
    237       7.2786      0.00000
    238       7.3033      0.00000
    239       7.3303      0.00000
    240       7.3456      0.00000
    241       7.4212      0.00000
    242       7.4507      0.00000
    243       7.4824      0.00000
    244       7.4909      0.00000
    245       7.5537      0.00000
    246       7.5770      0.00000
    247       7.5772      0.00000
    248       7.5925      0.00000
    249       7.6105      0.00000
    250       7.6183      0.00000
    251       7.6973      0.00000
    252       7.7178      0.00000
    253       7.7824      0.00000
    254       7.8404      0.00000
    255       7.8441      0.00000
    256       7.8607      0.00000

 k-point    12 :      -0.4000    0.4000    0.0000
  band No.  band energies     occupation 
      1     -67.0414      1.00000
      2     -41.1576      1.00000
      3     -41.1225      1.00000
      4     -40.8794      1.00000
      5     -23.1091      1.00000
      6     -22.8171      1.00000
      7     -22.6051      1.00000
      8     -22.1895      1.00000
      9     -21.6457      1.00000
     10     -21.4573      1.00000
     11     -20.9341      1.00000
     12     -20.6523      1.00000
     13     -20.4027      1.00000
     14     -20.1749      1.00000
     15     -20.0365      1.00000
     16     -19.8404      1.00000
     17     -19.1469      1.00000
     18     -18.9615      1.00000
     19     -18.8484      1.00000
     20     -18.4267      1.00000
     21     -18.2091      1.00000
     22     -17.8265      1.00000
     23     -17.7541      1.00000
     24     -17.5623      1.00000
     25     -17.4223      1.00000
     26     -17.3121      1.00000
     27     -16.9864      1.00000
     28     -16.7858      1.00000
     29     -16.0800      1.00000
     30     -15.4642      1.00000
     31     -15.4439      1.00000
     32     -15.1714      1.00000
     33     -15.0734      1.00000
     34     -14.9270      1.00000
     35     -14.6051      1.00000
     36     -14.3385      1.00000
     37     -14.1744      1.00000
     38     -13.6956      1.00000
     39     -13.6413      1.00000
     40     -13.1832      1.00000
     41     -13.0565      1.00000
     42     -12.9678      1.00000
     43     -12.8263      1.00000
     44     -12.5803      1.00000
     45     -12.5624      1.00000
     46     -11.8092      1.00000
     47     -11.5856      1.00000
     48     -11.3381      1.00000
     49     -11.2504      1.00000
     50     -11.0782      1.00000
     51     -10.9497      1.00000
     52     -10.8360      1.00000
     53     -10.4839      1.00000
     54     -10.2419      1.00000
     55     -10.1433      1.00000
     56     -10.1246      1.00000
     57     -10.0471      1.00000
     58     -10.0202      1.00000
     59      -9.9201      1.00000
     60      -9.8669      1.00000
     61      -9.8262      1.00000
     62      -9.6335      1.00000
     63      -9.5305      1.00000
     64      -9.4174      1.00000
     65      -9.3424      1.00000
     66      -9.2912      1.00000
     67      -8.9832      1.00000
     68      -8.9279      1.00000
     69      -8.9015      1.00000
     70      -8.7114      1.00000
     71      -8.5952      1.00000
     72      -8.5705      1.00000
     73      -8.4699      1.00000
     74      -8.3083      1.00000
     75      -8.2675      1.00000
     76      -8.1506      1.00000
     77      -8.0445      1.00000
     78      -8.0031      1.00000
     79      -7.7491      1.00000
     80      -7.6410      1.00000
     81      -7.5420      1.00000
     82      -7.5292      1.00000
     83      -7.4176      1.00000
     84      -7.2090      1.00000
     85      -7.0430      1.00000
     86      -6.7446      1.00000
     87      -6.6873      1.00000
     88      -6.6199      1.00000
     89      -6.4354      1.00000
     90      -6.3732      1.00000
     91      -6.2466      1.00000
     92      -5.8673      1.00000
     93      -5.6859      1.00000
     94      -5.6140      1.00000
     95      -5.4351      1.00000
     96      -5.2594      1.00000
     97      -5.2437      1.00000
     98      -5.1545      1.00000
     99      -5.0352      1.00000
    100      -5.0247      1.00000
    101      -4.3706      1.00000
    102      -4.1301      1.00000
    103      -4.0447      1.00000
    104      -3.6607      1.00000
    105      -2.8973      1.00000
    106      -2.3988      0.80479
    107      -1.9847      0.00000
    108      -1.5645      0.00000
    109      -0.9508      0.00000
    110      -0.8194      0.00000
    111      -0.7227      0.00000
    112      -0.5314      0.00000
    113      -0.4851      0.00000
    114      -0.4209      0.00000
    115       0.0522      0.00000
    116       0.3091      0.00000
    117       0.3704      0.00000
    118       0.6032      0.00000
    119       0.8804      0.00000
    120       0.9957      0.00000
    121       1.1211      0.00000
    122       1.4268      0.00000
    123       1.5238      0.00000
    124       1.5634      0.00000
    125       1.6170      0.00000
    126       1.6998      0.00000
    127       1.8609      0.00000
    128       1.9846      0.00000
    129       2.1359      0.00000
    130       2.1667      0.00000
    131       2.1872      0.00000
    132       2.2234      0.00000
    133       2.4397      0.00000
    134       2.4751      0.00000
    135       2.6091      0.00000
    136       2.6641      0.00000
    137       2.6935      0.00000
    138       2.8465      0.00000
    139       2.9145      0.00000
    140       2.9766      0.00000
    141       3.0036      0.00000
    142       3.0406      0.00000
    143       3.1335      0.00000
    144       3.1928      0.00000
    145       3.2753      0.00000
    146       3.3377      0.00000
    147       3.4462      0.00000
    148       3.4859      0.00000
    149       3.5419      0.00000
    150       3.6724      0.00000
    151       3.7186      0.00000
    152       3.7204      0.00000
    153       3.7403      0.00000
    154       3.7742      0.00000
    155       3.8347      0.00000
    156       3.8352      0.00000
    157       3.9513      0.00000
    158       3.9657      0.00000
    159       4.1618      0.00000
    160       4.2405      0.00000
    161       4.2445      0.00000
    162       4.2509      0.00000
    163       4.2847      0.00000
    164       4.3232      0.00000
    165       4.4479      0.00000
    166       4.4998      0.00000
    167       4.5862      0.00000
    168       4.6051      0.00000
    169       4.6247      0.00000
    170       4.6996      0.00000
    171       4.7210      0.00000
    172       4.7662      0.00000
    173       4.7873      0.00000
    174       4.9184      0.00000
    175       4.9777      0.00000
    176       5.0385      0.00000
    177       5.0521      0.00000
    178       5.0666      0.00000
    179       5.1028      0.00000
    180       5.1059      0.00000
    181       5.1276      0.00000
    182       5.1499      0.00000
    183       5.2050      0.00000
    184       5.2504      0.00000
    185       5.3247      0.00000
    186       5.3958      0.00000
    187       5.4432      0.00000
    188       5.5087      0.00000
    189       5.5220      0.00000
    190       5.5270      0.00000
    191       5.5490      0.00000
    192       5.5755      0.00000
    193       5.6081      0.00000
    194       5.6174      0.00000
    195       5.6485      0.00000
    196       5.6740      0.00000
    197       5.6804      0.00000
    198       5.7066      0.00000
    199       5.8079      0.00000
    200       5.8323      0.00000
    201       5.8325      0.00000
    202       5.8579      0.00000
    203       5.8893      0.00000
    204       5.9298      0.00000
    205       5.9895      0.00000
    206       6.0317      0.00000
    207       6.0983      0.00000
    208       6.1035      0.00000
    209       6.1042      0.00000
    210       6.1998      0.00000
    211       6.2492      0.00000
    212       6.2567      0.00000
    213       6.2895      0.00000
    214       6.3269      0.00000
    215       6.3344      0.00000
    216       6.3644      0.00000
    217       6.4160      0.00000
    218       6.4627      0.00000
    219       6.5915      0.00000
    220       6.6871      0.00000
    221       6.6972      0.00000
    222       6.7074      0.00000
    223       6.7554      0.00000
    224       6.8139      0.00000
    225       6.8188      0.00000
    226       6.8479      0.00000
    227       6.8853      0.00000
    228       6.9003      0.00000
    229       6.9299      0.00000
    230       6.9587      0.00000
    231       7.0033      0.00000
    232       7.0216      0.00000
    233       7.0357      0.00000
    234       7.0589      0.00000
    235       7.1428      0.00000
    236       7.1538      0.00000
    237       7.1776      0.00000
    238       7.1879      0.00000
    239       7.2756      0.00000
    240       7.3259      0.00000
    241       7.3815      0.00000
    242       7.4097      0.00000
    243       7.4137      0.00000
    244       7.4186      0.00000
    245       7.4210      0.00000
    246       7.4952      0.00000
    247       7.4961      0.00000
    248       7.5172      0.00000
    249       7.5490      0.00000
    250       7.6141      0.00000
    251       7.6148      0.00000
    252       7.7014      0.00000
    253       7.7038      0.00000
    254       7.7484      0.00000
    255       7.7719      0.00000
    256       7.8169      0.00000

 k-point    13 :      -0.2000    0.4000    0.0000
  band No.  band energies     occupation 
      1     -67.0414      1.00000
      2     -41.1576      1.00000
      3     -41.1225      1.00000
      4     -40.8794      1.00000
      5     -23.1115      1.00000
      6     -22.8254      1.00000
      7     -22.5750      1.00000
      8     -22.2179      1.00000
      9     -21.6233      1.00000
     10     -21.4471      1.00000
     11     -20.9874      1.00000
     12     -20.6990      1.00000
     13     -20.4210      1.00000
     14     -20.1945      1.00000
     15     -19.8458      1.00000
     16     -19.7060      1.00000
     17     -19.3578      1.00000
     18     -18.9569      1.00000
     19     -18.8368      1.00000
     20     -18.4740      1.00000
     21     -18.2628      1.00000
     22     -17.9567      1.00000
     23     -17.7644      1.00000
     24     -17.6036      1.00000
     25     -17.4004      1.00000
     26     -17.1003      1.00000
     27     -16.9164      1.00000
     28     -16.6188      1.00000
     29     -15.9767      1.00000
     30     -15.6670      1.00000
     31     -15.4929      1.00000
     32     -15.4079      1.00000
     33     -14.9648      1.00000
     34     -14.8204      1.00000
     35     -14.6518      1.00000
     36     -14.4469      1.00000
     37     -14.3091      1.00000
     38     -13.7224      1.00000
     39     -13.4601      1.00000
     40     -13.2185      1.00000
     41     -13.0755      1.00000
     42     -12.9217      1.00000
     43     -12.8261      1.00000
     44     -12.4481      1.00000
     45     -12.0440      1.00000
     46     -11.9972      1.00000
     47     -11.8009      1.00000
     48     -11.5484      1.00000
     49     -11.2718      1.00000
     50     -11.2256      1.00000
     51     -10.6933      1.00000
     52     -10.6132      1.00000
     53     -10.5665      1.00000
     54     -10.4407      1.00000
     55     -10.2970      1.00000
     56     -10.2648      1.00000
     57     -10.0178      1.00000
     58      -9.9268      1.00000
     59      -9.8674      1.00000
     60      -9.7845      1.00000
     61      -9.7515      1.00000
     62      -9.5810      1.00000
     63      -9.4344      1.00000
     64      -9.4055      1.00000
     65      -9.2965      1.00000
     66      -9.2049      1.00000
     67      -9.1309      1.00000
     68      -9.0221      1.00000
     69      -8.9275      1.00000
     70      -8.7645      1.00000
     71      -8.6868      1.00000
     72      -8.6099      1.00000
     73      -8.4833      1.00000
     74      -8.3431      1.00000
     75      -8.2969      1.00000
     76      -8.0913      1.00000
     77      -8.0206      1.00000
     78      -7.9082      1.00000
     79      -7.8593      1.00000
     80      -7.6473      1.00000
     81      -7.4762      1.00000
     82      -7.4025      1.00000
     83      -7.2704      1.00000
     84      -7.2300      1.00000
     85      -7.1244      1.00000
     86      -6.7987      1.00000
     87      -6.7021      1.00000
     88      -6.4913      1.00000
     89      -6.3444      1.00000
     90      -6.3187      1.00000
     91      -6.2583      1.00000
     92      -6.0531      1.00000
     93      -5.8823      1.00000
     94      -5.6344      1.00000
     95      -5.5200      1.00000
     96      -5.3625      1.00000
     97      -5.2392      1.00000
     98      -5.1340      1.00000
     99      -5.0348      1.00000
    100      -4.5831      1.00000
    101      -4.4935      1.00000
    102      -4.0968      1.00000
    103      -3.9683      1.00000
    104      -3.6035      1.00000
    105      -2.9834      1.00000
    106      -2.5976      1.00000
    107      -1.9714      0.00000
    108      -1.1957      0.00000
    109      -1.0951      0.00000
    110      -0.9850      0.00000
    111      -0.7697      0.00000
    112      -0.6941      0.00000
    113      -0.5478      0.00000
    114      -0.1483      0.00000
    115       0.0150      0.00000
    116       0.3507      0.00000
    117       0.4429      0.00000
    118       0.8269      0.00000
    119       0.8376      0.00000
    120       0.9804      0.00000
    121       1.1629      0.00000
    122       1.1935      0.00000
    123       1.3161      0.00000
    124       1.6630      0.00000
    125       1.7831      0.00000
    126       1.8167      0.00000
    127       1.8845      0.00000
    128       1.9653      0.00000
    129       1.9990      0.00000
    130       2.0975      0.00000
    131       2.2399      0.00000
    132       2.3562      0.00000
    133       2.3593      0.00000
    134       2.4204      0.00000
    135       2.6667      0.00000
    136       2.6875      0.00000
    137       2.7072      0.00000
    138       2.7262      0.00000
    139       2.7656      0.00000
    140       2.9129      0.00000
    141       3.0454      0.00000
    142       3.1356      0.00000
    143       3.1435      0.00000
    144       3.1628      0.00000
    145       3.2577      0.00000
    146       3.2770      0.00000
    147       3.3732      0.00000
    148       3.5436      0.00000
    149       3.5577      0.00000
    150       3.5863      0.00000
    151       3.6434      0.00000
    152       3.6974      0.00000
    153       3.7239      0.00000
    154       3.7490      0.00000
    155       3.8912      0.00000
    156       3.9430      0.00000
    157       3.9515      0.00000
    158       4.0200      0.00000
    159       4.1664      0.00000
    160       4.1851      0.00000
    161       4.2066      0.00000
    162       4.2370      0.00000
    163       4.2982      0.00000
    164       4.3451      0.00000
    165       4.3816      0.00000
    166       4.4708      0.00000
    167       4.5384      0.00000
    168       4.5872      0.00000
    169       4.6273      0.00000
    170       4.7956      0.00000
    171       4.8225      0.00000
    172       4.8908      0.00000
    173       4.9271      0.00000
    174       4.9661      0.00000
    175       4.9854      0.00000
    176       4.9889      0.00000
    177       5.0548      0.00000
    178       5.0672      0.00000
    179       5.0736      0.00000
    180       5.1157      0.00000
    181       5.1896      0.00000
    182       5.2034      0.00000
    183       5.2212      0.00000
    184       5.2744      0.00000
    185       5.3284      0.00000
    186       5.3401      0.00000
    187       5.3691      0.00000
    188       5.4030      0.00000
    189       5.4332      0.00000
    190       5.4951      0.00000
    191       5.5109      0.00000
    192       5.5253      0.00000
    193       5.5407      0.00000
    194       5.5987      0.00000
    195       5.6566      0.00000
    196       5.6875      0.00000
    197       5.7130      0.00000
    198       5.7954      0.00000
    199       5.8307      0.00000
    200       5.8438      0.00000
    201       5.9023      0.00000
    202       5.9488      0.00000
    203       5.9729      0.00000
    204       6.0238      0.00000
    205       6.0345      0.00000
    206       6.0651      0.00000
    207       6.0788      0.00000
    208       6.1154      0.00000
    209       6.1203      0.00000
    210       6.1294      0.00000
    211       6.2548      0.00000
    212       6.2690      0.00000
    213       6.3340      0.00000
    214       6.3631      0.00000
    215       6.3819      0.00000
    216       6.4127      0.00000
    217       6.5054      0.00000
    218       6.5371      0.00000
    219       6.5587      0.00000
    220       6.5740      0.00000
    221       6.5760      0.00000
    222       6.6455      0.00000
    223       6.7347      0.00000
    224       6.7520      0.00000
    225       6.7684      0.00000
    226       6.8043      0.00000
    227       6.8272      0.00000
    228       6.8466      0.00000
    229       6.9051      0.00000
    230       6.9434      0.00000
    231       6.9829      0.00000
    232       7.0341      0.00000
    233       7.0906      0.00000
    234       7.0976      0.00000
    235       7.1158      0.00000
    236       7.1398      0.00000
    237       7.2242      0.00000
    238       7.2400      0.00000
    239       7.2664      0.00000
    240       7.2976      0.00000
    241       7.3061      0.00000
    242       7.3561      0.00000
    243       7.3624      0.00000
    244       7.3644      0.00000
    245       7.4108      0.00000
    246       7.4502      0.00000
    247       7.4976      0.00000
    248       7.5716      0.00000
    249       7.6982      0.00000
    250       7.7293      0.00000
    251       7.7491      0.00000
    252       7.8211      0.00000
    253       7.8436      0.00000
    254       7.8515      0.00000
    255       7.8817      0.00000
    256       7.9060      0.00000

 spin component 2

 k-point     1 :       0.0000    0.0000    0.0000
  band No.  band energies     occupation 
      1     -64.6526      1.00000
      2     -39.1722      1.00000
      3     -38.6454      1.00000
      4     -38.2216      1.00000
      5     -23.1311      1.00000
      6     -22.7960      1.00000
      7     -22.5292      1.00000
      8     -22.2519      1.00000
      9     -21.6931      1.00000
     10     -21.3062      1.00000
     11     -21.2202      1.00000
     12     -20.8080      1.00000
     13     -20.2946      1.00000
     14     -20.0625      1.00000
     15     -19.5991      1.00000
     16     -19.4704      1.00000
     17     -19.1774      1.00000
     18     -19.0943      1.00000
     19     -18.9030      1.00000
     20     -18.7278      1.00000
     21     -18.6942      1.00000
     22     -18.4680      1.00000
     23     -17.9773      1.00000
     24     -17.1866      1.00000
     25     -17.1242      1.00000
     26     -16.6620      1.00000
     27     -16.5333      1.00000
     28     -16.3684      1.00000
     29     -15.9202      1.00000
     30     -15.6403      1.00000
     31     -15.5894      1.00000
     32     -15.4442      1.00000
     33     -15.4104      1.00000
     34     -15.0684      1.00000
     35     -14.5204      1.00000
     36     -14.4157      1.00000
     37     -14.3934      1.00000
     38     -14.3220      1.00000
     39     -14.0727      1.00000
     40     -13.2446      1.00000
     41     -12.5227      1.00000
     42     -12.4794      1.00000
     43     -12.3204      1.00000
     44     -12.1184      1.00000
     45     -11.7626      1.00000
     46     -11.7070      1.00000
     47     -11.6488      1.00000
     48     -11.6016      1.00000
     49     -11.5880      1.00000
     50     -11.4645      1.00000
     51     -11.0893      1.00000
     52     -10.6511      1.00000
     53     -10.6332      1.00000
     54     -10.5270      1.00000
     55     -10.3786      1.00000
     56     -10.1641      1.00000
     57     -10.0302      1.00000
     58     -10.0180      1.00000
     59      -9.7002      1.00000
     60      -9.6904      1.00000
     61      -9.6083      1.00000
     62      -9.4435      1.00000
     63      -9.3207      1.00000
     64      -9.3148      1.00000
     65      -9.2686      1.00000
     66      -9.1674      1.00000
     67      -9.1095      1.00000
     68      -9.0745      1.00000
     69      -9.0732      1.00000
     70      -8.9742      1.00000
     71      -8.9408      1.00000
     72      -8.9061      1.00000
     73      -8.7978      1.00000
     74      -8.4269      1.00000
     75      -8.4028      1.00000
     76      -7.7449      1.00000
     77      -7.7108      1.00000
     78      -7.5996      1.00000
     79      -7.5841      1.00000
     80      -7.4703      1.00000
     81      -7.2869      1.00000
     82      -7.2017      1.00000
     83      -7.1445      1.00000
     84      -7.0965      1.00000
     85      -7.0226      1.00000
     86      -6.8240      1.00000
     87      -6.6774      1.00000
     88      -6.6600      1.00000
     89      -6.5506      1.00000
     90      -6.3391      1.00000
     91      -6.2602      1.00000
     92      -6.2089      1.00000
     93      -6.1038      1.00000
     94      -6.0091      1.00000
     95      -5.4683      1.00000
     96      -5.4516      1.00000
     97      -5.2698      1.00000
     98      -4.5877      1.00000
     99      -4.4533      1.00000
    100      -4.2268      1.00000
    101      -4.1880      1.00000
    102      -4.0921      1.00000
    103      -2.7893      1.00000
    104      -1.9051      0.00000
    105      -1.6146      0.00000
    106      -1.3755      0.00000
    107      -1.3567      0.00000
    108      -1.0416      0.00000
    109      -0.3506      0.00000
    110       0.0762      0.00000
    111       0.0869      0.00000
    112       0.2956      0.00000
    113       0.4072      0.00000
    114       0.4423      0.00000
    115       0.6138      0.00000
    116       0.8593      0.00000
    117       1.2957      0.00000
    118       1.5016      0.00000
    119       1.5074      0.00000
    120       1.5643      0.00000
    121       1.6793      0.00000
    122       1.7000      0.00000
    123       1.8268      0.00000
    124       1.8467      0.00000
    125       1.8657      0.00000
    126       1.8738      0.00000
    127       1.9187      0.00000
    128       2.0575      0.00000
    129       2.1217      0.00000
    130       2.1640      0.00000
    131       2.2433      0.00000
    132       2.2840      0.00000
    133       2.5584      0.00000
    134       2.6002      0.00000
    135       2.6089      0.00000
    136       2.6339      0.00000
    137       2.6379      0.00000
    138       2.6549      0.00000
    139       2.6835      0.00000
    140       2.9944      0.00000
    141       2.9988      0.00000
    142       3.0013      0.00000
    143       3.0014      0.00000
    144       3.0063      0.00000
    145       3.0263      0.00000
    146       3.0774      0.00000
    147       3.3694      0.00000
    148       3.5882      0.00000
    149       3.8682      0.00000
    150       3.8735      0.00000
    151       3.9014      0.00000
    152       3.9029      0.00000
    153       3.9036      0.00000
    154       3.9145      0.00000
    155       4.0019      0.00000
    156       4.1074      0.00000
    157       4.3059      0.00000
    158       4.3220      0.00000
    159       4.3309      0.00000
    160       4.3414      0.00000
    161       4.3591      0.00000
    162       4.3594      0.00000
    163       4.3725      0.00000
    164       4.3727      0.00000
    165       4.3908      0.00000
    166       4.3970      0.00000
    167       4.4963      0.00000
    168       4.5831      0.00000
    169       4.6707      0.00000
    170       4.6730      0.00000
    171       4.8350      0.00000
    172       4.8933      0.00000
    173       5.0283      0.00000
    174       5.0757      0.00000
    175       5.1522      0.00000
    176       5.1704      0.00000
    177       5.1724      0.00000
    178       5.1854      0.00000
    179       5.1870      0.00000
    180       5.2106      0.00000
    181       5.3590      0.00000
    182       5.4276      0.00000
    183       5.4542      0.00000
    184       5.4624      0.00000
    185       5.5459      0.00000
    186       5.6145      0.00000
    187       5.6279      0.00000
    188       5.6379      0.00000
    189       5.6397      0.00000
    190       5.6403      0.00000
    191       5.6444      0.00000
    192       5.6455      0.00000
    193       5.6519      0.00000
    194       5.6696      0.00000
    195       5.6746      0.00000
    196       5.6774      0.00000
    197       5.6805      0.00000
    198       5.7630      0.00000
    199       5.7851      0.00000
    200       5.8183      0.00000
    201       5.8963      0.00000
    202       5.9588      0.00000
    203       5.9943      0.00000
    204       6.0103      0.00000
    205       6.0318      0.00000
    206       6.0424      0.00000
    207       6.0461      0.00000
    208       6.1510      0.00000
    209       6.2809      0.00000
    210       6.2919      0.00000
    211       6.3268      0.00000
    212       6.4374      0.00000
    213       6.4550      0.00000
    214       6.4637      0.00000
    215       6.4759      0.00000
    216       6.4808      0.00000
    217       6.4922      0.00000
    218       6.4984      0.00000
    219       6.5007      0.00000
    220       6.5085      0.00000
    221       6.5152      0.00000
    222       6.5200      0.00000
    223       6.5768      0.00000
    224       6.6508      0.00000
    225       6.6586      0.00000
    226       6.6674      0.00000
    227       6.6788      0.00000
    228       6.7095      0.00000
    229       6.7714      0.00000
    230       6.9431      0.00000
    231       6.9497      0.00000
    232       6.9558      0.00000
    233       6.9624      0.00000
    234       6.9629      0.00000
    235       6.9661      0.00000
    236       6.9675      0.00000
    237       6.9678      0.00000
    238       6.9771      0.00000
    239       6.9802      0.00000
    240       6.9875      0.00000
    241       7.0115      0.00000
    242       7.4264      0.00000
    243       7.6685      0.00000
    244       7.7200      0.00000
    245       7.7416      0.00000
    246       7.7482      0.00000
    247       7.7856      0.00000
    248       7.7914      0.00000
    249       7.8022      0.00000
    250       7.8036      0.00000
    251       7.8211      0.00000
    252       7.9126      0.00000
    253       7.9958      0.00000
    254       8.0419      0.00000
    255       8.0510      0.00000
    256       8.2158      0.00000

 k-point     2 :       0.2000    0.0000    0.0000
  band No.  band energies     occupation 
      1     -64.6526      1.00000
      2     -39.1722      1.00000
      3     -38.6454      1.00000
      4     -38.2217      1.00000
      5     -23.1203      1.00000
      6     -22.8117      1.00000
      7     -22.5398      1.00000
      8     -22.2539      1.00000
      9     -21.6613      1.00000
     10     -21.3551      1.00000
     11     -21.1431      1.00000
     12     -20.7550      1.00000
     13     -20.3776      1.00000
     14     -20.1043      1.00000
     15     -19.7291      1.00000
     16     -19.3812      1.00000
     17     -19.2449      1.00000
     18     -19.1149      1.00000
     19     -19.0803      1.00000
     20     -18.6249      1.00000
     21     -18.3730      1.00000
     22     -18.3086      1.00000
     23     -17.8972      1.00000
     24     -17.3348      1.00000
     25     -17.0634      1.00000
     26     -16.9734      1.00000
     27     -16.7218      1.00000
     28     -16.4494      1.00000
     29     -16.0532      1.00000
     30     -15.5488      1.00000
     31     -15.4371      1.00000
     32     -15.2602      1.00000
     33     -15.1644      1.00000
     34     -15.0648      1.00000
     35     -14.8660      1.00000
     36     -14.7369      1.00000
     37     -14.2922      1.00000
     38     -13.9505      1.00000
     39     -13.5436      1.00000
     40     -13.2273      1.00000
     41     -12.8374      1.00000
     42     -12.5611      1.00000
     43     -12.4754      1.00000
     44     -12.1876      1.00000
     45     -12.1086      1.00000
     46     -12.0230      1.00000
     47     -11.6973      1.00000
     48     -11.4874      1.00000
     49     -11.3037      1.00000
     50     -11.2786      1.00000
     51     -11.0853      1.00000
     52     -10.6957      1.00000
     53     -10.5388      1.00000
     54     -10.3785      1.00000
     55     -10.3386      1.00000
     56     -10.2334      1.00000
     57      -9.8941      1.00000
     58      -9.8422      1.00000
     59      -9.8105      1.00000
     60      -9.7898      1.00000
     61      -9.6499      1.00000
     62      -9.5554      1.00000
     63      -9.5167      1.00000
     64      -9.4361      1.00000
     65      -9.3101      1.00000
     66      -9.1082      1.00000
     67      -9.0795      1.00000
     68      -9.0204      1.00000
     69      -8.9805      1.00000
     70      -8.9041      1.00000
     71      -8.7978      1.00000
     72      -8.7841      1.00000
     73      -8.5937      1.00000
     74      -8.3858      1.00000
     75      -8.3110      1.00000
     76      -7.9080      1.00000
     77      -7.8785      1.00000
     78      -7.7788      1.00000
     79      -7.6839      1.00000
     80      -7.6047      1.00000
     81      -7.3757      1.00000
     82      -7.2869      1.00000
     83      -7.1458      1.00000
     84      -6.9280      1.00000
     85      -6.8646      1.00000
     86      -6.8403      1.00000
     87      -6.7253      1.00000
     88      -6.5844      1.00000
     89      -6.5350      1.00000
     90      -6.4966      1.00000
     91      -6.1149      1.00000
     92      -6.0675      1.00000
     93      -5.9324      1.00000
     94      -5.8213      1.00000
     95      -5.5927      1.00000
     96      -5.4309      1.00000
     97      -5.2611      1.00000
     98      -4.7669      1.00000
     99      -4.5872      1.00000
    100      -4.5103      1.00000
    101      -4.2192      1.00000
    102      -3.8752      1.00000
    103      -2.8943      1.00000
    104      -1.8717      0.00000
    105      -1.4822      0.00000
    106      -1.2811      0.00000
    107      -1.1380      0.00000
    108      -0.9449      0.00000
    109      -0.5258      0.00000
    110      -0.3394      0.00000
    111       0.0670      0.00000
    112       0.0943      0.00000
    113       0.4538      0.00000
    114       0.7872      0.00000
    115       0.8492      0.00000
    116       1.0286      0.00000
    117       1.1175      0.00000
    118       1.1610      0.00000
    119       1.3305      0.00000
    120       1.4406      0.00000
    121       1.5780      0.00000
    122       1.6979      0.00000
    123       1.7225      0.00000
    124       1.7673      0.00000
    125       1.8110      0.00000
    126       1.8642      0.00000
    127       1.9992      0.00000
    128       2.1539      0.00000
    129       2.2590      0.00000
    130       2.3144      0.00000
    131       2.3421      0.00000
    132       2.4191      0.00000
    133       2.5241      0.00000
    134       2.5490      0.00000
    135       2.6045      0.00000
    136       2.6414      0.00000
    137       2.7839      0.00000
    138       2.7880      0.00000
    139       2.8310      0.00000
    140       2.9085      0.00000
    141       2.9489      0.00000
    142       3.1091      0.00000
    143       3.1529      0.00000
    144       3.2922      0.00000
    145       3.3159      0.00000
    146       3.3226      0.00000
    147       3.3785      0.00000
    148       3.5758      0.00000
    149       3.5984      0.00000
    150       3.6521      0.00000
    151       3.6880      0.00000
    152       3.7114      0.00000
    153       3.8559      0.00000
    154       3.8982      0.00000
    155       4.0527      0.00000
    156       4.0976      0.00000
    157       4.1014      0.00000
    158       4.1759      0.00000
    159       4.2140      0.00000
    160       4.3202      0.00000
    161       4.3634      0.00000
    162       4.4310      0.00000
    163       4.4740      0.00000
    164       4.4777      0.00000
    165       4.4910      0.00000
    166       4.6217      0.00000
    167       4.6589      0.00000
    168       4.6846      0.00000
    169       4.7173      0.00000
    170       4.8193      0.00000
    171       4.8499      0.00000
    172       4.8911      0.00000
    173       4.9087      0.00000
    174       4.9312      0.00000
    175       4.9649      0.00000
    176       5.0389      0.00000
    177       5.1010      0.00000
    178       5.1527      0.00000
    179       5.1783      0.00000
    180       5.1917      0.00000
    181       5.2151      0.00000
    182       5.2485      0.00000
    183       5.2602      0.00000
    184       5.3291      0.00000
    185       5.3871      0.00000
    186       5.4385      0.00000
    187       5.4870      0.00000
    188       5.5103      0.00000
    189       5.5307      0.00000
    190       5.6112      0.00000
    191       5.6529      0.00000
    192       5.6933      0.00000
    193       5.6977      0.00000
    194       5.7444      0.00000
    195       5.7486      0.00000
    196       5.7611      0.00000
    197       5.7973      0.00000
    198       5.8116      0.00000
    199       5.8756      0.00000
    200       5.8984      0.00000
    201       5.9612      0.00000
    202       5.9685      0.00000
    203       6.0139      0.00000
    204       6.0175      0.00000
    205       6.0615      0.00000
    206       6.1671      0.00000
    207       6.2028      0.00000
    208       6.2196      0.00000
    209       6.2330      0.00000
    210       6.2486      0.00000
    211       6.2749      0.00000
    212       6.3111      0.00000
    213       6.3223      0.00000
    214       6.4105      0.00000
    215       6.4470      0.00000
    216       6.4700      0.00000
    217       6.4833      0.00000
    218       6.4874      0.00000
    219       6.4881      0.00000
    220       6.5016      0.00000
    221       6.5151      0.00000
    222       6.5501      0.00000
    223       6.5609      0.00000
    224       6.5866      0.00000
    225       6.7346      0.00000
    226       6.7859      0.00000
    227       6.8193      0.00000
    228       6.8946      0.00000
    229       6.9163      0.00000
    230       6.9567      0.00000
    231       6.9946      0.00000
    232       7.0291      0.00000
    233       7.0589      0.00000
    234       7.0946      0.00000
    235       7.1225      0.00000
    236       7.2004      0.00000
    237       7.2393      0.00000
    238       7.2863      0.00000
    239       7.3102      0.00000
    240       7.3169      0.00000
    241       7.3249      0.00000
    242       7.3537      0.00000
    243       7.5046      0.00000
    244       7.5289      0.00000
    245       7.5408      0.00000
    246       7.5669      0.00000
    247       7.5738      0.00000
    248       7.6516      0.00000
    249       7.7230      0.00000
    250       7.7665      0.00000
    251       7.7897      0.00000
    252       7.7954      0.00000
    253       7.8173      0.00000
    254       7.8243      0.00000
    255       7.9369      0.00000
    256       8.0065      0.00000

 k-point     3 :       0.4000    0.0000    0.0000
  band No.  band energies     occupation 
      1     -64.6526      1.00000
      2     -39.1722      1.00000
      3     -38.6454      1.00000
      4     -38.2217      1.00000
      5     -23.1000      1.00000
      6     -22.8400      1.00000
      7     -22.5552      1.00000
      8     -22.2582      1.00000
      9     -21.5975      1.00000
     10     -21.3980      1.00000
     11     -21.0729      1.00000
     12     -20.6161      1.00000
     13     -20.5082      1.00000
     14     -20.2001      1.00000
     15     -19.7592      1.00000
     16     -19.6435      1.00000
     17     -19.2825      1.00000
     18     -19.2579      1.00000
     19     -18.7672      1.00000
     20     -18.4378      1.00000
     21     -18.1174      1.00000
     22     -17.9752      1.00000
     23     -17.8272      1.00000
     24     -17.5013      1.00000
     25     -17.4057      1.00000
     26     -17.2431      1.00000
     27     -16.8636      1.00000
     28     -16.4406      1.00000
     29     -16.0958      1.00000
     30     -15.7861      1.00000
     31     -15.3544      1.00000
     32     -15.3315      1.00000
     33     -15.1294      1.00000
     34     -15.0389      1.00000
     35     -14.6545      1.00000
     36     -14.3083      1.00000
     37     -14.1069      1.00000
     38     -13.5568      1.00000
     39     -13.4791      1.00000
     40     -13.3107      1.00000
     41     -12.9661      1.00000
     42     -12.7715      1.00000
     43     -12.7395      1.00000
     44     -12.6641      1.00000
     45     -12.3081      1.00000
     46     -11.8723      1.00000
     47     -11.6058      1.00000
     48     -11.5601      1.00000
     49     -11.3570      1.00000
     50     -11.3076      1.00000
     51     -10.9136      1.00000
     52     -10.7175      1.00000
     53     -10.5309      1.00000
     54     -10.2851      1.00000
     55     -10.2263      1.00000
     56     -10.1322      1.00000
     57     -10.0282      1.00000
     58      -9.9325      1.00000
     59      -9.8238      1.00000
     60      -9.7416      1.00000
     61      -9.6194      1.00000
     62      -9.5664      1.00000
     63      -9.5004      1.00000
     64      -9.4626      1.00000
     65      -9.2682      1.00000
     66      -9.1802      1.00000
     67      -9.0948      1.00000
     68      -8.8631      1.00000
     69      -8.7980      1.00000
     70      -8.7139      1.00000
     71      -8.6245      1.00000
     72      -8.5394      1.00000
     73      -8.4667      1.00000
     74      -8.4052      1.00000
     75      -8.3435      1.00000
     76      -8.2406      1.00000
     77      -8.1623      1.00000
     78      -8.0252      1.00000
     79      -7.7646      1.00000
     80      -7.6693      1.00000
     81      -7.5047      1.00000
     82      -7.3307      1.00000
     83      -7.0569      1.00000
     84      -6.9847      1.00000
     85      -6.8753      1.00000
     86      -6.8428      1.00000
     87      -6.7908      1.00000
     88      -6.6566      1.00000
     89      -6.3676      1.00000
     90      -6.2205      1.00000
     91      -6.0099      1.00000
     92      -5.9097      1.00000
     93      -5.7019      1.00000
     94      -5.5504      1.00000
     95      -5.4811      1.00000
     96      -5.4278      1.00000
     97      -5.2695      1.00000
     98      -5.0598      1.00000
     99      -5.0296      1.00000
    100      -4.9702      1.00000
    101      -4.1554      1.00000
    102      -3.6877      1.00000
    103      -3.0213      1.00000
    104      -1.9133      0.00000
    105      -1.3103      0.00000
    106      -1.1795      0.00000
    107      -0.7870      0.00000
    108      -0.7011      0.00000
    109      -0.6096      0.00000
    110      -0.4609      0.00000
    111      -0.1427      0.00000
    112       0.1211      0.00000
    113       0.2539      0.00000
    114       0.3945      0.00000
    115       0.8061      0.00000
    116       0.8502      0.00000
    117       1.0411      0.00000
    118       1.1975      0.00000
    119       1.4629      0.00000
    120       1.5050      0.00000
    121       1.5886      0.00000
    122       1.6468      0.00000
    123       1.6887      0.00000
    124       1.7793      0.00000
    125       1.8351      0.00000
    126       1.8946      0.00000
    127       2.0049      0.00000
    128       2.1471      0.00000
    129       2.1991      0.00000
    130       2.2472      0.00000
    131       2.3568      0.00000
    132       2.5634      0.00000
    133       2.6663      0.00000
    134       2.6802      0.00000
    135       2.6907      0.00000
    136       2.7312      0.00000
    137       2.8703      0.00000
    138       3.0041      0.00000
    139       3.0608      0.00000
    140       3.0759      0.00000
    141       3.1131      0.00000
    142       3.1827      0.00000
    143       3.2814      0.00000
    144       3.2868      0.00000
    145       3.3415      0.00000
    146       3.4910      0.00000
    147       3.5079      0.00000
    148       3.5856      0.00000
    149       3.6098      0.00000
    150       3.7251      0.00000
    151       3.7373      0.00000
    152       3.7432      0.00000
    153       3.7742      0.00000
    154       3.8505      0.00000
    155       3.8998      0.00000
    156       3.9307      0.00000
    157       4.0267      0.00000
    158       4.0399      0.00000
    159       4.2034      0.00000
    160       4.2610      0.00000
    161       4.2664      0.00000
    162       4.2891      0.00000
    163       4.3088      0.00000
    164       4.3816      0.00000
    165       4.4245      0.00000
    166       4.5184      0.00000
    167       4.5860      0.00000
    168       4.6455      0.00000
    169       4.6472      0.00000
    170       4.6923      0.00000
    171       4.8125      0.00000
    172       4.8213      0.00000
    173       4.8827      0.00000
    174       5.0101      0.00000
    175       5.0357      0.00000
    176       5.0527      0.00000
    177       5.0691      0.00000
    178       5.1118      0.00000
    179       5.1405      0.00000
    180       5.1555      0.00000
    181       5.1753      0.00000
    182       5.1926      0.00000
    183       5.3325      0.00000
    184       5.3459      0.00000
    185       5.3833      0.00000
    186       5.4803      0.00000
    187       5.5471      0.00000
    188       5.5691      0.00000
    189       5.5916      0.00000
    190       5.6123      0.00000
    191       5.6220      0.00000
    192       5.6595      0.00000
    193       5.6774      0.00000
    194       5.6826      0.00000
    195       5.7093      0.00000
    196       5.7355      0.00000
    197       5.7617      0.00000
    198       5.8029      0.00000
    199       5.8435      0.00000
    200       5.8535      0.00000
    201       5.8555      0.00000
    202       5.9069      0.00000
    203       5.9765      0.00000
    204       5.9898      0.00000
    205       6.0857      0.00000
    206       6.1101      0.00000
    207       6.1177      0.00000
    208       6.1326      0.00000
    209       6.1438      0.00000
    210       6.2038      0.00000
    211       6.2426      0.00000
    212       6.3301      0.00000
    213       6.3592      0.00000
    214       6.3739      0.00000
    215       6.4271      0.00000
    216       6.4923      0.00000
    217       6.5366      0.00000
    218       6.6082      0.00000
    219       6.6503      0.00000
    220       6.6994      0.00000
    221       6.7164      0.00000
    222       6.7330      0.00000
    223       6.7742      0.00000
    224       6.8280      0.00000
    225       6.8425      0.00000
    226       6.8664      0.00000
    227       6.8897      0.00000
    228       6.9186      0.00000
    229       6.9505      0.00000
    230       6.9684      0.00000
    231       7.1059      0.00000
    232       7.1107      0.00000
    233       7.1417      0.00000
    234       7.1873      0.00000
    235       7.1992      0.00000
    236       7.2251      0.00000
    237       7.2322      0.00000
    238       7.3444      0.00000
    239       7.3521      0.00000
    240       7.3727      0.00000
    241       7.4317      0.00000
    242       7.4342      0.00000
    243       7.4415      0.00000
    244       7.4442      0.00000
    245       7.5018      0.00000
    246       7.5031      0.00000
    247       7.5801      0.00000
    248       7.6254      0.00000
    249       7.6669      0.00000
    250       7.6956      0.00000
    251       7.7067      0.00000
    252       7.7901      0.00000
    253       7.8142      0.00000
    254       7.8654      0.00000
    255       7.8672      0.00000
    256       7.8981      0.00000

 k-point     4 :       0.0000    0.2000    0.0000
  band No.  band energies     occupation 
      1     -64.6526      1.00000
      2     -39.1722      1.00000
      3     -38.6454      1.00000
      4     -38.2217      1.00000
      5     -23.1203      1.00000
      6     -22.8116      1.00000
      7     -22.5398      1.00000
      8     -22.2539      1.00000
      9     -21.6613      1.00000
     10     -21.3551      1.00000
     11     -21.1431      1.00000
     12     -20.7550      1.00000
     13     -20.3776      1.00000
     14     -20.1043      1.00000
     15     -19.7291      1.00000
     16     -19.3811      1.00000
     17     -19.2449      1.00000
     18     -19.1149      1.00000
     19     -19.0804      1.00000
     20     -18.6249      1.00000
     21     -18.3730      1.00000
     22     -18.3086      1.00000
     23     -17.8972      1.00000
     24     -17.3348      1.00000
     25     -17.0634      1.00000
     26     -16.9734      1.00000
     27     -16.7218      1.00000
     28     -16.4494      1.00000
     29     -16.0532      1.00000
     30     -15.5487      1.00000
     31     -15.4371      1.00000
     32     -15.2602      1.00000
     33     -15.1644      1.00000
     34     -15.0648      1.00000
     35     -14.8660      1.00000
     36     -14.7369      1.00000
     37     -14.2922      1.00000
     38     -13.9505      1.00000
     39     -13.5436      1.00000
     40     -13.2273      1.00000
     41     -12.8374      1.00000
     42     -12.5610      1.00000
     43     -12.4754      1.00000
     44     -12.1876      1.00000
     45     -12.1086      1.00000
     46     -12.0230      1.00000
     47     -11.6973      1.00000
     48     -11.4874      1.00000
     49     -11.3037      1.00000
     50     -11.2786      1.00000
     51     -11.0853      1.00000
     52     -10.6958      1.00000
     53     -10.5388      1.00000
     54     -10.3785      1.00000
     55     -10.3386      1.00000
     56     -10.2333      1.00000
     57      -9.8941      1.00000
     58      -9.8422      1.00000
     59      -9.8105      1.00000
     60      -9.7898      1.00000
     61      -9.6499      1.00000
     62      -9.5554      1.00000
     63      -9.5167      1.00000
     64      -9.4360      1.00000
     65      -9.3101      1.00000
     66      -9.1082      1.00000
     67      -9.0795      1.00000
     68      -9.0204      1.00000
     69      -8.9805      1.00000
     70      -8.9041      1.00000
     71      -8.7978      1.00000
     72      -8.7840      1.00000
     73      -8.5937      1.00000
     74      -8.3858      1.00000
     75      -8.3110      1.00000
     76      -7.9080      1.00000
     77      -7.8785      1.00000
     78      -7.7788      1.00000
     79      -7.6839      1.00000
     80      -7.6047      1.00000
     81      -7.3757      1.00000
     82      -7.2869      1.00000
     83      -7.1459      1.00000
     84      -6.9280      1.00000
     85      -6.8645      1.00000
     86      -6.8403      1.00000
     87      -6.7253      1.00000
     88      -6.5843      1.00000
     89      -6.5351      1.00000
     90      -6.4966      1.00000
     91      -6.1149      1.00000
     92      -6.0675      1.00000
     93      -5.9324      1.00000
     94      -5.8213      1.00000
     95      -5.5928      1.00000
     96      -5.4308      1.00000
     97      -5.2611      1.00000
     98      -4.7668      1.00000
     99      -4.5872      1.00000
    100      -4.5103      1.00000
    101      -4.2192      1.00000
    102      -3.8752      1.00000
    103      -2.8943      1.00000
    104      -1.8717      0.00000
    105      -1.4822      0.00000
    106      -1.2811      0.00000
    107      -1.1380      0.00000
    108      -0.9449      0.00000
    109      -0.5257      0.00000
    110      -0.3394      0.00000
    111       0.0668      0.00000
    112       0.0943      0.00000
    113       0.4538      0.00000
    114       0.7869      0.00000
    115       0.8492      0.00000
    116       1.0289      0.00000
    117       1.1177      0.00000
    118       1.1609      0.00000
    119       1.3305      0.00000
    120       1.4405      0.00000
    121       1.5782      0.00000
    122       1.6979      0.00000
    123       1.7225      0.00000
    124       1.7672      0.00000
    125       1.8110      0.00000
    126       1.8641      0.00000
    127       1.9992      0.00000
    128       2.1539      0.00000
    129       2.2590      0.00000
    130       2.3145      0.00000
    131       2.3421      0.00000
    132       2.4190      0.00000
    133       2.5241      0.00000
    134       2.5490      0.00000
    135       2.6045      0.00000
    136       2.6414      0.00000
    137       2.7839      0.00000
    138       2.7880      0.00000
    139       2.8310      0.00000
    140       2.9085      0.00000
    141       2.9489      0.00000
    142       3.1091      0.00000
    143       3.1529      0.00000
    144       3.2922      0.00000
    145       3.3159      0.00000
    146       3.3225      0.00000
    147       3.3785      0.00000
    148       3.5758      0.00000
    149       3.5984      0.00000
    150       3.6520      0.00000
    151       3.6879      0.00000
    152       3.7115      0.00000
    153       3.8559      0.00000
    154       3.8982      0.00000
    155       4.0528      0.00000
    156       4.0976      0.00000
    157       4.1014      0.00000
    158       4.1759      0.00000
    159       4.2140      0.00000
    160       4.3202      0.00000
    161       4.3634      0.00000
    162       4.4309      0.00000
    163       4.4740      0.00000
    164       4.4777      0.00000
    165       4.4910      0.00000
    166       4.6217      0.00000
    167       4.6589      0.00000
    168       4.6846      0.00000
    169       4.7173      0.00000
    170       4.8193      0.00000
    171       4.8500      0.00000
    172       4.8911      0.00000
    173       4.9087      0.00000
    174       4.9312      0.00000
    175       4.9649      0.00000
    176       5.0389      0.00000
    177       5.1010      0.00000
    178       5.1527      0.00000
    179       5.1782      0.00000
    180       5.1917      0.00000
    181       5.2151      0.00000
    182       5.2485      0.00000
    183       5.2602      0.00000
    184       5.3291      0.00000
    185       5.3871      0.00000
    186       5.4385      0.00000
    187       5.4870      0.00000
    188       5.5103      0.00000
    189       5.5307      0.00000
    190       5.6112      0.00000
    191       5.6529      0.00000
    192       5.6933      0.00000
    193       5.6977      0.00000
    194       5.7444      0.00000
    195       5.7486      0.00000
    196       5.7611      0.00000
    197       5.7973      0.00000
    198       5.8116      0.00000
    199       5.8756      0.00000
    200       5.8985      0.00000
    201       5.9612      0.00000
    202       5.9685      0.00000
    203       6.0139      0.00000
    204       6.0174      0.00000
    205       6.0615      0.00000
    206       6.1671      0.00000
    207       6.2028      0.00000
    208       6.2196      0.00000
    209       6.2330      0.00000
    210       6.2486      0.00000
    211       6.2749      0.00000
    212       6.3111      0.00000
    213       6.3223      0.00000
    214       6.4105      0.00000
    215       6.4470      0.00000
    216       6.4700      0.00000
    217       6.4833      0.00000
    218       6.4874      0.00000
    219       6.4881      0.00000
    220       6.5016      0.00000
    221       6.5151      0.00000
    222       6.5501      0.00000
    223       6.5609      0.00000
    224       6.5866      0.00000
    225       6.7346      0.00000
    226       6.7859      0.00000
    227       6.8192      0.00000
    228       6.8946      0.00000
    229       6.9163      0.00000
    230       6.9567      0.00000
    231       6.9946      0.00000
    232       7.0291      0.00000
    233       7.0589      0.00000
    234       7.0946      0.00000
    235       7.1225      0.00000
    236       7.2004      0.00000
    237       7.2393      0.00000
    238       7.2863      0.00000
    239       7.3102      0.00000
    240       7.3169      0.00000
    241       7.3249      0.00000
    242       7.3535      0.00000
    243       7.5047      0.00000
    244       7.5291      0.00000
    245       7.5407      0.00000
    246       7.5671      0.00000
    247       7.5741      0.00000
    248       7.6512      0.00000
    249       7.7232      0.00000
    250       7.7665      0.00000
    251       7.7896      0.00000
    252       7.7952      0.00000
    253       7.8174      0.00000
    254       7.8243      0.00000
    255       7.9406      0.00000
    256       8.0042      0.00000

 k-point     5 :       0.2000    0.2000    0.0000
  band No.  band energies     occupation 
      1     -64.6526      1.00000
      2     -39.1722      1.00000
      3     -38.6454      1.00000
      4     -38.2217      1.00000
      5     -23.1040      1.00000
      6     -22.8354      1.00000
      7     -22.5501      1.00000
      8     -22.2587      1.00000
      9     -21.6278      1.00000
     10     -21.3003      1.00000
     11     -21.1920      1.00000
     12     -20.5863      1.00000
     13     -20.5289      1.00000
     14     -20.0398      1.00000
     15     -19.9165      1.00000
     16     -19.6395      1.00000
     17     -19.3674      1.00000
     18     -18.8454      1.00000
     19     -18.7560      1.00000
     20     -18.7218      1.00000
     21     -18.3759      1.00000
     22     -18.0995      1.00000
     23     -17.6994      1.00000
     24     -17.3636      1.00000
     25     -17.1771      1.00000
     26     -17.1731      1.00000
     27     -16.9872      1.00000
     28     -16.4550      1.00000
     29     -16.1199      1.00000
     30     -15.7595      1.00000
     31     -15.4808      1.00000
     32     -15.3998      1.00000
     33     -14.9885      1.00000
     34     -14.7810      1.00000
     35     -14.7441      1.00000
     36     -14.4169      1.00000
     37     -14.2578      1.00000
     38     -13.8968      1.00000
     39     -13.3651      1.00000
     40     -13.1750      1.00000
     41     -12.9738      1.00000
     42     -12.8508      1.00000
     43     -12.5409      1.00000
     44     -12.4328      1.00000
     45     -12.0999      1.00000
     46     -11.9355      1.00000
     47     -11.7825      1.00000
     48     -11.6560      1.00000
     49     -11.6267      1.00000
     50     -10.9852      1.00000
     51     -10.9356      1.00000
     52     -10.7015      1.00000
     53     -10.6120      1.00000
     54     -10.3234      1.00000
     55     -10.2675      1.00000
     56     -10.2556      1.00000
     57      -9.9321      1.00000
     58      -9.8765      1.00000
     59      -9.7786      1.00000
     60      -9.7622      1.00000
     61      -9.6246      1.00000
     62      -9.4761      1.00000
     63      -9.3650      1.00000
     64      -9.2819      1.00000
     65      -9.2737      1.00000
     66      -9.2608      1.00000
     67      -9.1217      1.00000
     68      -9.0651      1.00000
     69      -8.9123      1.00000
     70      -8.8405      1.00000
     71      -8.8052      1.00000
     72      -8.5806      1.00000
     73      -8.4921      1.00000
     74      -8.3772      1.00000
     75      -8.3252      1.00000
     76      -8.0891      1.00000
     77      -7.9438      1.00000
     78      -7.7932      1.00000
     79      -7.7452      1.00000
     80      -7.6814      1.00000
     81      -7.5109      1.00000
     82      -7.4862      1.00000
     83      -7.3135      1.00000
     84      -7.1154      1.00000
     85      -6.8934      1.00000
     86      -6.7099      1.00000
     87      -6.6051      1.00000
     88      -6.3164      1.00000
     89      -6.2977      1.00000
     90      -6.2077      1.00000
     91      -6.1931      1.00000
     92      -6.0551      1.00000
     93      -5.8229      1.00000
     94      -5.8179      1.00000
     95      -5.5056      1.00000
     96      -5.4909      1.00000
     97      -5.2559      1.00000
     98      -4.9694      1.00000
     99      -4.8206      1.00000
    100      -4.6020      1.00000
    101      -4.5141      1.00000
    102      -3.4106      1.00000
    103      -3.2096      1.00000
    104      -1.9760      0.00000
    105      -1.2343      0.00000
    106      -1.0453      0.00000
    107      -0.9401      0.00000
    108      -0.8668      0.00000
    109      -0.6152      0.00000
    110      -0.3188      0.00000
    111      -0.2355      0.00000
    112       0.1167      0.00000
    113       0.3585      0.00000
    114       0.5496      0.00000
    115       0.8290      0.00000
    116       0.8684      0.00000
    117       0.9791      0.00000
    118       1.2531      0.00000
    119       1.3464      0.00000
    120       1.3793      0.00000
    121       1.4800      0.00000
    122       1.5846      0.00000
    123       1.7287      0.00000
    124       1.8353      0.00000
    125       1.9408      0.00000
    126       2.0189      0.00000
    127       2.0225      0.00000
    128       2.0721      0.00000
    129       2.2391      0.00000
    130       2.3693      0.00000
    131       2.3860      0.00000
    132       2.5535      0.00000
    133       2.5547      0.00000
    134       2.6624      0.00000
    135       2.7602      0.00000
    136       2.7680      0.00000
    137       2.7888      0.00000
    138       2.9286      0.00000
    139       3.0591      0.00000
    140       3.0691      0.00000
    141       3.1465      0.00000
    142       3.1581      0.00000
    143       3.1878      0.00000
    144       3.2346      0.00000
    145       3.2371      0.00000
    146       3.2835      0.00000
    147       3.4353      0.00000
    148       3.5684      0.00000
    149       3.6792      0.00000
    150       3.7377      0.00000
    151       3.7499      0.00000
    152       3.7832      0.00000
    153       3.8205      0.00000
    154       3.9339      0.00000
    155       3.9523      0.00000
    156       3.9919      0.00000
    157       4.0411      0.00000
    158       4.0562      0.00000
    159       4.1160      0.00000
    160       4.1674      0.00000
    161       4.2287      0.00000
    162       4.2399      0.00000
    163       4.3969      0.00000
    164       4.4074      0.00000
    165       4.4911      0.00000
    166       4.5095      0.00000
    167       4.5784      0.00000
    168       4.6327      0.00000
    169       4.7211      0.00000
    170       4.8012      0.00000
    171       4.8519      0.00000
    172       4.8580      0.00000
    173       4.9695      0.00000
    174       4.9846      0.00000
    175       5.0091      0.00000
    176       5.0147      0.00000
    177       5.1083      0.00000
    178       5.1140      0.00000
    179       5.1862      0.00000
    180       5.1874      0.00000
    181       5.2554      0.00000
    182       5.2695      0.00000
    183       5.3017      0.00000
    184       5.3175      0.00000
    185       5.3706      0.00000
    186       5.3979      0.00000
    187       5.4004      0.00000
    188       5.4749      0.00000
    189       5.5277      0.00000
    190       5.5305      0.00000
    191       5.5529      0.00000
    192       5.5792      0.00000
    193       5.6567      0.00000
    194       5.7030      0.00000
    195       5.7380      0.00000
    196       5.7500      0.00000
    197       5.8230      0.00000
    198       5.8376      0.00000
    199       5.8543      0.00000
    200       5.9310      0.00000
    201       5.9570      0.00000
    202       5.9821      0.00000
    203       5.9826      0.00000
    204       6.0523      0.00000
    205       6.0751      0.00000
    206       6.1127      0.00000
    207       6.1130      0.00000
    208       6.1269      0.00000
    209       6.1589      0.00000
    210       6.3141      0.00000
    211       6.3276      0.00000
    212       6.3552      0.00000
    213       6.3803      0.00000
    214       6.4018      0.00000
    215       6.5413      0.00000
    216       6.5438      0.00000
    217       6.5772      0.00000
    218       6.5913      0.00000
    219       6.5918      0.00000
    220       6.6071      0.00000
    221       6.6858      0.00000
    222       6.7062      0.00000
    223       6.7347      0.00000
    224       6.7587      0.00000
    225       6.8363      0.00000
    226       6.8515      0.00000
    227       6.8714      0.00000
    228       6.8910      0.00000
    229       6.9059      0.00000
    230       6.9583      0.00000
    231       7.0149      0.00000
    232       7.0700      0.00000
    233       7.1040      0.00000
    234       7.1200      0.00000
    235       7.1245      0.00000
    236       7.1442      0.00000
    237       7.2353      0.00000
    238       7.3199      0.00000
    239       7.3304      0.00000
    240       7.3700      0.00000
    241       7.3826      0.00000
    242       7.3852      0.00000
    243       7.3995      0.00000
    244       7.4139      0.00000
    245       7.5391      0.00000
    246       7.5462      0.00000
    247       7.5766      0.00000
    248       7.5995      0.00000
    249       7.7649      0.00000
    250       7.7888      0.00000
    251       7.8577      0.00000
    252       7.8834      0.00000
    253       7.9070      0.00000
    254       7.9250      0.00000
    255       7.9496      0.00000
    256       7.9570      0.00000

 k-point     6 :       0.4000    0.2000    0.0000
  band No.  band energies     occupation 
      1     -64.6526      1.00000
      2     -39.1722      1.00000
      3     -38.6454      1.00000
      4     -38.2217      1.00000
      5     -23.0939      1.00000
      6     -22.8431      1.00000
      7     -22.5752      1.00000
      8     -22.2429      1.00000
      9     -21.5991      1.00000
     10     -21.3873      1.00000
     11     -21.0811      1.00000
     12     -20.5763      1.00000
     13     -20.4554      1.00000
     14     -20.1589      1.00000
     15     -19.9153      1.00000
     16     -19.8398      1.00000
     17     -19.4187      1.00000
     18     -18.8129      1.00000
     19     -18.7112      1.00000
     20     -18.3913      1.00000
     21     -18.2001      1.00000
     22     -18.0245      1.00000
     23     -17.8801      1.00000
     24     -17.4355      1.00000
     25     -17.3381      1.00000
     26     -17.2257      1.00000
     27     -17.0222      1.00000
     28     -16.4774      1.00000
     29     -16.0314      1.00000
     30     -15.9753      1.00000
     31     -15.6560      1.00000
     32     -15.4697      1.00000
     33     -14.7687      1.00000
     34     -14.6228      1.00000
     35     -14.4821      1.00000
     36     -14.1139      1.00000
     37     -13.9955      1.00000
     38     -13.8698      1.00000
     39     -13.7481      1.00000
     40     -13.5003      1.00000
     41     -13.1875      1.00000
     42     -12.8554      1.00000
     43     -12.5032      1.00000
     44     -12.2427      1.00000
     45     -12.1604      1.00000
     46     -11.9977      1.00000
     47     -11.8590      1.00000
     48     -11.8137      1.00000
     49     -11.3554      1.00000
     50     -11.2338      1.00000
     51     -10.8954      1.00000
     52     -10.7977      1.00000
     53     -10.4357      1.00000
     54     -10.1948      1.00000
     55     -10.1333      1.00000
     56     -10.0895      1.00000
     57     -10.0377      1.00000
     58      -9.9500      1.00000
     59      -9.8485      1.00000
     60      -9.8126      1.00000
     61      -9.7137      1.00000
     62      -9.5461      1.00000
     63      -9.4544      1.00000
     64      -9.3155      1.00000
     65      -9.2486      1.00000
     66      -9.1588      1.00000
     67      -8.9683      1.00000
     68      -8.9085      1.00000
     69      -8.8761      1.00000
     70      -8.7498      1.00000
     71      -8.6951      1.00000
     72      -8.5513      1.00000
     73      -8.4727      1.00000
     74      -8.4662      1.00000
     75      -8.3263      1.00000
     76      -8.0907      1.00000
     77      -8.0466      1.00000
     78      -7.9579      1.00000
     79      -7.8568      1.00000
     80      -7.6940      1.00000
     81      -7.5465      1.00000
     82      -7.4436      1.00000
     83      -7.3002      1.00000
     84      -7.2415      1.00000
     85      -6.8680      1.00000
     86      -6.7362      1.00000
     87      -6.6200      1.00000
     88      -6.4234      1.00000
     89      -6.2780      1.00000
     90      -6.1097      1.00000
     91      -6.0364      1.00000
     92      -5.9304      1.00000
     93      -5.7119      1.00000
     94      -5.6132      1.00000
     95      -5.5505      1.00000
     96      -5.3946      1.00000
     97      -5.2243      1.00000
     98      -5.0556      1.00000
     99      -5.0279      1.00000
    100      -4.9709      1.00000
    101      -4.5015      1.00000
    102      -3.5169      1.00000
    103      -2.9420      1.00000
    104      -2.1055      0.00000
    105      -1.3572      0.00000
    106      -0.9508      0.00000
    107      -0.8393      0.00000
    108      -0.6023      0.00000
    109      -0.5410      0.00000
    110      -0.2941      0.00000
    111      -0.0374      0.00000
    112       0.1216      0.00000
    113       0.1299      0.00000
    114       0.1920      0.00000
    115       0.5783      0.00000
    116       0.8196      0.00000
    117       0.8910      0.00000
    118       1.0881      0.00000
    119       1.4104      0.00000
    120       1.4570      0.00000
    121       1.6314      0.00000
    122       1.6448      0.00000
    123       1.7748      0.00000
    124       1.8597      0.00000
    125       1.9697      0.00000
    126       1.9990      0.00000
    127       2.0526      0.00000
    128       2.0616      0.00000
    129       2.2527      0.00000
    130       2.3175      0.00000
    131       2.4695      0.00000
    132       2.5313      0.00000
    133       2.6048      0.00000
    134       2.6501      0.00000
    135       2.7743      0.00000
    136       2.8912      0.00000
    137       2.9682      0.00000
    138       3.0869      0.00000
    139       3.1062      0.00000
    140       3.2023      0.00000
    141       3.2174      0.00000
    142       3.2307      0.00000
    143       3.2742      0.00000
    144       3.3025      0.00000
    145       3.3829      0.00000
    146       3.4022      0.00000
    147       3.4249      0.00000
    148       3.4755      0.00000
    149       3.4992      0.00000
    150       3.5718      0.00000
    151       3.6315      0.00000
    152       3.6428      0.00000
    153       3.6899      0.00000
    154       3.8446      0.00000
    155       3.9911      0.00000
    156       4.0021      0.00000
    157       4.0144      0.00000
    158       4.0379      0.00000
    159       4.2212      0.00000
    160       4.2421      0.00000
    161       4.3253      0.00000
    162       4.3555      0.00000
    163       4.3978      0.00000
    164       4.4392      0.00000
    165       4.4417      0.00000
    166       4.4616      0.00000
    167       4.5205      0.00000
    168       4.5862      0.00000
    169       4.6742      0.00000
    170       4.6952      0.00000
    171       4.7123      0.00000
    172       4.7464      0.00000
    173       4.8216      0.00000
    174       4.9142      0.00000
    175       4.9670      0.00000
    176       5.0048      0.00000
    177       5.0670      0.00000
    178       5.0872      0.00000
    179       5.1496      0.00000
    180       5.2167      0.00000
    181       5.2227      0.00000
    182       5.2398      0.00000
    183       5.2755      0.00000
    184       5.3167      0.00000
    185       5.3427      0.00000
    186       5.4139      0.00000
    187       5.5066      0.00000
    188       5.5158      0.00000
    189       5.5224      0.00000
    190       5.5527      0.00000
    191       5.5948      0.00000
    192       5.6253      0.00000
    193       5.6989      0.00000
    194       5.7115      0.00000
    195       5.7425      0.00000
    196       5.7711      0.00000
    197       5.8290      0.00000
    198       5.8513      0.00000
    199       5.8910      0.00000
    200       5.9235      0.00000
    201       5.9716      0.00000
    202       6.0054      0.00000
    203       6.0371      0.00000
    204       6.0775      0.00000
    205       6.0868      0.00000
    206       6.1225      0.00000
    207       6.1365      0.00000
    208       6.2007      0.00000
    209       6.2379      0.00000
    210       6.2870      0.00000
    211       6.3358      0.00000
    212       6.3427      0.00000
    213       6.3815      0.00000
    214       6.4021      0.00000
    215       6.4636      0.00000
    216       6.5177      0.00000
    217       6.5263      0.00000
    218       6.5485      0.00000
    219       6.5696      0.00000
    220       6.6003      0.00000
    221       6.6160      0.00000
    222       6.6602      0.00000
    223       6.6750      0.00000
    224       6.7649      0.00000
    225       6.7879      0.00000
    226       6.8028      0.00000
    227       6.8134      0.00000
    228       6.8707      0.00000
    229       6.8887      0.00000
    230       6.9786      0.00000
    231       7.0066      0.00000
    232       7.0305      0.00000
    233       7.1192      0.00000
    234       7.1559      0.00000
    235       7.2247      0.00000
    236       7.2389      0.00000
    237       7.3001      0.00000
    238       7.3184      0.00000
    239       7.3689      0.00000
    240       7.3806      0.00000
    241       7.4766      0.00000
    242       7.5322      0.00000
    243       7.5731      0.00000
    244       7.5917      0.00000
    245       7.5965      0.00000
    246       7.5997      0.00000
    247       7.6138      0.00000
    248       7.6285      0.00000
    249       7.6417      0.00000
    250       7.6667      0.00000
    251       7.7386      0.00000
    252       7.8466      0.00000
    253       7.8599      0.00000
    254       7.8639      0.00000
    255       7.9398      0.00000
    256       7.9485      0.00000

 k-point     7 :      -0.4000    0.2000    0.0000
  band No.  band energies     occupation 
      1     -64.6526      1.00000
      2     -39.1722      1.00000
      3     -38.6454      1.00000
      4     -38.2217      1.00000
      5     -23.1058      1.00000
      6     -22.8217      1.00000
      7     -22.5807      1.00000
      8     -22.2281      1.00000
      9     -21.6214      1.00000
     10     -21.4462      1.00000
     11     -20.9860      1.00000
     12     -20.6956      1.00000
     13     -20.4151      1.00000
     14     -20.1920      1.00000
     15     -19.8421      1.00000
     16     -19.7006      1.00000
     17     -19.3552      1.00000
     18     -18.9501      1.00000
     19     -18.8310      1.00000
     20     -18.4694      1.00000
     21     -18.2584      1.00000
     22     -17.9494      1.00000
     23     -17.7584      1.00000
     24     -17.5947      1.00000
     25     -17.3950      1.00000
     26     -17.0947      1.00000
     27     -16.9129      1.00000
     28     -16.6148      1.00000
     29     -15.9710      1.00000
     30     -15.6539      1.00000
     31     -15.4891      1.00000
     32     -15.3979      1.00000
     33     -14.9590      1.00000
     34     -14.8156      1.00000
     35     -14.6404      1.00000
     36     -14.4397      1.00000
     37     -14.3016      1.00000
     38     -13.7172      1.00000
     39     -13.4474      1.00000
     40     -13.2137      1.00000
     41     -13.0632      1.00000
     42     -12.9150      1.00000
     43     -12.8179      1.00000
     44     -12.4405      1.00000
     45     -12.0237      1.00000
     46     -11.9917      1.00000
     47     -11.7914      1.00000
     48     -11.5364      1.00000
     49     -11.2596      1.00000
     50     -11.2156      1.00000
     51     -10.6852      1.00000
     52     -10.6096      1.00000
     53     -10.5628      1.00000
     54     -10.4314      1.00000
     55     -10.2645      1.00000
     56     -10.2552      1.00000
     57     -10.0122      1.00000
     58      -9.8982      1.00000
     59      -9.8498      1.00000
     60      -9.7749      1.00000
     61      -9.7290      1.00000
     62      -9.5718      1.00000
     63      -9.4322      1.00000
     64      -9.3954      1.00000
     65      -9.2769      1.00000
     66      -9.1865      1.00000
     67      -9.1111      1.00000
     68      -9.0068      1.00000
     69      -8.9223      1.00000
     70      -8.7430      1.00000
     71      -8.6612      1.00000
     72      -8.5938      1.00000
     73      -8.4757      1.00000
     74      -8.3256      1.00000
     75      -8.2759      1.00000
     76      -8.0882      1.00000
     77      -7.9775      1.00000
     78      -7.8873      1.00000
     79      -7.8321      1.00000
     80      -7.6025      1.00000
     81      -7.4370      1.00000
     82      -7.3563      1.00000
     83      -7.2565      1.00000
     84      -7.1913      1.00000
     85      -7.0201      1.00000
     86      -6.7524      1.00000
     87      -6.6927      1.00000
     88      -6.4437      1.00000
     89      -6.3146      1.00000
     90      -6.2955      1.00000
     91      -6.2414      1.00000
     92      -6.0380      1.00000
     93      -5.7689      1.00000
     94      -5.6125      1.00000
     95      -5.3467      1.00000
     96      -5.3117      1.00000
     97      -5.2124      1.00000
     98      -5.1124      1.00000
     99      -5.0219      1.00000
    100      -4.5658      1.00000
    101      -4.4620      1.00000
    102      -3.8389      1.00000
    103      -2.6596      1.00000
    104      -2.0469      0.00000
    105      -1.4138      0.00000
    106      -1.1148      0.00000
    107      -0.9632      0.00000
    108      -0.7247      0.00000
    109      -0.5757      0.00000
    110      -0.5527      0.00000
    111       0.1136      0.00000
    112       0.1280      0.00000
    113       0.2965      0.00000
    114       0.4660      0.00000
    115       0.8502      0.00000
    116       0.9269      0.00000
    117       0.9779      0.00000
    118       1.1910      0.00000
    119       1.2628      0.00000
    120       1.3966      0.00000
    121       1.5789      0.00000
    122       1.6532      0.00000
    123       1.7183      0.00000
    124       1.8373      0.00000
    125       1.8731      0.00000
    126       1.9338      0.00000
    127       2.0158      0.00000
    128       2.1804      0.00000
    129       2.2036      0.00000
    130       2.3582      0.00000
    131       2.3694      0.00000
    132       2.3972      0.00000
    133       2.5683      0.00000
    134       2.7030      0.00000
    135       2.7611      0.00000
    136       2.7696      0.00000
    137       2.7869      0.00000
    138       2.9032      0.00000
    139       3.0338      0.00000
    140       3.1220      0.00000
    141       3.1571      0.00000
    142       3.1815      0.00000
    143       3.1901      0.00000
    144       3.2521      0.00000
    145       3.2874      0.00000
    146       3.4114      0.00000
    147       3.4731      0.00000
    148       3.5769      0.00000
    149       3.6560      0.00000
    150       3.6837      0.00000
    151       3.7251      0.00000
    152       3.7577      0.00000
    153       3.7946      0.00000
    154       3.8845      0.00000
    155       3.9513      0.00000
    156       3.9606      0.00000
    157       3.9898      0.00000
    158       4.0566      0.00000
    159       4.2138      0.00000
    160       4.2231      0.00000
    161       4.2601      0.00000
    162       4.2941      0.00000
    163       4.3667      0.00000
    164       4.4156      0.00000
    165       4.4740      0.00000
    166       4.5342      0.00000
    167       4.5913      0.00000
    168       4.6690      0.00000
    169       4.7134      0.00000
    170       4.8221      0.00000
    171       4.8613      0.00000
    172       4.9151      0.00000
    173       4.9793      0.00000
    174       4.9938      0.00000
    175       5.0086      0.00000
    176       5.0160      0.00000
    177       5.0791      0.00000
    178       5.1118      0.00000
    179       5.1199      0.00000
    180       5.2029      0.00000
    181       5.2338      0.00000
    182       5.2790      0.00000
    183       5.3166      0.00000
    184       5.3291      0.00000
    185       5.3586      0.00000
    186       5.3828      0.00000
    187       5.3984      0.00000
    188       5.4725      0.00000
    189       5.4999      0.00000
    190       5.5224      0.00000
    191       5.5391      0.00000
    192       5.5517      0.00000
    193       5.5601      0.00000
    194       5.6325      0.00000
    195       5.7221      0.00000
    196       5.7542      0.00000
    197       5.8132      0.00000
    198       5.8334      0.00000
    199       5.8672      0.00000
    200       5.9136      0.00000
    201       5.9607      0.00000
    202       5.9995      0.00000
    203       6.0414      0.00000
    204       6.0574      0.00000
    205       6.0882      0.00000
    206       6.1116      0.00000
    207       6.1288      0.00000
    208       6.1372      0.00000
    209       6.1603      0.00000
    210       6.1722      0.00000
    211       6.3102      0.00000
    212       6.3338      0.00000
    213       6.3759      0.00000
    214       6.3975      0.00000
    215       6.4093      0.00000
    216       6.4518      0.00000
    217       6.5612      0.00000
    218       6.5799      0.00000
    219       6.5921      0.00000
    220       6.5971      0.00000
    221       6.6049      0.00000
    222       6.7149      0.00000
    223       6.8036      0.00000
    224       6.8222      0.00000
    225       6.8390      0.00000
    226       6.8571      0.00000
    227       6.8790      0.00000
    228       6.9247      0.00000
    229       6.9484      0.00000
    230       6.9815      0.00000
    231       7.0387      0.00000
    232       7.0920      0.00000
    233       7.1207      0.00000
    234       7.1252      0.00000
    235       7.1377      0.00000
    236       7.2375      0.00000
    237       7.2851      0.00000
    238       7.2867      0.00000
    239       7.3191      0.00000
    240       7.3316      0.00000
    241       7.3536      0.00000
    242       7.3835      0.00000
    243       7.3944      0.00000
    244       7.4038      0.00000
    245       7.4735      0.00000
    246       7.5414      0.00000
    247       7.5847      0.00000
    248       7.5913      0.00000
    249       7.7712      0.00000
    250       7.8185      0.00000
    251       7.8576      0.00000
    252       7.8715      0.00000
    253       7.9027      0.00000
    254       7.9210      0.00000
    255       7.9324      0.00000
    256       7.9436      0.00000

 k-point     8 :      -0.2000    0.2000    0.0000
  band No.  band energies     occupation 
      1     -64.6526      1.00000
      2     -39.1722      1.00000
      3     -38.6454      1.00000
      4     -38.2217      1.00000
      5     -23.1211      1.00000
      6     -22.8029      1.00000
      7     -22.5608      1.00000
      8     -22.2325      1.00000
      9     -21.6588      1.00000
     10     -21.4392      1.00000
     11     -20.9759      1.00000
     12     -20.8578      1.00000
     13     -20.2533      1.00000
     14     -20.2294      1.00000
     15     -19.6931      1.00000
     16     -19.5261      1.00000
     17     -19.3013      1.00000
     18     -19.0115      1.00000
     19     -18.9686      1.00000
     20     -18.5697      1.00000
     21     -18.5530      1.00000
     22     -18.1484      1.00000
     23     -17.8208      1.00000
     24     -17.5173      1.00000
     25     -17.0161      1.00000
     26     -16.9062      1.00000
     27     -16.8792      1.00000
     28     -16.5944      1.00000
     29     -15.7275      1.00000
     30     -15.6355      1.00000
     31     -15.3519      1.00000
     32     -15.2935      1.00000
     33     -15.1576      1.00000
     34     -15.0588      1.00000
     35     -14.9490      1.00000
     36     -14.7032      1.00000
     37     -14.3523      1.00000
     38     -13.7102      1.00000
     39     -13.5904      1.00000
     40     -13.3191      1.00000
     41     -13.0218      1.00000
     42     -12.6288      1.00000
     43     -12.3667      1.00000
     44     -12.3045      1.00000
     45     -12.0910      1.00000
     46     -12.0436      1.00000
     47     -11.7399      1.00000
     48     -11.4095      1.00000
     49     -11.2616      1.00000
     50     -11.0074      1.00000
     51     -10.9174      1.00000
     52     -10.8532      1.00000
     53     -10.5053      1.00000
     54     -10.3677      1.00000
     55     -10.3364      1.00000
     56     -10.3035      1.00000
     57     -10.1243      1.00000
     58      -9.9207      1.00000
     59      -9.8377      1.00000
     60      -9.7403      1.00000
     61      -9.6901      1.00000
     62      -9.5579      1.00000
     63      -9.3644      1.00000
     64      -9.3043      1.00000
     65      -9.1973      1.00000
     66      -9.1848      1.00000
     67      -9.1740      1.00000
     68      -9.1081      1.00000
     69      -9.0920      1.00000
     70      -8.8927      1.00000
     71      -8.7832      1.00000
     72      -8.7121      1.00000
     73      -8.6460      1.00000
     74      -8.3291      1.00000
     75      -8.1652      1.00000
     76      -8.0148      1.00000
     77      -7.7963      1.00000
     78      -7.7153      1.00000
     79      -7.6321      1.00000
     80      -7.5597      1.00000
     81      -7.4804      1.00000
     82      -7.2958      1.00000
     83      -7.1908      1.00000
     84      -7.0287      1.00000
     85      -6.9734      1.00000
     86      -6.7921      1.00000
     87      -6.6788      1.00000
     88      -6.6018      1.00000
     89      -6.5542      1.00000
     90      -6.4680      1.00000
     91      -6.1503      1.00000
     92      -6.0598      1.00000
     93      -6.0551      1.00000
     94      -5.6527      1.00000
     95      -5.6182      1.00000
     96      -5.3076      1.00000
     97      -5.2139      1.00000
     98      -4.8732      1.00000
     99      -4.5384      1.00000
    100      -4.4661      1.00000
    101      -4.1741      1.00000
    102      -4.1562      1.00000
    103      -2.6288      1.00000
    104      -1.9156      0.00000
    105      -1.5485      0.00000
    106      -1.3988      0.00000
    107      -1.0806      0.00000
    108      -0.9684      0.00000
    109      -0.5106      0.00000
    110      -0.2439      0.00000
    111       0.0070      0.00000
    112       0.0929      0.00000
    113       0.6004      0.00000
    114       0.6402      0.00000
    115       0.8325      0.00000
    116       0.9603      0.00000
    117       1.2517      0.00000
    118       1.2539      0.00000
    119       1.3493      0.00000
    120       1.4672      0.00000
    121       1.4770      0.00000
    122       1.6719      0.00000
    123       1.7245      0.00000
    124       1.7661      0.00000
    125       1.7762      0.00000
    126       1.9084      0.00000
    127       1.9712      0.00000
    128       2.0479      0.00000
    129       2.2544      0.00000
    130       2.2840      0.00000
    131       2.3156      0.00000
    132       2.4786      0.00000
    133       2.5021      0.00000
    134       2.5146      0.00000
    135       2.6070      0.00000
    136       2.6972      0.00000
    137       2.7870      0.00000
    138       2.8186      0.00000
    139       2.8420      0.00000
    140       2.9210      0.00000
    141       3.0271      0.00000
    142       3.1150      0.00000
    143       3.1583      0.00000
    144       3.3123      0.00000
    145       3.3187      0.00000
    146       3.3275      0.00000
    147       3.3761      0.00000
    148       3.5571      0.00000
    149       3.5865      0.00000
    150       3.6470      0.00000
    151       3.6881      0.00000
    152       3.6902      0.00000
    153       3.8084      0.00000
    154       3.8877      0.00000
    155       4.0174      0.00000
    156       4.1072      0.00000
    157       4.1144      0.00000
    158       4.1837      0.00000
    159       4.2100      0.00000
    160       4.3145      0.00000
    161       4.3873      0.00000
    162       4.4462      0.00000
    163       4.4676      0.00000
    164       4.4985      0.00000
    165       4.5795      0.00000
    166       4.6633      0.00000
    167       4.6777      0.00000
    168       4.6866      0.00000
    169       4.7358      0.00000
    170       4.7720      0.00000
    171       4.7939      0.00000
    172       4.8978      0.00000
    173       4.9026      0.00000
    174       4.9420      0.00000
    175       4.9564      0.00000
    176       5.0360      0.00000
    177       5.1108      0.00000
    178       5.1651      0.00000
    179       5.1768      0.00000
    180       5.1898      0.00000
    181       5.2238      0.00000
    182       5.2363      0.00000
    183       5.2709      0.00000
    184       5.3211      0.00000
    185       5.3654      0.00000
    186       5.3953      0.00000
    187       5.4415      0.00000
    188       5.5330      0.00000
    189       5.5606      0.00000
    190       5.5647      0.00000
    191       5.6271      0.00000
    192       5.6946      0.00000
    193       5.6950      0.00000
    194       5.7053      0.00000
    195       5.7552      0.00000
    196       5.7865      0.00000
    197       5.7865      0.00000
    198       5.8252      0.00000
    199       5.8570      0.00000
    200       5.8969      0.00000
    201       5.9614      0.00000
    202       5.9741      0.00000
    203       6.0045      0.00000
    204       6.0090      0.00000
    205       6.1234      0.00000
    206       6.1709      0.00000
    207       6.1832      0.00000
    208       6.2228      0.00000
    209       6.2346      0.00000
    210       6.2659      0.00000
    211       6.2890      0.00000
    212       6.3132      0.00000
    213       6.3556      0.00000
    214       6.3598      0.00000
    215       6.4187      0.00000
    216       6.4545      0.00000
    217       6.4778      0.00000
    218       6.4847      0.00000
    219       6.4872      0.00000
    220       6.4990      0.00000
    221       6.5036      0.00000
    222       6.5525      0.00000
    223       6.5735      0.00000
    224       6.5778      0.00000
    225       6.7534      0.00000
    226       6.7891      0.00000
    227       6.8412      0.00000
    228       6.8995      0.00000
    229       6.9024      0.00000
    230       6.9309      0.00000
    231       7.0266      0.00000
    232       7.0346      0.00000
    233       7.0522      0.00000
    234       7.1155      0.00000
    235       7.1202      0.00000
    236       7.1822      0.00000
    237       7.1911      0.00000
    238       7.2307      0.00000
    239       7.2742      0.00000
    240       7.2909      0.00000
    241       7.3015      0.00000
    242       7.3248      0.00000
    243       7.3757      0.00000
    244       7.5182      0.00000
    245       7.5413      0.00000
    246       7.5415      0.00000
    247       7.5844      0.00000
    248       7.6278      0.00000
    249       7.7123      0.00000
    250       7.7725      0.00000
    251       7.7796      0.00000
    252       7.8124      0.00000
    253       7.8140      0.00000
    254       7.8232      0.00000
    255       7.8321      0.00000
    256       8.0680      0.00000

 k-point     9 :       0.0000    0.4000    0.0000
  band No.  band energies     occupation 
      1     -64.6526      1.00000
      2     -39.1722      1.00000
      3     -38.6454      1.00000
      4     -38.2217      1.00000
      5     -23.1000      1.00000
      6     -22.8400      1.00000
      7     -22.5552      1.00000
      8     -22.2582      1.00000
      9     -21.5974      1.00000
     10     -21.3980      1.00000
     11     -21.0729      1.00000
     12     -20.6161      1.00000
     13     -20.5082      1.00000
     14     -20.2000      1.00000
     15     -19.7592      1.00000
     16     -19.6434      1.00000
     17     -19.2825      1.00000
     18     -19.2579      1.00000
     19     -18.7672      1.00000
     20     -18.4378      1.00000
     21     -18.1174      1.00000
     22     -17.9752      1.00000
     23     -17.8272      1.00000
     24     -17.5013      1.00000
     25     -17.4057      1.00000
     26     -17.2431      1.00000
     27     -16.8636      1.00000
     28     -16.4406      1.00000
     29     -16.0958      1.00000
     30     -15.7861      1.00000
     31     -15.3544      1.00000
     32     -15.3315      1.00000
     33     -15.1293      1.00000
     34     -15.0389      1.00000
     35     -14.6546      1.00000
     36     -14.3083      1.00000
     37     -14.1069      1.00000
     38     -13.5568      1.00000
     39     -13.4791      1.00000
     40     -13.3107      1.00000
     41     -12.9661      1.00000
     42     -12.7714      1.00000
     43     -12.7395      1.00000
     44     -12.6641      1.00000
     45     -12.3081      1.00000
     46     -11.8723      1.00000
     47     -11.6058      1.00000
     48     -11.5601      1.00000
     49     -11.3570      1.00000
     50     -11.3076      1.00000
     51     -10.9136      1.00000
     52     -10.7175      1.00000
     53     -10.5309      1.00000
     54     -10.2851      1.00000
     55     -10.2263      1.00000
     56     -10.1322      1.00000
     57     -10.0282      1.00000
     58      -9.9325      1.00000
     59      -9.8238      1.00000
     60      -9.7416      1.00000
     61      -9.6195      1.00000
     62      -9.5663      1.00000
     63      -9.5004      1.00000
     64      -9.4627      1.00000
     65      -9.2682      1.00000
     66      -9.1802      1.00000
     67      -9.0948      1.00000
     68      -8.8631      1.00000
     69      -8.7980      1.00000
     70      -8.7139      1.00000
     71      -8.6245      1.00000
     72      -8.5394      1.00000
     73      -8.4666      1.00000
     74      -8.4052      1.00000
     75      -8.3435      1.00000
     76      -8.2407      1.00000
     77      -8.1623      1.00000
     78      -8.0252      1.00000
     79      -7.7646      1.00000
     80      -7.6694      1.00000
     81      -7.5047      1.00000
     82      -7.3306      1.00000
     83      -7.0569      1.00000
     84      -6.9846      1.00000
     85      -6.8753      1.00000
     86      -6.8428      1.00000
     87      -6.7907      1.00000
     88      -6.6566      1.00000
     89      -6.3676      1.00000
     90      -6.2205      1.00000
     91      -6.0099      1.00000
     92      -5.9098      1.00000
     93      -5.7019      1.00000
     94      -5.5504      1.00000
     95      -5.4810      1.00000
     96      -5.4277      1.00000
     97      -5.2695      1.00000
     98      -5.0598      1.00000
     99      -5.0297      1.00000
    100      -4.9702      1.00000
    101      -4.1554      1.00000
    102      -3.6877      1.00000
    103      -3.0213      1.00000
    104      -1.9133      0.00000
    105      -1.3103      0.00000
    106      -1.1794      0.00000
    107      -0.7869      0.00000
    108      -0.7012      0.00000
    109      -0.6097      0.00000
    110      -0.4610      0.00000
    111      -0.1427      0.00000
    112       0.1211      0.00000
    113       0.2539      0.00000
    114       0.3947      0.00000
    115       0.8062      0.00000
    116       0.8502      0.00000
    117       1.0405      0.00000
    118       1.1974      0.00000
    119       1.4629      0.00000
    120       1.5051      0.00000
    121       1.5888      0.00000
    122       1.6469      0.00000
    123       1.6887      0.00000
    124       1.7793      0.00000
    125       1.8351      0.00000
    126       1.8948      0.00000
    127       2.0051      0.00000
    128       2.1471      0.00000
    129       2.1990      0.00000
    130       2.2472      0.00000
    131       2.3566      0.00000
    132       2.5633      0.00000
    133       2.6663      0.00000
    134       2.6802      0.00000
    135       2.6906      0.00000
    136       2.7312      0.00000
    137       2.8704      0.00000
    138       3.0040      0.00000
    139       3.0607      0.00000
    140       3.0759      0.00000
    141       3.1131      0.00000
    142       3.1828      0.00000
    143       3.2815      0.00000
    144       3.2868      0.00000
    145       3.3415      0.00000
    146       3.4910      0.00000
    147       3.5079      0.00000
    148       3.5856      0.00000
    149       3.6099      0.00000
    150       3.7251      0.00000
    151       3.7373      0.00000
    152       3.7432      0.00000
    153       3.7743      0.00000
    154       3.8505      0.00000
    155       3.8997      0.00000
    156       3.9308      0.00000
    157       4.0267      0.00000
    158       4.0399      0.00000
    159       4.2033      0.00000
    160       4.2610      0.00000
    161       4.2664      0.00000
    162       4.2892      0.00000
    163       4.3088      0.00000
    164       4.3816      0.00000
    165       4.4245      0.00000
    166       4.5184      0.00000
    167       4.5860      0.00000
    168       4.6456      0.00000
    169       4.6472      0.00000
    170       4.6924      0.00000
    171       4.8125      0.00000
    172       4.8213      0.00000
    173       4.8827      0.00000
    174       5.0101      0.00000
    175       5.0357      0.00000
    176       5.0527      0.00000
    177       5.0691      0.00000
    178       5.1118      0.00000
    179       5.1405      0.00000
    180       5.1555      0.00000
    181       5.1753      0.00000
    182       5.1926      0.00000
    183       5.3325      0.00000
    184       5.3459      0.00000
    185       5.3833      0.00000
    186       5.4803      0.00000
    187       5.5471      0.00000
    188       5.5691      0.00000
    189       5.5916      0.00000
    190       5.6123      0.00000
    191       5.6220      0.00000
    192       5.6595      0.00000
    193       5.6774      0.00000
    194       5.6826      0.00000
    195       5.7093      0.00000
    196       5.7355      0.00000
    197       5.7617      0.00000
    198       5.8029      0.00000
    199       5.8435      0.00000
    200       5.8535      0.00000
    201       5.8555      0.00000
    202       5.9069      0.00000
    203       5.9765      0.00000
    204       5.9898      0.00000
    205       6.0857      0.00000
    206       6.1101      0.00000
    207       6.1177      0.00000
    208       6.1326      0.00000
    209       6.1438      0.00000
    210       6.2038      0.00000
    211       6.2426      0.00000
    212       6.3301      0.00000
    213       6.3592      0.00000
    214       6.3739      0.00000
    215       6.4271      0.00000
    216       6.4923      0.00000
    217       6.5366      0.00000
    218       6.6081      0.00000
    219       6.6504      0.00000
    220       6.6994      0.00000
    221       6.7164      0.00000
    222       6.7330      0.00000
    223       6.7743      0.00000
    224       6.8280      0.00000
    225       6.8426      0.00000
    226       6.8666      0.00000
    227       6.8897      0.00000
    228       6.9186      0.00000
    229       6.9505      0.00000
    230       6.9685      0.00000
    231       7.1059      0.00000
    232       7.1108      0.00000
    233       7.1418      0.00000
    234       7.1873      0.00000
    235       7.1993      0.00000
    236       7.2251      0.00000
    237       7.2322      0.00000
    238       7.3468      0.00000
    239       7.3543      0.00000
    240       7.3725      0.00000
    241       7.4317      0.00000
    242       7.4343      0.00000
    243       7.4416      0.00000
    244       7.4442      0.00000
    245       7.5029      0.00000
    246       7.5049      0.00000
    247       7.5801      0.00000
    248       7.6253      0.00000
    249       7.6670      0.00000
    250       7.6957      0.00000
    251       7.7072      0.00000
    252       7.7902      0.00000
    253       7.8159      0.00000
    254       7.8655      0.00000
    255       7.8669      0.00000
    256       7.8983      0.00000

 k-point    10 :       0.2000    0.4000    0.0000
  band No.  band energies     occupation 
      1     -64.6526      1.00000
      2     -39.1722      1.00000
      3     -38.6454      1.00000
      4     -38.2217      1.00000
      5     -23.0939      1.00000
      6     -22.8431      1.00000
      7     -22.5752      1.00000
      8     -22.2429      1.00000
      9     -21.5991      1.00000
     10     -21.3873      1.00000
     11     -21.0811      1.00000
     12     -20.5763      1.00000
     13     -20.4554      1.00000
     14     -20.1589      1.00000
     15     -19.9154      1.00000
     16     -19.8398      1.00000
     17     -19.4187      1.00000
     18     -18.8129      1.00000
     19     -18.7112      1.00000
     20     -18.3913      1.00000
     21     -18.2001      1.00000
     22     -18.0245      1.00000
     23     -17.8801      1.00000
     24     -17.4356      1.00000
     25     -17.3381      1.00000
     26     -17.2257      1.00000
     27     -17.0222      1.00000
     28     -16.4774      1.00000
     29     -16.0314      1.00000
     30     -15.9753      1.00000
     31     -15.6560      1.00000
     32     -15.4697      1.00000
     33     -14.7687      1.00000
     34     -14.6228      1.00000
     35     -14.4821      1.00000
     36     -14.1139      1.00000
     37     -13.9955      1.00000
     38     -13.8698      1.00000
     39     -13.7481      1.00000
     40     -13.5003      1.00000
     41     -13.1875      1.00000
     42     -12.8554      1.00000
     43     -12.5032      1.00000
     44     -12.2427      1.00000
     45     -12.1604      1.00000
     46     -11.9977      1.00000
     47     -11.8590      1.00000
     48     -11.8137      1.00000
     49     -11.3555      1.00000
     50     -11.2338      1.00000
     51     -10.8954      1.00000
     52     -10.7977      1.00000
     53     -10.4357      1.00000
     54     -10.1948      1.00000
     55     -10.1333      1.00000
     56     -10.0895      1.00000
     57     -10.0377      1.00000
     58      -9.9500      1.00000
     59      -9.8485      1.00000
     60      -9.8126      1.00000
     61      -9.7137      1.00000
     62      -9.5461      1.00000
     63      -9.4544      1.00000
     64      -9.3155      1.00000
     65      -9.2486      1.00000
     66      -9.1589      1.00000
     67      -8.9682      1.00000
     68      -8.9085      1.00000
     69      -8.8761      1.00000
     70      -8.7498      1.00000
     71      -8.6951      1.00000
     72      -8.5513      1.00000
     73      -8.4727      1.00000
     74      -8.4662      1.00000
     75      -8.3262      1.00000
     76      -8.0908      1.00000
     77      -8.0466      1.00000
     78      -7.9579      1.00000
     79      -7.8568      1.00000
     80      -7.6940      1.00000
     81      -7.5466      1.00000
     82      -7.4436      1.00000
     83      -7.3002      1.00000
     84      -7.2414      1.00000
     85      -6.8680      1.00000
     86      -6.7361      1.00000
     87      -6.6200      1.00000
     88      -6.4233      1.00000
     89      -6.2779      1.00000
     90      -6.1097      1.00000
     91      -6.0364      1.00000
     92      -5.9303      1.00000
     93      -5.7119      1.00000
     94      -5.6132      1.00000
     95      -5.5505      1.00000
     96      -5.3946      1.00000
     97      -5.2242      1.00000
     98      -5.0556      1.00000
     99      -5.0279      1.00000
    100      -4.9709      1.00000
    101      -4.5015      1.00000
    102      -3.5169      1.00000
    103      -2.9420      1.00000
    104      -2.1056      0.00000
    105      -1.3572      0.00000
    106      -0.9508      0.00000
    107      -0.8393      0.00000
    108      -0.6024      0.00000
    109      -0.5410      0.00000
    110      -0.2941      0.00000
    111      -0.0375      0.00000
    112       0.1217      0.00000
    113       0.1299      0.00000
    114       0.1921      0.00000
    115       0.5783      0.00000
    116       0.8196      0.00000
    117       0.8910      0.00000
    118       1.0881      0.00000
    119       1.4103      0.00000
    120       1.4569      0.00000
    121       1.6313      0.00000
    122       1.6448      0.00000
    123       1.7749      0.00000
    124       1.8603      0.00000
    125       1.9695      0.00000
    126       1.9990      0.00000
    127       2.0527      0.00000
    128       2.0615      0.00000
    129       2.2524      0.00000
    130       2.3175      0.00000
    131       2.4697      0.00000
    132       2.5313      0.00000
    133       2.6049      0.00000
    134       2.6499      0.00000
    135       2.7743      0.00000
    136       2.8912      0.00000
    137       2.9682      0.00000
    138       3.0869      0.00000
    139       3.1062      0.00000
    140       3.2023      0.00000
    141       3.2174      0.00000
    142       3.2307      0.00000
    143       3.2743      0.00000
    144       3.3024      0.00000
    145       3.3829      0.00000
    146       3.4022      0.00000
    147       3.4249      0.00000
    148       3.4756      0.00000
    149       3.4993      0.00000
    150       3.5717      0.00000
    151       3.6315      0.00000
    152       3.6428      0.00000
    153       3.6899      0.00000
    154       3.8446      0.00000
    155       3.9911      0.00000
    156       4.0021      0.00000
    157       4.0144      0.00000
    158       4.0379      0.00000
    159       4.2212      0.00000
    160       4.2421      0.00000
    161       4.3253      0.00000
    162       4.3555      0.00000
    163       4.3978      0.00000
    164       4.4392      0.00000
    165       4.4417      0.00000
    166       4.4616      0.00000
    167       4.5205      0.00000
    168       4.5862      0.00000
    169       4.6742      0.00000
    170       4.6952      0.00000
    171       4.7123      0.00000
    172       4.7463      0.00000
    173       4.8216      0.00000
    174       4.9141      0.00000
    175       4.9670      0.00000
    176       5.0048      0.00000
    177       5.0670      0.00000
    178       5.0872      0.00000
    179       5.1496      0.00000
    180       5.2167      0.00000
    181       5.2227      0.00000
    182       5.2398      0.00000
    183       5.2755      0.00000
    184       5.3167      0.00000
    185       5.3427      0.00000
    186       5.4139      0.00000
    187       5.5066      0.00000
    188       5.5158      0.00000
    189       5.5224      0.00000
    190       5.5527      0.00000
    191       5.5948      0.00000
    192       5.6253      0.00000
    193       5.6989      0.00000
    194       5.7115      0.00000
    195       5.7425      0.00000
    196       5.7711      0.00000
    197       5.8290      0.00000
    198       5.8513      0.00000
    199       5.8910      0.00000
    200       5.9235      0.00000
    201       5.9716      0.00000
    202       6.0054      0.00000
    203       6.0371      0.00000
    204       6.0775      0.00000
    205       6.0868      0.00000
    206       6.1225      0.00000
    207       6.1365      0.00000
    208       6.2007      0.00000
    209       6.2379      0.00000
    210       6.2870      0.00000
    211       6.3358      0.00000
    212       6.3427      0.00000
    213       6.3815      0.00000
    214       6.4021      0.00000
    215       6.4636      0.00000
    216       6.5177      0.00000
    217       6.5262      0.00000
    218       6.5486      0.00000
    219       6.5696      0.00000
    220       6.6003      0.00000
    221       6.6160      0.00000
    222       6.6602      0.00000
    223       6.6750      0.00000
    224       6.7649      0.00000
    225       6.7880      0.00000
    226       6.8028      0.00000
    227       6.8135      0.00000
    228       6.8707      0.00000
    229       6.8887      0.00000
    230       6.9786      0.00000
    231       7.0066      0.00000
    232       7.0305      0.00000
    233       7.1191      0.00000
    234       7.1558      0.00000
    235       7.2237      0.00000
    236       7.2389      0.00000
    237       7.2993      0.00000
    238       7.3178      0.00000
    239       7.3689      0.00000
    240       7.3807      0.00000
    241       7.4764      0.00000
    242       7.5303      0.00000
    243       7.5729      0.00000
    244       7.5915      0.00000
    245       7.5967      0.00000
    246       7.5995      0.00000
    247       7.6128      0.00000
    248       7.6285      0.00000
    249       7.6415      0.00000
    250       7.6662      0.00000
    251       7.7348      0.00000
    252       7.8472      0.00000
    253       7.8599      0.00000
    254       7.8639      0.00000
    255       7.9359      0.00000
    256       7.9618      0.00000

 k-point    11 :       0.4000    0.4000    0.0000
  band No.  band energies     occupation 
      1     -64.6526      1.00000
      2     -39.1722      1.00000
      3     -38.6454      1.00000
      4     -38.2217      1.00000
      5     -23.0962      1.00000
      6     -22.8267      1.00000
      7     -22.6076      1.00000
      8     -22.2092      1.00000
      9     -21.6272      1.00000
     10     -21.4274      1.00000
     11     -21.0057      1.00000
     12     -20.5606      1.00000
     13     -20.3539      1.00000
     14     -20.1920      1.00000
     15     -20.0751      1.00000
     16     -19.9315      1.00000
     17     -19.2830      1.00000
     18     -18.8894      1.00000
     19     -18.5377      1.00000
     20     -18.3780      1.00000
     21     -18.2246      1.00000
     22     -18.0140      1.00000
     23     -17.8677      1.00000
     24     -17.4995      1.00000
     25     -17.3167      1.00000
     26     -17.2242      1.00000
     27     -17.0527      1.00000
     28     -16.7237      1.00000
     29     -16.0652      1.00000
     30     -15.8439      1.00000
     31     -15.6546      1.00000
     32     -15.2570      1.00000
     33     -14.8059      1.00000
     34     -14.5204      1.00000
     35     -14.2533      1.00000
     36     -14.2404      1.00000
     37     -14.0390      1.00000
     38     -13.9859      1.00000
     39     -13.8100      1.00000
     40     -13.5355      1.00000
     41     -13.2193      1.00000
     42     -12.8467      1.00000
     43     -12.7209      1.00000
     44     -12.3256      1.00000
     45     -12.1798      1.00000
     46     -11.8485      1.00000
     47     -11.8417      1.00000
     48     -11.5129      1.00000
     49     -11.4434      1.00000
     50     -11.2829      1.00000
     51     -10.9744      1.00000
     52     -10.4774      1.00000
     53     -10.4565      1.00000
     54     -10.1310      1.00000
     55     -10.1062      1.00000
     56     -10.1051      1.00000
     57     -10.0038      1.00000
     58      -9.9938      1.00000
     59      -9.9402      1.00000
     60      -9.8741      1.00000
     61      -9.7120      1.00000
     62      -9.7032      1.00000
     63      -9.5753      1.00000
     64      -9.3254      1.00000
     65      -9.2354      1.00000
     66      -9.2130      1.00000
     67      -8.9430      1.00000
     68      -8.8934      1.00000
     69      -8.8713      1.00000
     70      -8.7886      1.00000
     71      -8.6666      1.00000
     72      -8.4729      1.00000
     73      -8.4016      1.00000
     74      -8.3280      1.00000
     75      -8.1837      1.00000
     76      -8.1782      1.00000
     77      -8.0898      1.00000
     78      -7.9492      1.00000
     79      -7.8446      1.00000
     80      -7.7200      1.00000
     81      -7.6200      1.00000
     82      -7.3949      1.00000
     83      -7.3866      1.00000
     84      -7.0938      1.00000
     85      -6.9382      1.00000
     86      -6.9220      1.00000
     87      -6.5477      1.00000
     88      -6.4787      1.00000
     89      -6.3229      1.00000
     90      -6.2253      1.00000
     91      -6.0447      1.00000
     92      -5.8261      1.00000
     93      -5.6750      1.00000
     94      -5.6427      1.00000
     95      -5.4124      1.00000
     96      -5.2593      1.00000
     97      -5.1957      1.00000
     98      -5.1052      1.00000
     99      -5.0228      1.00000
    100      -4.9990      1.00000
    101      -4.5830      1.00000
    102      -3.7512      1.00000
    103      -2.4079      0.86780
    104      -2.3563      0.36639
    105      -1.3612      0.00000
    106      -1.1024      0.00000
    107      -0.7800      0.00000
    108      -0.7568      0.00000
    109      -0.3911      0.00000
    110      -0.2876      0.00000
    111       0.0390      0.00000
    112       0.0761      0.00000
    113       0.1297      0.00000
    114       0.2378      0.00000
    115       0.6432      0.00000
    116       0.7089      0.00000
    117       0.9530      0.00000
    118       1.0443      0.00000
    119       1.4041      0.00000
    120       1.5267      0.00000
    121       1.5724      0.00000
    122       1.6969      0.00000
    123       1.7328      0.00000
    124       1.7765      0.00000
    125       1.9242      0.00000
    126       2.0430      0.00000
    127       2.0529      0.00000
    128       2.0759      0.00000
    129       2.2662      0.00000
    130       2.3255      0.00000
    131       2.4520      0.00000
    132       2.5533      0.00000
    133       2.5978      0.00000
    134       2.7149      0.00000
    135       2.7380      0.00000
    136       2.8825      0.00000
    137       2.9684      0.00000
    138       3.1079      0.00000
    139       3.1223      0.00000
    140       3.1996      0.00000
    141       3.2140      0.00000
    142       3.2349      0.00000
    143       3.2381      0.00000
    144       3.3115      0.00000
    145       3.3811      0.00000
    146       3.4047      0.00000
    147       3.4311      0.00000
    148       3.4513      0.00000
    149       3.4925      0.00000
    150       3.5503      0.00000
    151       3.6328      0.00000
    152       3.6469      0.00000
    153       3.6819      0.00000
    154       3.8595      0.00000
    155       3.9892      0.00000
    156       4.0221      0.00000
    157       4.0237      0.00000
    158       4.0308      0.00000
    159       4.2191      0.00000
    160       4.2370      0.00000
    161       4.3471      0.00000
    162       4.3915      0.00000
    163       4.4223      0.00000
    164       4.4358      0.00000
    165       4.4577      0.00000
    166       4.5178      0.00000
    167       4.5778      0.00000
    168       4.6268      0.00000
    169       4.6833      0.00000
    170       4.6901      0.00000
    171       4.6916      0.00000
    172       4.7564      0.00000
    173       4.8193      0.00000
    174       4.9372      0.00000
    175       4.9393      0.00000
    176       5.0448      0.00000
    177       5.0610      0.00000
    178       5.0847      0.00000
    179       5.1276      0.00000
    180       5.2156      0.00000
    181       5.2217      0.00000
    182       5.2362      0.00000
    183       5.2440      0.00000
    184       5.2975      0.00000
    185       5.3198      0.00000
    186       5.3732      0.00000
    187       5.4580      0.00000
    188       5.5039      0.00000
    189       5.5267      0.00000
    190       5.5519      0.00000
    191       5.5711      0.00000
    192       5.6432      0.00000
    193       5.6599      0.00000
    194       5.6947      0.00000
    195       5.7230      0.00000
    196       5.7640      0.00000
    197       5.8052      0.00000
    198       5.8588      0.00000
    199       5.8918      0.00000
    200       5.9310      0.00000
    201       5.9652      0.00000
    202       5.9892      0.00000
    203       6.0287      0.00000
    204       6.0458      0.00000
    205       6.0853      0.00000
    206       6.0909      0.00000
    207       6.1191      0.00000
    208       6.1448      0.00000
    209       6.2125      0.00000
    210       6.2434      0.00000
    211       6.2719      0.00000
    212       6.3343      0.00000
    213       6.3772      0.00000
    214       6.4271      0.00000
    215       6.4677      0.00000
    216       6.5022      0.00000
    217       6.5530      0.00000
    218       6.5553      0.00000
    219       6.5589      0.00000
    220       6.5872      0.00000
    221       6.6007      0.00000
    222       6.6547      0.00000
    223       6.6771      0.00000
    224       6.7935      0.00000
    225       6.8097      0.00000
    226       6.8123      0.00000
    227       6.8974      0.00000
    228       6.9071      0.00000
    229       6.9398      0.00000
    230       6.9621      0.00000
    231       6.9991      0.00000
    232       7.0412      0.00000
    233       7.0742      0.00000
    234       7.1633      0.00000
    235       7.2114      0.00000
    236       7.2337      0.00000
    237       7.3369      0.00000
    238       7.3577      0.00000
    239       7.3579      0.00000
    240       7.3684      0.00000
    241       7.4769      0.00000
    242       7.4852      0.00000
    243       7.5269      0.00000
    244       7.5919      0.00000
    245       7.5976      0.00000
    246       7.6040      0.00000
    247       7.6284      0.00000
    248       7.6339      0.00000
    249       7.6483      0.00000
    250       7.6772      0.00000
    251       7.7356      0.00000
    252       7.7887      0.00000
    253       7.8526      0.00000
    254       7.8606      0.00000
    255       7.8619      0.00000
    256       8.0057      0.00000

 k-point    12 :      -0.4000    0.4000    0.0000
  band No.  band energies     occupation 
      1     -64.6526      1.00000
      2     -39.1722      1.00000
      3     -38.6454      1.00000
      4     -38.2217      1.00000
      5     -23.1033      1.00000
      6     -22.8134      1.00000
      7     -22.6102      1.00000
      8     -22.2006      1.00000
      9     -21.6431      1.00000
     10     -21.4582      1.00000
     11     -20.9310      1.00000
     12     -20.6501      1.00000
     13     -20.3949      1.00000
     14     -20.1734      1.00000
     15     -20.0287      1.00000
     16     -19.8390      1.00000
     17     -19.1437      1.00000
     18     -18.9565      1.00000
     19     -18.8448      1.00000
     20     -18.4232      1.00000
     21     -18.2014      1.00000
     22     -17.8144      1.00000
     23     -17.7477      1.00000
     24     -17.5568      1.00000
     25     -17.4161      1.00000
     26     -17.3058      1.00000
     27     -16.9826      1.00000
     28     -16.7863      1.00000
     29     -16.0692      1.00000
     30     -15.4516      1.00000
     31     -15.4370      1.00000
     32     -15.1630      1.00000
     33     -15.0659      1.00000
     34     -14.9257      1.00000
     35     -14.6000      1.00000
     36     -14.3316      1.00000
     37     -14.1677      1.00000
     38     -13.6858      1.00000
     39     -13.6326      1.00000
     40     -13.1769      1.00000
     41     -13.0373      1.00000
     42     -12.9591      1.00000
     43     -12.8164      1.00000
     44     -12.5750      1.00000
     45     -12.5588      1.00000
     46     -11.7807      1.00000
     47     -11.5754      1.00000
     48     -11.3398      1.00000
     49     -11.2443      1.00000
     50     -11.0706      1.00000
     51     -10.9397      1.00000
     52     -10.8262      1.00000
     53     -10.4741      1.00000
     54     -10.2174      1.00000
     55     -10.1380      1.00000
     56     -10.1103      1.00000
     57     -10.0422      1.00000
     58      -9.9980      1.00000
     59      -9.9099      1.00000
     60      -9.8484      1.00000
     61      -9.7987      1.00000
     62      -9.6209      1.00000
     63      -9.5176      1.00000
     64      -9.3870      1.00000
     65      -9.3337      1.00000
     66      -9.2869      1.00000
     67      -8.9754      1.00000
     68      -8.9106      1.00000
     69      -8.8954      1.00000
     70      -8.6856      1.00000
     71      -8.5843      1.00000
     72      -8.5608      1.00000
     73      -8.4514      1.00000
     74      -8.2997      1.00000
     75      -8.2584      1.00000
     76      -8.1440      1.00000
     77      -8.0155      1.00000
     78      -7.9743      1.00000
     79      -7.7057      1.00000
     80      -7.5911      1.00000
     81      -7.5142      1.00000
     82      -7.4043      1.00000
     83      -7.3737      1.00000
     84      -7.1497      1.00000
     85      -7.0415      1.00000
     86      -6.7391      1.00000
     87      -6.6479      1.00000
     88      -6.5680      1.00000
     89      -6.3929      1.00000
     90      -6.3552      1.00000
     91      -6.2310      1.00000
     92      -5.7790      1.00000
     93      -5.6681      1.00000
     94      -5.5921      1.00000
     95      -5.2481      1.00000
     96      -5.2295      1.00000
     97      -5.2071      1.00000
     98      -5.1366      1.00000
     99      -5.0169      1.00000
    100      -5.0126      1.00000
    101      -4.2644      1.00000
    102      -4.0310      1.00000
    103      -2.4604      0.99537
    104      -1.9807      0.00000
    105      -1.5291      0.00000
    106      -1.3189      0.00000
    107      -0.7824      0.00000
    108      -0.6002      0.00000
    109      -0.5727      0.00000
    110      -0.4321      0.00000
    111      -0.1569      0.00000
    112       0.1191      0.00000
    113       0.2500      0.00000
    114       0.3833      0.00000
    115       0.8436      0.00000
    116       1.0300      0.00000
    117       1.0887      0.00000
    118       1.2058      0.00000
    119       1.3308      0.00000
    120       1.4001      0.00000
    121       1.5800      0.00000
    122       1.5836      0.00000
    123       1.6236      0.00000
    124       1.7481      0.00000
    125       1.8618      0.00000
    126       1.9509      0.00000
    127       2.0713      0.00000
    128       2.0932      0.00000
    129       2.1584      0.00000
    130       2.2935      0.00000
    131       2.3750      0.00000
    132       2.5819      0.00000
    133       2.6585      0.00000
    134       2.6852      0.00000
    135       2.6891      0.00000
    136       2.7366      0.00000
    137       2.9078      0.00000
    138       2.9921      0.00000
    139       3.0520      0.00000
    140       3.0942      0.00000
    141       3.1456      0.00000
    142       3.2332      0.00000
    143       3.2594      0.00000
    144       3.2821      0.00000
    145       3.3439      0.00000
    146       3.4436      0.00000
    147       3.4998      0.00000
    148       3.5681      0.00000
    149       3.5814      0.00000
    150       3.7346      0.00000
    151       3.7462      0.00000
    152       3.7474      0.00000
    153       3.7920      0.00000
    154       3.8700      0.00000
    155       3.8775      0.00000
    156       3.8788      0.00000
    157       4.0130      0.00000
    158       4.0233      0.00000
    159       4.2188      0.00000
    160       4.2632      0.00000
    161       4.2664      0.00000
    162       4.2749      0.00000
    163       4.3866      0.00000
    164       4.4714      0.00000
    165       4.5245      0.00000
    166       4.5281      0.00000
    167       4.6396      0.00000
    168       4.6495      0.00000
    169       4.6977      0.00000
    170       4.7233      0.00000
    171       4.8082      0.00000
    172       4.8545      0.00000
    173       4.8879      0.00000
    174       4.9580      0.00000
    175       5.0318      0.00000
    176       5.0554      0.00000
    177       5.1110      0.00000
    178       5.1114      0.00000
    179       5.1315      0.00000
    180       5.1427      0.00000
    181       5.1682      0.00000
    182       5.1789      0.00000
    183       5.2482      0.00000
    184       5.3094      0.00000
    185       5.3975      0.00000
    186       5.4567      0.00000
    187       5.5431      0.00000
    188       5.5590      0.00000
    189       5.5669      0.00000
    190       5.5839      0.00000
    191       5.6016      0.00000
    192       5.6166      0.00000
    193       5.6673      0.00000
    194       5.6677      0.00000
    195       5.6868      0.00000
    196       5.7016      0.00000
    197       5.7062      0.00000
    198       5.7344      0.00000
    199       5.8312      0.00000
    200       5.8520      0.00000
    201       5.8524      0.00000
    202       5.9198      0.00000
    203       5.9223      0.00000
    204       6.0007      0.00000
    205       6.0355      0.00000
    206       6.0813      0.00000
    207       6.1212      0.00000
    208       6.1215      0.00000
    209       6.1518      0.00000
    210       6.2102      0.00000
    211       6.2672      0.00000
    212       6.2876      0.00000
    213       6.3670      0.00000
    214       6.3778      0.00000
    215       6.3976      0.00000
    216       6.4441      0.00000
    217       6.4652      0.00000
    218       6.4957      0.00000
    219       6.6828      0.00000
    220       6.7191      0.00000
    221       6.7249      0.00000
    222       6.7917      0.00000
    223       6.8303      0.00000
    224       6.8487      0.00000
    225       6.9003      0.00000
    226       6.9086      0.00000
    227       6.9114      0.00000
    228       6.9561      0.00000
    229       6.9925      0.00000
    230       7.0143      0.00000
    231       7.0648      0.00000
    232       7.0800      0.00000
    233       7.1286      0.00000
    234       7.1592      0.00000
    235       7.1938      0.00000
    236       7.2139      0.00000
    237       7.2237      0.00000
    238       7.2256      0.00000
    239       7.3506      0.00000
    240       7.3589      0.00000
    241       7.4342      0.00000
    242       7.4349      0.00000
    243       7.4402      0.00000
    244       7.4514      0.00000
    245       7.4669      0.00000
    246       7.5177      0.00000
    247       7.5569      0.00000
    248       7.6318      0.00000
    249       7.6318      0.00000
    250       7.6716      0.00000
    251       7.6929      0.00000
    252       7.7393      0.00000
    253       7.7922      0.00000
    254       7.8456      0.00000
    255       7.8491      0.00000
    256       7.8572      0.00000

 k-point    13 :      -0.2000    0.4000    0.0000
  band No.  band energies     occupation 
      1     -64.6526      1.00000
      2     -39.1722      1.00000
      3     -38.6454      1.00000
      4     -38.2217      1.00000
      5     -23.1058      1.00000
      6     -22.8217      1.00000
      7     -22.5807      1.00000
      8     -22.2280      1.00000
      9     -21.6214      1.00000
     10     -21.4463      1.00000
     11     -20.9860      1.00000
     12     -20.6956      1.00000
     13     -20.4151      1.00000
     14     -20.1920      1.00000
     15     -19.8421      1.00000
     16     -19.7006      1.00000
     17     -19.3552      1.00000
     18     -18.9501      1.00000
     19     -18.8310      1.00000
     20     -18.4694      1.00000
     21     -18.2584      1.00000
     22     -17.9494      1.00000
     23     -17.7584      1.00000
     24     -17.5947      1.00000
     25     -17.3950      1.00000
     26     -17.0947      1.00000
     27     -16.9129      1.00000
     28     -16.6148      1.00000
     29     -15.9710      1.00000
     30     -15.6539      1.00000
     31     -15.4891      1.00000
     32     -15.3979      1.00000
     33     -14.9590      1.00000
     34     -14.8156      1.00000
     35     -14.6404      1.00000
     36     -14.4397      1.00000
     37     -14.3016      1.00000
     38     -13.7172      1.00000
     39     -13.4474      1.00000
     40     -13.2137      1.00000
     41     -13.0631      1.00000
     42     -12.9150      1.00000
     43     -12.8179      1.00000
     44     -12.4405      1.00000
     45     -12.0237      1.00000
     46     -11.9917      1.00000
     47     -11.7914      1.00000
     48     -11.5364      1.00000
     49     -11.2596      1.00000
     50     -11.2156      1.00000
     51     -10.6852      1.00000
     52     -10.6096      1.00000
     53     -10.5628      1.00000
     54     -10.4314      1.00000
     55     -10.2645      1.00000
     56     -10.2552      1.00000
     57     -10.0122      1.00000
     58      -9.8982      1.00000
     59      -9.8498      1.00000
     60      -9.7749      1.00000
     61      -9.7290      1.00000
     62      -9.5718      1.00000
     63      -9.4322      1.00000
     64      -9.3954      1.00000
     65      -9.2769      1.00000
     66      -9.1865      1.00000
     67      -9.1110      1.00000
     68      -9.0068      1.00000
     69      -8.9223      1.00000
     70      -8.7430      1.00000
     71      -8.6612      1.00000
     72      -8.5938      1.00000
     73      -8.4757      1.00000
     74      -8.3256      1.00000
     75      -8.2759      1.00000
     76      -8.0882      1.00000
     77      -7.9775      1.00000
     78      -7.8872      1.00000
     79      -7.8322      1.00000
     80      -7.6025      1.00000
     81      -7.4369      1.00000
     82      -7.3564      1.00000
     83      -7.2565      1.00000
     84      -7.1913      1.00000
     85      -7.0202      1.00000
     86      -6.7524      1.00000
     87      -6.6927      1.00000
     88      -6.4437      1.00000
     89      -6.3146      1.00000
     90      -6.2955      1.00000
     91      -6.2414      1.00000
     92      -6.0380      1.00000
     93      -5.7690      1.00000
     94      -5.6125      1.00000
     95      -5.3467      1.00000
     96      -5.3117      1.00000
     97      -5.2124      1.00000
     98      -5.1124      1.00000
     99      -5.0219      1.00000
    100      -4.5658      1.00000
    101      -4.4620      1.00000
    102      -3.8389      1.00000
    103      -2.6596      1.00000
    104      -2.0470      0.00000
    105      -1.4138      0.00000
    106      -1.1148      0.00000
    107      -0.9632      0.00000
    108      -0.7247      0.00000
    109      -0.5756      0.00000
    110      -0.5527      0.00000
    111       0.1136      0.00000
    112       0.1280      0.00000
    113       0.2963      0.00000
    114       0.4659      0.00000
    115       0.8503      0.00000
    116       0.9269      0.00000
    117       0.9780      0.00000
    118       1.1909      0.00000
    119       1.2632      0.00000
    120       1.3966      0.00000
    121       1.5788      0.00000
    122       1.6532      0.00000
    123       1.7183      0.00000
    124       1.8373      0.00000
    125       1.8730      0.00000
    126       1.9339      0.00000
    127       2.0158      0.00000
    128       2.1799      0.00000
    129       2.2037      0.00000
    130       2.3583      0.00000
    131       2.3694      0.00000
    132       2.3972      0.00000
    133       2.5684      0.00000
    134       2.7030      0.00000
    135       2.7611      0.00000
    136       2.7696      0.00000
    137       2.7869      0.00000
    138       2.9034      0.00000
    139       3.0339      0.00000
    140       3.1220      0.00000
    141       3.1571      0.00000
    142       3.1815      0.00000
    143       3.1901      0.00000
    144       3.2520      0.00000
    145       3.2873      0.00000
    146       3.4114      0.00000
    147       3.4731      0.00000
    148       3.5769      0.00000
    149       3.6561      0.00000
    150       3.6837      0.00000
    151       3.7250      0.00000
    152       3.7577      0.00000
    153       3.7946      0.00000
    154       3.8845      0.00000
    155       3.9513      0.00000
    156       3.9606      0.00000
    157       3.9898      0.00000
    158       4.0566      0.00000
    159       4.2138      0.00000
    160       4.2231      0.00000
    161       4.2601      0.00000
    162       4.2941      0.00000
    163       4.3667      0.00000
    164       4.4156      0.00000
    165       4.4740      0.00000
    166       4.5342      0.00000
    167       4.5912      0.00000
    168       4.6690      0.00000
    169       4.7134      0.00000
    170       4.8221      0.00000
    171       4.8613      0.00000
    172       4.9151      0.00000
    173       4.9793      0.00000
    174       4.9938      0.00000
    175       5.0086      0.00000
    176       5.0161      0.00000
    177       5.0791      0.00000
    178       5.1118      0.00000
    179       5.1199      0.00000
    180       5.2029      0.00000
    181       5.2338      0.00000
    182       5.2790      0.00000
    183       5.3166      0.00000
    184       5.3290      0.00000
    185       5.3586      0.00000
    186       5.3828      0.00000
    187       5.3984      0.00000
    188       5.4725      0.00000
    189       5.4999      0.00000
    190       5.5224      0.00000
    191       5.5391      0.00000
    192       5.5517      0.00000
    193       5.5601      0.00000
    194       5.6325      0.00000
    195       5.7221      0.00000
    196       5.7542      0.00000
    197       5.8132      0.00000
    198       5.8334      0.00000
    199       5.8672      0.00000
    200       5.9136      0.00000
    201       5.9608      0.00000
    202       5.9995      0.00000
    203       6.0414      0.00000
    204       6.0574      0.00000
    205       6.0882      0.00000
    206       6.1116      0.00000
    207       6.1288      0.00000
    208       6.1372      0.00000
    209       6.1603      0.00000
    210       6.1722      0.00000
    211       6.3102      0.00000
    212       6.3338      0.00000
    213       6.3759      0.00000
    214       6.3975      0.00000
    215       6.4093      0.00000
    216       6.4518      0.00000
    217       6.5612      0.00000
    218       6.5799      0.00000
    219       6.5920      0.00000
    220       6.5971      0.00000
    221       6.6049      0.00000
    222       6.7149      0.00000
    223       6.8036      0.00000
    224       6.8222      0.00000
    225       6.8390      0.00000
    226       6.8571      0.00000
    227       6.8790      0.00000
    228       6.9246      0.00000
    229       6.9483      0.00000
    230       6.9814      0.00000
    231       7.0385      0.00000
    232       7.0918      0.00000
    233       7.1207      0.00000
    234       7.1252      0.00000
    235       7.1375      0.00000
    236       7.2379      0.00000
    237       7.2842      0.00000
    238       7.2848      0.00000
    239       7.3192      0.00000
    240       7.3308      0.00000
    241       7.3537      0.00000
    242       7.3835      0.00000
    243       7.3943      0.00000
    244       7.4033      0.00000
    245       7.4739      0.00000
    246       7.5414      0.00000
    247       7.5847      0.00000
    248       7.5912      0.00000
    249       7.7718      0.00000
    250       7.8209      0.00000
    251       7.8569      0.00000
    252       7.8741      0.00000
    253       7.9026      0.00000
    254       7.9150      0.00000
    255       7.9355      0.00000
    256       7.9463      0.00000


--------------------------------------------------------------------------------------------------------


 soft charge-density along one line, spin component           1
         0         1         2         3         4         5         6         7         8         9
 total charge-density along one line
 
 soft charge-density along one line, spin component           2
         0         1         2         3         4         5         6         7         8         9
 total charge-density along one line
 
 pseudopotential strength for first ion, spin component:           1
 10.220   0.019   0.000  -0.000  -0.000   0.000  -0.000  -0.000
  0.019  -0.002  -0.000   0.000   0.000   0.000  -0.000  -0.000
  0.000  -0.000  -4.337  -0.000  -0.000  -0.019  -0.000  -0.000
 -0.000   0.000  -0.000  -4.316   0.000  -0.000  -0.014   0.000
 -0.000   0.000  -0.000   0.000  -4.337  -0.000   0.000  -0.019
  0.000   0.000  -0.019  -0.000  -0.000  -0.772  -0.000   0.000
 -0.000  -0.000  -0.000  -0.014   0.000  -0.000  -0.772   0.000
 -0.000  -0.000  -0.000   0.000  -0.019   0.000   0.000  -0.772
 pseudopotential strength for first ion, spin component:           2
 10.220   0.019   0.000  -0.000  -0.000   0.000  -0.000  -0.000
  0.019  -0.002  -0.000   0.000   0.000   0.000  -0.000  -0.000
  0.000  -0.000  -4.337  -0.000  -0.000  -0.019  -0.000  -0.000
 -0.000   0.000  -0.000  -4.316   0.000  -0.000  -0.014   0.000
 -0.000   0.000  -0.000   0.000  -4.337  -0.000   0.000  -0.019
  0.000   0.000  -0.019  -0.000  -0.000  -0.772  -0.000   0.000
 -0.000  -0.000  -0.000  -0.014   0.000  -0.000  -0.772   0.000
 -0.000  -0.000  -0.000   0.000  -0.019   0.000   0.000  -0.772
 total augmentation occupancy for first ion, spin component:           1
  2.000   0.000   0.000   0.000   0.000   0.000   0.000   0.000
  0.000   0.000   0.000   0.000   0.000   0.000   0.000   0.000
  0.000   0.000   0.667   0.000   0.000   0.000   0.000   0.000
  0.000   0.000   0.000   0.667   0.000   0.000   0.000   0.000
  0.000   0.000   0.000   0.000   0.667   0.000   0.000   0.000
  0.000   0.000   0.000   0.000   0.000   0.000   0.000   0.000
  0.000   0.000   0.000   0.000   0.000   0.000   0.000   0.000
  0.000   0.000   0.000   0.000   0.000   0.000   0.000   0.000
 total augmentation occupancy for first ion, spin component:           2
  0.500   0.000   0.000   0.000   0.000   0.000   0.000   0.000
  0.000   0.000   0.000   0.000   0.000   0.000   0.000   0.000
  0.000   0.000   0.167   0.000   0.000   0.000   0.000   0.000
  0.000   0.000   0.000   0.167   0.000   0.000   0.000   0.000
  0.000   0.000   0.000   0.000   0.167   0.000   0.000   0.000
  0.000   0.000   0.000   0.000   0.000   0.000   0.000   0.000
  0.000   0.000   0.000   0.000   0.000   0.000   0.000   0.000
  0.000   0.000   0.000   0.000   0.000   0.000   0.000   0.000


------------------------ aborting loop because EDIFF is reached ----------------------------------------


 


 total charge     
 
# of ion       s       p       d       tot
------------------------------------------
    1        0.869   1.805   0.000   2.674
    2        0.868   1.812   0.000   2.680
    3        0.868   1.812   0.000   2.680
    4        0.870   1.814   0.000   2.684
    5        0.866   1.790   0.000   2.655
    6        0.865   1.790   0.000   2.655
    7        0.863   1.788   0.000   2.651
    8        0.862   1.785   0.000   2.648
    9        0.864   1.794   0.000   2.659
   10        0.865   1.803   0.000   2.668
   11        0.864   1.794   0.000   2.659
   12        0.866   1.790   0.000   2.655
   13        0.870   1.814   0.000   2.684
   14        0.860   1.773   0.000   2.632
   15        0.860   1.773   0.000   2.632
   16        0.853   1.743   0.000   2.596
   17        0.849   1.770   0.000   2.619
   18        0.858   1.763   0.000   2.621
   19        0.862   1.785   0.000   2.648
   20        0.863   1.788   0.000   2.651
   21        0.863   1.788   0.000   2.651
   22        0.865   1.790   0.000   2.655
   23        0.853   1.743   0.000   2.597
   24        0.853   1.743   0.000   2.596
   25        0.865   1.790   0.000   2.655
   26        0.866   1.790   0.000   2.655
   27        0.864   1.794   0.000   2.659
   28        0.862   1.786   0.000   2.648
   29        0.858   1.763   0.000   2.621
   30        0.849   1.770   0.000   2.619
   31        0.853   1.743   0.000   2.597
   32        0.860   1.773   0.000   2.632
   33        0.860   1.773   0.000   2.632
   34        0.870   1.814   0.000   2.684
   35        0.868   1.812   0.000   2.680
   36        0.869   1.805   0.000   2.674
   37        0.865   1.803   0.000   2.668
   38        0.864   1.794   0.000   2.659
   39        0.862   1.786   0.000   2.648
   40        0.863   1.788   0.000   2.651
   41        0.865   1.790   0.000   2.655
   42        0.866   1.790   0.000   2.655
   43        0.870   1.814   0.000   2.684
   44        0.868   1.812   0.000   2.680
   45        1.231   2.699   0.000   3.929
   46        1.231   2.699   0.000   3.930
   47        1.231   2.699   0.000   3.929
   48        1.231   2.699   0.000   3.930
   49        2.256   6.230   3.074  11.560
--------------------------------------------------
tot         45.140  95.668   3.074 143.883
 


 magnetization (x)
 
# of ion       s       p       d       tot
------------------------------------------
    1       -0.000  -0.000   0.000  -0.000
    2        0.000   0.001   0.000   0.001
    3        0.000   0.001   0.000   0.001
    4        0.000  -0.001   0.000  -0.000
    5        0.000   0.006   0.000   0.006
    6       -0.001  -0.003   0.000  -0.004
    7       -0.000   0.001   0.000   0.001
    8        0.000   0.003   0.000   0.003
    9       -0.000  -0.000   0.000  -0.000
   10        0.000   0.003   0.000   0.003
   11       -0.000  -0.000   0.000  -0.000
   12        0.000   0.006   0.000   0.006
   13        0.000  -0.000   0.000  -0.000
   14        0.002   0.008   0.000   0.011
   15        0.002   0.008   0.000   0.011
   16        0.002   0.015   0.000   0.016
   17       -0.000  -0.003   0.000  -0.004
   18       -0.000  -0.000   0.000  -0.000
   19        0.000   0.003   0.000   0.003
   20       -0.000   0.001   0.000   0.001
   21       -0.000   0.001   0.000   0.001
   22       -0.001  -0.003   0.000  -0.004
   23        0.002   0.015   0.000   0.016
   24        0.002   0.015   0.000   0.016
   25       -0.001  -0.003   0.000  -0.004
   26        0.000   0.006   0.000   0.006
   27       -0.000  -0.000   0.000  -0.001
   28        0.000   0.003   0.000   0.003
   29       -0.000  -0.000   0.000  -0.000
   30       -0.000  -0.003   0.000  -0.004
   31        0.002   0.015   0.000   0.016
   32        0.002   0.008   0.000   0.011
   33        0.002   0.008   0.000   0.011
   34        0.000  -0.001   0.000  -0.000
   35        0.000   0.001   0.000   0.001
   36       -0.000  -0.000   0.000  -0.000
   37        0.000   0.003   0.000   0.003
   38       -0.000  -0.000   0.000  -0.001
   39        0.000   0.003   0.000   0.003
   40       -0.000   0.001   0.000   0.001
   41       -0.001  -0.003   0.000  -0.004
   42        0.000   0.006   0.000   0.006
   43        0.000  -0.001   0.000  -0.000
   44        0.000   0.001   0.000   0.001
   45       -0.005  -0.030   0.000  -0.036
   46       -0.005  -0.030   0.000  -0.036
   47       -0.005  -0.030   0.000  -0.036
   48       -0.005  -0.030   0.000  -0.036
   49        0.052   0.028   2.430   2.511
--------------------------------------------------
tot          0.046   0.022   2.430   2.499
 
    CHARGE:  cpu time    3.1322: real time    3.1541
    FORLOC:  cpu time    0.0106: real time    0.0116
    FORNL :  cpu time    4.7808: real time    4.7981
    STRESS:  cpu time   71.2318: real time   71.3602
    FORCOR:  cpu time    1.7753: real time    1.7775
    FORHAR:  cpu time    0.2464: real time    0.2554
    OFIELD:  cpu time    0.0004: real time    0.0055

 ---------------------------------------------------------------------------------------------

         DFTD3 V3.0 Rev 1        
 IVDW         = 11
 DF pbe       
 parameters
 VDW_S6       =    1.0000
 VDW_S8       =    0.7220
 VDW_SR       =    1.2170
 rs18     =    1.0000
 alpha6   =   14.0000
 alpha8   =   16.0000
 k1-k3    =   16.0000    1.3333   -4.0000
 VDW_RADIUS   =   50.2022 A
 VDW_CNRADIUS =   21.1671 A
 Edisp (eV)   -1.73483

 E6    (eV) :    -0.9509
 E8    (eV) :    -0.7839
 % E8        : 45.19
    FORVDW:  cpu time    0.1113: real time    0.1948

  FORCE on cell =-STRESS in cart. coord.  units (eV):
  Direction    XX          YY          ZZ          XY          YZ          ZX
  --------------------------------------------------------------------------------------
  Alpha Z    90.11582    90.11582    90.11582
  Ewald   42265.36541 42190.05005-49687.76043   -65.22503    -0.41654     0.72146
  Hartree 41941.92521 41932.55930-41118.42873    -8.14114    -0.36282     0.62832
  E(xc)    -801.40505  -801.73771  -830.06421    -0.28873     0.00014    -0.00024
  Local  -86407.37024-86342.14892 88164.64947    56.54245     0.77605    -1.34399
  n-local  -303.17819  -310.03548  -297.13672    -5.93241    -0.00230     0.00395
  augment    24.02730    26.76513    26.64023     2.35873     0.00111    -0.00192
  Kinetic  3191.12119  3232.98537  3651.68426    36.22534     0.00385    -0.00667
  Fock        0.00000     0.00000     0.00000     0.00000     0.00000     0.00000
  vdW        -0.43807    -0.41228     0.00216     0.02233    -0.00001     0.00002
  -------------------------------------------------------------------------------------
  Total       0.16339    18.14128    -0.29814    15.56156    -0.00053     0.00093
  in kB       0.09990    11.09194    -0.18229     9.51465    -0.00032     0.00057
  external pressure =        3.67 kB  Pullay stress =        0.00 kB


 VOLUME and BASIS-vectors are now :
 -----------------------------------------------------------------------------
  energy-cutoff  :      520.00
  volume of cell :     2620.42
      direct lattice vectors                 reciprocal lattice vectors
    12.300000000  0.000000000  0.000000000     0.081300813  0.046939046  0.000000000
    -6.150000000 10.652112467  0.000000000     0.000000000  0.093878093  0.000000000
     0.000000000  0.000000000 20.000000000     0.000000000  0.000000000  0.050000000

  length of vectors
    12.300000000 12.300000000 20.000000000     0.093878093  0.093878093  0.050000000


 FORCES acting on ions
    electron-ion (+dipol)            ewald-force                    non-local-force                 convergence-correction
 -----------------------------------------------------------------------------------------------
   0.830E+01 -.479E+01 0.378E+02   -.841E+01 0.486E+01 -.379E+02   0.176E+00 -.102E+00 0.833E-01   -.595E-02 0.346E-02 0.154E-02
   0.514E+01 0.769E+01 0.399E+02   -.517E+01 -.803E+01 -.400E+02   -.221E-01 0.368E+00 0.728E-01   0.283E-02 0.109E-01 0.209E-02
   0.406E+01 0.833E+01 0.396E+02   -.433E+01 -.852E+01 -.397E+02   0.338E+00 0.167E+00 0.744E-01   0.459E-02 0.100E-01 0.265E-02
   0.944E+00 0.291E+02 0.306E+02   -.130E+01 -.296E+02 -.307E+02   0.225E+00 0.491E+00 0.143E+00   0.932E-02 0.202E-01 0.174E-02
   -.467E+01 0.180E+02 0.180E+02   0.485E+01 -.184E+02 -.179E+02   -.502E-01 0.376E+00 -.886E-01   -.675E-04 0.105E-01 -.304E-03
   -.167E+02 0.165E+02 0.122E+02   0.169E+02 -.167E+02 -.123E+02   -.368E+00 0.177E+00 0.968E-01   -.536E-02 -.780E-03 -.123E-03
   -.309E+01 0.491E+01 0.110E+02   0.349E+01 -.502E+01 -.111E+02   -.272E+00 0.471E-01 0.656E-01   -.634E-02 0.363E-02 0.313E-03
   -.477E+01 -.174E+01 0.748E+01   0.479E+01 0.186E+01 -.739E+01   -.105E+00 -.117E+00 -.961E-01   0.900E-04 -.143E-02 0.205E-02
   0.615E+01 -.712E+01 0.184E+02   -.611E+01 0.742E+01 -.184E+02   0.440E-02 -.308E+00 0.789E-01   -.995E-03 -.780E-02 0.902E-03
   0.303E+01 -.175E+01 0.245E+02   -.309E+01 0.179E+01 -.245E+02   0.209E-01 -.120E-01 -.429E-01   0.121E-02 -.737E-03 0.391E-03
   0.924E+01 -.176E+01 0.184E+02   -.948E+01 0.158E+01 -.184E+02   0.269E+00 0.150E+00 0.789E-01   0.626E-02 0.469E-02 0.917E-03
   0.179E+02 0.499E+01 0.183E+02   -.184E+02 -.504E+01 -.182E+02   0.354E+00 0.139E+00 -.937E-01   0.110E-01 0.551E-02 0.112E-02
   0.248E+02 0.154E+02 0.310E+02   -.250E+02 -.159E+02 -.312E+02   0.313E+00 0.441E+00 0.147E+00   0.108E-01 0.196E-01 0.223E-02
   0.278E+02 0.556E+02 0.210E+02   -.284E+02 -.590E+02 -.217E+02   0.337E+00 0.351E+01 0.727E+00   0.192E-01 0.597E-02 0.104E-02
   0.342E+02 0.520E+02 0.207E+02   -.368E+02 -.541E+02 -.214E+02   0.288E+01 0.204E+01 0.724E+00   -.762E-02 0.215E-01 0.970E-03
   -.553E+02 0.304E+02 -.237E+01   0.589E+02 -.319E+02 0.197E+01   -.351E+01 0.146E+01 0.402E+00   -.180E-01 0.523E-02 0.251E-02
   -.253E+02 0.146E+02 -.114E+02   0.253E+02 -.146E+02 0.115E+02   0.474E-01 -.271E-01 -.115E+00   -.524E-02 0.292E-02 0.268E-02
   -.432E+01 0.250E+01 0.177E+01   0.415E+01 -.239E+01 -.185E+01   0.173E+00 -.999E-01 0.811E-01   -.565E-03 0.281E-03 0.276E-02
   -.878E+00 0.501E+01 0.748E+01   0.786E+00 -.508E+01 -.739E+01   0.488E-01 0.149E+00 -.961E-01   0.122E-02 0.539E-03 0.203E-02
   -.580E+01 0.222E+00 0.110E+02   0.609E+01 -.515E+00 -.111E+02   -.177E+00 0.212E+00 0.656E-01   -.631E-02 0.367E-02 0.275E-03
   0.584E+01 -.190E+00 0.112E+02   -.613E+01 0.483E+00 -.113E+02   0.181E+00 -.216E+00 0.637E-01   0.676E-02 -.640E-02 -.536E-03
   0.226E+02 -.625E+01 0.126E+02   -.229E+02 0.638E+01 -.127E+02   0.342E+00 -.228E+00 0.971E-01   0.401E-02 -.913E-02 -.119E-03
   0.541E+02 -.327E+02 -.174E+01   -.572E+02 0.351E+02 0.134E+01   0.302E+01 -.231E+01 0.408E+00   0.126E-01 -.165E-01 -.313E-03
   -.540E+02 0.327E+02 -.237E+01   0.571E+02 -.351E+02 0.197E+01   -.302E+01 0.231E+01 0.402E+00   -.135E-01 0.129E-01 0.244E-02
   -.226E+02 0.620E+01 0.122E+02   0.229E+02 -.632E+01 -.123E+02   -.337E+00 0.230E+00 0.968E-01   -.202E-02 0.495E-02 -.193E-03
   -.179E+02 -.496E+01 0.180E+02   0.184E+02 0.500E+01 -.179E+02   -.351E+00 -.144E+00 -.885E-01   -.914E-02 -.514E-02 -.412E-03
   -.919E+01 0.178E+01 0.179E+02   0.943E+01 -.160E+01 -.179E+02   -.270E+00 -.146E+00 0.717E-01   -.523E-02 -.516E-02 0.726E-03
   0.886E+00 -.503E+01 0.793E+01   -.796E+00 0.510E+01 -.784E+01   -.538E-01 -.150E+00 -.843E-01   0.440E-03 -.217E-03 -.369E-03
   0.434E+01 -.251E+01 0.229E+01   -.416E+01 0.240E+01 -.237E+01   -.177E+00 0.102E+00 0.806E-01   -.468E-03 0.319E-03 -.970E-03
   0.254E+02 -.146E+02 -.109E+02   -.253E+02 0.146E+02 0.110E+02   -.505E-01 0.289E-01 -.123E+00   0.644E-02 -.366E-02 -.202E-02
   0.554E+02 -.305E+02 -.174E+01   -.590E+02 0.320E+02 0.134E+01   0.351E+01 -.146E+01 0.408E+00   0.205E-01 -.265E-02 -.327E-03
   -.343E+02 -.519E+02 0.210E+02   0.369E+02 0.540E+02 -.217E+02   -.287E+01 -.205E+01 0.727E+00   0.435E-02 -.196E-01 0.960E-03
   -.279E+02 -.556E+02 0.207E+02   0.284E+02 0.589E+02 -.214E+02   -.330E+00 -.351E+01 0.724E+00   -.225E-01 -.406E-02 0.883E-03
   -.247E+02 -.154E+02 0.306E+02   0.250E+02 0.159E+02 -.307E+02   -.313E+00 -.441E+00 0.143E+00   -.129E-01 -.181E-01 0.167E-02
   -.518E+01 -.768E+01 0.396E+02   0.521E+01 0.801E+01 -.397E+02   0.239E-01 -.376E+00 0.744E-01   -.638E-02 -.887E-02 0.262E-02
   -.834E+01 0.481E+01 0.372E+02   0.846E+01 -.488E+01 -.373E+02   -.184E+00 0.106E+00 0.820E-01   0.260E-02 -.146E-02 0.213E-02
   -.298E+01 0.172E+01 0.236E+02   0.304E+01 -.175E+01 -.235E+02   -.303E-01 0.175E-01 -.533E-01   0.140E-02 -.718E-03 0.838E-03
   -.614E+01 0.707E+01 0.179E+02   0.610E+01 -.737E+01 -.179E+02   -.862E-02 0.306E+00 0.717E-01   0.191E-02 0.719E-02 0.802E-03
   0.480E+01 0.175E+01 0.793E+01   -.482E+01 -.186E+01 -.784E+01   0.103E+00 0.121E+00 -.843E-01   0.440E-03 -.156E-03 -.332E-03
   0.309E+01 -.496E+01 0.112E+02   -.348E+01 0.507E+01 -.113E+02   0.277E+00 -.484E-01 0.638E-01   0.889E-02 -.264E-02 -.527E-03
   0.167E+02 -.165E+02 0.126E+02   -.170E+02 0.166E+02 -.127E+02   0.368E+00 -.182E+00 0.971E-01   0.992E-02 0.115E-02 -.171E-03
   0.464E+01 -.180E+02 0.183E+02   -.482E+01 0.184E+02 -.182E+02   0.562E-01 -.376E+00 -.938E-01   0.639E-03 -.123E-01 0.107E-02
   -.942E+00 -.291E+02 0.310E+02   0.129E+01 0.296E+02 -.312E+02   -.225E+00 -.491E+00 0.147E+00   -.116E-01 -.192E-01 0.215E-02
   -.409E+01 -.830E+01 0.399E+02   0.437E+01 0.850E+01 -.400E+02   -.330E+00 -.165E+00 0.728E-01   -.811E-02 -.791E-02 0.205E-02
   -.468E+02 0.486E+02 -.240E+02   0.471E+02 -.278E+02 0.277E+02   -.374E+00 -.208E+02 -.372E+01   -.224E-01 0.179E-01 0.280E-02
   0.653E+02 -.162E+02 -.234E+02   -.475E+02 0.268E+02 0.272E+02   -.179E+02 -.107E+02 -.373E+01   0.276E-01 -.151E-01 0.311E-02
   -.655E+02 0.163E+02 -.240E+02   0.476E+02 -.269E+02 0.277E+02   0.179E+02 0.107E+02 -.372E+01   -.267E-01 0.104E-01 0.258E-02
   0.467E+02 -.485E+02 -.234E+02   -.470E+02 0.277E+02 0.272E+02   0.367E+00 0.208E+02 -.373E+01   0.269E-01 -.165E-01 0.314E-02
   0.139E+00 -.801E-01 -.635E+03   -.129E+00 0.746E-01 0.628E+03   -.817E-02 0.492E-02 0.742E+01   -.209E-02 0.709E-03 -.533E-01
 -----------------------------------------------------------------------------------------------
   0.211E-01 -.118E-01 0.187E+01   -.781E-13 0.398E-12 -.114E-12   -.242E-01 0.142E-01 -.187E+01   0.245E-02 -.197E-02 -.180E-02
 
 
 POSITION                                       TOTAL-FORCE (eV/Angst)
 -----------------------------------------------------------------------------------
     12.28619      0.00797     14.83547         0.054892     -0.031680     -0.007774
      1.21888      0.68969     14.84356        -0.047564      0.042629     -0.014024
     -3.70238     10.63219     14.84465         0.073806     -0.015943     -0.013669
      3.67510      0.67333     14.92204        -0.116363      0.010346     -0.024359
     -1.23327     10.62663     14.94277         0.133945     -0.016703      0.000081
      6.13228      0.70624     14.99356        -0.145049      0.022553      0.003266
      7.36964      0.00450     14.97218         0.121076     -0.054645      0.000604
      8.58470      0.73628     14.97085        -0.091752     -0.002685     -0.005691
      9.82188      0.02347     14.92112         0.043459     -0.014880      0.000488
     11.05363      0.71959     14.88438        -0.041777      0.024099     -0.002903
     11.04061      2.13438     14.92112         0.034708     -0.030122      0.000476
     -0.02058      2.82519     14.94090        -0.078597      0.096376     -0.004629
      1.20551      2.09923     14.92022         0.060062     -0.091632     -0.023027
      2.41796      2.79045     15.04549        -0.156557      0.193649      0.042786
      3.66730      2.06920     15.04666         0.252853     -0.049622      0.038101
      6.07445      2.13000     15.09950         0.078128     -0.030120      0.003281
      7.30402      2.88443     15.09348        -0.048116      0.028042      0.012342
      8.55291      2.16338     15.00951        -0.004645      0.002736      0.000569
      9.80471      2.84940     14.97085        -0.043582      0.080845     -0.005685
      9.83092      4.26757     14.97218         0.107869     -0.077605      0.000590
     -1.22109      4.96440     14.97132        -0.103857      0.070815     -0.001049
      0.00527      4.24350     14.99161         0.097513     -0.104810      0.004141
      1.26752      4.90528     15.09693        -0.078270      0.058347      0.007411
      7.34259      4.32648     15.09950         0.065397     -0.053293      0.003377
      8.60452      4.98828     14.99356        -0.092102      0.114280      0.003435
     -3.66957      6.40684     14.94277         0.081550     -0.107643      0.000080
     -2.43056      7.09733     14.92295        -0.034488      0.033448     -0.005129
     -1.19452      6.38238     14.96978         0.038527     -0.079636      0.003596
      0.05734      7.06831     15.00758         0.001558     -0.000953      0.001468
      1.30617      6.34729     15.09107         0.045759     -0.026674      0.008227
      2.53566      7.10177     15.09693        -0.088947      0.038744      0.007315
      4.94238      7.16287     15.04549        -0.246309      0.038827      0.042512
      6.19167      6.44154     15.04666         0.169184     -0.193914      0.038380
      7.40443      7.13272     14.92204        -0.067251      0.095606     -0.024276
     -4.90894      8.54237     14.84465         0.050663     -0.055918     -0.013677
     -3.67601      9.22375     14.83770        -0.061155      0.035290     -0.008660
     -2.44335      8.51208     14.88743         0.030580     -0.017639     -0.011078
     -1.21175      9.20838     14.92295        -0.046229      0.013025     -0.005125
      0.02543      8.49541     14.96978         0.088178      0.006463      0.003588
      1.24016      9.22741     14.97132        -0.113190      0.054571     -0.001032
      2.47766      8.52580     14.99161         0.139556     -0.031970      0.003982
      3.69302      9.25734     14.94090        -0.122717      0.019786     -0.004615
      4.93476      8.55850     14.92022         0.109332     -0.006110     -0.023097
      6.16215      9.25168     14.84356        -0.060758      0.019893     -0.014011
      4.85531      2.74405     15.21132        -0.174484     -0.044407     -0.007384
      2.40854      4.15675     15.20947         0.054315     -0.177542     -0.008658
      6.20124      5.07526     15.21132        -0.049467      0.173405     -0.008620
      3.75442      6.48788     15.20947         0.180496      0.042283     -0.007410
      4.30467      4.61610     15.69959        -0.000179      0.000089      0.015485
 -----------------------------------------------------------------------------------
    total drift:                               -0.000699      0.000394     -0.000697


--------------------------------------------------------------------------------------------------------



  FREE ENERGIE OF THE ION-ELECTRON SYSTEM (eV)
  ---------------------------------------------------
  free  energy   TOTEN  =      -446.09064916 eV

  energy  without entropy=     -446.08791773  energy(sigma->0) =     -446.08928345
 


--------------------------------------------------------------------------------------------------------


    POTLOK:  cpu time    2.7251: real time    2.7304


--------------------------------------------------------------------------------------------------------


 stress matrix after NEB project (eV)
      0.16339     15.56156      0.00093
     15.56156     18.14128     -0.00052
      0.00094     -0.00053     -0.29814
  FORCES: max atom, RMS     0.260478    0.126464
  FORCE total and by dimension    0.885248    0.252853
  Stress total and by dimension   28.522722   18.141281
     LOOP+:  cpu time 1363.7959: real time 1367.5743
    4ORBIT:  cpu time    0.0000: real time    0.0000
 


 total charge     
 
# of ion       s       p       d       tot
------------------------------------------
    1        0.869   1.805   0.000   2.674
    2        0.868   1.812   0.000   2.680
    3        0.868   1.812   0.000   2.680
    4        0.870   1.814   0.000   2.684
    5        0.866   1.790   0.000   2.655
    6        0.865   1.790   0.000   2.655
    7        0.863   1.788   0.000   2.651
    8        0.862   1.785   0.000   2.648
    9        0.864   1.794   0.000   2.659
   10        0.865   1.803   0.000   2.668
   11        0.864   1.794   0.000   2.659
   12        0.866   1.790   0.000   2.655
   13        0.870   1.814   0.000   2.684
   14        0.860   1.773   0.000   2.632
   15        0.860   1.773   0.000   2.632
   16        0.853   1.743   0.000   2.596
   17        0.849   1.770   0.000   2.619
   18        0.858   1.763   0.000   2.621
   19        0.862   1.785   0.000   2.648
   20        0.863   1.788   0.000   2.651
   21        0.863   1.788   0.000   2.651
   22        0.865   1.790   0.000   2.655
   23        0.853   1.743   0.000   2.597
   24        0.853   1.743   0.000   2.596
   25        0.865   1.790   0.000   2.655
   26        0.866   1.790   0.000   2.655
   27        0.864   1.794   0.000   2.659
   28        0.862   1.786   0.000   2.648
   29        0.858   1.763   0.000   2.621
   30        0.849   1.770   0.000   2.619
   31        0.853   1.743   0.000   2.597
   32        0.860   1.773   0.000   2.632
   33        0.860   1.773   0.000   2.632
   34        0.870   1.814   0.000   2.684
   35        0.868   1.812   0.000   2.680
   36        0.869   1.805   0.000   2.674
   37        0.865   1.803   0.000   2.668
   38        0.864   1.794   0.000   2.659
   39        0.862   1.786   0.000   2.648
   40        0.863   1.788   0.000   2.651
   41        0.865   1.790   0.000   2.655
   42        0.866   1.790   0.000   2.655
   43        0.870   1.814   0.000   2.684
   44        0.868   1.812   0.000   2.680
   45        1.231   2.699   0.000   3.929
   46        1.231   2.699   0.000   3.930
   47        1.231   2.699   0.000   3.929
   48        1.231   2.699   0.000   3.930
   49        2.256   6.230   3.074  11.560
--------------------------------------------------
tot         45.140  95.668   3.074 143.883
 


 magnetization (x)
 
# of ion       s       p       d       tot
------------------------------------------
    1       -0.000  -0.000   0.000  -0.000
    2        0.000   0.001   0.000   0.001
    3        0.000   0.001   0.000   0.001
    4        0.000  -0.001   0.000  -0.000
    5        0.000   0.006   0.000   0.006
    6       -0.001  -0.003   0.000  -0.004
    7       -0.000   0.001   0.000   0.001
    8        0.000   0.003   0.000   0.003
    9       -0.000  -0.000   0.000  -0.000
   10        0.000   0.003   0.000   0.003
   11       -0.000  -0.000   0.000  -0.000
   12        0.000   0.006   0.000   0.006
   13        0.000  -0.000   0.000  -0.000
   14        0.002   0.008   0.000   0.011
   15        0.002   0.008   0.000   0.011
   16        0.002   0.015   0.000   0.016
   17       -0.000  -0.003   0.000  -0.004
   18       -0.000  -0.000   0.000  -0.000
   19        0.000   0.003   0.000   0.003
   20       -0.000   0.001   0.000   0.001
   21       -0.000   0.001   0.000   0.001
   22       -0.001  -0.003   0.000  -0.004
   23        0.002   0.015   0.000   0.016
   24        0.002   0.015   0.000   0.016
   25       -0.001  -0.003   0.000  -0.004
   26        0.000   0.006   0.000   0.006
   27       -0.000  -0.000   0.000  -0.001
   28        0.000   0.003   0.000   0.003
   29       -0.000  -0.000   0.000  -0.000
   30       -0.000  -0.003   0.000  -0.004
   31        0.002   0.015   0.000   0.016
   32        0.002   0.008   0.000   0.011
   33        0.002   0.008   0.000   0.011
   34        0.000  -0.001   0.000  -0.000
   35        0.000   0.001   0.000   0.001
   36       -0.000  -0.000   0.000  -0.000
   37        0.000   0.003   0.000   0.003
   38       -0.000  -0.000   0.000  -0.001
   39        0.000   0.003   0.000   0.003
   40       -0.000   0.001   0.000   0.001
   41       -0.001  -0.003   0.000  -0.004
   42        0.000   0.006   0.000   0.006
   43        0.000  -0.001   0.000  -0.000
   44        0.000   0.001   0.000   0.001
   45       -0.005  -0.030   0.000  -0.036
   46       -0.005  -0.030   0.000  -0.036
   47       -0.005  -0.030   0.000  -0.036
   48       -0.005  -0.030   0.000  -0.036
   49        0.052   0.028   2.430   2.511
--------------------------------------------------
tot          0.046   0.022   2.430   2.499
 

 total amount of memory used by VASP MPI-rank0   696067. kBytes
=======================================================================

   base      :      30000. kBytes
   nonl-proj :     452198. kBytes
   fftplans  :       7547. kBytes
   grid      :     115983. kBytes
   one-center:       1524. kBytes
   wavefun   :      88815. kBytes
 
  
  
 General timing and accounting informations for this job:
 ========================================================
  
                  Total CPU time used (sec):     1477.330
                            User time (sec):     1455.978
                          System time (sec):       21.352
                         Elapsed time (sec):     1483.816
  
                   Maximum memory used (kb):      932236.
                   Average memory used (kb):           0.
  
                          Minor page faults:       383914
                          Major page faults:            3
                 Voluntary context switches:         3175
