C  N  V                                 
   1.00000000000000     
    12.3000000000000007    0.0000000000000000    0.0000000000000000
    -6.1499999999999977   10.6521124665485960    0.0000000000000000
     0.0000000000000000    0.0000000000000000   20.0000000000000000
   C    N    V 
    44     4     1
Direct
  0.9992517511886660  0.0007482727004060  0.7417732691542724
  0.1314696332699725  0.0647468014377282  0.7421779376141728
  0.1980586893082403  0.9981299874668395  0.7422323666736403
  0.3303942837704810  0.0632111450951385  0.7461018236802985
  0.3985377977715174  0.9976075836448217  0.7471385362705902
  0.5317093818772989  0.0663002720385606  0.7496779920763927
  0.5993688672328972  0.0004223695452197  0.7486089545768664
  0.7325035884510882  0.0691205400651498  0.7485423490848220
  0.7996287851570187  0.0022034469229339  0.7460559157963687
  0.9324459487524734  0.0675540604453460  0.7442187522930865
  0.9977965446407921  0.2003712213677034  0.7460559176090626
  0.1309381625398274  0.2652233257034027  0.7470450626955198
  0.1965447934289415  0.1970721327256229  0.7460109592978128
  0.3275635392530774  0.2619622908622645  0.7522746895184511
  0.3952807997181509  0.1942528455615360  0.7523329274807651
  0.5938381115306512  0.1999602752009793  0.7549750901480934
  0.7292150735533696  0.2707849198116747  0.7546742132439093
  0.7969058893789907  0.2030940992467478  0.7504752726357822
  0.9308794452970588  0.2674964113545784  0.7485423484118314
  0.9995776096547857  0.4006311341904407  0.7486089520578290
  0.1337483967392217  0.4660480077162248  0.7485658900566392
  0.1996144098969310  0.3983717083714353  0.7495802744246163
  0.3332997473129211  0.4604987167953070  0.7548465101577051
  0.8000397108523813  0.4061618862859646  0.7549750909580411
  0.9336997121933877  0.4682906232528907  0.7496779870017320
  0.0023924078850257  0.6014622114736596  0.7471385243895696
  0.1355350784967868  0.6662838874141954  0.7461474635868157
  0.2024673402884858  0.5991659767761277  0.7484888120541839
  0.3364409578119023  0.6635590297625029  0.7503791710522592
  0.4041284422621700  0.5958715493400391  0.7545535709686675
  0.5395012788487108  0.6667002367045853  0.7548465070828883
  0.7380377112310441  0.6724364596321450  0.7522746804369262
  0.8057471541452088  0.6047192048632510  0.7523329237235998
  0.9367888582602433  0.6696057345929063  0.7461018206493293
  0.0018700350821419  0.8019413353001497  0.7422323648906826
  0.1340916571719504  0.8659083676817190  0.7418852304183687
  0.2009023502185912  0.7990976601535280  0.7443716556770568
  0.3337161205125199  0.8644649145802674  0.7461474742741103
  0.4008340226072349  0.7975326446118984  0.7484888159047074
  0.5339519932055410  0.8662515821543550  0.7485658884446380
  0.6016282946817597  0.8003855725343882  0.7495802674779029
  0.7347766814013852  0.8690618276582285  0.7470450565640832
  0.8029278830984623  0.8034552089624327  0.7460109506223986
  0.9352532218262510  0.8685303898978205  0.7421779356935119
  0.5235440347156555  0.2576059784667777  0.7605661593671087
  0.3909304296109681  0.3902276479971789  0.7604734612985311
  0.7423940111382095  0.4764559658650569  0.7605661566617528
  0.6097723512582149  0.6090695595967617  0.7604734586105266
  0.5666490114713696  0.4333509761710985  0.7849795672321207
 
  0.00000000E+00  0.00000000E+00  0.00000000E+00
  0.00000000E+00  0.00000000E+00  0.00000000E+00
  0.00000000E+00  0.00000000E+00  0.00000000E+00
  0.00000000E+00  0.00000000E+00  0.00000000E+00
  0.00000000E+00  0.00000000E+00  0.00000000E+00
  0.00000000E+00  0.00000000E+00  0.00000000E+00
  0.00000000E+00  0.00000000E+00  0.00000000E+00
  0.00000000E+00  0.00000000E+00  0.00000000E+00
  0.00000000E+00  0.00000000E+00  0.00000000E+00
  0.00000000E+00  0.00000000E+00  0.00000000E+00
  0.00000000E+00  0.00000000E+00  0.00000000E+00
  0.00000000E+00  0.00000000E+00  0.00000000E+00
  0.00000000E+00  0.00000000E+00  0.00000000E+00
  0.00000000E+00  0.00000000E+00  0.00000000E+00
  0.00000000E+00  0.00000000E+00  0.00000000E+00
  0.00000000E+00  0.00000000E+00  0.00000000E+00
  0.00000000E+00  0.00000000E+00  0.00000000E+00
  0.00000000E+00  0.00000000E+00  0.00000000E+00
  0.00000000E+00  0.00000000E+00  0.00000000E+00
  0.00000000E+00  0.00000000E+00  0.00000000E+00
  0.00000000E+00  0.00000000E+00  0.00000000E+00
  0.00000000E+00  0.00000000E+00  0.00000000E+00
  0.00000000E+00  0.00000000E+00  0.00000000E+00
  0.00000000E+00  0.00000000E+00  0.00000000E+00
  0.00000000E+00  0.00000000E+00  0.00000000E+00
  0.00000000E+00  0.00000000E+00  0.00000000E+00
  0.00000000E+00  0.00000000E+00  0.00000000E+00
  0.00000000E+00  0.00000000E+00  0.00000000E+00
  0.00000000E+00  0.00000000E+00  0.00000000E+00
  0.00000000E+00  0.00000000E+00  0.00000000E+00
  0.00000000E+00  0.00000000E+00  0.00000000E+00
  0.00000000E+00  0.00000000E+00  0.00000000E+00
  0.00000000E+00  0.00000000E+00  0.00000000E+00
  0.00000000E+00  0.00000000E+00  0.00000000E+00
  0.00000000E+00  0.00000000E+00  0.00000000E+00
  0.00000000E+00  0.00000000E+00  0.00000000E+00
  0.00000000E+00  0.00000000E+00  0.00000000E+00
  0.00000000E+00  0.00000000E+00  0.00000000E+00
  0.00000000E+00  0.00000000E+00  0.00000000E+00
  0.00000000E+00  0.00000000E+00  0.00000000E+00
  0.00000000E+00  0.00000000E+00  0.00000000E+00
  0.00000000E+00  0.00000000E+00  0.00000000E+00
  0.00000000E+00  0.00000000E+00  0.00000000E+00
  0.00000000E+00  0.00000000E+00  0.00000000E+00
  0.00000000E+00  0.00000000E+00  0.00000000E+00
  0.00000000E+00  0.00000000E+00  0.00000000E+00
  0.00000000E+00  0.00000000E+00  0.00000000E+00
  0.00000000E+00  0.00000000E+00  0.00000000E+00
  0.00000000E+00  0.00000000E+00  0.00000000E+00
