       N       E                     dE             d eps       ncg     rms          ort
DAV:   1     0.726178230769E+01    0.72618E+01   -0.38684E+03   256   0.313E+01
DAV:   2    -0.644688828826E-01   -0.73263E+01   -0.73263E+01   256   0.220E+00
DAV:   3    -0.927872296212E-01   -0.28318E-01   -0.28318E-01   256   0.160E-01
DAV:   4    -0.929655275111E-01   -0.17830E-03   -0.17830E-03   256   0.143E-02
DAV:   5    -0.929655492679E-01   -0.21757E-07   -0.21802E-07   256   0.128E-04
SDA:   6    -0.929987947688E-01   -0.33246E-04   -0.21802E-07   256   0.386E-04 0.000E+00
CGA:   7    -0.930034122501E-01   -0.46175E-05   -0.50316E-05   256   0.669E-05 0.595E-05
   1 F= -.93003412E-01 E0= -.93003412E-01  d E =-.415032E-19
