       N       E                     dE             d eps       ncg     rms          ort
DAV:   1     0.100782966508E+04    0.10078E+04   -0.88689E+04  3328   0.673E+02
DAV:   2    -0.370538143951E+03   -0.13784E+04   -0.13780E+04  3328   0.985E+01
DAV:   3    -0.446853501959E+03   -0.76315E+02   -0.76304E+02  3328   0.364E+01
DAV:   4    -0.447563798882E+03   -0.71030E+00   -0.71018E+00  3328   0.371E+00
DAV:   5    -0.447563947427E+03   -0.14855E-03   -0.14855E-03  3328   0.672E-02
SDA:   6    -0.447563947427E+03   -0.72760E-11   -0.14855E-03  3328   0.172E-05 0.000E+00
   1 F= -.44933059E+03 E0= -.44932441E+03  d E =-.123620E-01  mag=     2.2764
