       N       E                     dE             d eps       ncg     rms          rms(c)
DAV:   1     0.119490324471E+04    0.11949E+04   -0.86270E+04  4096   0.591E+02
DAV:   2    -0.396317735149E+03   -0.15912E+04   -0.15896E+04  6144   0.115E+02
DAV:   3    -0.474049680874E+03   -0.77732E+02   -0.77732E+02  8192   0.376E+01
DAV:   4    -0.474112883868E+03   -0.63203E-01   -0.63203E-01  4352   0.129E+00
DAV:   5    -0.474113628304E+03   -0.74444E-03   -0.74444E-03  8192   0.104E-01    0.282E+01
DAV:   6    -0.449921157141E+03    0.24192E+02   -0.37358E+01  7680   0.729E+00    0.143E+01
DAV:   7    -0.441749814025E+03    0.81713E+01   -0.18487E+01  8192   0.516E+00    0.403E+00
DAV:   8    -0.441007238687E+03    0.74258E+00   -0.16822E+00  8192   0.153E+00    0.187E+00
DAV:   9    -0.440732486792E+03    0.27475E+00   -0.16578E-01  8192   0.530E-01    0.429E-01
DAV:  10    -0.440679819110E+03    0.52668E-01   -0.23792E-02  8192   0.147E-01    0.328E-01
DAV:  11    -0.440632407820E+03    0.47411E-01   -0.83161E-02  8192   0.265E-01    0.160E-01
DAV:  12    -0.440648226673E+03   -0.15819E-01   -0.63390E-03  4608   0.793E-02    0.791E-02
DAV:  13    -0.440669262966E+03   -0.21036E-01   -0.22669E-03  6656   0.453E-02    0.527E-02
DAV:  14    -0.440682340652E+03   -0.13078E-01   -0.13274E-03  7168   0.342E-02    0.330E-02
DAV:  15    -0.440691643873E+03   -0.93032E-02   -0.11907E-03  8192   0.270E-02    0.154E-02
DAV:  16    -0.440693822737E+03   -0.21789E-02   -0.14810E-04  7168   0.107E-02    0.955E-03
DAV:  17    -0.440695183845E+03   -0.13611E-02   -0.13429E-04  5632   0.879E-03    0.517E-03
DAV:  18    -0.440695563541E+03   -0.37970E-03   -0.28189E-05  6656   0.410E-03    0.339E-03
DAV:  19    -0.440695817790E+03   -0.25425E-03   -0.19257E-05  5632   0.285E-03    0.223E-03
DAV:  20    -0.440695923702E+03   -0.10591E-03   -0.59391E-06  6144   0.151E-03    0.158E-03
DAV:  21    -0.440696012768E+03   -0.89065E-04   -0.21639E-06  5632   0.907E-04    0.984E-04
DAV:  22    -0.440696058157E+03   -0.45389E-04   -0.42999E-07  5632   0.485E-04    0.617E-04
DAV:  23    -0.440696084091E+03   -0.25934E-04   -0.20642E-07  6144   0.365E-04    0.327E-04
DAV:  24    -0.440696093367E+03   -0.92763E-05   -0.74457E-08  5632   0.222E-04
   1 F= -.44242482E+03 E0= -.44242410E+03  d E =-.442425E+03  mag=    -0.0000
       N       E                     dE             d eps       ncg     rms          rms(c)
DAV:   1    -0.440696229037E+03   -0.14495E-03   -0.18697E-02  6912   0.206E-01    0.321E-02
DAV:   2    -0.440696215275E+03    0.13762E-04   -0.23607E-04  6144   0.271E-02    0.166E-02
DAV:   3    -0.440696211930E+03    0.33458E-05   -0.20243E-05  8192   0.680E-03
   2 F= -.44242498E+03 E0= -.44242427E+03  d E =-.154978E-03  mag=     0.0000
