C  N  Sr
 1.0000000000000000
    12.3000000000000007    0.0000000000000000    0.0000000000000000
    -6.1499999999999977   10.6521124665485960    0.0000000000000000
     0.0000000000000000    0.0000000000000000   20.0000000000000000
 C   N   Sr 
  44   4   1
Direct
  0.9994270000000001  0.0005730000000000  0.7408290000000000
  0.1320710000000000  0.0653490000000000  0.7417780000000000
  0.1986820000000000  0.9987440000000000  0.7417520000000000
  0.3313410000000000  0.0645480000000000  0.7458290000000001
  0.3987290000000001  0.9981270000000001  0.7455420000000000
  0.5318670000000000  0.0662990000000000  0.7476420000000000
  0.5994100000000000  0.0003840000000000  0.7458640000000001
  0.7326370000000000  0.0688730000000000  0.7459550000000000
  0.7997250000000000  0.0019640000000000  0.7439410000000000
  0.9326130000000000  0.0673870000000000  0.7425510000000000
  0.9980360000000000  0.2002750000000000  0.7439410000000000
  0.1314280000000000  0.2653950000000000  0.7455480000000000
  0.1978590000000000  0.1980070000000000  0.7458730000000000
  0.3297730000000000  0.2647880000000000  0.7536550000000002
  0.3980860000000000  0.1964730000000000  0.7536620000000003
  0.5937940000000000  0.2000460000000000  0.7544650000000002
  0.7295610000000002  0.2704390000000000  0.7538570000000000
  0.7970550000000000  0.2029450000000000  0.7483590000000000
  0.9311270000000000  0.2673630000000000  0.7459550000000000
  0.9996159999999999  0.4005900000000000  0.7458640000000001
  0.1337650000000000  0.4661270000000000  0.7458720000000000
  0.1996280000000000  0.3985110000000000  0.7476380000000002
  0.3334080000000000  0.4604440000000000  0.7544650000000002
  0.7999540000000001  0.4062060000000000  0.7544650000000002
  0.9337010000000000  0.4681330000000000  0.7476420000000000
  0.0018730000000000  0.6012710000000000  0.7455420000000000
  0.1352640000000000  0.6663750000000001  0.7439330000000002
  0.2022140000000000  0.5993200000000000  0.7459690000000001
  0.3362740000000000  0.6637260000000000  0.7484050000000000
  0.4037730000000000  0.5962270000000000  0.7538840000000002
  0.5395560000000000  0.6665920000000000  0.7544650000000002
  0.7352120000000001  0.6702270000000000  0.7536550000000002
  0.8035270000000000  0.6019139999999999  0.7536620000000003
  0.9354520000000002  0.6686590000000000  0.7458290000000001
  0.0012560000000000  0.8013180000000001  0.7417520000000000
  0.1339200000000001  0.8660800000000001  0.7408450000000002
  0.2007340000000000  0.7992660000000000  0.7425610000000002
  0.3336250000000001  0.8647359999999999  0.7439330000000002
  0.4006800000000000  0.7977860000000000  0.7459690000000001
  0.5338730000000002  0.8662350000000001  0.7458720000000000
  0.6014890000000001  0.8003720000000000  0.7476380000000002
  0.7346050000000001  0.8685720000000000  0.7455480000000000
  0.8019930000000002  0.8021410000000000  0.7458730000000000
  0.9346510000000000  0.8679290000000001  0.7417780000000000
  0.5255120000000000  0.2587550000000000  0.7620340000000000
  0.3920990000000000  0.3921920000000000  0.7620340000000000
  0.7412450000000002  0.4744880000000001  0.7620340000000000
  0.6078080000000000  0.6079010000000000  0.7620340000000000
  0.5666650000000001  0.4333350000000001  0.8328050000000001
