       N       E                     dE             d eps       ncg     rms          ort
DAV:   1     0.252204429293E+02    0.25220E+02   -0.48988E+03   256   0.425E+01
DAV:   2    -0.131333440947E+00   -0.25352E+02   -0.25314E+02   256   0.548E+00
DAV:   3    -0.178217600361E+00   -0.46884E-01   -0.46870E-01   256   0.356E-01
DAV:   4    -0.178943110968E+00   -0.72551E-03   -0.72551E-03   256   0.473E-02
DAV:   5    -0.178943180519E+00   -0.69552E-07   -0.69629E-07   256   0.397E-04
SDA:   6    -0.824427908267E+00   -0.64548E+00   -0.69629E-07   256   0.926E-01 0.000E+00
CGA:   7    -0.843403282727E+00   -0.18975E-01   -0.18976E-01   256   0.226E-01 0.914E-05
CGA:   8    -0.850001563611E+00   -0.65983E-02   -0.65999E-02   256   0.117E-01-0.172E-04
CGA:   9    -0.853183384752E+00   -0.31818E-02   -0.31806E-02   256   0.361E-02 0.211E-04
CGA:  10    -0.854393134676E+00   -0.12097E-02   -0.12105E-02   256   0.166E-02-0.550E-05
CGA:  11    -0.854947958556E+00   -0.55482E-03   -0.55534E-03   256   0.407E-03-0.456E-05
CGA:  12    -0.855055733501E+00   -0.10777E-03   -0.10795E-03   256   0.655E-04-0.376E-05
CGA:  13    -0.855074314883E+00   -0.18581E-04   -0.18542E-04   256   0.111E-04 0.633E-06
CGA:  14    -0.855077960955E+00   -0.36461E-05   -0.36936E-05   256   0.271E-05-0.454E-06
   1 F= -.85507796E+00 E0= -.83579517E+00  d E =-.385656E-01  mag=     2.0000
