       N       E                     dE             d eps       ncg     rms          ort
DAV:   1     0.473927862497E+02    0.47393E+02   -0.69988E+03   256   0.777E+01
DAV:   2    -0.645420776757E+01   -0.53847E+02   -0.53841E+02   256   0.846E+00
DAV:   3    -0.805157631393E+01   -0.15974E+01   -0.15973E+01   256   0.130E+00
DAV:   4    -0.806712264348E+01   -0.15546E-01   -0.15546E-01   256   0.116E-01
DAV:   5    -0.806712371710E+01   -0.10736E-05   -0.10734E-05   256   0.106E-03
SDA:   6     0.256227699101E+02    0.33690E+02   -0.10734E-05   256   0.218E+03 0.000E+00
CGA:   7     0.754937637248E+01   -0.18073E+02   -0.13735E+02   256   0.637E+02 0.935E+02
CGA:   8     0.587732979145E+01   -0.16720E+01   -0.19394E+01   256   0.303E+02 0.617E+02
CGA:   9     0.483624976536E+01   -0.10411E+01   -0.74692E+00   256   0.863E+01 0.154E+02
CGA:  10     0.454671173001E+01   -0.28954E+00   -0.18187E+00   256   0.376E+01 0.535E+01
CGA:  11     0.437746988516E+01   -0.16924E+00   -0.97371E-01   256   0.239E+01 0.279E+01
CGA:  12     0.402618499107E+01   -0.35128E+00   -0.19749E+00   256   0.288E+01 0.303E+01
CGA:  13     0.206439296948E+01   -0.19618E+01    0.19497E+00   256   0.120E+03 0.482E+01
CGA:  14    -0.347871100808E+01   -0.55431E+01   -0.43065E+01   256   0.633E+02 0.493E+02
CGA:  15    -0.676980971157E+01   -0.32911E+01   -0.37903E+01   256   0.311E+02-0.865E+01
CGA:  16    -0.647021535314E+01    0.29959E+00   -0.14949E+01   256   0.109E+02-0.888E+01
CGA:  17    -0.797467798775E+01   -0.15045E+01   -0.15300E+01   256   0.206E+00-0.393E+00
CGA:  18    -0.801526479283E+01   -0.40587E-01   -0.40441E-01   256   0.818E-01 0.260E-02
CGA:  19    -0.803210449572E+01   -0.16840E-01   -0.16808E-01   256   0.219E-01 0.480E-03
CGA:  20    -0.804024728458E+01   -0.81428E-02   -0.80386E-02   256   0.715E-02 0.521E-03
CGA:  21    -0.804199725428E+01   -0.17500E-02   -0.17428E-02   256   0.353E-02 0.748E-04
CGA:  22    -0.804300225631E+01   -0.10050E-02   -0.10003E-02   256   0.902E-03 0.392E-04
CGA:  23    -0.804333691412E+01   -0.33466E-03   -0.33157E-03   256   0.391E-03 0.152E-04
CGA:  24    -0.804344957661E+01   -0.11266E-03   -0.11264E-03   256   0.219E-03 0.204E-06
CGA:  25    -0.804356151406E+01   -0.11194E-03   -0.11203E-03   256   0.163E-03-0.181E-06
CGA:  26    -0.804362509821E+01   -0.63584E-04   -0.63603E-04   256   0.101E-03 0.140E-05
CGA:  27    -0.804366963254E+01   -0.44534E-04   -0.43473E-04   256   0.704E-04 0.436E-05
CGA:  28    -0.804370271493E+01   -0.33082E-04   -0.32592E-04   256   0.421E-04 0.417E-05
CGA:  29    -0.804372853453E+01   -0.25820E-04   -0.23356E-04   256   0.381E-04 0.783E-05
CGA:  30    -0.804375674739E+01   -0.28213E-04   -0.26299E-04   256   0.393E-04 0.794E-05
CGA:  31    -0.804378364706E+01   -0.26900E-04   -0.24292E-04   256   0.362E-04 0.117E-04
CGA:  32    -0.804381280414E+01   -0.29157E-04   -0.25550E-04   256   0.313E-04 0.162E-04
CGA:  33    -0.804384403858E+01   -0.31234E-04   -0.26862E-04   256   0.248E-04 0.164E-04
CGA:  34    -0.804386134209E+01   -0.17304E-04   -0.16427E-04   256   0.216E-04 0.402E-05
CGA:  35    -0.804387003722E+01   -0.86951E-05   -0.86085E-05   256   0.101E-04 0.317E-05
   1 F= -.80438700E+01 E0= -.80438700E+01  d E =-.227085E-19  mag=     4.0000
