       N       E                     dE             d eps       ncg     rms          ort
DAV:   1     0.685070777353E+01    0.68507E+01   -0.56068E+03   256   0.450E+01
DAV:   2    -0.101431433733E+01   -0.78650E+01   -0.77976E+01   256   0.324E+00
DAV:   3    -0.101783104191E+01   -0.35167E-02   -0.35166E-02   256   0.103E-01
DAV:   4    -0.101789130356E+01   -0.60262E-04   -0.60262E-04   256   0.191E-02
DAV:   5    -0.101789151157E+01   -0.20801E-06   -0.20796E-06   256   0.612E-04
SDA:   6    -0.127065903844E+01   -0.25277E+00   -0.20796E-06   256   0.179E+00 0.000E+00
CGA:   7    -0.128953196876E+01   -0.18873E-01   -0.18913E-01   256   0.585E-01 0.326E-03
CGA:   8    -0.130092482420E+01   -0.11393E-01   -0.11393E-01   256   0.469E-01-0.122E-03
CGA:   9    -0.130977672226E+01   -0.88519E-02   -0.88514E-02   256   0.116E-01 0.126E-04
CGA:  10    -0.131338426807E+01   -0.36075E-02   -0.36057E-02   256   0.904E-02 0.187E-04
CGA:  11    -0.131489549281E+01   -0.15112E-02   -0.15113E-02   256   0.317E-02-0.117E-04
CGA:  12    -0.131588804565E+01   -0.99255E-03   -0.98915E-03   256   0.243E-02 0.302E-04
CGA:  13    -0.131798833856E+01   -0.21003E-02   -0.24485E-02   256   0.906E-01-0.567E-03
CGA:  14    -0.131904470408E+01   -0.10564E-02   -0.48197E-03   256   0.131E+00 0.734E-01
CGA:  15    -0.136244654801E+01   -0.43402E-01   -0.55797E-01   256   0.744E+00-0.609E-01
CGA:  16    -0.136793820596E+01   -0.54917E-02   -0.16088E-01   256   0.907E+00-0.276E+00
CGA:  17    -0.138680938381E+01   -0.18871E-01   -0.58583E-01   256   0.618E+00-0.692E-01
CGA:  18    -0.144565182561E+01   -0.58842E-01   -0.58624E-01   256   0.193E+00 0.967E-03
CGA:  19    -0.147752798247E+01   -0.31876E-01   -0.31811E-01   256   0.137E+00 0.121E-04
CGA:  20    -0.149857771243E+01   -0.21050E-01   -0.21146E-01   256   0.933E-01 0.363E-03
CGA:  21    -0.151521373771E+01   -0.16636E-01   -0.16866E-01   256   0.919E-01-0.177E-01
CGA:  22    -0.153253614685E+01   -0.17322E-01   -0.17756E-01   256   0.194E+00-0.805E-01
CGA:  23    -0.158701750207E+01   -0.54481E-01   -0.48809E-01   256   0.167E+00 0.851E-01
CGA:  24    -0.168036353781E+01   -0.93346E-01   -0.10685E+00   256   0.110E+00-0.160E-01
CGA:  25    -0.170719934298E+01   -0.26836E-01   -0.26358E-01   256   0.280E-01 0.751E-02
CGA:  26    -0.171671191470E+01   -0.95126E-02   -0.94914E-02   256   0.119E-01 0.172E-03
CGA:  27    -0.172137564306E+01   -0.46637E-02   -0.46620E-02   256   0.305E-02 0.125E-04
CGA:  28    -0.172248589757E+01   -0.11103E-02   -0.11090E-02   256   0.155E-02 0.103E-04
CGA:  29    -0.172311715752E+01   -0.63126E-03   -0.63571E-03   256   0.680E-03-0.276E-04
CGA:  30    -0.172331725041E+01   -0.20009E-03   -0.19932E-03   256   0.200E-03 0.167E-04
CGA:  31    -0.172341227147E+01   -0.95021E-04   -0.94081E-04   256   0.971E-04 0.444E-05
CGA:  32    -0.172344912091E+01   -0.36849E-04   -0.36946E-04   256   0.355E-04-0.637E-06
CGA:  33    -0.172346113288E+01   -0.12012E-04   -0.11731E-04   256   0.175E-04 0.396E-05
CGA:  34    -0.172347056158E+01   -0.94287E-05   -0.99411E-05   256   0.101E-04-0.210E-05
   1 F= -.17234706E+01 E0= -.17234706E+01  d E =-.913592E-12  mag=     3.0000
