       N       E                     dE             d eps       ncg     rms          ort
DAV:   1     0.950393247341E+03    0.95039E+03   -0.83807E+04  3328   0.643E+02
DAV:   2    -0.367290954038E+03   -0.13177E+04   -0.13172E+04  3328   0.924E+01
DAV:   3    -0.439976075858E+03   -0.72685E+02   -0.72685E+02  3328   0.346E+01
DAV:   4    -0.440762499686E+03   -0.78642E+00   -0.78640E+00  3328   0.396E+00
DAV:   5    -0.440762607685E+03   -0.10800E-03   -0.10800E-03  3328   0.570E-02
SDA:   6    -0.440762607685E+03    0.00000E+00   -0.10800E-03  3328   0.176E-05 0.000E+00
   1 F= -.44247283E+03 E0= -.44247178E+03  d E =-.208748E-02  mag=     0.0000
