C  N  Be                                
   1.00000000000000     
    12.3000000000000007    0.0000000000000000    0.0000000000000000
    -6.1499999999999977   10.6521124665485960    0.0000000000000000
     0.0000000000000000    0.0000000000000000   20.0000000000000000
   C    N    Be
    44     4     1
Direct
  0.9992643446942947  0.0007356553304974  0.7499999999940797
  0.1318311902648560  0.0651627650484369  0.7500000002475350
  0.1984851457377134  0.9985079598840306  0.7500000003226068
  0.3313127160873765  0.0641826967670212  0.7500000000074426
  0.3987405161954027  0.9980378196634988  0.7499999999578653
  0.5315865722207155  0.0685360884307122  0.7500000000556885
  0.5990165804626173  0.0010760992858310  0.7500000000009081
  0.7320662499361131  0.0696983713338442  0.7499999996973500
  0.7992272542507151  0.0023151590155021  0.7499999999083439
  0.9322539837998359  0.0677460161822122  0.7499999998699360
  0.9976848411297666  0.2007727456967770  0.7500000001040420
  0.1313786592073159  0.2654039248777755  0.7499999999247753
  0.1975245378455115  0.1979725610028404  0.7499999999695570
  0.3296055744745020  0.2633995197604603  0.7499999997804331
  0.3967137060110172  0.1962720943445326  0.7499999997612804
  0.5930259695854756  0.2042933469280360  0.7500000000388335
  0.7277562929416759  0.2722437072729693  0.7500000000448094
  0.7960373426242838  0.2039626574141566  0.7500000000242635
  0.9303016285288457  0.2679337501306561  0.7500000003028597
  0.9989239003992155  0.4009834193638962  0.7499999999963508
  0.1344086532262828  0.4656925100919971  0.7500000000173433
  0.2018564971529898  0.3982535414491241  0.7500000000991041
  0.3376193123606273  0.4597130482323027  0.7500000000114577
  0.7957066529160353  0.4069740304448418  0.7499999999874729
  0.9314639115836544  0.4684134278516186  0.7499999999328756
  0.0019621804027121  0.6012594838362605  0.7500000000489794
  0.1356438195762840  0.6659026733189534  0.7499999998402789
  0.2030240939109518  0.5987324544697465  0.7499999996792011
  0.3372941848611643  0.6627058150674899  0.7500000000024774
  0.4055870727918052  0.5944129271202836  0.7499999999437591
  0.5402869516754395  0.6623806875379356  0.7499999998230807
  0.7366004801913484  0.6703944254262184  0.7500000002294062
  0.8037279058568119  0.6032862939373197  0.7500000002215557
  0.9358173035355898  0.6686872842154473  0.7500000000039375
  0.0014920402057792  0.8015148541146816  0.7499999997161270
  0.1340771968668230  0.8659228027220360  0.7500000000496858
  0.2010754184186102  0.7989245815300219  0.7500000000144402
  0.3340973268088165  0.8643561804387268  0.7500000002122260
  0.4012675454622517  0.7969759061136007  0.7500000003642264
  0.5343074900080900  0.8655913470172417  0.7500000000235315
  0.6017464586469824  0.7981435029692495  0.7499999998888388
  0.7345960750559581  0.8686213407457903  0.7500000000666058
  0.8020274391156846  0.8024754621662787  0.7500000000126914
  0.9348372352222359  0.8681688098304969  0.7499999998503166
  0.5249758655536622  0.2669557542852229  0.7500000001546419
  0.4002872041182105  0.3916453206048711  0.7500000001502275
  0.7330442455161003  0.4750241339552079  0.7499999998814690
  0.6083546793873867  0.5997127958524221  0.7499999997630705
  0.5666667531744657  0.4333332469209364  0.7500000000020115
 
  0.00000000E+00  0.00000000E+00  0.00000000E+00
  0.00000000E+00  0.00000000E+00  0.00000000E+00
  0.00000000E+00  0.00000000E+00  0.00000000E+00
  0.00000000E+00  0.00000000E+00  0.00000000E+00
  0.00000000E+00  0.00000000E+00  0.00000000E+00
  0.00000000E+00  0.00000000E+00  0.00000000E+00
  0.00000000E+00  0.00000000E+00  0.00000000E+00
  0.00000000E+00  0.00000000E+00  0.00000000E+00
  0.00000000E+00  0.00000000E+00  0.00000000E+00
  0.00000000E+00  0.00000000E+00  0.00000000E+00
  0.00000000E+00  0.00000000E+00  0.00000000E+00
  0.00000000E+00  0.00000000E+00  0.00000000E+00
  0.00000000E+00  0.00000000E+00  0.00000000E+00
  0.00000000E+00  0.00000000E+00  0.00000000E+00
  0.00000000E+00  0.00000000E+00  0.00000000E+00
  0.00000000E+00  0.00000000E+00  0.00000000E+00
  0.00000000E+00  0.00000000E+00  0.00000000E+00
  0.00000000E+00  0.00000000E+00  0.00000000E+00
  0.00000000E+00  0.00000000E+00  0.00000000E+00
  0.00000000E+00  0.00000000E+00  0.00000000E+00
  0.00000000E+00  0.00000000E+00  0.00000000E+00
  0.00000000E+00  0.00000000E+00  0.00000000E+00
  0.00000000E+00  0.00000000E+00  0.00000000E+00
  0.00000000E+00  0.00000000E+00  0.00000000E+00
  0.00000000E+00  0.00000000E+00  0.00000000E+00
  0.00000000E+00  0.00000000E+00  0.00000000E+00
  0.00000000E+00  0.00000000E+00  0.00000000E+00
  0.00000000E+00  0.00000000E+00  0.00000000E+00
  0.00000000E+00  0.00000000E+00  0.00000000E+00
  0.00000000E+00  0.00000000E+00  0.00000000E+00
  0.00000000E+00  0.00000000E+00  0.00000000E+00
  0.00000000E+00  0.00000000E+00  0.00000000E+00
  0.00000000E+00  0.00000000E+00  0.00000000E+00
  0.00000000E+00  0.00000000E+00  0.00000000E+00
  0.00000000E+00  0.00000000E+00  0.00000000E+00
  0.00000000E+00  0.00000000E+00  0.00000000E+00
  0.00000000E+00  0.00000000E+00  0.00000000E+00
  0.00000000E+00  0.00000000E+00  0.00000000E+00
  0.00000000E+00  0.00000000E+00  0.00000000E+00
  0.00000000E+00  0.00000000E+00  0.00000000E+00
  0.00000000E+00  0.00000000E+00  0.00000000E+00
  0.00000000E+00  0.00000000E+00  0.00000000E+00
  0.00000000E+00  0.00000000E+00  0.00000000E+00
  0.00000000E+00  0.00000000E+00  0.00000000E+00
  0.00000000E+00  0.00000000E+00  0.00000000E+00
  0.00000000E+00  0.00000000E+00  0.00000000E+00
  0.00000000E+00  0.00000000E+00  0.00000000E+00
  0.00000000E+00  0.00000000E+00  0.00000000E+00
  0.00000000E+00  0.00000000E+00  0.00000000E+00
