       N       E                     dE             d eps       ncg     rms          rms(c)
DAV:   1     0.113793860043E+04    0.11379E+04   -0.81633E+04  4096   0.564E+02
DAV:   2    -0.400759631057E+03   -0.15387E+04   -0.15362E+04  6144   0.110E+02
DAV:   3    -0.472975285667E+03   -0.72216E+02   -0.72216E+02  7680   0.358E+01
DAV:   4    -0.473141163438E+03   -0.16588E+00   -0.16587E+00  4864   0.161E+00
DAV:   5    -0.473141389187E+03   -0.22575E-03   -0.22575E-03  7680   0.794E-02    0.272E+01
DAV:   6    -0.451250583535E+03    0.21891E+02   -0.28852E+01  6144   0.599E+00    0.140E+01
DAV:   7    -0.443704825117E+03    0.75458E+01   -0.19289E+01  8192   0.498E+00    0.320E+00
DAV:   8    -0.443363493119E+03    0.34133E+00   -0.66420E-01  6144   0.100E+00    0.163E+00
DAV:   9    -0.443211405085E+03    0.15209E+00   -0.12983E-01  8192   0.453E-01    0.385E-01
DAV:  10    -0.443179947330E+03    0.31458E-01   -0.14698E-02  4352   0.137E-01    0.247E-01
DAV:  11    -0.443165113426E+03    0.14834E-01   -0.35123E-02  8192   0.163E-01    0.135E-01
DAV:  12    -0.443169372405E+03   -0.42590E-02   -0.90595E-03  7680   0.949E-02    0.754E-02
DAV:  13    -0.443182864784E+03   -0.13492E-01   -0.11487E-03  5632   0.361E-02    0.475E-02
DAV:  14    -0.443195483238E+03   -0.12618E-01   -0.10508E-03  8192   0.298E-02    0.297E-02
DAV:  15    -0.443202244624E+03   -0.67614E-02   -0.55627E-04  7168   0.200E-02    0.151E-02
DAV:  16    -0.443205358533E+03   -0.31139E-02   -0.21692E-04  8192   0.111E-02    0.882E-03
DAV:  17    -0.443206549780E+03   -0.11912E-02   -0.69423E-05  6912   0.702E-03    0.490E-03
DAV:  18    -0.443207072215E+03   -0.52244E-03   -0.34462E-05  4096   0.463E-03    0.270E-03
DAV:  19    -0.443207256203E+03   -0.18399E-03   -0.65406E-06  7168   0.229E-03    0.170E-03
DAV:  20    -0.443207370904E+03   -0.11470E-03   -0.57548E-06  4608   0.188E-03    0.117E-03
DAV:  21    -0.443207419103E+03   -0.48200E-04   -0.11360E-06  7680   0.962E-04    0.878E-04
DAV:  22    -0.443207466462E+03   -0.47358E-04   -0.32271E-07  7168   0.651E-04    0.561E-04
DAV:  23    -0.443207488059E+03   -0.21597E-04   -0.63352E-08  5632   0.348E-04    0.361E-04
DAV:  24    -0.443207502060E+03   -0.14001E-04   -0.56122E-08  7424   0.220E-04    0.168E-04
DAV:  25    -0.443207507368E+03   -0.53082E-05   -0.24967E-08  6912   0.133E-04
   1 F= -.44490536E+03 E0= -.44490533E+03  d E =-.444905E+03  mag=    -0.0000
       N       E                     dE             d eps       ncg     rms          rms(c)
DAV:   1    -0.443207568935E+03   -0.66875E-04   -0.10321E-02  6144   0.155E-01    0.228E-02
DAV:   2    -0.443207563207E+03    0.57283E-05   -0.12089E-04  6656   0.186E-02    0.127E-02
DAV:   3    -0.443207561292E+03    0.19149E-05   -0.12004E-05  8192   0.518E-03
   2 F= -.44490542E+03 E0= -.44490539E+03  d E =-.646233E-04  mag=     0.0000
