C  N  Be
 1.0000000000000000
    12.3000000000000007    0.0000000000000000    0.0000000000000000
    -6.1499999999999977   10.6521124665485960    0.0000000000000000
     0.0000000000000000    0.0000000000000000   20.0000000000000000
 C   N   Be 
  44   4   1
Direct
  0.9992570000000001  0.0007430000000000  0.7500000000000000
  0.1318460000000000  0.0651800000000000  0.7500000000000000
  0.1985110000000000  0.9985190000000000  0.7500000000000000
  0.3313290000000000  0.0641950000000000  0.7500000000000000
  0.3987230000000000  0.9980250000000001  0.7500000000000000
  0.5316000000000000  0.0685200000000000  0.7500000000000000
  0.5989910000000001  0.0010450000000000  0.7500000000000000
  0.7320670000000001  0.0697070000000000  0.7500000000000000
  0.7992110000000001  0.0023020000000000  0.7500000000000000
  0.9322410000000000  0.0677590000000000  0.7500000000000000
  0.9976980000000002  0.2007890000000000  0.7500000000000000
  0.1313550000000000  0.2653920000000000  0.7500000000000000
  0.1975260000000001  0.1979980000000000  0.7500000000000000
  0.3296230000000000  0.2634370000000000  0.7500000000000000
  0.3967680000000001  0.1962920000000000  0.7500000000000000
  0.5930010000000000  0.2042700000000000  0.7500000000000000
  0.7277630000000000  0.2722370000000000  0.7500000000000000
  0.7960330000000000  0.2039670000000000  0.7500000000000000
  0.9302930000000001  0.2679330000000000  0.7500000000000000
  0.9989550000000000  0.4010090000000000  0.7500000000000000
  0.1343760000000001  0.4656620000000001  0.7500000000000000
  0.2018490000000001  0.3982710000000000  0.7500000000000000
  0.3376010000000000  0.4596710000000000  0.7500000000000000
  0.7957300000000000  0.4069990000000000  0.7500000000000000
  0.9314800000000001  0.4684000000000000  0.7500000000000000
  0.0019750000000000  0.6012770000000000  0.7500000000000000
  0.1356330000000000  0.6658830000000000  0.7500000000000000
  0.2030380000000000  0.5987380000000000  0.7500000000000000
  0.3372980000000000  0.6627020000000000  0.7500000000000000
  0.4055670000000000  0.5944330000000000  0.7500000000000000
  0.5403289999999999  0.6623990000000000  0.7500000000000000
  0.7365630000000001  0.6703770000000000  0.7500000000000000
  0.8037080000000000  0.6032320000000000  0.7500000000000000
  0.9358050000000000  0.6686710000000000  0.7500000000000000
  0.0014810000000001  0.8014890000000001  0.7500000000000000
  0.1340730000000000  0.8659270000000000  0.7500000000000000
  0.2010880000000000  0.7989120000000000  0.7500000000000000
  0.3341170000000000  0.8643670000000000  0.7500000000000000
  0.4012620000000000  0.7969619999999999  0.7500000000000000
  0.5343380000000000  0.8656239999999999  0.7500000000000000
  0.6017290000000001  0.7981510000000002  0.7500000000000000
  0.7346080000000001  0.8686450000000001  0.7500000000000000
  0.8020020000000002  0.8024740000000001  0.7500000000000000
  0.9348200000000000  0.8681540000000000  0.7500000000000000
  0.5249790000000000  0.2669460000000000  0.7500000000000000
  0.4002780000000000  0.3916490000000001  0.7500000000000000
  0.7330540000000000  0.4750210000000000  0.7500000000000000
  0.6083510000000000  0.5997220000000000  0.7500000000000000
  0.5666660000000000  0.4333340000000001  0.7500000000000000
