       N       E                     dE             d eps       ncg     rms          ort
DAV:   1     0.501804105382E+02    0.50180E+02   -0.34357E+03   256   0.303E+01
DAV:   2    -0.368164825066E+00   -0.50549E+02   -0.50503E+02   256   0.194E+00
DAV:   3    -0.436324296715E+00   -0.68159E-01   -0.68046E-01   256   0.321E-01
DAV:   4    -0.436420568200E+00   -0.96271E-04   -0.96271E-04   256   0.165E-02
DAV:   5    -0.436420574011E+00   -0.58109E-08   -0.53593E-08   256   0.100E-04
SDA:   6    -0.513931586087E+00   -0.77511E-01   -0.53593E-08   256   0.254E-01 0.000E+00
CGA:   7    -0.522420418205E+00   -0.84888E-02   -0.84916E-02   256   0.833E-02-0.124E-04
CGA:   8    -0.524959513737E+00   -0.25391E-02   -0.25400E-02   256   0.351E-02-0.135E-04
CGA:   9    -0.526452110367E+00   -0.14926E-02   -0.14931E-02   256   0.889E-03-0.412E-05
CGA:  10    -0.526950503436E+00   -0.49839E-03   -0.49870E-03   256   0.129E-03-0.481E-06
CGA:  11    -0.526999075299E+00   -0.48572E-04   -0.48649E-04   256   0.269E-04-0.548E-06
CGA:  12    -0.527065721079E+00   -0.66646E-04   -0.39827E-04   256   0.570E-03 0.151E-04
CGA:  13    -0.527378352810E+00   -0.31263E-03   -0.15342E-03   256   0.472E-01-0.790E-03
CGA:  14    -0.539543692128E+00   -0.12165E-01   -0.11607E-01   256   0.207E-01 0.159E-02
CGA:  15    -0.548644668407E+00   -0.91010E-02   -0.10800E-01   256   0.138E-01-0.861E-03
CGA:  16    -0.551473368534E+00   -0.28287E-02   -0.33158E-02   256   0.169E-02-0.973E-03
CGA:  17    -0.552287163249E+00   -0.81379E-03   -0.81827E-03   256   0.111E-02 0.847E-05
CGA:  18    -0.554427312527E+00   -0.21401E-02    0.14004E-02   256   0.519E-02 0.164E-02
CGA:  19    -0.563820816588E+00   -0.93935E-02    0.85077E-02   256   0.193E-01 0.723E-02
CGA:  20    -0.583237457842E+00   -0.19417E-01   -0.21611E-01   256   0.287E-01-0.268E-02
CGA:  21    -0.590730328575E+00   -0.74929E-02   -0.84477E-02   256   0.169E-02-0.119E-02
CGA:  22    -0.591529371656E+00   -0.79904E-03   -0.80386E-03   256   0.218E-03 0.184E-05
CGA:  23    -0.591645167244E+00   -0.11580E-03   -0.11612E-03   256   0.731E-04 0.694E-06
CGA:  24    -0.591678994833E+00   -0.33828E-04   -0.33752E-04   256   0.240E-04-0.598E-06
CGA:  25    -0.591691031898E+00   -0.12037E-04   -0.12111E-04   256   0.283E-05 0.339E-06
CGA:  26    -0.591692452006E+00   -0.14201E-05   -0.13844E-05   256   0.833E-06-0.169E-06
   1 F= -.59169245E+00 E0= -.57758773E+00  d E =-.282094E-01  mag=     2.0000
