C  N  Ce                                
   1.00000000000000     
    12.3000000000000007    0.0000000000000000    0.0000000000000000
    -6.1499999999999977   10.6521124665485960    0.0000000000000000
     0.0000000000000000    0.0000000000000000   20.0000000000000000
   C    N    Ce
    44     4     1
Direct
  0.9993708814930642  0.0006296385161519  0.7490108622512608
  0.1320424002454956  0.0655733107037051  0.7495303496226526
  0.1988707579740847  0.9987489304092421  0.7494880928821814
  0.3308945819108615  0.0640790704108625  0.7495942590556126
  0.3986088371457512  0.9980379683861358  0.7476251073894247
  0.5322533131710543  0.0665346521631065  0.7463705339658020
  0.5997541999939244  0.0005222426125329  0.7452390390178323
  0.7325696831466502  0.0684647117737924  0.7459356636415677
  0.7997382545914107  0.0013146253956720  0.7470196106772420
  0.9327993040012359  0.0672260517282837  0.7479477958251834
  0.9987030454968888  0.2002873633076874  0.7470287924322463
  0.1313841549250938  0.2653278060459172  0.7477304903282018
  0.1974012722775456  0.1975850766573899  0.7496787478509574
  0.3303095003265639  0.2646258610647720  0.7519700935695397
  0.3979542583489177  0.1969758436392297  0.7519915959635597
  0.5952576585049059  0.1998541286150513  0.7491413863950527
  0.7300644181171521  0.2699127001260493  0.7484261111965722
  0.7976941499113579  0.2023085425725100  0.7464791334267815
  0.9315503730244572  0.2674444865528471  0.7459445869598085
  0.9994779922530839  0.4002520496188211  0.7452586192068935
  0.1339094083475487  0.4664441345377170  0.7452324119324416
  0.1999382915593415  0.3989280146643779  0.7464018124845708
  0.3333079479718748  0.4619265861959789  0.7490973414608959
  0.8000879219714605  0.4047354073094951  0.7491551018365499
  0.9334317306410966  0.4677414939200162  0.7463961385616500
  0.0019320843437498  0.6013745259118650  0.7476295779411970
  0.1346283150125700  0.6663865053384299  0.7468657564100027
  0.2018015801588859  0.5992440995861443  0.7458280626878420
  0.3356441291532946  0.6643488825194339  0.7463815481099800
  0.4032822889993497  0.5967524416944698  0.7484154890514105
  0.5380826445638078  0.6667699718339293  0.7491746512961583
  0.7353397945247906  0.6696879832162139  0.7520691691415067
  0.8030219457490162  0.6020764238334309  0.7520266625621090
  0.9359197502710614  0.6691223611634953  0.7496070336585774
  0.0012537233923737  0.8011405738868405  0.7494860422066978
  0.1339383229658679  0.8660683144772605  0.7489319749479506
  0.2005126581160326  0.7994689763278231  0.7477965369571322
  0.3335964781595848  0.8653549699297827  0.7468740997423211
  0.4007546757015987  0.7981865797922580  0.7458303796049108
  0.5335603626050229  0.8661010829595526  0.7452156813094390
  0.6010848796104895  0.8001015501259161  0.7464032762361796
  0.7346970907216743  0.8686429376455749  0.7477287064270470
  0.8023986442408315  0.8025910981494775  0.7496940411712103
  0.9344213310854173  0.8679598289766872  0.7495192805625379
  0.5271075894395238  0.2601775682926402  0.7547773560170725
  0.3935890170532730  0.3937604946972826  0.7546700753074447
  0.7398104130874472  0.4729332409524432  0.7547623024999979
  0.6061931433147620  0.6064333728455154  0.7548815338119113
  0.5666418003787186  0.4332495189162060  0.8187380844049059
 
  0.00000000E+00  0.00000000E+00  0.00000000E+00
  0.00000000E+00  0.00000000E+00  0.00000000E+00
  0.00000000E+00  0.00000000E+00  0.00000000E+00
  0.00000000E+00  0.00000000E+00  0.00000000E+00
  0.00000000E+00  0.00000000E+00  0.00000000E+00
  0.00000000E+00  0.00000000E+00  0.00000000E+00
  0.00000000E+00  0.00000000E+00  0.00000000E+00
  0.00000000E+00  0.00000000E+00  0.00000000E+00
  0.00000000E+00  0.00000000E+00  0.00000000E+00
  0.00000000E+00  0.00000000E+00  0.00000000E+00
  0.00000000E+00  0.00000000E+00  0.00000000E+00
  0.00000000E+00  0.00000000E+00  0.00000000E+00
  0.00000000E+00  0.00000000E+00  0.00000000E+00
  0.00000000E+00  0.00000000E+00  0.00000000E+00
  0.00000000E+00  0.00000000E+00  0.00000000E+00
  0.00000000E+00  0.00000000E+00  0.00000000E+00
  0.00000000E+00  0.00000000E+00  0.00000000E+00
  0.00000000E+00  0.00000000E+00  0.00000000E+00
  0.00000000E+00  0.00000000E+00  0.00000000E+00
  0.00000000E+00  0.00000000E+00  0.00000000E+00
  0.00000000E+00  0.00000000E+00  0.00000000E+00
  0.00000000E+00  0.00000000E+00  0.00000000E+00
  0.00000000E+00  0.00000000E+00  0.00000000E+00
  0.00000000E+00  0.00000000E+00  0.00000000E+00
  0.00000000E+00  0.00000000E+00  0.00000000E+00
  0.00000000E+00  0.00000000E+00  0.00000000E+00
  0.00000000E+00  0.00000000E+00  0.00000000E+00
  0.00000000E+00  0.00000000E+00  0.00000000E+00
  0.00000000E+00  0.00000000E+00  0.00000000E+00
  0.00000000E+00  0.00000000E+00  0.00000000E+00
  0.00000000E+00  0.00000000E+00  0.00000000E+00
  0.00000000E+00  0.00000000E+00  0.00000000E+00
  0.00000000E+00  0.00000000E+00  0.00000000E+00
  0.00000000E+00  0.00000000E+00  0.00000000E+00
  0.00000000E+00  0.00000000E+00  0.00000000E+00
  0.00000000E+00  0.00000000E+00  0.00000000E+00
  0.00000000E+00  0.00000000E+00  0.00000000E+00
  0.00000000E+00  0.00000000E+00  0.00000000E+00
  0.00000000E+00  0.00000000E+00  0.00000000E+00
  0.00000000E+00  0.00000000E+00  0.00000000E+00
  0.00000000E+00  0.00000000E+00  0.00000000E+00
  0.00000000E+00  0.00000000E+00  0.00000000E+00
  0.00000000E+00  0.00000000E+00  0.00000000E+00
  0.00000000E+00  0.00000000E+00  0.00000000E+00
  0.00000000E+00  0.00000000E+00  0.00000000E+00
  0.00000000E+00  0.00000000E+00  0.00000000E+00
  0.00000000E+00  0.00000000E+00  0.00000000E+00
  0.00000000E+00  0.00000000E+00  0.00000000E+00
  0.00000000E+00  0.00000000E+00  0.00000000E+00
