C  N  Yb                                
   1.00000000000000     
    12.3000000000000007    0.0000000000000000    0.0000000000000000
    -6.1499999999999977   10.6521124665485960    0.0000000000000000
     0.0000000000000000    0.0000000000000000   20.0000000000000000
   C    N    Yb
    44     4     1
Direct
  0.9993920000000003  0.0006079999999997  0.7455479999999994
  0.1318989999999971  0.0651909999999987  0.7459920000000011
  0.1985039999999998  0.9985720000000029  0.7460730000000027
  0.3310699999999969  0.0641589999999965  0.7483110000000011
  0.3986680000000007  0.9980320000000020  0.7478580000000008
  0.5319270000000031  0.0664659999999984  0.7488299999999981
  0.5994430000000008  0.0004059999999981  0.7473859999999988
  0.7325879999999998  0.0688329999999979  0.7480100000000007
  0.7997090000000000  0.0018839999999969  0.7469570000000019
  0.9326069999999973  0.0673930000000027  0.7464390000000023
  0.9981160000000031  0.2002910000000000  0.7469570000000019
  0.1313540000000017  0.2653570000000016  0.7477220000000031
  0.1974790000000013  0.1977540000000033  0.7481569999999991
  0.3295099999999991  0.2641989999999979  0.7534649999999985
  0.3974899999999977  0.1962150000000022  0.7535329999999973
  0.5941449999999975  0.2002129999999980  0.7542499999999990
  0.7295540000000003  0.2704459999999997  0.7538330000000002
  0.7971590000000006  0.2028409999999994  0.7498270000000034
  0.9311670000000021  0.2674120000000002  0.7480100000000007
  0.9995949999999993  0.4005569999999992  0.7473859999999988
  0.1338130000000035  0.4661669999999987  0.7473590000000030
  0.1998379999999997  0.3985950000000003  0.7487339999999989
  0.3335739999999987  0.4607960000000020  0.7541870000000017
  0.7997870000000020  0.4058550000000025  0.7542499999999990
  0.9335340000000016  0.4680729999999969  0.7488299999999981
  0.0019679999999980  0.6013319999999993  0.7478580000000008
  0.1352150000000023  0.6663840000000008  0.7470289999999977
  0.2021950000000032  0.5992820000000023  0.7480079999999987
  0.3361930000000015  0.6638069999999985  0.7498160000000027
  0.4037920000000028  0.5962079999999972  0.7538070000000019
  0.5392039999999980  0.6664260000000013  0.7541870000000017
  0.7358010000000021  0.6704900000000009  0.7534649999999985
  0.8037849999999978  0.6025100000000023  0.7535329999999973
  0.9358399999999989  0.6689300000000031  0.7483110000000011
  0.0014279999999971  0.8014960000000002  0.7460730000000027
  0.1339380000000006  0.8660619999999994  0.7456400000000016
  0.2007159999999999  0.7992840000000001  0.7465329999999994
  0.3336159999999992  0.8647849999999977  0.7470289999999977
  0.4007179999999977  0.7978049999999968  0.7480079999999987
  0.5338330000000013  0.8661870000000036  0.7473590000000030
  0.6014049999999997  0.8001620000000003  0.7487339999999989
  0.7346429999999984  0.8686459999999983  0.7477220000000031
  0.8022459999999967  0.8025209999999987  0.7481569999999991
  0.9348090000000013  0.8681010000000029  0.7459920000000011
  0.5256139999999974  0.2595150000000004  0.7605050000000020
  0.3928659999999979  0.3922910000000002  0.7604490000000013
  0.7404849999999996  0.4743860000000026  0.7605050000000020
  0.6077089999999998  0.6071340000000021  0.7604490000000013
  0.5666530000000023  0.4333469999999977  0.8179299999999969
 
  0.00000000E+00  0.00000000E+00  0.00000000E+00
  0.00000000E+00  0.00000000E+00  0.00000000E+00
  0.00000000E+00  0.00000000E+00  0.00000000E+00
  0.00000000E+00  0.00000000E+00  0.00000000E+00
  0.00000000E+00  0.00000000E+00  0.00000000E+00
  0.00000000E+00  0.00000000E+00  0.00000000E+00
  0.00000000E+00  0.00000000E+00  0.00000000E+00
  0.00000000E+00  0.00000000E+00  0.00000000E+00
  0.00000000E+00  0.00000000E+00  0.00000000E+00
  0.00000000E+00  0.00000000E+00  0.00000000E+00
  0.00000000E+00  0.00000000E+00  0.00000000E+00
  0.00000000E+00  0.00000000E+00  0.00000000E+00
  0.00000000E+00  0.00000000E+00  0.00000000E+00
  0.00000000E+00  0.00000000E+00  0.00000000E+00
  0.00000000E+00  0.00000000E+00  0.00000000E+00
  0.00000000E+00  0.00000000E+00  0.00000000E+00
  0.00000000E+00  0.00000000E+00  0.00000000E+00
  0.00000000E+00  0.00000000E+00  0.00000000E+00
  0.00000000E+00  0.00000000E+00  0.00000000E+00
  0.00000000E+00  0.00000000E+00  0.00000000E+00
  0.00000000E+00  0.00000000E+00  0.00000000E+00
  0.00000000E+00  0.00000000E+00  0.00000000E+00
  0.00000000E+00  0.00000000E+00  0.00000000E+00
  0.00000000E+00  0.00000000E+00  0.00000000E+00
  0.00000000E+00  0.00000000E+00  0.00000000E+00
  0.00000000E+00  0.00000000E+00  0.00000000E+00
  0.00000000E+00  0.00000000E+00  0.00000000E+00
  0.00000000E+00  0.00000000E+00  0.00000000E+00
  0.00000000E+00  0.00000000E+00  0.00000000E+00
  0.00000000E+00  0.00000000E+00  0.00000000E+00
  0.00000000E+00  0.00000000E+00  0.00000000E+00
  0.00000000E+00  0.00000000E+00  0.00000000E+00
  0.00000000E+00  0.00000000E+00  0.00000000E+00
  0.00000000E+00  0.00000000E+00  0.00000000E+00
  0.00000000E+00  0.00000000E+00  0.00000000E+00
  0.00000000E+00  0.00000000E+00  0.00000000E+00
  0.00000000E+00  0.00000000E+00  0.00000000E+00
  0.00000000E+00  0.00000000E+00  0.00000000E+00
  0.00000000E+00  0.00000000E+00  0.00000000E+00
  0.00000000E+00  0.00000000E+00  0.00000000E+00
  0.00000000E+00  0.00000000E+00  0.00000000E+00
  0.00000000E+00  0.00000000E+00  0.00000000E+00
  0.00000000E+00  0.00000000E+00  0.00000000E+00
  0.00000000E+00  0.00000000E+00  0.00000000E+00
  0.00000000E+00  0.00000000E+00  0.00000000E+00
  0.00000000E+00  0.00000000E+00  0.00000000E+00
  0.00000000E+00  0.00000000E+00  0.00000000E+00
  0.00000000E+00  0.00000000E+00  0.00000000E+00
  0.00000000E+00  0.00000000E+00  0.00000000E+00
