       N       E                     dE             d eps       ncg     rms          rms(c)
DAV:   1    -0.438918152656E+03   -0.43892E+03   -0.10605E+03 19712   0.122E+02    0.880E-01
DAV:   2    -0.440944061220E+03   -0.20259E+01   -0.20462E+01 19968   0.165E+01    0.225E+00
DAV:   3    -0.440821559663E+03    0.12250E+00   -0.90394E-01 19456   0.139E+01    0.269E-01
DAV:   4    -0.440822467062E+03   -0.90740E-03   -0.30169E-02 19968   0.832E-01    0.351E-01
DAV:   5    -0.440824189934E+03   -0.17229E-02   -0.38261E-02 19968   0.158E+00    0.556E-01
DAV:   6    -0.440822183100E+03    0.20068E-02   -0.68336E-03 19968   0.776E-01    0.264E-01
DAV:   7    -0.440821736139E+03    0.44696E-03   -0.86190E-04 19968   0.353E-01    0.291E-01
DAV:   8    -0.440821597061E+03    0.13908E-03   -0.70988E-04 18944   0.333E-01    0.256E-01
DAV:   9    -0.440821711997E+03   -0.11494E-03   -0.12634E-04 19968   0.125E-01    0.336E-01
DAV:  10    -0.440820727247E+03    0.98475E-03   -0.18767E-03 19712   0.453E-01    0.290E-01
DAV:  11    -0.440822117245E+03   -0.13900E-02   -0.29165E-03 19712   0.521E-01    0.404E-01
DAV:  12    -0.440822485457E+03   -0.36821E-03   -0.13390E-03 19712   0.356E-01    0.413E-01
DAV:  13    -0.440822547181E+03   -0.61724E-04   -0.28228E-04 19968   0.209E-01    0.433E-01
DAV:  14    -0.440822546713E+03    0.46846E-06   -0.67116E-05 19456   0.136E-01
   1 F= -.44258679E+03 E0= -.44257640E+03  d E =-.207711E-01  mag=     0.0640
