C  N  Cr                                
   1.00000000000000     
    12.3000000000000007    0.0000000000000000    0.0000000000000000
    -6.1499999999999977   10.6521124665485960    0.0000000000000000
     0.0000000000000000    0.0000000000000000   20.0000000000000000
   C    N    Cr
    44     4     1
Direct
  0.9992154616961564  0.0007845948000329  0.7500037792868263
  0.1310138958795523  0.0642771958765487  0.7499945633614039
  0.1976211231293850  0.9976698005975753  0.7499920036740397
  0.3298113570500847  0.0623790014541322  0.7499680063224738
  0.3984145621970756  0.9972576867115174  0.7499902962709994
  0.5314897902755884  0.0658469954214447  0.7499788329606221
  0.5993620413014268  0.0003379373689185  0.7499885547353357
  0.7324480556960685  0.0692716817523715  0.7499995302218004
  0.7996551271672308  0.0025203932636075  0.7500039961312283
  0.9323707284297540  0.0676290631584873  0.7500002149876666
  0.9974795147182263  0.2003447535911662  0.7500040204529977
  0.1305116829799550  0.2650505772864133  0.7499900334801051
  0.1955934205741518  0.1964557840053003  0.7499696800538928
  0.3267135495911990  0.2614475514000547  0.7499822698755425
  0.3946698062728226  0.1934400999650371  0.7499859076414616
  0.5936445362241839  0.1998496420124135  0.7500191482097487
  0.7290642689500065  0.2709356529122890  0.7500116543922354
  0.7967288441056010  0.2032709624584198  0.7499992177656816
  0.9307280922750424  0.2675516992174390  0.7499995545310919
  0.9996621631971294  0.4006377145257908  0.7499887848626924
  0.1336913309461408  0.4659479168980936  0.7499891383082398
  0.1992156251548096  0.3981693659255087  0.7499778329775636
  0.3332164591977788  0.4603893388957889  0.7500205255752403
  0.8001504788434712  0.4063553929938104  0.7500191909675860
  0.9341531043413930  0.4685100538120652  0.7499791999409863
  0.0027423275176712  0.6015852619155643  0.7499901759111575
  0.1357984398729158  0.6662299956357285  0.7500024299220354
  0.2026017956283448  0.5990334606239467  0.7500000613822646
  0.3365772754070609  0.6634225397908506  0.7500016401759663
  0.4042370932579409  0.5957628959694482  0.7500200316348514
  0.5396106721492351  0.6667836718388143  0.7500207160882343
  0.7385525289870001  0.6732865555437298  0.7499818583282725
  0.8065599618822794  0.6053301446750019  0.7499853719712198
  0.9376210763457851  0.6701885738013297  0.7499675918822092
  0.0023302223699029  0.8023788300550456  0.7499916433283395
  0.1341791841601524  0.8658208025143740  0.7500041608776598
  0.2010260846262448  0.7989737504688125  0.7500042565334040
  0.3337698521614508  0.8642014680163723  0.7500024697635199
  0.4009663309220917  0.7973980252660710  0.7500000887367001
  0.5340519176336390  0.8663087983426374  0.7499893254194996
  0.6018305475757585  0.8007845162254236  0.7499781784947035
  0.7349493174698123  0.8694883088595655  0.7499899102543240
  0.8035442433555935  0.8044066448834837  0.7499692504808307
  0.9357227962915212  0.8689860766647859  0.7499941771025065
  0.5232227375831424  0.2569517343297628  0.7501146091462729
  0.3903026479354298  0.3899534819167915  0.7501145161907702
  0.7430483435685824  0.4767772270662439  0.7501141352114287
  0.6100465534457704  0.6096974239799289  0.7501144061348121
  0.5666740296584247  0.4333259553120676  0.7507900580415831
 
  0.00000000E+00  0.00000000E+00  0.00000000E+00
  0.00000000E+00  0.00000000E+00  0.00000000E+00
  0.00000000E+00  0.00000000E+00  0.00000000E+00
  0.00000000E+00  0.00000000E+00  0.00000000E+00
  0.00000000E+00  0.00000000E+00  0.00000000E+00
  0.00000000E+00  0.00000000E+00  0.00000000E+00
  0.00000000E+00  0.00000000E+00  0.00000000E+00
  0.00000000E+00  0.00000000E+00  0.00000000E+00
  0.00000000E+00  0.00000000E+00  0.00000000E+00
  0.00000000E+00  0.00000000E+00  0.00000000E+00
  0.00000000E+00  0.00000000E+00  0.00000000E+00
  0.00000000E+00  0.00000000E+00  0.00000000E+00
  0.00000000E+00  0.00000000E+00  0.00000000E+00
  0.00000000E+00  0.00000000E+00  0.00000000E+00
  0.00000000E+00  0.00000000E+00  0.00000000E+00
  0.00000000E+00  0.00000000E+00  0.00000000E+00
  0.00000000E+00  0.00000000E+00  0.00000000E+00
  0.00000000E+00  0.00000000E+00  0.00000000E+00
  0.00000000E+00  0.00000000E+00  0.00000000E+00
  0.00000000E+00  0.00000000E+00  0.00000000E+00
  0.00000000E+00  0.00000000E+00  0.00000000E+00
  0.00000000E+00  0.00000000E+00  0.00000000E+00
  0.00000000E+00  0.00000000E+00  0.00000000E+00
  0.00000000E+00  0.00000000E+00  0.00000000E+00
  0.00000000E+00  0.00000000E+00  0.00000000E+00
  0.00000000E+00  0.00000000E+00  0.00000000E+00
  0.00000000E+00  0.00000000E+00  0.00000000E+00
  0.00000000E+00  0.00000000E+00  0.00000000E+00
  0.00000000E+00  0.00000000E+00  0.00000000E+00
  0.00000000E+00  0.00000000E+00  0.00000000E+00
  0.00000000E+00  0.00000000E+00  0.00000000E+00
  0.00000000E+00  0.00000000E+00  0.00000000E+00
  0.00000000E+00  0.00000000E+00  0.00000000E+00
  0.00000000E+00  0.00000000E+00  0.00000000E+00
  0.00000000E+00  0.00000000E+00  0.00000000E+00
  0.00000000E+00  0.00000000E+00  0.00000000E+00
  0.00000000E+00  0.00000000E+00  0.00000000E+00
  0.00000000E+00  0.00000000E+00  0.00000000E+00
  0.00000000E+00  0.00000000E+00  0.00000000E+00
  0.00000000E+00  0.00000000E+00  0.00000000E+00
  0.00000000E+00  0.00000000E+00  0.00000000E+00
  0.00000000E+00  0.00000000E+00  0.00000000E+00
  0.00000000E+00  0.00000000E+00  0.00000000E+00
  0.00000000E+00  0.00000000E+00  0.00000000E+00
  0.00000000E+00  0.00000000E+00  0.00000000E+00
  0.00000000E+00  0.00000000E+00  0.00000000E+00
  0.00000000E+00  0.00000000E+00  0.00000000E+00
  0.00000000E+00  0.00000000E+00  0.00000000E+00
  0.00000000E+00  0.00000000E+00  0.00000000E+00
