C  N  Ge                                
   1.00000000000000     
    12.3000000000000007    0.0000000000000000    0.0000000000000000
    -6.1499999999999977   10.6521124665485960    0.0000000000000000
     0.0000000000000000    0.0000000000000000   20.0000000000000000
   C    N    Ge
    44     4     1
Direct
  0.9992618821606651  0.0007381300352720  0.7417773944918138
  0.1317257992981901  0.0650558178583039  0.7415981370334629
  0.1983843223743944  0.9984076617276501  0.7415386429789040
  0.3309393690360944  0.0637869786391042  0.7449414245571956
  0.3986483190384666  0.9978507101366472  0.7469090998165975
  0.5316292687968239  0.0672571244205380  0.7498296288148115
  0.5992475013067886  0.0007174021029358  0.7494968912193346
  0.7323509518385791  0.0693754678369552  0.7495398709006758
  0.7994949864102970  0.0023110951743998  0.7467701074588636
  0.9323773684442982  0.0676226286773233  0.7448009104422262
  0.9976889241335922  0.2005050225631836  0.7467701081197734
  0.1311542584845113  0.2653022555305785  0.7469895131009591
  0.1970878003820525  0.1975918721151107  0.7450134878881645
  0.3288326172917934  0.2631467161693388  0.7501584769555381
  0.3964624226942051  0.1955329320127137  0.7501476803766954
  0.5934200319307081  0.2019088781952990  0.7540805639048264
  0.7286303015507800  0.2713697128447012  0.7549490916988906
  0.7964701560714998  0.2035298596569848  0.7515089335179241
  0.9306245313013776  0.2676490463682720  0.7495398708946285
  0.9992825917881138  0.4007525144619927  0.7494968913500578
  0.1340470669623733  0.4658993079251775  0.7494290202144464
  0.2005701758728895  0.3982676458943300  0.7498027189546289
  0.3352299652338107  0.4600894109889863  0.7540434163226311
  0.7980910977311813  0.4065799995270856  0.7540805630471952
  0.9327428405319295  0.4683707404517218  0.7498296287776540
  0.0021492174709038  0.6013516967072539  0.7469090996211090
  0.1356265289767958  0.6661332561311979  0.7466181094471223
  0.2027071787957279  0.5990072954535658  0.7493934496249388
  0.3368674408998937  0.6631325497713413  0.7513300305409961
  0.4047004442591609  0.5952995236020958  0.7548582165634944
  0.5399105425241131  0.6647700486607891  0.7540434181587475
  0.7368531717389053  0.6711674017797411  0.7501584726002487
  0.8044669107516783  0.6035375734263065  0.7501476632145321
  0.9362128669176973  0.6690605938103956  0.7449414267517749
  0.0015922799839786  0.8016156286159136  0.7415386466522699
  0.1340752049040942  0.8659247492398657  0.7416744032064256
  0.2009623039833440  0.7990376641859132  0.7446142288563460
  0.3338667508041929  0.8643734248263462  0.7466181109371994
  0.4009927072658249  0.7972927876359102  0.7493934508730486
  0.5341006977494760  0.8659529329907412  0.7494290199073125
  0.6017323482526504  0.7994298342257266  0.7498027180537418
  0.7346977375572957  0.8688457635455308  0.7469895127795335
  0.8024081295512080  0.8029122349308826  0.7450134861754568
  0.9349441620437100  0.8682742051448693  0.7415981380116873
  0.5237267240425303  0.2610034790582252  0.7569467767304700
  0.3943147178905021  0.3904042835962521  0.7569907859227221
  0.7389964029877192  0.4762732423195905  0.7569467721178177
  0.6095956310614004  0.6056852837682400  0.7569907908689244
  0.5666963489217518  0.4333036152587262  0.8050101995461820
 
  0.00000000E+00  0.00000000E+00  0.00000000E+00
  0.00000000E+00  0.00000000E+00  0.00000000E+00
  0.00000000E+00  0.00000000E+00  0.00000000E+00
  0.00000000E+00  0.00000000E+00  0.00000000E+00
  0.00000000E+00  0.00000000E+00  0.00000000E+00
  0.00000000E+00  0.00000000E+00  0.00000000E+00
  0.00000000E+00  0.00000000E+00  0.00000000E+00
  0.00000000E+00  0.00000000E+00  0.00000000E+00
  0.00000000E+00  0.00000000E+00  0.00000000E+00
  0.00000000E+00  0.00000000E+00  0.00000000E+00
  0.00000000E+00  0.00000000E+00  0.00000000E+00
  0.00000000E+00  0.00000000E+00  0.00000000E+00
  0.00000000E+00  0.00000000E+00  0.00000000E+00
  0.00000000E+00  0.00000000E+00  0.00000000E+00
  0.00000000E+00  0.00000000E+00  0.00000000E+00
  0.00000000E+00  0.00000000E+00  0.00000000E+00
  0.00000000E+00  0.00000000E+00  0.00000000E+00
  0.00000000E+00  0.00000000E+00  0.00000000E+00
  0.00000000E+00  0.00000000E+00  0.00000000E+00
  0.00000000E+00  0.00000000E+00  0.00000000E+00
  0.00000000E+00  0.00000000E+00  0.00000000E+00
  0.00000000E+00  0.00000000E+00  0.00000000E+00
  0.00000000E+00  0.00000000E+00  0.00000000E+00
  0.00000000E+00  0.00000000E+00  0.00000000E+00
  0.00000000E+00  0.00000000E+00  0.00000000E+00
  0.00000000E+00  0.00000000E+00  0.00000000E+00
  0.00000000E+00  0.00000000E+00  0.00000000E+00
  0.00000000E+00  0.00000000E+00  0.00000000E+00
  0.00000000E+00  0.00000000E+00  0.00000000E+00
  0.00000000E+00  0.00000000E+00  0.00000000E+00
  0.00000000E+00  0.00000000E+00  0.00000000E+00
  0.00000000E+00  0.00000000E+00  0.00000000E+00
  0.00000000E+00  0.00000000E+00  0.00000000E+00
  0.00000000E+00  0.00000000E+00  0.00000000E+00
  0.00000000E+00  0.00000000E+00  0.00000000E+00
  0.00000000E+00  0.00000000E+00  0.00000000E+00
  0.00000000E+00  0.00000000E+00  0.00000000E+00
  0.00000000E+00  0.00000000E+00  0.00000000E+00
  0.00000000E+00  0.00000000E+00  0.00000000E+00
  0.00000000E+00  0.00000000E+00  0.00000000E+00
  0.00000000E+00  0.00000000E+00  0.00000000E+00
  0.00000000E+00  0.00000000E+00  0.00000000E+00
  0.00000000E+00  0.00000000E+00  0.00000000E+00
  0.00000000E+00  0.00000000E+00  0.00000000E+00
  0.00000000E+00  0.00000000E+00  0.00000000E+00
  0.00000000E+00  0.00000000E+00  0.00000000E+00
  0.00000000E+00  0.00000000E+00  0.00000000E+00
  0.00000000E+00  0.00000000E+00  0.00000000E+00
  0.00000000E+00  0.00000000E+00  0.00000000E+00
