       N       E                     dE             d eps       ncg     rms          ort
SDA:   1    -0.334974417108E+03   -0.33497E+03    0.00000E+00  3328   0.142E+03 0.000E+00
CGA:   2    -0.401060023242E+03   -0.66086E+02   -0.63314E+02  3328   0.129E+03 0.714E+01
CGA:   3    -0.424953453233E+03   -0.23893E+02   -0.24087E+02  3328   0.447E+02 0.128E+01
CGA:   4    -0.435202702246E+03   -0.10249E+02   -0.10231E+02  3328   0.266E+02 0.384E+00
CGA:   5    -0.439624171350E+03   -0.44215E+01   -0.44282E+01  3328   0.128E+02 0.232E-01
CGA:   6    -0.442089532564E+03   -0.24654E+01   -0.24677E+01  3328   0.455E+01 0.240E-01
CGA:   7    -0.443048287156E+03   -0.95875E+00   -0.95874E+00  3328   0.195E+01-0.309E-02
CGA:   8    -0.443434024176E+03   -0.38574E+00   -0.38568E+00  3328   0.780E+00-0.334E-02
CGA:   9    -0.443614856769E+03   -0.18083E+00   -0.18090E+00  3328   0.260E+00-0.170E-02
CGA:  10    -0.443678311111E+03   -0.63454E-01   -0.63454E-01  3328   0.105E+00 0.338E-05
CGA:  11    -0.443705201709E+03   -0.26891E-01   -0.26885E-01  3328   0.402E-01 0.804E-04
CGA:  12    -0.443717025817E+03   -0.11824E-01   -0.11823E-01  3328   0.173E-01 0.710E-05
CGA:  13    -0.443722368002E+03   -0.53422E-02   -0.53449E-02  3328   0.700E-02-0.293E-04
CGA:  14    -0.443724589456E+03   -0.22215E-02   -0.22233E-02  3328   0.266E-02-0.170E-04
CGA:  15    -0.443725436595E+03   -0.84714E-03   -0.84801E-03  3328   0.904E-03-0.686E-05
CGA:  16    -0.443725736875E+03   -0.30028E-03   -0.30061E-03  3328   0.326E-03-0.205E-05
CGA:  17    -0.443725849682E+03   -0.11281E-03   -0.11267E-03  3328   0.124E-03 0.214E-05
CGA:  18    -0.443725897369E+03   -0.47687E-04   -0.47493E-04  3328   0.544E-04 0.148E-05
CGA:  19    -0.443725917964E+03   -0.20595E-04   -0.20582E-04  3328   0.234E-04 0.161E-06
CGA:  20    -0.443725926955E+03   -0.89901E-05   -0.89718E-05  3328   0.921E-05 0.176E-06
   1 F= -.44544969E+03 E0= -.44543839E+03  d E =-.226027E-01  mag=    -0.0000
