C  N  Sc                                
   1.00000000000000     
    12.3000000000000007    0.0000000000000000    0.0000000000000000
    -6.1499999999999977   10.6521124665485960    0.0000000000000000
     0.0000000000000000    0.0000000000000000   20.0000000000000000
   C    N    Sc
    44     4     1
Direct
  0.9993050379668940  0.0006949125510149  0.7481610021425659
  0.1316962893705498  0.0651426073299255  0.7485447973603699
  0.1984674939493228  0.9983708548358264  0.7485299063352648
  0.3304424007854363  0.0634103655757425  0.7491225627326258
  0.3984807559792690  0.9976826414882561  0.7481966345305012
  0.5321320608074459  0.0667321378984951  0.7479044516942516
  0.5996992861749489  0.0005965510039126  0.7469706295123624
  0.7323966607813128  0.0687595870151240  0.7473946047449144
  0.7996674849782249  0.0015700930998394  0.7476214317313536
  0.9326606773864302  0.0673392882334039  0.7478500822319482
  0.9984298694825444  0.2003324928916279  0.7476214427770972
  0.1309922628412728  0.2651333749288288  0.7482033437833726
  0.1967306201731303  0.1971041205005510  0.7491280295070226
  0.3288728289800616  0.2630020942750090  0.7513311007562277
  0.3962933717266753  0.1955527155508770  0.7513490316090861
  0.5947873947543743  0.2000634065529908  0.7503635396101282
  0.7296063867812677  0.2703935792121021  0.7497949904182072
  0.7973668846558731  0.2026330968145592  0.7480066574293611
  0.9312403925273407  0.2676033345533719  0.7473946051439964
  0.9994034350920569  0.4003007098628338  0.7469706135338292
  0.1339649890776480  0.4663850027106351  0.7469152595189585
  0.2000693308071781  0.3987795120471290  0.7478584574904013
  0.3334182636650216  0.4614709795242153  0.7503315741225294
  0.7999365608593852  0.4052125645780074  0.7503635318971236
  0.9332678367034490  0.4678679201177918  0.7479044238211633
  0.0023173376873120  0.6015192203519566  0.7481965866850014
  0.1348907614894475  0.6663098613269354  0.7475076544735039
  0.2020946236168433  0.5990615692905003  0.7472902022720508
  0.3359546725580384  0.6640453276094497  0.7479217580709697
  0.4037043420311283  0.5962956320754256  0.7497560391068006
  0.5385289923167765  0.6665816899068383  0.7503315604948103
  0.7369978547633622  0.6711270961709300  0.7513310610770362
  0.8044472322634139  0.6037065553516934  0.7513489965773893
  0.9365895845084479  0.6695575404303790  0.7491225122680133
  0.0016291014601249  0.8015324507340306  0.7485298700892650
  0.1340362829765655  0.8659636696156315  0.7481406647566013
  0.2006803743770911  0.7993196171515404  0.7477778905060961
  0.3336901287848720  0.8651092213546612  0.7475076897056659
  0.4009384407816005  0.7979053773395099  0.7472902232471869
  0.5336150047123198  0.8660349953510921  0.7469152724192336
  0.6012205280313294  0.7999322779004373  0.7478584225201645
  0.7348666032490893  0.8690076888796656  0.7482033216035671
  0.8028958345990593  0.8032693073395011  0.7491279941666128
  0.9348573415575733  0.8683036465280854  0.7485447720103272
  0.5256111714096308  0.2600815021579937  0.7546797072518306
  0.3934274862480100  0.3923191790300946  0.7546752282621016
  0.7399184489266879  0.4743887678753586  0.7546797042986988
  0.6076807718795175  0.6065724415739772  0.7546752062109884
  0.5666675034646417  0.4333324215022670  0.7957569574914509
 
  0.00000000E+00  0.00000000E+00  0.00000000E+00
  0.00000000E+00  0.00000000E+00  0.00000000E+00
  0.00000000E+00  0.00000000E+00  0.00000000E+00
  0.00000000E+00  0.00000000E+00  0.00000000E+00
  0.00000000E+00  0.00000000E+00  0.00000000E+00
  0.00000000E+00  0.00000000E+00  0.00000000E+00
  0.00000000E+00  0.00000000E+00  0.00000000E+00
  0.00000000E+00  0.00000000E+00  0.00000000E+00
  0.00000000E+00  0.00000000E+00  0.00000000E+00
  0.00000000E+00  0.00000000E+00  0.00000000E+00
  0.00000000E+00  0.00000000E+00  0.00000000E+00
  0.00000000E+00  0.00000000E+00  0.00000000E+00
  0.00000000E+00  0.00000000E+00  0.00000000E+00
  0.00000000E+00  0.00000000E+00  0.00000000E+00
  0.00000000E+00  0.00000000E+00  0.00000000E+00
  0.00000000E+00  0.00000000E+00  0.00000000E+00
  0.00000000E+00  0.00000000E+00  0.00000000E+00
  0.00000000E+00  0.00000000E+00  0.00000000E+00
  0.00000000E+00  0.00000000E+00  0.00000000E+00
  0.00000000E+00  0.00000000E+00  0.00000000E+00
  0.00000000E+00  0.00000000E+00  0.00000000E+00
  0.00000000E+00  0.00000000E+00  0.00000000E+00
  0.00000000E+00  0.00000000E+00  0.00000000E+00
  0.00000000E+00  0.00000000E+00  0.00000000E+00
  0.00000000E+00  0.00000000E+00  0.00000000E+00
  0.00000000E+00  0.00000000E+00  0.00000000E+00
  0.00000000E+00  0.00000000E+00  0.00000000E+00
  0.00000000E+00  0.00000000E+00  0.00000000E+00
  0.00000000E+00  0.00000000E+00  0.00000000E+00
  0.00000000E+00  0.00000000E+00  0.00000000E+00
  0.00000000E+00  0.00000000E+00  0.00000000E+00
  0.00000000E+00  0.00000000E+00  0.00000000E+00
  0.00000000E+00  0.00000000E+00  0.00000000E+00
  0.00000000E+00  0.00000000E+00  0.00000000E+00
  0.00000000E+00  0.00000000E+00  0.00000000E+00
  0.00000000E+00  0.00000000E+00  0.00000000E+00
  0.00000000E+00  0.00000000E+00  0.00000000E+00
  0.00000000E+00  0.00000000E+00  0.00000000E+00
  0.00000000E+00  0.00000000E+00  0.00000000E+00
  0.00000000E+00  0.00000000E+00  0.00000000E+00
  0.00000000E+00  0.00000000E+00  0.00000000E+00
  0.00000000E+00  0.00000000E+00  0.00000000E+00
  0.00000000E+00  0.00000000E+00  0.00000000E+00
  0.00000000E+00  0.00000000E+00  0.00000000E+00
  0.00000000E+00  0.00000000E+00  0.00000000E+00
  0.00000000E+00  0.00000000E+00  0.00000000E+00
  0.00000000E+00  0.00000000E+00  0.00000000E+00
  0.00000000E+00  0.00000000E+00  0.00000000E+00
  0.00000000E+00  0.00000000E+00  0.00000000E+00
