       N       E                     dE             d eps       ncg     rms          ort
DAV:   1     0.720236634682E+01    0.72024E+01   -0.44427E+03   256   0.361E+01
DAV:   2    -0.372216463318E+01   -0.10925E+02   -0.10894E+02   256   0.352E+00
DAV:   3    -0.372631429580E+01   -0.41497E-02   -0.41487E-02   256   0.881E-02
DAV:   4    -0.372633148936E+01   -0.17194E-04   -0.17193E-04   256   0.697E-03
DAV:   5    -0.372633149080E+01   -0.14422E-08   -0.16907E-08   256   0.540E-05
SDA:   6    -0.373836124308E+01   -0.12030E-01   -0.16907E-08   256   0.743E+00 0.000E+00
CGA:   7    -0.386845980147E+01   -0.13010E+00   -0.13025E+00   256   0.256E+00-0.190E-02
CGA:   8    -0.391031797230E+01   -0.41858E-01   -0.41890E-01   256   0.933E-01-0.895E-03
CGA:   9    -0.393251187830E+01   -0.22194E-01   -0.22161E-01   256   0.462E-01 0.456E-03
CGA:  10    -0.394300793592E+01   -0.10496E-01   -0.10490E-01   256   0.130E-01 0.113E-03
CGA:  11    -0.394577298124E+01   -0.27650E-02   -0.27653E-02   256   0.367E-02-0.258E-04
CGA:  12    -0.394665999501E+01   -0.88701E-03   -0.88715E-03   256   0.116E-02-0.329E-05
CGA:  13    -0.394697508341E+01   -0.31509E-03   -0.31448E-03   256   0.397E-03 0.874E-05
CGA:  14    -0.394708848869E+01   -0.11341E-03   -0.11285E-03   256   0.148E-03 0.704E-05
CGA:  15    -0.394713669641E+01   -0.48208E-04   -0.48282E-04   256   0.516E-04-0.182E-05
CGA:  16    -0.394715625462E+01   -0.19558E-04   -0.26968E-04   256   0.485E-04-0.291E-04
CGA:  17    -0.394710194394E+01    0.54311E-04   -0.45358E-04   256   0.688E-03-0.170E-03
CGA:  18    -0.394727830223E+01   -0.17636E-03   -0.17285E-03   256   0.156E-03-0.279E-03
CGA:  19    -0.394750277612E+01   -0.22447E-03    0.34872E-05   256   0.307E-04 0.157E-04
CGA:  20    -0.394798376825E+01   -0.48099E-03    0.17469E-06   256   0.487E-04 0.231E-04
CGA:  21    -0.394896302566E+01   -0.97926E-03    0.17587E-06   256   0.954E-04 0.587E-04
CGA:  22    -0.395110596936E+01   -0.21429E-02    0.30739E-06   256   0.211E-03 0.137E-03
CGA:  23    -0.395567404765E+01   -0.45681E-02    0.70486E-06   256   0.455E-03 0.302E-03
CGA:  24    -0.396451372040E+01   -0.88397E-02    0.16997E-05   256   0.892E-03 0.623E-03
CGA:  25    -0.397753939279E+01   -0.13026E-01    0.44825E-05   256   0.136E-02 0.108E-02
CGA:  26    -0.398768065058E+01   -0.10141E-01    0.13927E-04   256   0.125E-02 0.127E-02
CGA:  27    -0.399062313157E+01   -0.29425E-02    0.48129E-04   256   0.667E-03 0.891E-03
CGA:  28    -0.399114386934E+01   -0.52074E-03    0.18987E-03   256   0.296E-03 0.434E-03
CGA:  29    -0.399099482666E+01    0.14904E-03   -0.13739E-03   256   0.643E-03-0.394E-03
CGA:  30    -0.399126802268E+01   -0.27320E-03   -0.27320E-03   256   0.583E-03 0.297E-06
CGA:  31    -0.399138435252E+01   -0.11633E-03   -0.11626E-03   256   0.148E-04-0.237E-06
CGA:  32    -0.399139161197E+01   -0.72594E-05   -0.72638E-05   256   0.886E-05-0.152E-06
   1 F= -.39913916E+01 E0= -.39772870E+01  d E =-.282092E-01  mag=     4.0000
