 vasp.5.4.4.18Apr17-6-g9f103f2a35 (build Nov 21 2023 15:34:30) complex          
  
 executed on             LinuxIFC date 2026.09.21  18:47:37
 running on  256 total cores
 distrk:  each k-point on  256 cores,    1 groups
 distr:  one band on NCORES_PER_BAND=   1 cores,  256 groups


--------------------------------------------------------------------------------------------------------


 INCAR:
 POTCAR:   PAW_PBE W_pv 06Sep2000                 

 ----------------------------------------------------------------------------- 
|                                                                             |
|           W    W    AA    RRRRR   N    N  II  N    N   GGGG   !!!           |
|           W    W   A  A   R    R  NN   N  II  NN   N  G    G  !!!           |
|           W    W  A    A  R    R  N N  N  II  N N  N  G       !!!           |
|           W WW W  AAAAAA  RRRRR   N  N N  II  N  N N  G  GGG   !            |
|           WW  WW  A    A  R   R   N   NN  II  N   NN  G    G                |
|           W    W  A    A  R    R  N    N  II  N    N   GGGG   !!!           |
|                                                                             |
|      For optimal performance we recommend to set                            |
|        NCORE= 4 - approx SQRT( number of cores)                             |
|      NCORE specifies how many cores store one orbital (NPAR=cpu/NCORE).     |
|      This setting can  greatly improve the performance of VASP for DFT.     |
|      The default,   NCORE=1            might be grossly inefficient         |
|      on modern multi-core architectures or massively parallel machines.     |
|      Do your own testing !!!!                                               |
|      Unfortunately you need to use the default for GW and RPA calculations. |
|      (for HF NCORE is supported but not extensively tested yet)             |
|                                                                             |
 ----------------------------------------------------------------------------- 

 POTCAR:   PAW_PBE W_pv 06Sep2000                 
   VRHFIN =W : 5p6s5d                                                           
   LEXCH  = PE                                                                  
   EATOM  =  1260.0376 eV,   92.6101 Ry                                         
                                                                                
   TITEL  = PAW_PBE W_pv 06Sep2000                                              
   LULTRA =        F    use ultrasoft PP ?                                      
   IUNSCR =        1    unscreen: 0-lin 1-nonlin 2-no                           
   RPACOR =    2.330    partial core radius                                     
   POMASS =  183.850; ZVAL   =   12.000    mass and valenz                      
   RCORE  =    2.500    outmost cutoff radius                                   
   RWIGS  =    2.750; RWIGS  =    1.455    wigner-seitz radius (au A)           
   ENMAX  =  223.065; ENMIN  =  167.299 eV                                      
   RCLOC  =    2.147    cutoff for local pot                                    
   LCOR   =        T    correct aug charges                                     
   LPAW   =        T    paw PP                                                  
   EAUG   =  373.438                                                            
   DEXC   =    -.018                                                            
   RMAX   =    3.087    core radius for proj-oper                               
   RAUG   =    1.300    factor for augmentation sphere                          
   RDEP   =    2.539    radius for radial grids                                 
   QCUT   =   -4.049; QGAM   =    8.098    optimization parameters              
                                                                                
   Description                                                                  
     l     E      TYP  RCUT    TYP  RCUT                                        
     1   .000     23  2.500                                                     
     1  -.200     23  2.500                                                     
     2   .000     23  2.500                                                     
     2   .000     23  2.500                                                     
     0   .000     23  2.500                                                     
     0   .000     23  2.500                                                     
     3   .000      7   .000                                                     
  local pseudopotential read in
  partial core-charges read in
  atomic valenz-charges read in
  non local Contribution for L=           1  read in
    real space projection operators read in
  non local Contribution for L=           1  read in
    real space projection operators read in
  non local Contribution for L=           2  read in
    real space projection operators read in
  non local Contribution for L=           2  read in
    real space projection operators read in
  non local Contribution for L=           0  read in
    real space projection operators read in
  non local Contribution for L=           0  read in
    real space projection operators read in
    PAW grid and wavefunctions read in
 
   number of l-projection  operators is LMAX  =           6
   number of lm-projection operators is LMMAX =          18
 
 PAW_PBE W_pv 06Sep2000                 :
 energy of atom  1       EATOM=-1260.0376
 kinetic energy error for atom=    0.0019 (will be added to EATOM!!)
 
 
 POSCAR: W                                       
  positions in direct lattice
  No initial velocities read in
 exchange correlation table for  LEXCH =        8
   RHO(1)=    0.500       N(1)  =     2000
   RHO(2)=  100.500       N(2)  =     4000

 VTST: version 3.2, (02/03/18)

 CHAIN: initializing optimizer
 
 OPT: Using VASP Dynamics algorithm
 CHAIN: Read ICHAIN            0
 
 POSCAR: W                                       
  positions in direct lattice
  No initial velocities read in
 


--------------------------------------------------------------------------------------------------------


 ion  position               nearest neighbor table
   1  0.010  0.010  0.751-
 

IMPORTANT INFORMATION: All symmetrisations will be switched off!
NOSYMM: (Re-)initialisation of all symmetry stuff for point group C_1.

 
 

Automatic generation of k-mesh.
 generate k-points for:    1    1    1
Space group operators:
 irot       det(A)        alpha          n_x          n_y          n_z        tau_x        tau_y        tau_z
    1     1.000000     0.000000     1.000000     0.000000     0.000000     0.000000     0.000000     0.000000
 
 Subroutine IBZKPT returns following result:
 ===========================================
 
 Found      1 irreducible k-points:
 
 Following reciprocal coordinates:
            Coordinates               Weight
  0.000000  0.000000  0.000000      1.000000
 
 Following cartesian coordinates:
            Coordinates               Weight
  0.000000  0.000000  0.000000      1.000000
 


--------------------------------------------------------------------------------------------------------




 Dimension of arrays:
   k-points           NKPTS =      1   k-points in BZ     NKDIM =      1   number of bands    NBANDS=    256
   number of dos      NEDOS =    301   number of ions     NIONS =      1
   non local maximal  LDIM  =      6   non local SUM 2l+1 LMDIM =     18
   total plane-waves  NPLWV = ******
   max r-space proj   IRMAX =      1   max aug-charges    IRDMAX=  23958
   dimension x,y,z NGX =   112 NGY =  112 NGZ =  112
   dimension x,y,z NGXF=   224 NGYF=  224 NGZF=  224
   support grid    NGXF=   224 NGYF=  224 NGZF=  224
   ions per type =               1
   NGX,Y,Z   is equivalent  to a cutoff of  12.41, 12.41, 12.41 a.u.
   NGXF,Y,Z  is equivalent  to a cutoff of  24.83, 24.83, 24.83 a.u.

 SYSTEM =  W                                       
 POSCAR =  W                                       

 Startparameter for this run:
   NWRITE =      2    write-flag & timer
   PREC   = accura    normal or accurate (medium, high low for compatibility)
   ISTART =      0    job   : 0-new  1-cont  2-samecut
   ICHARG =      2    charge: 1-file 2-atom 10-const
   ISPIN  =      2    spin polarized calculation?
   LNONCOLLINEAR =      F non collinear calculations
   LSORBIT =      F    spin-orbit coupling
   INIWAV =      1    electr: 0-lowe 1-rand  2-diag
   LASPH  =      T    aspherical Exc in radial PAW
   METAGGA=      F    non-selfconsistent MetaGGA calc.

 Electronic Relaxation 1
   ENCUT  =  520.0 eV  38.22 Ry    6.18 a.u.  27.89 27.89 27.89*2*pi/ulx,y,z
   ENINI  =  520.0     initial cutoff
   ENAUG  =  373.4 eV  augmentation charge cutoff
   NELM   =    200;   NELMIN=  2; NELMDL= -5     # of ELM steps 
   EDIFF  = 0.1E-04   stopping-criterion for ELM
   LREAL  =      F    real-space projection
   NLSPLINE    = F    spline interpolate recip. space projectors
   LCOMPAT=      F    compatible to vasp.4.4
   GGA_COMPAT  = T    GGA compatible to vasp.4.4-vasp.4.6
   LMAXPAW     = -100 max onsite density
   LMAXMIX     =    2 max onsite mixed and CHGCAR
   VOSKOWN=      0    Vosko Wilk Nusair interpolation
   ROPT   =    0.00000
 Ionic relaxation
   EDIFFG = 0.1E-03   stopping-criterion for IOM
   NSW    =      0    number of steps for IOM
   NBLOCK =      1;   KBLOCK =      1    inner block; outer block 
   IBRION =     -1    ionic relax: 0-MD 1-quasi-New 2-CG
   NFREE  =      0    steps in history (QN), initial steepest desc. (CG)
   ISIF   =      0    stress and relaxation
   IWAVPR =     10    prediction:  0-non 1-charg 2-wave 3-comb
   ISYM   =      0    0-nonsym 1-usesym 2-fastsym
   LCORR  =      T    Harris-Foulkes like correction to forces

   POTIM  = 0.5000    time-step for ionic-motion
   TEIN   =    0.0    initial temperature
   TEBEG  =    0.0;   TEEND  =   0.0 temperature during run
   SMASS  =  -3.00    Nose mass-parameter (am)
   estimated Nose-frequenzy (Omega)   =  0.10E-29 period in steps =****** mass=  -0.514E-26a.u.
   SCALEE = 1.0000    scale energy and forces
   NPACO  =    256;   APACO  = 16.0  distance and # of slots for P.C.
   PSTRESS=    0.0 pullay stress

  Mass of Ions in am
   POMASS = 183.85
  Ionic Valenz
   ZVAL   =  12.00
  Atomic Wigner-Seitz radii
   RWIGS  =  -1.00
  virtual crystal weights 
   VCA    =   1.00
   NELECT =      12.0000    total number of electrons
   NUPDOWN=       4.0000    fix difference up-down

 DOS related values:
   EMIN   =  10.00;   EMAX   =-10.00  energy-range for DOS
   EFERMI =   0.00
   ISMEAR =     0;   SIGMA  =   0.05  broadening in eV -4-tet -1-fermi 0-gaus

 Electronic relaxation 2 (details)
   IALGO  =     58    algorithm
   LDIAG  =      T    sub-space diagonalisation (order eigenvalues)
   LSUBROT=      F    optimize rotation matrix (better conditioning)
   TURBO    =      0    0=normal 1=particle mesh
   IRESTART =      0    0=no restart 2=restart with 2 vectors
   NREBOOT  =      0    no. of reboots
   NMIN     =      0    reboot dimension
   EREF     =   0.00    reference energy to select bands
   IMIX   =      4    mixing-type and parameters
     AMIX     =   0.40;   BMIX     =  1.00
     AMIX_MAG =   1.60;   BMIX_MAG =  1.00
     AMIN     =   0.10
     WC   =   100.;   INIMIX=   1;  MIXPRE=   1;  MAXMIX= -45

 Intra band minimization:
   WEIMIN = 0.0000     energy-eigenvalue tresh-hold
   EBREAK =  0.98E-08  absolut break condition
   DEPER  =   0.30     relativ break condition  

   TIME   =   0.40     timestep for ELM

  volume/ion in A,a.u.               =    3375.00     22775.62
  Fermi-wavevector in a.u.,A,eV,Ry     =   0.249868  0.472182  0.849466  0.062434
  Thomas-Fermi vector in A             =   1.065882
 
 Write flags
   LWAVE        =      F    write WAVECAR
   LDOWNSAMPLE  =      F    k-point downsampling of WAVECAR
   LCHARG       =      F    write CHGCAR
   LVTOT        =      F    write LOCPOT, total local potential
   LVHAR        =      F    write LOCPOT, Hartree potential only
   LELF         =      F    write electronic localiz. function (ELF)
   LORBIT       =      0    0 simple, 1 ext, 2 COOP (PROOUT), +10 PAW based schemes


 Dipole corrections
   LMONO  =      F    monopole corrections only (constant potential shift)
   LDIPOL =      F    correct potential (dipole corrections)
   IDIPOL =      0    1-x, 2-y, 3-z, 4-all directions 
   EPSILON=  1.0000000 bulk dielectric constant

 Exchange correlation treatment:
   GGA     =    --    GGA type
   LEXCH   =     8    internal setting for exchange type
   VOSKOWN=      0    Vosko Wilk Nusair interpolation
   LHFCALC =     F    Hartree Fock is set to
   LHFONE  =     F    Hartree Fock one center treatment
   AEXX    =    0.0000 exact exchange contribution

 Linear response parameters
   LEPSILON=     F    determine dielectric tensor
   LRPA    =     F    only Hartree local field effects (RPA)
   LNABLA  =     F    use nabla operator in PAW spheres
   LVEL    =     F    velocity operator in full k-point grid
   LINTERFAST=   F  fast interpolation
   KINTER  =     0    interpolate to denser k-point grid
   CSHIFT  =0.1000    complex shift for real part using Kramers Kronig
   OMEGAMAX=  -1.0    maximum frequency
   DEG_THRESHOLD= 0.2000000E-02 threshold for treating states as degnerate
   RTIME   =   -0.100 relaxation time in fs
  (WPLASMAI=    0.000 imaginary part of plasma frequency in eV, 0.658/RTIME)
   DFIELD  = 0.0000000 0.0000000 0.0000000 field for delta impulse in time
 
 Orbital magnetization related:
   ORBITALMAG=     F  switch on orbital magnetization
   LCHIMAG   =     F  perturbation theory with respect to B field
   DQ        =  0.001000  dq finite difference perturbation B field
   LLRAUG    =     F  two centre corrections for induced B field



--------------------------------------------------------------------------------------------------------


 Static calculation
 charge density and potential will be updated during run
 spin polarized calculation
 Conjugate gradient for all bands (Freysoldt, et al. PRB 79, 241103 (2009))
 preconditioned conjugated gradient                                        
 perform sub-space diagonalisation
    before iterative eigenvector-optimisation
 modified Broyden-mixing scheme, WC =      100.0
 initial mixing is a Kerker type mixing with AMIX =  0.4000 and BMIX =      1.0000
 Hartree-type preconditioning will be used
 using additional bands          250
 reciprocal scheme for non local part
 use partial core corrections
 no Harris-corrections to forces 
 use gradient corrections 
 use of overlap-Matrix (Vanderbilt PP)
 Gauss-broadening in eV      SIGMA  =   0.05


--------------------------------------------------------------------------------------------------------


  energy-cutoff  :      520.00
  volume of cell :     3375.00
      direct lattice vectors                 reciprocal lattice vectors
    15.000000000  0.000000000  0.000000000     0.066666667  0.000000000  0.000000000
     0.000000000 15.000000000  0.000000000     0.000000000  0.066666667  0.000000000
     0.000000000  0.000000000 15.000000000     0.000000000  0.000000000  0.066666667

  length of vectors
    15.000000000 15.000000000 15.000000000     0.066666667  0.066666667  0.066666667


 
 k-points in units of 2pi/SCALE and weight: read from INCAR                         
   0.00000000  0.00000000  0.00000000       1.000
 
 k-points in reciprocal lattice and weights: read from INCAR                         
   0.00000000  0.00000000  0.00000000       1.000
 
 position of ions in fractional coordinates (direct lattice) 
   0.01000000  0.01000000  0.75100000
 
 position of ions in cartesian coordinates  (Angst):
   0.15000000  0.15000000 11.26500000
 


--------------------------------------------------------------------------------------------------------


 k-point  1 :   0.0000 0.0000 0.0000  plane waves:   90879

 maximum and minimum number of plane-waves per node :     90879    90879

 maximum number of plane-waves:     90879
 maximum index in each direction: 
   IXMAX=   27   IYMAX=   27   IZMAX=   27
   IXMIN=  -27   IYMIN=  -27   IZMIN=  -27


 serial   3D FFT for wavefunctions
 parallel 3D FFT for charge:
    minimum data exchange during FFTs selected (reduces bandwidth)


 total amount of memory used by VASP MPI-rank0   177231. kBytes
=======================================================================

   base      :      30000. kBytes
   nonl-proj :      14540. kBytes
   fftplans  :       7479. kBytes
   grid      :     116433. kBytes
   one-center:         31. kBytes
   wavefun   :       8748. kBytes
 
     INWAV:  cpu time    0.0000: real time    0.0000
 Broyden mixing: mesh for mixing (old mesh)
   NGX = 55   NGY = 55   NGZ = 55
  (NGX  =224   NGY  =224   NGZ  =224)
  gives a total of 166375 points

 initial charge density was supplied:
 charge density of overlapping atoms calculated
 number of electron      12.0000000 magnetization       4.0000000
 keeping initial charge density in first step


--------------------------------------------------------------------------------------------------------


 Maximum index for augmentation-charges          963 (set IRDMAX)


--------------------------------------------------------------------------------------------------------


 First call to EWALD:  gamma=   0.118
 Maximum number of real-space cells 3x 3x 3
 Maximum number of reciprocal cells 3x 3x 3

    FEWALD:  cpu time    0.0211: real time    0.0211


--------------------------------------- Iteration      1(   1)  ---------------------------------------


    POTLOK:  cpu time    2.4668: real time    2.4843
    SETDIJ:  cpu time    0.4396: real time    0.4485
    TRIAL :  cpu time   25.4217: real time   25.4706
    CORREC:  cpu time    0.4942: real time    0.4960
    --------------------------------------------
      LOOP:  cpu time   28.8310: real time   28.9148

 eigenvalue-minimisations  :  1536
 total energy-change (2. order) : 0.7202366E+01  (-0.4442662E+03)
 number of electron      12.0000000 magnetization       4.0000000
 augmentation part       12.0000000 magnetization       4.0000000

 Free energy of the ion-electron system (eV)
  ---------------------------------------------------
  alpha Z        PSCENC =         0.76524277
  Ewald energy   TEWEN  =      -196.11110405
  -Hartree energ DENC   =      -840.38412831
  -exchange      EXHF   =         0.00000000
  -V(xc)+E(xc)   XCENC  =        32.82964840
  PAW double counting   =       811.63433473     -799.09491354
  entropy T*S    EENTRO =        -0.01819291
  eigenvalues    EBANDS =      -262.45417152
  atomic energy  EATOM  =      1260.03565078
  ---------------------------------------------------
  free energy    TOTEN  =         7.20236635 eV

  energy without entropy =        7.22055926  energy(sigma->0) =        7.21146280


--------------------------------------------------------------------------------------------------------




--------------------------------------- Iteration      1(   2)  ---------------------------------------


    TRIAL :  cpu time   24.6331: real time   24.6384
    CORREC:  cpu time    0.0770: real time    0.0770
    --------------------------------------------
      LOOP:  cpu time   24.8585: real time   24.8844

 eigenvalue-minimisations  :  1536
 total energy-change (2. order) :-0.1092453E+02  (-0.1089355E+02)
 number of electron      12.0000000 magnetization       4.0000000
 augmentation part       12.0000000 magnetization       4.0000000

 Free energy of the ion-electron system (eV)
  ---------------------------------------------------
  alpha Z        PSCENC =         0.76524277
  Ewald energy   TEWEN  =      -196.11110405
  -Hartree energ DENC   =      -840.38412831
  -exchange      EXHF   =         0.00000000
  -V(xc)+E(xc)   XCENC  =        32.82964840
  PAW double counting   =       811.63433473     -799.09491354
  entropy T*S    EENTRO =        -0.04948978
  eigenvalues    EBANDS =      -273.34740563
  atomic energy  EATOM  =      1260.03565078
  ---------------------------------------------------
  free energy    TOTEN  =        -3.72216463 eV

  energy without entropy =       -3.67267486  energy(sigma->0) =       -3.69741974


--------------------------------------------------------------------------------------------------------




--------------------------------------- Iteration      1(   3)  ---------------------------------------


    TRIAL :  cpu time    8.5905: real time    8.5927
    CORREC:  cpu time    0.0808: real time    0.0808
    --------------------------------------------
      LOOP:  cpu time    8.6773: real time    8.6800

 eigenvalue-minimisations  :  1024
 total energy-change (2. order) :-0.4149663E-02  (-0.4148699E-02)
 number of electron      12.0000000 magnetization       4.0000000
 augmentation part       12.0000000 magnetization       4.0000000

 Free energy of the ion-electron system (eV)
  ---------------------------------------------------
  alpha Z        PSCENC =         0.76524277
  Ewald energy   TEWEN  =      -196.11110405
  -Hartree energ DENC   =      -840.38412831
  -exchange      EXHF   =         0.00000000
  -V(xc)+E(xc)   XCENC  =        32.82964840
  PAW double counting   =       811.63433473     -799.09491354
  entropy T*S    EENTRO =        -0.04949074
  eigenvalues    EBANDS =      -273.35155433
  atomic energy  EATOM  =      1260.03565078
  ---------------------------------------------------
  free energy    TOTEN  =        -3.72631430 eV

  energy without entropy =       -3.67682355  energy(sigma->0) =       -3.70156892


--------------------------------------------------------------------------------------------------------




--------------------------------------- Iteration      1(   4)  ---------------------------------------


    TRIAL :  cpu time   21.6544: real time   21.6591
    CORREC:  cpu time    0.0918: real time    0.0918
    --------------------------------------------
      LOOP:  cpu time   21.7526: real time   21.7573

 eigenvalue-minimisations  :  2048
 total energy-change (2. order) :-0.1719356E-04  (-0.1719345E-04)
 number of electron      12.0000000 magnetization       4.0000000
 augmentation part       12.0000000 magnetization       4.0000000

 Free energy of the ion-electron system (eV)
  ---------------------------------------------------
  alpha Z        PSCENC =         0.76524277
  Ewald energy   TEWEN  =      -196.11110405
  -Hartree energ DENC   =      -840.38412831
  -exchange      EXHF   =         0.00000000
  -V(xc)+E(xc)   XCENC  =        32.82964840
  PAW double counting   =       811.63433473     -799.09491354
  entropy T*S    EENTRO =        -0.04949074
  eigenvalues    EBANDS =      -273.35157153
  atomic energy  EATOM  =      1260.03565078
  ---------------------------------------------------
  free energy    TOTEN  =        -3.72633149 eV

  energy without entropy =       -3.67684075  energy(sigma->0) =       -3.70158612


--------------------------------------------------------------------------------------------------------




--------------------------------------- Iteration      1(   5)  ---------------------------------------


    TRIAL :  cpu time    8.8103: real time    8.8124
    CORREC:  cpu time    0.1014: real time    0.1014
    CHARGE:  cpu time    1.2979: real time    1.3196
    --------------------------------------------
      LOOP:  cpu time   10.2176: real time   10.2415

 eigenvalue-minimisations  :  1024
 total energy-change (2. order) :-0.1442231E-08  (-0.1690729E-08)
 number of electron      12.0000000 magnetization       4.0000000
 augmentation part        4.0021335 magnetization       0.7529470

 Free energy of the ion-electron system (eV)
  ---------------------------------------------------
  alpha Z        PSCENC =         0.76524277
  Ewald energy   TEWEN  =      -196.11110405
  -Hartree energ DENC   =      -840.38412831
  -exchange      EXHF   =         0.00000000
  -V(xc)+E(xc)   XCENC  =        32.82964840
  PAW double counting   =       811.63433473     -799.09491354
  entropy T*S    EENTRO =        -0.04949074
  eigenvalues    EBANDS =      -273.35157153
  atomic energy  EATOM  =      1260.03565078
  ---------------------------------------------------
  free energy    TOTEN  =        -3.72633149 eV

  energy without entropy =       -3.67684075  energy(sigma->0) =       -3.70158612


--------------------------------------------------------------------------------------------------------




--------------------------------------- Iteration      1(   6)  ---------------------------------------


    POTLOK:  cpu time    2.4431: real time    2.4438
    SETDIJ:  cpu time    0.4117: real time    0.4118
    TRIAL :  cpu time    3.6072: real time    3.8809
    CORREC:  cpu time    6.0315: real time    6.1704
    CHARGE:  cpu time    1.3197: real time    1.3201
    --------------------------------------------
      LOOP:  cpu time   13.8343: real time   14.2481

 eigenvalue-minimisations  :     0
 total energy-change (2. order) :-0.1202975E-01  (-0.1302496E+00)
 number of electron      12.0000000 magnetization       4.0000000
 augmentation part        4.0635022 magnetization       0.7524003

 Free energy of the ion-electron system (eV)
  ---------------------------------------------------
  alpha Z        PSCENC =         0.76524277
  Ewald energy   TEWEN  =      -196.11110405
  -Hartree energ DENC   =      -805.77954173
  -exchange      EXHF   =         0.00000000
  -V(xc)+E(xc)   XCENC  =        31.40472113
  PAW double counting   =       758.37009904     -749.27182034
  entropy T*S    EENTRO =        -0.04949073
  eigenvalues    EBANDS =      -303.10211811
  atomic energy  EATOM  =      1260.03565078
  ---------------------------------------------------
  free energy    TOTEN  =        -3.73836124 eV

  energy without entropy =       -3.68887051  energy(sigma->0) =       -3.71361588


--------------------------------------------------------------------------------------------------------




--------------------------------------- Iteration      1(   7)  ---------------------------------------


    POTLOK:  cpu time    2.4470: real time    2.4476
    SETDIJ:  cpu time    0.4193: real time    0.4194
    TRIAL :  cpu time    3.4270: real time    3.5112
    CORREC:  cpu time    5.9106: real time    6.1119
    CHARGE:  cpu time    1.2692: real time    1.2986
    --------------------------------------------
      LOOP:  cpu time   13.4928: real time   13.8084

 eigenvalue-minimisations  :     0
 total energy-change (2. order) :-0.1300986E+00  (-0.4188951E-01)
 number of electron      12.0000000 magnetization       4.0000000
 augmentation part        4.0655613 magnetization       0.7587047

 Free energy of the ion-electron system (eV)
  ---------------------------------------------------
  alpha Z        PSCENC =         0.76524277
  Ewald energy   TEWEN  =      -196.11110405
  -Hartree energ DENC   =      -815.54063804
  -exchange      EXHF   =         0.00000000
  -V(xc)+E(xc)   XCENC  =        31.79372238
  PAW double counting   =       771.48364095     -762.39720809
  entropy T*S    EENTRO =        -0.04949074
  eigenvalues    EBANDS =      -293.84827577
  atomic energy  EATOM  =      1260.03565078
  ---------------------------------------------------
  free energy    TOTEN  =        -3.86845980 eV

  energy without entropy =       -3.81896906  energy(sigma->0) =       -3.84371443


--------------------------------------------------------------------------------------------------------




--------------------------------------- Iteration      1(   8)  ---------------------------------------


    POTLOK:  cpu time    2.4057: real time    2.4473
    SETDIJ:  cpu time    0.3970: real time    0.4116
    TRIAL :  cpu time    3.5852: real time    3.7596
    CORREC:  cpu time    6.0235: real time    6.2333
    CHARGE:  cpu time    1.2988: real time    1.3009
    --------------------------------------------
      LOOP:  cpu time   13.7229: real time   14.1654

 eigenvalue-minimisations  :     0
 total energy-change (2. order) :-0.4185817E-01  (-0.2216112E-01)
 number of electron      12.0000000 magnetization       4.0000000
 augmentation part        4.0598848 magnetization       0.7607332

 Free energy of the ion-electron system (eV)
  ---------------------------------------------------
  alpha Z        PSCENC =         0.76524277
  Ewald energy   TEWEN  =      -196.11110405
  -Hartree energ DENC   =      -819.33909888
  -exchange      EXHF   =         0.00000000
  -V(xc)+E(xc)   XCENC  =        31.94157229
  PAW double counting   =       777.32510634     -768.27050293
  entropy T*S    EENTRO =        -0.04949074
  eigenvalues    EBANDS =      -290.20769356
  atomic energy  EATOM  =      1260.03565078
  ---------------------------------------------------
  free energy    TOTEN  =        -3.91031797 eV

  energy without entropy =       -3.86082723  energy(sigma->0) =       -3.88557260


--------------------------------------------------------------------------------------------------------




--------------------------------------- Iteration      1(   9)  ---------------------------------------


    POTLOK:  cpu time    2.4995: real time    2.5046
    SETDIJ:  cpu time    0.4075: real time    0.4079
    TRIAL :  cpu time    3.4858: real time    3.5885
    CORREC:  cpu time    6.0417: real time    6.1661
    CHARGE:  cpu time    1.2411: real time    1.2907
    --------------------------------------------
      LOOP:  cpu time   13.7011: real time   13.9838

 eigenvalue-minimisations  :     0
 total energy-change (2. order) :-0.2219391E-01  (-0.1048990E-01)
 number of electron      12.0000000 magnetization       4.0000000
 augmentation part        4.0594294 magnetization       0.7572591

 Free energy of the ion-electron system (eV)
  ---------------------------------------------------
  alpha Z        PSCENC =         0.76524277
  Ewald energy   TEWEN  =      -196.11110405
  -Hartree energ DENC   =      -821.35945444
  -exchange      EXHF   =         0.00000000
  -V(xc)+E(xc)   XCENC  =        32.02142967
  PAW double counting   =       781.02710167     -771.98035650
  entropy T*S    EENTRO =        -0.04949073
  eigenvalues    EBANDS =      -288.28153105
  atomic energy  EATOM  =      1260.03565078
  ---------------------------------------------------
  free energy    TOTEN  =        -3.93251188 eV

  energy without entropy =       -3.88302115  energy(sigma->0) =       -3.90776651


--------------------------------------------------------------------------------------------------------




--------------------------------------- Iteration      1(  10)  ---------------------------------------


    POTLOK:  cpu time    2.4847: real time    2.5511
    SETDIJ:  cpu time    0.4103: real time    0.4108
    TRIAL :  cpu time    3.3200: real time    3.5455
    CORREC:  cpu time    5.9313: real time    6.0438
    CHARGE:  cpu time    1.3100: real time    1.3105
    --------------------------------------------
      LOOP:  cpu time   13.4787: real time   13.8852

 eigenvalue-minimisations  :     0
 total energy-change (2. order) :-0.1049606E-01  (-0.2765305E-02)
 number of electron      12.0000000 magnetization       4.0000000
 augmentation part        4.0610500 magnetization       0.7556583

 Free energy of the ion-electron system (eV)
  ---------------------------------------------------
  alpha Z        PSCENC =         0.76524277
  Ewald energy   TEWEN  =      -196.11110405
  -Hartree energ DENC   =      -822.09818451
  -exchange      EXHF   =         0.00000000
  -V(xc)+E(xc)   XCENC  =        32.05345709
  PAW double counting   =       782.44224734     -773.38246444
  entropy T*S    EENTRO =        -0.04949072
  eigenvalues    EBANDS =      -287.59836220
  atomic energy  EATOM  =      1260.03565078
  ---------------------------------------------------
  free energy    TOTEN  =        -3.94300794 eV

  energy without entropy =       -3.89351722  energy(sigma->0) =       -3.91826258


--------------------------------------------------------------------------------------------------------




--------------------------------------- Iteration      1(  11)  ---------------------------------------


    POTLOK:  cpu time    2.4193: real time    2.4204
    SETDIJ:  cpu time    0.4079: real time    0.4080
    TRIAL :  cpu time    3.4546: real time    3.5540
    CORREC:  cpu time    6.0232: real time    6.1274
    CHARGE:  cpu time    1.3261: real time    1.3283
    --------------------------------------------
      LOOP:  cpu time   13.6536: real time   13.8605

 eigenvalue-minimisations  :     0
 total energy-change (2. order) :-0.2765045E-02  (-0.8871498E-03)
 number of electron      12.0000000 magnetization       4.0000000
 augmentation part        4.0623381 magnetization       0.7549300

 Free energy of the ion-electron system (eV)
  ---------------------------------------------------
  alpha Z        PSCENC =         0.76524277
  Ewald energy   TEWEN  =      -196.11110405
  -Hartree energ DENC   =      -822.22843878
  -exchange      EXHF   =         0.00000000
  -V(xc)+E(xc)   XCENC  =        32.06075795
  PAW double counting   =       782.45323601     -773.38385707
  entropy T*S    EENTRO =        -0.04949069
  eigenvalues    EBANDS =      -287.48776988
  atomic energy  EATOM  =      1260.03565078
  ---------------------------------------------------
  free energy    TOTEN  =        -3.94577298 eV

  energy without entropy =       -3.89628229  energy(sigma->0) =       -3.92102764


--------------------------------------------------------------------------------------------------------




--------------------------------------- Iteration      1(  12)  ---------------------------------------


    POTLOK:  cpu time    2.4115: real time    2.4163
    SETDIJ:  cpu time    0.4186: real time    0.4190
    TRIAL :  cpu time    3.4454: real time    3.5672
    CORREC:  cpu time    6.4399: real time    6.5607
    CHARGE:  cpu time    1.3430: real time    1.3465
    --------------------------------------------
      LOOP:  cpu time   14.0836: real time   14.3348

 eigenvalue-minimisations  :     0
 total energy-change (2. order) :-0.8870138E-03  (-0.3144789E-03)
 number of electron      12.0000000 magnetization       4.0000000
 augmentation part        4.0627413 magnetization       0.7550172

 Free energy of the ion-electron system (eV)
  ---------------------------------------------------
  alpha Z        PSCENC =         0.76524277
  Ewald energy   TEWEN  =      -196.11110405
  -Hartree energ DENC   =      -822.29872249
  -exchange      EXHF   =         0.00000000
  -V(xc)+E(xc)   XCENC  =        32.06500663
  PAW double counting   =       782.23855543     -773.16476493
  entropy T*S    EENTRO =        -0.04949061
  eigenvalues    EBANDS =      -287.42703344
  atomic energy  EATOM  =      1260.03565078
  ---------------------------------------------------
  free energy    TOTEN  =        -3.94666000 eV

  energy without entropy =       -3.89716939  energy(sigma->0) =       -3.92191469


--------------------------------------------------------------------------------------------------------




--------------------------------------- Iteration      1(  13)  ---------------------------------------


    POTLOK:  cpu time    2.3961: real time    2.4022
    SETDIJ:  cpu time    0.4084: real time    0.4090
    TRIAL :  cpu time    3.6543: real time    3.7596
    CORREC:  cpu time    5.9579: real time    6.0481
    CHARGE:  cpu time    1.2864: real time    1.3150
    --------------------------------------------
      LOOP:  cpu time   13.7183: real time   13.9492

 eigenvalue-minimisations  :     0
 total energy-change (2. order) :-0.3150884E-03  (-0.1128475E-03)
 number of electron      12.0000000 magnetization       4.0000000
 augmentation part        4.0626801 magnetization       0.7547238

 Free energy of the ion-electron system (eV)
  ---------------------------------------------------
  alpha Z        PSCENC =         0.76524277
  Ewald energy   TEWEN  =      -196.11110405
  -Hartree energ DENC   =      -822.31582438
  -exchange      EXHF   =         0.00000000
  -V(xc)+E(xc)   XCENC  =        32.06665585
  PAW double counting   =       782.00731520     -772.93209655
  entropy T*S    EENTRO =        -0.04949040
  eigenvalues    EBANDS =      -287.41332410
  atomic energy  EATOM  =      1260.03565078
  ---------------------------------------------------
  free energy    TOTEN  =        -3.94697508 eV

  energy without entropy =       -3.89748468  energy(sigma->0) =       -3.92222988


--------------------------------------------------------------------------------------------------------




--------------------------------------- Iteration      1(  14)  ---------------------------------------


    POTLOK:  cpu time    2.3863: real time    2.4315
    SETDIJ:  cpu time    0.3966: real time    0.4109
    TRIAL :  cpu time    3.5128: real time    3.6931
    CORREC:  cpu time    6.0031: real time    6.0849
    CHARGE:  cpu time    1.3071: real time    1.3080
    --------------------------------------------
      LOOP:  cpu time   13.6245: real time   13.9482

 eigenvalue-minimisations  :     0
 total energy-change (2. order) :-0.1134053E-03  (-0.4828161E-04)
 number of electron      12.0000000 magnetization       4.0000000
 augmentation part        4.0625912 magnetization       0.7543104

 Free energy of the ion-electron system (eV)
  ---------------------------------------------------
  alpha Z        PSCENC =         0.76524277
  Ewald energy   TEWEN  =      -196.11110405
  -Hartree energ DENC   =      -822.27497977
  -exchange      EXHF   =         0.00000000
  -V(xc)+E(xc)   XCENC  =        32.06582562
  PAW double counting   =       781.83389734     -772.75796135
  entropy T*S    EENTRO =        -0.04948973
  eigenvalues    EBANDS =      -287.45416943
  atomic energy  EATOM  =      1260.03565078
  ---------------------------------------------------
  free energy    TOTEN  =        -3.94708849 eV

  energy without entropy =       -3.89759875  energy(sigma->0) =       -3.92234362


--------------------------------------------------------------------------------------------------------




--------------------------------------- Iteration      1(  15)  ---------------------------------------


    POTLOK:  cpu time    2.4786: real time    2.4808
    SETDIJ:  cpu time    0.4127: real time    0.4129
    TRIAL :  cpu time    3.4445: real time    3.5337
    CORREC:  cpu time    6.0456: real time    6.1431
    CHARGE:  cpu time    1.3196: real time    1.3203
    --------------------------------------------
      LOOP:  cpu time   13.7192: real time   13.9090

 eigenvalue-minimisations  :     0
 total energy-change (2. order) :-0.4820772E-04  (-0.2696770E-04)
 number of electron      12.0000000 magnetization       4.0000000
 augmentation part        4.0625800 magnetization       0.7538010

 Free energy of the ion-electron system (eV)
  ---------------------------------------------------
  alpha Z        PSCENC =         0.76524277
  Ewald energy   TEWEN  =      -196.11110405
  -Hartree energ DENC   =      -822.22249067
  -exchange      EXHF   =         0.00000000
  -V(xc)+E(xc)   XCENC  =        32.06445813
  PAW double counting   =       781.74607847     -772.66945458
  entropy T*S    EENTRO =        -0.04948608
  eigenvalues    EBANDS =      -287.50602781
  atomic energy  EATOM  =      1260.03565078
  ---------------------------------------------------
  free energy    TOTEN  =        -3.94713670 eV

  energy without entropy =       -3.89765061  energy(sigma->0) =       -3.92239366


--------------------------------------------------------------------------------------------------------




--------------------------------------- Iteration      1(  16)  ---------------------------------------


    POTLOK:  cpu time    2.4503: real time    2.4517
    SETDIJ:  cpu time    0.4096: real time    0.4098
    TRIAL :  cpu time    3.4304: real time    3.5466
    CORREC:  cpu time    5.9154: real time    6.1151
    CHARGE:  cpu time    1.2791: real time    1.3288
    --------------------------------------------
      LOOP:  cpu time   13.5074: real time   13.8745

 eigenvalue-minimisations  :     0
 total energy-change (2. order) :-0.1955821E-04  (-0.4535808E-04)
 number of electron      12.0000000 magnetization       4.0000000
 augmentation part        4.0625465 magnetization       0.7539441

 Free energy of the ion-electron system (eV)
  ---------------------------------------------------
  alpha Z        PSCENC =         0.76524277
  Ewald energy   TEWEN  =      -196.11110405
  -Hartree energ DENC   =      -822.18726473
  -exchange      EXHF   =         0.00000000
  -V(xc)+E(xc)   XCENC  =        32.06381266
  PAW double counting   =       781.76514879     -772.68760982
  entropy T*S    EENTRO =        -0.04945884
  eigenvalues    EBANDS =      -287.54154657
  atomic energy  EATOM  =      1260.03565078
  ---------------------------------------------------
  free energy    TOTEN  =        -3.94715625 eV

  energy without entropy =       -3.89769742  energy(sigma->0) =       -3.92242684


--------------------------------------------------------------------------------------------------------




--------------------------------------- Iteration      1(  17)  ---------------------------------------


    POTLOK:  cpu time    2.3645: real time    2.4272
    SETDIJ:  cpu time    0.3871: real time    0.4099
    TRIAL :  cpu time    3.3667: real time    3.5607
    CORREC:  cpu time    5.8862: real time    6.1106
    CHARGE:  cpu time    1.3336: real time    1.3344
    --------------------------------------------
      LOOP:  cpu time   13.3633: real time   13.8680

 eigenvalue-minimisations  :     0
 total energy-change (2. order) : 0.5431068E-04  (-0.1728550E-03)
 number of electron      12.0000000 magnetization       4.0000000
 augmentation part        4.0626116 magnetization       0.7539210

 Free energy of the ion-electron system (eV)
  ---------------------------------------------------
  alpha Z        PSCENC =         0.76524277
  Ewald energy   TEWEN  =      -196.11110405
  -Hartree energ DENC   =      -822.21207439
  -exchange      EXHF   =         0.00000000
  -V(xc)+E(xc)   XCENC  =        32.06479018
  PAW double counting   =       781.83988504     -772.76162324
  entropy T*S    EENTRO =        -0.04942490
  eigenvalues    EBANDS =      -287.51841019
  atomic energy  EATOM  =      1260.03565078
  ---------------------------------------------------
  free energy    TOTEN  =        -3.94710194 eV

  energy without entropy =       -3.89767704  energy(sigma->0) =       -3.92238949


--------------------------------------------------------------------------------------------------------




--------------------------------------- Iteration      1(  18)  ---------------------------------------


    POTLOK:  cpu time    2.4302: real time    2.4317
    SETDIJ:  cpu time    0.4098: real time    0.4100
    TRIAL :  cpu time    3.5315: real time    3.6414
    CORREC:  cpu time    4.8750: real time    4.9113
    CHARGE:  cpu time    1.2950: real time    1.3028
    --------------------------------------------
      LOOP:  cpu time   12.5670: real time   12.7227

 eigenvalue-minimisations  :     0
 total energy-change (2. order) :-0.1763583E-03  ( 0.3487237E-05)
 number of electron      12.0000000 magnetization       4.0000000
 augmentation part        4.0625998 magnetization       0.7538996

 Free energy of the ion-electron system (eV)
  ---------------------------------------------------
  alpha Z        PSCENC =         0.76524277
  Ewald energy   TEWEN  =      -196.11110405
  -Hartree energ DENC   =      -822.20408656
  -exchange      EXHF   =         0.00000000
  -V(xc)+E(xc)   XCENC  =        32.06454063
  PAW double counting   =       781.82179306     -772.74337750
  entropy T*S    EENTRO =        -0.04933509
  eigenvalues    EBANDS =      -287.52651254
  atomic energy  EATOM  =      1260.03565078
  ---------------------------------------------------
  free energy    TOTEN  =        -3.94727830 eV

  energy without entropy =       -3.89794322  energy(sigma->0) =       -3.92261076


--------------------------------------------------------------------------------------------------------




--------------------------------------- Iteration      1(  19)  ---------------------------------------


    POTLOK:  cpu time    2.4103: real time    2.4334
    SETDIJ:  cpu time    0.4095: real time    0.4098
    TRIAL :  cpu time    3.4133: real time    3.5261
    CORREC:  cpu time    4.8494: real time    4.8506
    CHARGE:  cpu time    1.3364: real time    1.3368
    --------------------------------------------
      LOOP:  cpu time   12.4371: real time   12.5759

 eigenvalue-minimisations  :     0
 total energy-change (2. order) :-0.2244739E-03  ( 0.1746937E-06)
 number of electron      12.0000000 magnetization       4.0000000
 augmentation part        4.0626009 magnetization       0.7539036

 Free energy of the ion-electron system (eV)
  ---------------------------------------------------
  alpha Z        PSCENC =         0.76524277
  Ewald energy   TEWEN  =      -196.11110405
  -Hartree energ DENC   =      -822.19821416
  -exchange      EXHF   =         0.00000000
  -V(xc)+E(xc)   XCENC  =        32.06444836
  PAW double counting   =       781.80910480     -772.73068798
  entropy T*S    EENTRO =        -0.04912310
  eigenvalues    EBANDS =      -287.53260822
  atomic energy  EATOM  =      1260.03565078
  ---------------------------------------------------
  free energy    TOTEN  =        -3.94750278 eV

  energy without entropy =       -3.89837968  energy(sigma->0) =       -3.92294123


--------------------------------------------------------------------------------------------------------




--------------------------------------- Iteration      1(  20)  ---------------------------------------


    POTLOK:  cpu time    2.4159: real time    2.4163
    SETDIJ:  cpu time    0.4101: real time    0.4102
    TRIAL :  cpu time    3.4859: real time    3.5798
    CORREC:  cpu time    4.8697: real time    4.8705
    CHARGE:  cpu time    1.2771: real time    1.2774
    --------------------------------------------
      LOOP:  cpu time   12.4842: real time   12.5798

 eigenvalue-minimisations  :     0
 total energy-change (2. order) :-0.4809921E-03  ( 0.1758669E-06)
 number of electron      12.0000000 magnetization       4.0000000
 augmentation part        4.0625977 magnetization       0.7539088

 Free energy of the ion-electron system (eV)
  ---------------------------------------------------
  alpha Z        PSCENC =         0.76524277
  Ewald energy   TEWEN  =      -196.11110405
  -Hartree energ DENC   =      -822.20143890
  -exchange      EXHF   =         0.00000000
  -V(xc)+E(xc)   XCENC  =        32.06489444
  PAW double counting   =       781.81155557     -772.73319961
  entropy T*S    EENTRO =        -0.04869487
  eigenvalues    EBANDS =      -287.53046168
  atomic energy  EATOM  =      1260.03565078
  ---------------------------------------------------
  free energy    TOTEN  =        -3.94798377 eV

  energy without entropy =       -3.89928890  energy(sigma->0) =       -3.92363633


--------------------------------------------------------------------------------------------------------




--------------------------------------- Iteration      1(  21)  ---------------------------------------


    POTLOK:  cpu time    2.4250: real time    2.4255
    SETDIJ:  cpu time    0.4097: real time    0.4098
    TRIAL :  cpu time    3.4140: real time    3.5217
    CORREC:  cpu time    4.9159: real time    5.0663
    CHARGE:  cpu time    1.2397: real time    1.3110
    --------------------------------------------
      LOOP:  cpu time   12.4286: real time   12.7592

 eigenvalue-minimisations  :     0
 total energy-change (2. order) :-0.9792574E-03  ( 0.3073893E-06)
 number of electron      12.0000000 magnetization       4.0000000
 augmentation part        4.0625918 magnetization       0.7539082

 Free energy of the ion-electron system (eV)
  ---------------------------------------------------
  alpha Z        PSCENC =         0.76524277
  Ewald energy   TEWEN  =      -196.11110405
  -Hartree energ DENC   =      -822.20419444
  -exchange      EXHF   =         0.00000000
  -V(xc)+E(xc)   XCENC  =        32.06565478
  PAW double counting   =       781.81396609     -772.73562957
  entropy T*S    EENTRO =        -0.04776680
  eigenvalues    EBANDS =      -287.52985451
  atomic energy  EATOM  =      1260.03565078
  ---------------------------------------------------
  free energy    TOTEN  =        -3.94896303 eV

  energy without entropy =       -3.90119622  energy(sigma->0) =       -3.92507962


--------------------------------------------------------------------------------------------------------




--------------------------------------- Iteration      1(  22)  ---------------------------------------


    POTLOK:  cpu time    2.3500: real time    2.4211
    SETDIJ:  cpu time    0.3865: real time    0.4103
    TRIAL :  cpu time    3.6052: real time    3.7433
    CORREC:  cpu time    4.9142: real time    4.9178
    CHARGE:  cpu time    1.2960: real time    1.2969
    --------------------------------------------
      LOOP:  cpu time   12.5771: real time   12.8145

 eigenvalue-minimisations  :     0
 total energy-change (2. order) :-0.2142944E-02  ( 0.7048579E-06)
 number of electron      12.0000000 magnetization       4.0000000
 augmentation part        4.0625970 magnetization       0.7539108

 Free energy of the ion-electron system (eV)
  ---------------------------------------------------
  alpha Z        PSCENC =         0.76524277
  Ewald energy   TEWEN  =      -196.11110405
  -Hartree energ DENC   =      -822.20767830
  -exchange      EXHF   =         0.00000000
  -V(xc)+E(xc)   XCENC  =        32.06721609
  PAW double counting   =       781.81524991     -772.73687410
  entropy T*S    EENTRO =        -0.04579964
  eigenvalues    EBANDS =      -287.53104227
  atomic energy  EATOM  =      1260.03565078
  ---------------------------------------------------
  free energy    TOTEN  =        -3.95110597 eV

  energy without entropy =       -3.90530632  energy(sigma->0) =       -3.92820615


--------------------------------------------------------------------------------------------------------




--------------------------------------- Iteration      1(  23)  ---------------------------------------


    POTLOK:  cpu time    2.4710: real time    2.4726
    SETDIJ:  cpu time    0.4094: real time    0.4096
    TRIAL :  cpu time    3.4211: real time    3.5561
    CORREC:  cpu time    4.9258: real time    5.0390
    CHARGE:  cpu time    1.2790: real time    1.3090
    --------------------------------------------
      LOOP:  cpu time   12.5336: real time   12.8134

 eigenvalue-minimisations  :     0
 total energy-change (2. order) :-0.4568078E-02  ( 0.1699741E-05)
 number of electron      12.0000000 magnetization       4.0000000
 augmentation part        4.0626050 magnetization       0.7539153

 Free energy of the ion-electron system (eV)
  ---------------------------------------------------
  alpha Z        PSCENC =         0.76524277
  Ewald energy   TEWEN  =      -196.11110405
  -Hartree energ DENC   =      -822.21660673
  -exchange      EXHF   =         0.00000000
  -V(xc)+E(xc)   XCENC  =        32.07058565
  PAW double counting   =       781.81998351     -772.74147683
  entropy T*S    EENTRO =        -0.04194039
  eigenvalues    EBANDS =      -287.53214951
  atomic energy  EATOM  =      1260.03565078
  ---------------------------------------------------
  free energy    TOTEN  =        -3.95567405 eV

  energy without entropy =       -3.91373366  energy(sigma->0) =       -3.93470385


--------------------------------------------------------------------------------------------------------




--------------------------------------- Iteration      1(  24)  ---------------------------------------


    POTLOK:  cpu time    2.3892: real time    2.4334
    SETDIJ:  cpu time    0.4097: real time    0.4098
    TRIAL :  cpu time    3.3422: real time    3.5057
    CORREC:  cpu time    4.7442: real time    4.8565
    CHARGE:  cpu time    1.2517: real time    1.2986
    --------------------------------------------
      LOOP:  cpu time   12.1609: real time   12.5280

 eigenvalue-minimisations  :     0
 total energy-change (2. order) :-0.8839673E-02  ( 0.4482520E-05)
 number of electron      12.0000000 magnetization       4.0000000
 augmentation part        4.0626314 magnetization       0.7539295

 Free energy of the ion-electron system (eV)
  ---------------------------------------------------
  alpha Z        PSCENC =         0.76524277
  Ewald energy   TEWEN  =      -196.11110405
  -Hartree energ DENC   =      -822.23334336
  -exchange      EXHF   =         0.00000000
  -V(xc)+E(xc)   XCENC  =        32.07707044
  PAW double counting   =       781.82857437     -772.74976950
  entropy T*S    EENTRO =        -0.03587720
  eigenvalues    EBANDS =      -287.53489477
  atomic energy  EATOM  =      1260.03565078
  ---------------------------------------------------
  free energy    TOTEN  =        -3.96451372 eV

  energy without entropy =       -3.92863652  energy(sigma->0) =       -3.94657512


--------------------------------------------------------------------------------------------------------




--------------------------------------- Iteration      1(  25)  ---------------------------------------


    POTLOK:  cpu time    2.3969: real time    2.4658
    SETDIJ:  cpu time    0.3925: real time    0.4167
    TRIAL :  cpu time    3.3586: real time    3.5468
    CORREC:  cpu time    4.7147: real time    4.8580
    CHARGE:  cpu time    1.2244: real time    1.2462
    --------------------------------------------
      LOOP:  cpu time   12.1127: real time   12.5591

 eigenvalue-minimisations  :     0
 total energy-change (2. order) :-0.1302567E-01  ( 0.1392700E-04)
 number of electron      12.0000000 magnetization       4.0000000
 augmentation part        4.0626775 magnetization       0.7539636

 Free energy of the ion-electron system (eV)
  ---------------------------------------------------
  alpha Z        PSCENC =         0.76524277
  Ewald energy   TEWEN  =      -196.11110405
  -Hartree energ DENC   =      -822.25772691
  -exchange      EXHF   =         0.00000000
  -V(xc)+E(xc)   XCENC  =        32.08672618
  PAW double counting   =       781.84051546     -772.76114585
  entropy T*S    EENTRO =        -0.03039548
  eigenvalues    EBANDS =      -287.53982059
  atomic energy  EATOM  =      1260.03565078
  ---------------------------------------------------
  free energy    TOTEN  =        -3.97753939 eV

  energy without entropy =       -3.94714392  energy(sigma->0) =       -3.96234166


--------------------------------------------------------------------------------------------------------




--------------------------------------- Iteration      1(  26)  ---------------------------------------


    POTLOK:  cpu time    2.3485: real time    2.4079
    SETDIJ:  cpu time    0.3906: real time    0.4086
    TRIAL :  cpu time    3.9463: real time    4.1346
    CORREC:  cpu time    4.9162: real time    4.9187
    CHARGE:  cpu time    1.2621: real time    1.2632
    --------------------------------------------
      LOOP:  cpu time   12.8901: real time   13.1594

 eigenvalue-minimisations  :     0
 total energy-change (2. order) :-0.1014126E-01  ( 0.4812927E-04)
 number of electron      12.0000000 magnetization       4.0000000
 augmentation part        4.0627371 magnetization       0.7540120

 Free energy of the ion-electron system (eV)
  ---------------------------------------------------
  alpha Z        PSCENC =         0.76524277
  Ewald energy   TEWEN  =      -196.11110405
  -Hartree energ DENC   =      -822.27370062
  -exchange      EXHF   =         0.00000000
  -V(xc)+E(xc)   XCENC  =        32.09445999
  PAW double counting   =       781.84421654     -772.76414266
  entropy T*S    EENTRO =        -0.02851040
  eigenvalues    EBANDS =      -287.54790792
  atomic energy  EATOM  =      1260.03565078
  ---------------------------------------------------
  free energy    TOTEN  =        -3.98768065 eV

  energy without entropy =       -3.95917025  energy(sigma->0) =       -3.97342545


--------------------------------------------------------------------------------------------------------




--------------------------------------- Iteration      1(  27)  ---------------------------------------


    POTLOK:  cpu time    2.5008: real time    2.5017
    SETDIJ:  cpu time    0.4080: real time    0.4081
    TRIAL :  cpu time    3.4112: real time    3.5151
    CORREC:  cpu time    4.9804: real time    4.9835
    CHARGE:  cpu time    1.2810: real time    1.2817
    --------------------------------------------
      LOOP:  cpu time   12.6171: real time   12.7259

 eigenvalue-minimisations  :     0
 total energy-change (2. order) :-0.2942481E-02  ( 0.1898744E-03)
 number of electron      12.0000000 magnetization       4.0000000
 augmentation part        4.0627712 magnetization       0.7540545

 Free energy of the ion-electron system (eV)
  ---------------------------------------------------
  alpha Z        PSCENC =         0.76524277
  Ewald energy   TEWEN  =      -196.11110405
  -Hartree energ DENC   =      -822.27386794
  -exchange      EXHF   =         0.00000000
  -V(xc)+E(xc)   XCENC  =        32.09675548
  PAW double counting   =       781.83673081     -772.75610254
  entropy T*S    EENTRO =        -0.02824220
  eigenvalues    EBANDS =      -287.55541806
  atomic energy  EATOM  =      1260.03565078
  ---------------------------------------------------
  free energy    TOTEN  =        -3.99062313 eV

  energy without entropy =       -3.96238093  energy(sigma->0) =       -3.97650203


--------------------------------------------------------------------------------------------------------




--------------------------------------- Iteration      1(  28)  ---------------------------------------


    POTLOK:  cpu time    2.4204: real time    2.4219
    SETDIJ:  cpu time    0.4182: real time    0.4184
    TRIAL :  cpu time    3.5780: real time    3.6586
    CORREC:  cpu time   23.4790: real time   24.2417
    CHARGE:  cpu time    1.3100: real time    1.3105
    --------------------------------------------
      LOOP:  cpu time   31.2296: real time   32.0750

 eigenvalue-minimisations  :     0
 total energy-change (2. order) :-0.5207378E-03  (-0.1373886E-03)
 number of electron      12.0000000 magnetization       4.0000000
 augmentation part        4.0629579 magnetization       0.7542372

 Free energy of the ion-electron system (eV)
  ---------------------------------------------------
  alpha Z        PSCENC =         0.76524277
  Ewald energy   TEWEN  =      -196.11110405
  -Hartree energ DENC   =      -822.27055993
  -exchange      EXHF   =         0.00000000
  -V(xc)+E(xc)   XCENC  =        32.09712117
  PAW double counting   =       781.82849450     -772.74752266
  entropy T*S    EENTRO =        -0.02820940
  eigenvalues    EBANDS =      -287.56022425
  atomic energy  EATOM  =      1260.03565078
  ---------------------------------------------------
  free energy    TOTEN  =        -3.99114387 eV

  energy without entropy =       -3.96293447  energy(sigma->0) =       -3.97703917


--------------------------------------------------------------------------------------------------------




--------------------------------------- Iteration      1(  29)  ---------------------------------------


    POTLOK:  cpu time    2.4203: real time    2.4210
    SETDIJ:  cpu time    0.4123: real time    0.4125
    TRIAL :  cpu time    3.4893: real time    3.5719
    CORREC:  cpu time    6.3717: real time    6.4864
    CHARGE:  cpu time    1.2861: real time    1.2881
    --------------------------------------------
      LOOP:  cpu time   14.0057: real time   14.2059

 eigenvalue-minimisations  :     0
 total energy-change (2. order) : 0.1490427E-03  (-0.2732006E-03)
 number of electron      12.0000000 magnetization       4.0000000
 augmentation part        4.0627848 magnetization       0.7542354

 Free energy of the ion-electron system (eV)
  ---------------------------------------------------
  alpha Z        PSCENC =         0.76524277
  Ewald energy   TEWEN  =      -196.11110405
  -Hartree energ DENC   =      -822.25919229
  -exchange      EXHF   =         0.00000000
  -V(xc)+E(xc)   XCENC  =        32.09787260
  PAW double counting   =       781.79482242     -772.71221931
  entropy T*S    EENTRO =        -0.02820928
  eigenvalues    EBANDS =      -287.57385836
  atomic energy  EATOM  =      1260.03565078
  ---------------------------------------------------
  free energy    TOTEN  =        -3.99099483 eV

  energy without entropy =       -3.96278555  energy(sigma->0) =       -3.97689019


--------------------------------------------------------------------------------------------------------




--------------------------------------- Iteration      1(  30)  ---------------------------------------


    POTLOK:  cpu time    2.4714: real time    2.4761
    SETDIJ:  cpu time    0.4122: real time    0.4129
    TRIAL :  cpu time    3.4934: real time    3.6037
    CORREC:  cpu time    6.1253: real time    6.2312
    CHARGE:  cpu time    1.2990: real time    1.2995
    --------------------------------------------
      LOOP:  cpu time   13.8279: real time   14.0500

 eigenvalue-minimisations  :     0
 total energy-change (2. order) :-0.2731960E-03  (-0.1162584E-03)
 number of electron      12.0000000 magnetization       4.0000000
 augmentation part        4.0628738 magnetization       0.7541764

 Free energy of the ion-electron system (eV)
  ---------------------------------------------------
  alpha Z        PSCENC =         0.76524277
  Ewald energy   TEWEN  =      -196.11110405
  -Hartree energ DENC   =      -822.25253052
  -exchange      EXHF   =         0.00000000
  -V(xc)+E(xc)   XCENC  =        32.09715103
  PAW double counting   =       781.79185198     -772.70940758
  entropy T*S    EENTRO =        -0.02820921
  eigenvalues    EBANDS =      -287.57991315
  atomic energy  EATOM  =      1260.03565078
  ---------------------------------------------------
  free energy    TOTEN  =        -3.99126802 eV

  energy without entropy =       -3.96305881  energy(sigma->0) =       -3.97716342


--------------------------------------------------------------------------------------------------------




--------------------------------------- Iteration      1(  31)  ---------------------------------------


    POTLOK:  cpu time    2.4951: real time    2.4956
    SETDIJ:  cpu time    0.4197: real time    0.4197
    TRIAL :  cpu time    3.4563: real time    3.5467
    CORREC:  cpu time    5.9613: real time    6.0572
    CHARGE:  cpu time    1.2580: real time    1.2672
    --------------------------------------------
      LOOP:  cpu time   13.6197: real time   13.8157

 eigenvalue-minimisations  :     0
 total energy-change (2. order) :-0.1163298E-03  (-0.7263807E-05)
 number of electron      12.0000000 magnetization       4.0000000
 augmentation part        4.0628666 magnetization       0.7542016

 Free energy of the ion-electron system (eV)
  ---------------------------------------------------
  alpha Z        PSCENC =         0.76524277
  Ewald energy   TEWEN  =      -196.11110405
  -Hartree energ DENC   =      -822.26466147
  -exchange      EXHF   =         0.00000000
  -V(xc)+E(xc)   XCENC  =        32.09738770
  PAW double counting   =       781.81123843     -772.72871650
  entropy T*S    EENTRO =        -0.02820925
  eigenvalues    EBANDS =      -287.56821279
  atomic energy  EATOM  =      1260.03565078
  ---------------------------------------------------
  free energy    TOTEN  =        -3.99138435 eV

  energy without entropy =       -3.96317510  energy(sigma->0) =       -3.97727973


--------------------------------------------------------------------------------------------------------




--------------------------------------- Iteration      1(  32)  ---------------------------------------


    POTLOK:  cpu time    2.4498: real time    2.4693
    SETDIJ:  cpu time    0.4070: real time    0.4098
    TRIAL :  cpu time    3.3778: real time    3.4969
    CORREC:  cpu time    5.9897: real time    6.0989
    EDDIAG:  cpu time    1.6526: real time    1.6683
    CHARGE:  cpu time    1.3253: real time    1.3255
    --------------------------------------------
      LOOP:  cpu time   15.2327: real time   15.4994

 eigenvalue-minimisations  :     0
 total energy-change (2. order) :-0.7259449E-05  (-0.1793741E-05)
 number of electron      12.0000000 magnetization       4.0000000
 augmentation part        4.0628775 magnetization       0.7541839

 Free energy of the ion-electron system (eV)
  ---------------------------------------------------
  alpha Z        PSCENC =         0.76524277
  Ewald energy   TEWEN  =      -196.11110405
  -Hartree energ DENC   =      -822.26283194
  -exchange      EXHF   =         0.00000000
  -V(xc)+E(xc)   XCENC  =        32.09732237
  PAW double counting   =       781.81170967     -772.72917781
  entropy T*S    EENTRO =        -0.02820919
  eigenvalues    EBANDS =      -287.56999415
  atomic energy  EATOM  =      1260.03565078
  ---------------------------------------------------
  free energy    TOTEN  =        -3.99139161 eV

  energy without entropy =       -3.96318242  energy(sigma->0) =       -3.97728702


--------------------------------------------------------------------------------------------------------


  average scaling for gradient   1.2096


 average (electrostatic) potential at core
  the test charge radii are     1.1823
  (the norm of the test charge is              1.0000)
       1 -50.2000
 
 
 
 E-fermi :  -4.2858     XC(G=0):  -0.3703     alpha+bet : -0.0670


 spin component 1

 k-point     1 :       0.0000    0.0000    0.0000
  band No.  band energies     occupation 
      1     -43.6037      1.00000
      2     -43.6020      1.00000
      3     -43.6019      1.00000
      4      -6.1312      1.00000
      5      -5.3320      1.00000
      6      -5.3319      1.00000
      7      -5.3310      1.00000
      8      -5.1074      0.50180
      9      -5.1069      0.49820
     10      -1.5095      0.00000
     11      -1.5095      0.00000
     12      -1.5092      0.00000
     13      -0.1205      0.00000
     14       0.5777      0.00000
     15       0.5777      0.00000
     16       0.5959      0.00000
     17       0.7119      0.00000
     18       0.7119      0.00000
     19       0.7120      0.00000
     20       1.0344      0.00000
     21       1.0344      0.00000
     22       1.0344      0.00000
     23       1.2474      0.00000
     24       1.2475      0.00000
     25       1.2963      0.00000
     26       1.2964      0.00000
     27       1.2964      0.00000
     28       1.4256      0.00000
     29       1.4469      0.00000
     30       1.4469      0.00000
     31       1.4470      0.00000
     32       1.8049      0.00000
     33       1.8049      0.00000
     34       1.8049      0.00000
     35       1.8451      0.00000
     36       2.0257      0.00000
     37       2.0257      0.00000
     38       2.0258      0.00000
     39       2.0979      0.00000
     40       2.1606      0.00000
     41       2.1607      0.00000
     42       2.6363      0.00000
     43       2.6363      0.00000
     44       2.6363      0.00000
     45       2.7384      0.00000
     46       2.8350      0.00000
     47       2.8350      0.00000
     48       2.8350      0.00000
     49       2.9683      0.00000
     50       2.9683      0.00000
     51       2.9683      0.00000
     52       2.9934      0.00000
     53       2.9935      0.00000
     54       3.1370      0.00000
     55       3.1370      0.00000
     56       3.1371      0.00000
     57       3.2408      0.00000
     58       3.2409      0.00000
     59       3.2409      0.00000
     60       3.2887      0.00000
     61       3.2887      0.00000
     62       3.3395      0.00000
     63       3.3395      0.00000
     64       3.3395      0.00000
     65       3.3656      0.00000
     66       3.5085      0.00000
     67       3.5478      0.00000
     68       3.5478      0.00000
     69       3.5478      0.00000
     70       3.6090      0.00000
     71       3.6537      0.00000
     72       3.6537      0.00000
     73       3.6537      0.00000
     74       3.8828      0.00000
     75       3.8828      0.00000
     76       3.8828      0.00000
     77       3.8950      0.00000
     78       3.8950      0.00000
     79       3.8950      0.00000
     80       3.9025      0.00000
     81       3.9026      0.00000
     82       3.9291      0.00000
     83       3.9292      0.00000
     84       3.9292      0.00000
     85       3.9363      0.00000
     86       3.9363      0.00000
     87       3.9364      0.00000
     88       3.9584      0.00000
     89       3.9584      0.00000
     90       4.4700      0.00000
     91       4.4700      0.00000
     92       4.4701      0.00000
     93       4.6538      0.00000
     94       4.9436      0.00000
     95       4.9437      0.00000
     96       4.9437      0.00000
     97       5.0086      0.00000
     98       5.0086      0.00000
     99       5.0086      0.00000
    100       5.0335      0.00000
    101       5.0335      0.00000
    102       5.2729      0.00000
    103       5.2729      0.00000
    104       5.2730      0.00000
    105       5.3743      0.00000
    106       5.4406      0.00000
    107       5.4782      0.00000
    108       5.4783      0.00000
    109       5.5198      0.00000
    110       5.5198      0.00000
    111       5.5198      0.00000
    112       5.5815      0.00000
    113       5.5815      0.00000
    114       5.5815      0.00000
    115       5.6765      0.00000
    116       5.8338      0.00000
    117       5.8338      0.00000
    118       5.8338      0.00000
    119       5.8981      0.00000
    120       5.8981      0.00000
    121       5.8981      0.00000
    122       5.9063      0.00000
    123       5.9063      0.00000
    124       5.9303      0.00000
    125       5.9304      0.00000
    126       5.9304      0.00000
    127       5.9308      0.00000
    128       5.9308      0.00000
    129       5.9308      0.00000
    130       5.9401      0.00000
    131       5.9401      0.00000
    132       6.2415      0.00000
    133       6.2415      0.00000
    134       6.2415      0.00000
    135       6.3056      0.00000
    136       6.3258      0.00000
    137       6.3259      0.00000
    138       6.3623      0.00000
    139       6.3623      0.00000
    140       6.3623      0.00000
    141       6.3684      0.00000
    142       6.3684      0.00000
    143       6.3684      0.00000
    144       6.3847      0.00000
    145       6.3848      0.00000
    146       6.3848      0.00000
    147       6.4495      0.00000
    148       6.4495      0.00000
    149       6.4495      0.00000
    150       6.6386      0.00000
    151       6.6387      0.00000
    152       6.6391      0.00000
    153       6.6392      0.00000
    154       6.6392      0.00000
    155       6.6488      0.00000
    156       6.9994      0.00000
    157       6.9994      0.00000
    158       6.9994      0.00000
    159       7.0516      0.00000
    160       7.1008      0.00000
    161       7.1226      0.00000
    162       7.1226      0.00000
    163       7.1226      0.00000
    164       7.1314      0.00000
    165       7.1314      0.00000
    166       7.1314      0.00000
    167       7.1579      0.00000
    168       7.1579      0.00000
    169       7.1579      0.00000
    170       7.1632      0.00000
    171       7.1632      0.00000
    172       7.1632      0.00000
    173       7.1848      0.00000
    174       7.1848      0.00000
    175       7.1848      0.00000
    176       7.1848      0.00000
    177       7.1849      0.00000
    178       7.1977      0.00000
    179       7.1977      0.00000
    180       7.6241      0.00000
    181       7.6241      0.00000
    182       7.6241      0.00000
    183       7.6620      0.00000
    184       7.7119      0.00000
    185       7.7705      0.00000
    186       7.7705      0.00000
    187       7.7705      0.00000
    188       7.9472      0.00000
    189       7.9472      0.00000
    190       7.9472      0.00000
    191       8.0698      0.00000
    192       8.0698      0.00000
    193       8.0698      0.00000
    194       8.1780      0.00000
    195       8.1781      0.00000
    196       8.2005      0.00000
    197       8.2174      0.00000
    198       8.2174      0.00000
    199       8.2174      0.00000
    200       8.4497      0.00000
    201       8.4497      0.00000
    202       8.4498      0.00000
    203       8.5307      0.00000
    204       8.5307      0.00000
    205       8.5307      0.00000
    206       8.5481      0.00000
    207       8.5482      0.00000
    208       8.5550      0.00000
    209       8.5550      0.00000
    210       8.5550      0.00000
    211       8.5754      0.00000
    212       8.6846      0.00000
    213       8.8687      0.00000
    214       8.8687      0.00000
    215       8.8687      0.00000
    216       8.9348      0.00000
    217       8.9348      0.00000
    218       8.9349      0.00000
    219       8.9962      0.00000
    220       9.0127      0.00000
    221       9.0127      0.00000
    222       9.0127      0.00000
    223       9.0310      0.00000
    224       9.0310      0.00000
    225       9.0310      0.00000
    226       9.0582      0.00000
    227       9.0582      0.00000
    228       9.0582      0.00000
    229       9.0627      0.00000
    230       9.0627      0.00000
    231       9.0910      0.00000
    232       9.0910      0.00000
    233       9.0911      0.00000
    234       9.1157      0.00000
    235       9.1158      0.00000
    236       9.2537      0.00000
    237       9.2537      0.00000
    238       9.2537      0.00000
    239       9.2547      0.00000
    240       9.2547      0.00000
    241       9.2716      0.00000
    242       9.2716      0.00000
    243       9.2716      0.00000
    244       9.2789      0.00000
    245       9.2789      0.00000
    246       9.2789      0.00000
    247       9.2877      0.00000
    248       9.2877      0.00000
    249       9.2877      0.00000
    250       9.2976      0.00000
    251       9.2976      0.00000
    252       9.3317      0.00000
    253       9.3432      0.00000
    254       9.3432      0.00000
    255       9.3432      0.00000
    256       9.3526      0.00000

 spin component 2

 k-point     1 :       0.0000    0.0000    0.0000
  band No.  band energies     occupation 
      1     -41.6201      1.00000
      2     -41.6162      1.00000
      3     -41.6159      1.00000
      4      -4.6738      1.00000
      5      -3.1503      0.00000
      6      -3.1452      0.00000
      7      -2.8399      0.00000
      8      -2.8398      0.00000
      9      -2.8380      0.00000
     10      -0.8930      0.00000
     11      -0.8912      0.00000
     12      -0.8911      0.00000
     13      -0.1150      0.00000
     14       0.5396      0.00000
     15       0.5397      0.00000
     16       0.6429      0.00000
     17       0.7320      0.00000
     18       0.7322      0.00000
     19       0.7322      0.00000
     20       1.0337      0.00000
     21       1.0337      0.00000
     22       1.0339      0.00000
     23       1.2281      0.00000
     24       1.2282      0.00000
     25       1.2527      0.00000
     26       1.2527      0.00000
     27       1.2527      0.00000
     28       1.4844      0.00000
     29       1.5077      0.00000
     30       1.5081      0.00000
     31       1.5081      0.00000
     32       1.7983      0.00000
     33       1.8042      0.00000
     34       1.8042      0.00000
     35       1.8043      0.00000
     36       2.0167      0.00000
     37       2.0169      0.00000
     38       2.0170      0.00000
     39       2.0962      0.00000
     40       2.2097      0.00000
     41       2.2101      0.00000
     42       2.6439      0.00000
     43       2.6441      0.00000
     44       2.6442      0.00000
     45       2.7352      0.00000
     46       2.9121      0.00000
     47       2.9121      0.00000
     48       2.9122      0.00000
     49       2.9465      0.00000
     50       2.9465      0.00000
     51       2.9465      0.00000
     52       3.0001      0.00000
     53       3.0003      0.00000
     54       3.1056      0.00000
     55       3.1057      0.00000
     56       3.1057      0.00000
     57       3.1830      0.00000
     58       3.1830      0.00000
     59       3.1831      0.00000
     60       3.2462      0.00000
     61       3.2462      0.00000
     62       3.2970      0.00000
     63       3.2970      0.00000
     64       3.2970      0.00000
     65       3.3290      0.00000
     66       3.5217      0.00000
     67       3.5573      0.00000
     68       3.5574      0.00000
     69       3.5574      0.00000
     70       3.6148      0.00000
     71       3.6616      0.00000
     72       3.6616      0.00000
     73       3.6617      0.00000
     74       3.8653      0.00000
     75       3.8654      0.00000
     76       3.8654      0.00000
     77       3.8752      0.00000
     78       3.8752      0.00000
     79       3.8752      0.00000
     80       3.8908      0.00000
     81       3.8908      0.00000
     82       3.8908      0.00000
     83       3.8945      0.00000
     84       3.8946      0.00000
     85       3.8991      0.00000
     86       3.8991      0.00000
     87       3.8991      0.00000
     88       3.9075      0.00000
     89       3.9075      0.00000
     90       4.5819      0.00000
     91       4.5824      0.00000
     92       4.5824      0.00000
     93       4.7523      0.00000
     94       4.9547      0.00000
     95       4.9547      0.00000
     96       4.9547      0.00000
     97       5.0284      0.00000
     98       5.0285      0.00000
     99       5.0492      0.00000
    100       5.0492      0.00000
    101       5.0493      0.00000
    102       5.2969      0.00000
    103       5.2971      0.00000
    104       5.2971      0.00000
    105       5.4293      0.00000
    106       5.4424      0.00000
    107       5.5229      0.00000
    108       5.5231      0.00000
    109       5.5231      0.00000
    110       5.5380      0.00000
    111       5.5384      0.00000
    112       5.6122      0.00000
    113       5.6122      0.00000
    114       5.6123      0.00000
    115       5.6454      0.00000
    116       5.8357      0.00000
    117       5.8357      0.00000
    118       5.8357      0.00000
    119       5.8801      0.00000
    120       5.8801      0.00000
    121       5.8801      0.00000
    122       5.8845      0.00000
    123       5.8845      0.00000
    124       5.8858      0.00000
    125       5.8858      0.00000
    126       5.8859      0.00000
    127       5.8886      0.00000
    128       5.8886      0.00000
    129       5.8886      0.00000
    130       5.8924      0.00000
    131       5.8925      0.00000
    132       6.2394      0.00000
    133       6.2395      0.00000
    134       6.2395      0.00000
    135       6.3005      0.00000
    136       6.3351      0.00000
    137       6.3352      0.00000
    138       6.3352      0.00000
    139       6.3354      0.00000
    140       6.3354      0.00000
    141       6.3381      0.00000
    142       6.3382      0.00000
    143       6.3382      0.00000
    144       6.3481      0.00000
    145       6.3481      0.00000
    146       6.3482      0.00000
    147       6.4263      0.00000
    148       6.4263      0.00000
    149       6.4263      0.00000
    150       6.5979      0.00000
    151       6.5979      0.00000
    152       6.5979      0.00000
    153       6.5997      0.00000
    154       6.5998      0.00000
    155       6.6022      0.00000
    156       7.0290      0.00000
    157       7.0292      0.00000
    158       7.0292      0.00000
    159       7.0712      0.00000
    160       7.1176      0.00000
    161       7.1176      0.00000
    162       7.1176      0.00000
    163       7.1180      0.00000
    164       7.1214      0.00000
    165       7.1215      0.00000
    166       7.1215      0.00000
    167       7.1417      0.00000
    168       7.1417      0.00000
    169       7.1418      0.00000
    170       7.1422      0.00000
    171       7.1422      0.00000
    172       7.1422      0.00000
    173       7.1497      0.00000
    174       7.1497      0.00000
    175       7.1694      0.00000
    176       7.1694      0.00000
    177       7.1694      0.00000
    178       7.1788      0.00000
    179       7.1789      0.00000
    180       7.6354      0.00000
    181       7.6356      0.00000
    182       7.6357      0.00000
    183       7.6771      0.00000
    184       7.7152      0.00000
    185       7.7721      0.00000
    186       7.7722      0.00000
    187       7.7722      0.00000
    188       8.0145      0.00000
    189       8.0145      0.00000
    190       8.0145      0.00000
    191       8.0790      0.00000
    192       8.0791      0.00000
    193       8.0791      0.00000
    194       8.1983      0.00000
    195       8.1985      0.00000
    196       8.2109      0.00000
    197       8.2679      0.00000
    198       8.2679      0.00000
    199       8.2680      0.00000
    200       8.4450      0.00000
    201       8.4451      0.00000
    202       8.4451      0.00000
    203       8.4970      0.00000
    204       8.4970      0.00000
    205       8.4971      0.00000
    206       8.5102      0.00000
    207       8.5102      0.00000
    208       8.5102      0.00000
    209       8.5190      0.00000
    210       8.5191      0.00000
    211       8.5230      0.00000
    212       8.7527      0.00000
    213       8.8716      0.00000
    214       8.8717      0.00000
    215       8.8718      0.00000
    216       8.9575      0.00000
    217       8.9575      0.00000
    218       8.9576      0.00000
    219       9.0014      0.00000
    220       9.0156      0.00000
    221       9.0157      0.00000
    222       9.0157      0.00000
    223       9.0241      0.00000
    224       9.0241      0.00000
    225       9.0242      0.00000
    226       9.0301      0.00000
    227       9.0301      0.00000
    228       9.0301      0.00000
    229       9.0321      0.00000
    230       9.0322      0.00000
    231       9.0889      0.00000
    232       9.0889      0.00000
    233       9.0889      0.00000
    234       9.1036      0.00000
    235       9.1038      0.00000
    236       9.2257      0.00000
    237       9.2258      0.00000
    238       9.2258      0.00000
    239       9.2323      0.00000
    240       9.2323      0.00000
    241       9.2386      0.00000
    242       9.2386      0.00000
    243       9.2386      0.00000
    244       9.2398      0.00000
    245       9.2398      0.00000
    246       9.2398      0.00000
    247       9.2456      0.00000
    248       9.2456      0.00000
    249       9.2456      0.00000
    250       9.2480      0.00000
    251       9.2480      0.00000
    252       9.2989      0.00000
    253       9.3052      0.00000
    254       9.3052      0.00000
    255       9.3052      0.00000
    256       9.3113      0.00000


--------------------------------------------------------------------------------------------------------


 soft charge-density along one line, spin component           1
         0         1         2         3         4         5         6         7         8         9
 total charge-density along one line
 
 soft charge-density along one line, spin component           2
         0         1         2         3         4         5         6         7         8         9
 total charge-density along one line
 
 pseudopotential strength for first ion, spin component:           1
-40.623   0.000  -0.000  21.653  -0.000   0.000  -0.000  -0.000
  0.000 -40.625   0.000  -0.000  21.654  -0.000  -0.000  -0.000
 -0.000   0.000 -40.623   0.000  -0.000  21.653  -0.000  -0.000
 21.653  -0.000   0.000  -4.586   0.000  -0.000   0.000   0.000
 -0.000  21.654  -0.000   0.000  -4.587   0.000   0.000   0.000
  0.000  -0.000  21.653  -0.000   0.000  -4.586   0.000   0.000
 -0.000  -0.000  -0.000   0.000   0.000   0.000  -9.358   0.000
 -0.000  -0.000  -0.000   0.000   0.000   0.000   0.000  -9.359
 -0.000   0.000  -0.000   0.000  -0.000   0.000   0.000   0.000
 -0.000  -0.000  -0.000   0.000   0.000   0.000   0.000  -0.000
 -0.000  -0.000   0.000   0.000   0.000  -0.000   0.000  -0.000
 -0.000  -0.000  -0.000   0.000   0.000   0.000  -0.080   0.000
 -0.000  -0.000  -0.000   0.000   0.000   0.000   0.000  -0.080
 -0.000   0.000  -0.000   0.000  -0.000   0.000   0.000   0.000
 -0.000  -0.000  -0.000   0.000   0.000   0.000   0.000  -0.000
 -0.000  -0.000   0.000   0.000   0.000  -0.000   0.000   0.000
 -0.000  -0.000  -0.000   0.000   0.000   0.000   0.000  -0.000
  0.000   0.000   0.000  -0.000  -0.000  -0.000  -0.000   0.000
 pseudopotential strength for first ion, spin component:           2
-39.798   0.000  -0.000  20.904  -0.000   0.000  -0.000  -0.000
  0.000 -39.800   0.000  -0.000  20.906  -0.000  -0.000  -0.000
 -0.000   0.000 -39.798   0.000  -0.000  20.904  -0.000  -0.000
 20.904  -0.000   0.000  -4.205   0.000  -0.000   0.000   0.000
 -0.000  20.906  -0.000   0.000  -4.206   0.000   0.000   0.000
  0.000  -0.000  20.904  -0.000   0.000  -4.205   0.000   0.000
 -0.000  -0.000  -0.000   0.000   0.000   0.000  -8.989   0.000
 -0.000  -0.000  -0.000   0.000   0.000   0.000   0.000  -8.989
 -0.000   0.000  -0.000   0.000  -0.000   0.000   0.000  -0.000
 -0.000  -0.000  -0.000   0.000   0.000   0.000   0.000  -0.000
 -0.000   0.000   0.000   0.000  -0.000  -0.000  -0.000  -0.000
 -0.000  -0.000  -0.000   0.000   0.000   0.000  -0.051   0.000
 -0.000  -0.000  -0.000   0.000   0.000   0.000   0.000  -0.051
 -0.000   0.000  -0.000   0.000  -0.000   0.000   0.000  -0.000
 -0.000  -0.000  -0.000   0.000   0.000   0.000   0.000  -0.000
 -0.000   0.000   0.000   0.000  -0.000  -0.000  -0.000  -0.000
 -0.000  -0.000  -0.000   0.000   0.000   0.000   0.000  -0.000
  0.000   0.000   0.000  -0.000  -0.000  -0.000  -0.000   0.000
 total augmentation occupancy for first ion, spin component:           1
  1.984   0.000  -0.000  -0.020   0.000  -0.000   0.000   0.000   0.000  -0.000   0.000   0.000   0.000   0.000   0.000   0.000
  0.000   1.984   0.000   0.000  -0.020   0.000  -0.000   0.000  -0.000   0.000   0.000   0.000   0.000  -0.000   0.000  -0.000
 -0.000   0.000   1.984  -0.000   0.000  -0.020   0.000  -0.000   0.000   0.000  -0.000   0.000   0.000   0.000   0.000  -0.000
 -0.020   0.000  -0.000   0.000   0.000  -0.000  -0.000  -0.000  -0.000  -0.000  -0.000  -0.000  -0.000  -0.000  -0.000  -0.000
  0.000  -0.020   0.000   0.000   0.000   0.000  -0.000  -0.000   0.000  -0.000   0.000  -0.000  -0.000   0.000  -0.000   0.000
 -0.000   0.000  -0.020  -0.000   0.000   0.000  -0.000  -0.000  -0.000  -0.000   0.000  -0.000  -0.000  -0.000  -0.000   0.000
  0.000  -0.000   0.000  -0.000  -0.000  -0.000   1.089  -0.000   0.000  -0.000  -0.000   0.110  -0.000   0.000  -0.000  -0.000
  0.000   0.000  -0.000  -0.000  -0.000  -0.000  -0.000   1.089  -0.000  -0.000  -0.000  -0.000   0.110  -0.000   0.000  -0.000
  0.000  -0.000   0.000  -0.000   0.000  -0.000   0.000  -0.000   0.542  -0.000   0.000   0.000  -0.000   0.058  -0.000   0.000
 -0.000   0.000   0.000  -0.000  -0.000  -0.000  -0.000  -0.000  -0.000   1.090   0.000  -0.000   0.000  -0.000   0.110   0.000
  0.000   0.000  -0.000  -0.000   0.000   0.000  -0.000  -0.000   0.000   0.000   0.546  -0.000  -0.000   0.000   0.000   0.059
  0.000   0.000   0.000  -0.000  -0.000  -0.000   0.110  -0.000   0.000  -0.000  -0.000   0.011  -0.000   0.000  -0.000  -0.000
  0.000   0.000   0.000  -0.000  -0.000  -0.000  -0.000   0.110  -0.000   0.000  -0.000  -0.000   0.011  -0.000   0.000  -0.000
  0.000  -0.000   0.000  -0.000   0.000  -0.000   0.000  -0.000   0.058  -0.000   0.000   0.000  -0.000   0.006  -0.000   0.000
  0.000   0.000   0.000  -0.000  -0.000  -0.000  -0.000   0.000  -0.000   0.110   0.000  -0.000   0.000  -0.000   0.011   0.000
  0.000  -0.000  -0.000  -0.000   0.000   0.000  -0.000  -0.000   0.000   0.000   0.059  -0.000  -0.000   0.000   0.000   0.006
  0.000   0.000   0.000   0.000   0.000   0.000   0.000  -0.000   0.001  -0.000   0.000   0.000  -0.000  -0.000  -0.000  -0.000
  0.000   0.000   0.000   0.000   0.000   0.000  -0.000   0.000   0.000   0.000   0.000   0.000  -0.000  -0.000  -0.000  -0.000
 total augmentation occupancy for first ion, spin component:           2
  0.014   0.000  -0.000   0.017   0.000  -0.000  -0.000  -0.000  -0.000  -0.000  -0.000   0.000   0.000  -0.000   0.000  -0.000
  0.000   0.014   0.000   0.000   0.017   0.000  -0.000  -0.000   0.000  -0.000   0.000   0.000   0.000   0.000   0.000  -0.000
 -0.000   0.000   0.014  -0.000   0.000   0.017  -0.000  -0.000  -0.000  -0.000   0.000   0.000   0.000  -0.000   0.000   0.000
  0.017   0.000  -0.000  -0.000  -0.000   0.000  -0.000  -0.000  -0.000  -0.000  -0.000  -0.000  -0.000  -0.000  -0.000  -0.000
  0.000   0.017   0.000  -0.000  -0.000  -0.000  -0.000  -0.000   0.000  -0.000   0.000  -0.000  -0.000   0.000  -0.000   0.000
 -0.000   0.000   0.017   0.000  -0.000  -0.000  -0.000  -0.000  -0.000  -0.000   0.000  -0.000  -0.000  -0.000  -0.000   0.000
 -0.000  -0.000  -0.000  -0.000  -0.000  -0.000   1.089  -0.000   0.000  -0.000  -0.000   0.110  -0.000   0.000  -0.000  -0.000
 -0.000  -0.000  -0.000  -0.000  -0.000  -0.000  -0.000   1.089  -0.000  -0.000  -0.000  -0.000   0.110  -0.000   0.000  -0.000
 -0.000   0.000  -0.000  -0.000   0.000  -0.000   0.000  -0.000   0.542  -0.000   0.000   0.000  -0.000   0.058  -0.000   0.000
 -0.000  -0.000  -0.000  -0.000  -0.000  -0.000  -0.000  -0.000  -0.000   1.090   0.000  -0.000   0.000  -0.000   0.110   0.000
 -0.000   0.000   0.000  -0.000   0.000   0.000  -0.000  -0.000   0.000   0.000   0.546  -0.000  -0.000   0.000   0.000   0.059
  0.000   0.000   0.000  -0.000  -0.000  -0.000   0.110  -0.000   0.000  -0.000  -0.000   0.011  -0.000   0.000  -0.000  -0.000
  0.000   0.000   0.000  -0.000  -0.000  -0.000  -0.000   0.110  -0.000   0.000  -0.000  -0.000   0.011  -0.000   0.000  -0.000
 -0.000   0.000  -0.000  -0.000   0.000  -0.000   0.000  -0.000   0.058  -0.000   0.000   0.000  -0.000   0.006  -0.000   0.000
  0.000   0.000   0.000  -0.000  -0.000  -0.000  -0.000   0.000  -0.000   0.110   0.000  -0.000   0.000  -0.000   0.011   0.000
 -0.000  -0.000   0.000  -0.000   0.000   0.000  -0.000  -0.000   0.000   0.000   0.059  -0.000  -0.000   0.000   0.000   0.006
  0.000   0.000   0.000   0.000   0.000   0.000  -0.000   0.000  -0.001   0.000  -0.000   0.000  -0.000   0.000  -0.000   0.000
  0.000   0.000   0.000   0.000   0.000   0.000  -0.000   0.000   0.000   0.000   0.000   0.000  -0.000   0.000  -0.000   0.000


------------------------ aborting loop because EDIFF is reached ----------------------------------------


    FORLOC:  cpu time    0.0006: real time    0.0048
    FORNL :  cpu time    0.0600: real time    0.0714
    FORCOR:  cpu time    2.3641: real time    2.3718
    OFIELD:  cpu time    0.0008: real time    0.0052

 VOLUME and BASIS-vectors are now :
 -----------------------------------------------------------------------------
  energy-cutoff  :      520.00
  volume of cell :     3375.00
      direct lattice vectors                 reciprocal lattice vectors
    15.000000000  0.000000000  0.000000000     0.066666667  0.000000000  0.000000000
     0.000000000 15.000000000  0.000000000     0.000000000  0.066666667  0.000000000
     0.000000000  0.000000000 15.000000000     0.000000000  0.000000000  0.066666667

  length of vectors
    15.000000000 15.000000000 15.000000000     0.066666667  0.066666667  0.066666667


 FORCES acting on ions:
    Electron-Ion                     Ewald-Force                    Non-Local-Force
 -----------------------------------------------------------------------------------------------
   -.101E-04 -.101E-04 -.998E-05   -.195E-16 0.263E-16 -.546E-16   0.284E-03 0.284E-03 0.269E-03
 -----------------------------------------------------------------------------------------------
   -.105E-04 -.105E-04 -.104E-04   -.195E-16 0.263E-16 -.546E-16   0.284E-03 0.284E-03 0.269E-03
 
 
 POSITION                                       TOTAL-FORCE (eV/Angst)
 -----------------------------------------------------------------------------------
      0.15000      0.15000     11.26500         0.000273      0.000273      0.000259
 -----------------------------------------------------------------------------------
    total drift:                                0.000273      0.000273      0.000259


--------------------------------------------------------------------------------------------------------



  FREE ENERGIE OF THE ION-ELECTRON SYSTEM (eV)
  ---------------------------------------------------
  free  energy   TOTEN  =        -3.99139161 eV

  energy  without entropy=       -3.96318242  energy(sigma->0) =       -3.97728702
 


--------------------------------------------------------------------------------------------------------


    POTLOK:  cpu time    2.8587: real time    2.8723


--------------------------------------------------------------------------------------------------------


 stress matrix after NEB project (eV)
      0.00000      0.00000      0.00000
      0.00000      0.00000      0.00000
      0.00000      0.00000      0.00000
  FORCES: max atom, RMS     0.000465    0.000465
  FORCE total and by dimension    0.000465    0.000273
  Stress total and by dimension    0.000000    0.000000
     LOOP+:  cpu time  476.2878: real time  484.6321
    4ORBIT:  cpu time    0.0000: real time    0.0000

 total amount of memory used by VASP MPI-rank0   177231. kBytes
=======================================================================

   base      :      30000. kBytes
   nonl-proj :      14540. kBytes
   fftplans  :       7479. kBytes
   grid      :     116433. kBytes
   one-center:         31. kBytes
   wavefun   :       8748. kBytes
 
  
  
 General timing and accounting informations for this job:
 ========================================================
  
                  Total CPU time used (sec):      490.714
                            User time (sec):      479.069
                          System time (sec):       11.646
                         Elapsed time (sec):      501.869
  
                   Maximum memory used (kb):      455504.
                   Average memory used (kb):           0.
  
                          Minor page faults:       265055
                          Major page faults:            0
                 Voluntary context switches:         2818
