       N       E                     dE             d eps       ncg     rms          ort
DAV:   1     0.945004307857E+03    0.94500E+03   -0.83433E+04  3328   0.640E+02
DAV:   2    -0.368567224998E+03   -0.13136E+04   -0.13130E+04  3328   0.921E+01
DAV:   3    -0.440074398038E+03   -0.71507E+02   -0.71507E+02  3328   0.342E+01
DAV:   4    -0.440769689996E+03   -0.69529E+00   -0.69529E+00  3328   0.363E+00
DAV:   5    -0.440769799280E+03   -0.10928E-03   -0.10928E-03  3328   0.566E-02
SDA:   6    -0.440769799280E+03    0.00000E+00   -0.10928E-03  3328   0.150E-05 0.000E+00
   1 F= -.44243121E+03 E0= -.44242904E+03  d E =-.433762E-02  mag=    -0.0000
