       N       E                     dE             d eps       ncg     rms          ort
DAV:   1     0.795344894468E+00    0.79534E+00   -0.71488E+02   256   0.620E+00
DAV:   2    -0.373057383856E-01   -0.83265E+00   -0.83265E+00   256   0.275E-01
DAV:   3    -0.381416983902E-01   -0.83596E-03   -0.83596E-03   256   0.151E-02
DAV:   4    -0.381422199096E-01   -0.52152E-06   -0.52152E-06   256   0.369E-04
DAV:   5    -0.381422199284E-01   -0.18801E-10   -0.18884E-10   256   0.227E-06
SDA:   6    -0.381314169636E-01    0.10803E-04   -0.18884E-10   256   0.558E-05 0.000E+00
CGA:   7    -0.381335764077E-01   -0.21594E-05   -0.20012E-05   256   0.130E-05 0.997E-06
   1 F= -.38133576E-01 E0= -.38133576E-01  d E =-.106019E-10
