N-C                                     
   1.00000000000000     
    12.3000001907000005    0.0000000000000000    0.0000000000000000
    -6.1500000954000003   10.6521126316999997    0.0000000000000000
     0.0000000000000000    0.0000000000000000   20.0000000000000000
   C    N 
    44     4
Direct
  0.9994700169213786  0.0005299830786214  0.7500000000000000
  0.1325146207610075  0.0661302858306030  0.7500000000000000
  0.1994602858306038  0.9991846207610067  0.7500000000000000
  0.3321599807094202  0.0648966861674580  0.7500000000000000
  0.3989949639118251  0.9981608339277130  0.7500000000000000
  0.5315380123678750  0.0661268953377885  0.7500000000000000
  0.5991395608830601  0.0002455330755353  0.7500000000000000
  0.7321822273800223  0.0689716183892628  0.7500000000000000
  0.7994242033393064  0.0023572479699965  0.7500000000000000
  0.9323895982081609  0.0676104017918391  0.7500000000000000
  0.9976427520300035  0.2005757966606936  0.7500000000000000
  0.1314908339277139  0.2656649639118243  0.7500000000000000
  0.1982266861674589  0.1988299807094265  0.7500000000000000
  0.3324166776012802  0.2690126017352625  0.7500000000000000
  0.4023426017352634  0.1990866776012865  0.7500000000000000
  0.5927950538359710  0.2006221154071639  0.7500000000000000
  0.7290202564456862  0.2709797435543209  0.7500000000000000
  0.7963961807724331  0.2036038192275669  0.7500000000000000
  0.9310283816107372  0.2678177726199777  0.7500000000000000
  0.9997544669244647  0.4008604391169399  0.7500000000000000
  0.1335755330755362  0.4658095608830592  0.7500000000000000
  0.1994568953377964  0.3982080123678742  0.7500000000000000
  0.3339521154071576  0.4594650538359701  0.7500000000000000
  0.7993778845928361  0.4072049461640290  0.7500000000000000
  0.9338731046622115  0.4684619876321250  0.7500000000000000
  0.0018391660722870  0.6010050360881749  0.7500000000000000
  0.1356872479699973  0.6660942033393127  0.7500000000000000
  0.2023016183892636  0.5988522273800214  0.7500000000000000
  0.3369338192275606  0.6630661807724394  0.7500000000000000
  0.4043097435543146  0.5956902564456854  0.7500000000000000
  0.5405349461640299  0.6660478845928424  0.7500000000000000
  0.7309873982647375  0.6675833223987198  0.7500000000000000
  0.8009133223987135  0.5976573982647366  0.7500000000000000
  0.9351033138325420  0.6678400192905798  0.7500000000000000
  0.0008153792389933  0.8005397141693962  0.7500000000000000
  0.1338599830786222  0.8661400169213778  0.7500000000000000
  0.2009404017918399  0.7990595982081601  0.7500000000000000
  0.3339057966606873  0.8643127520300027  0.7500000000000000
  0.4011477726199786  0.7976983816107364  0.7500000000000000
  0.5341904391169408  0.8664244669244638  0.7500000000000000
  0.6017919876321258  0.8005431046622107  0.7500000000000000
  0.7343350360881757  0.8685091660722861  0.7500000000000000
  0.8011700192905735  0.8017733138325411  0.7500000000000000
  0.9338697141693970  0.8674853792389925  0.7500000000000000
  0.5268651920665590  0.2614165929745411  0.7500000000000000
  0.3947465929745420  0.3935351920665582  0.7500000000000000
  0.7385834070254589  0.4731348079334410  0.7500000000000000
  0.6064648079334418  0.6052534070254580  0.7500000000000000
 
  0.00000000E+00  0.00000000E+00  0.00000000E+00
  0.00000000E+00  0.00000000E+00  0.00000000E+00
  0.00000000E+00  0.00000000E+00  0.00000000E+00
  0.00000000E+00  0.00000000E+00  0.00000000E+00
  0.00000000E+00  0.00000000E+00  0.00000000E+00
  0.00000000E+00  0.00000000E+00  0.00000000E+00
  0.00000000E+00  0.00000000E+00  0.00000000E+00
  0.00000000E+00  0.00000000E+00  0.00000000E+00
  0.00000000E+00  0.00000000E+00  0.00000000E+00
  0.00000000E+00  0.00000000E+00  0.00000000E+00
  0.00000000E+00  0.00000000E+00  0.00000000E+00
  0.00000000E+00  0.00000000E+00  0.00000000E+00
  0.00000000E+00  0.00000000E+00  0.00000000E+00
  0.00000000E+00  0.00000000E+00  0.00000000E+00
  0.00000000E+00  0.00000000E+00  0.00000000E+00
  0.00000000E+00  0.00000000E+00  0.00000000E+00
  0.00000000E+00  0.00000000E+00  0.00000000E+00
  0.00000000E+00  0.00000000E+00  0.00000000E+00
  0.00000000E+00  0.00000000E+00  0.00000000E+00
  0.00000000E+00  0.00000000E+00  0.00000000E+00
  0.00000000E+00  0.00000000E+00  0.00000000E+00
  0.00000000E+00  0.00000000E+00  0.00000000E+00
  0.00000000E+00  0.00000000E+00  0.00000000E+00
  0.00000000E+00  0.00000000E+00  0.00000000E+00
  0.00000000E+00  0.00000000E+00  0.00000000E+00
  0.00000000E+00  0.00000000E+00  0.00000000E+00
  0.00000000E+00  0.00000000E+00  0.00000000E+00
  0.00000000E+00  0.00000000E+00  0.00000000E+00
  0.00000000E+00  0.00000000E+00  0.00000000E+00
  0.00000000E+00  0.00000000E+00  0.00000000E+00
  0.00000000E+00  0.00000000E+00  0.00000000E+00
  0.00000000E+00  0.00000000E+00  0.00000000E+00
  0.00000000E+00  0.00000000E+00  0.00000000E+00
  0.00000000E+00  0.00000000E+00  0.00000000E+00
  0.00000000E+00  0.00000000E+00  0.00000000E+00
  0.00000000E+00  0.00000000E+00  0.00000000E+00
  0.00000000E+00  0.00000000E+00  0.00000000E+00
  0.00000000E+00  0.00000000E+00  0.00000000E+00
  0.00000000E+00  0.00000000E+00  0.00000000E+00
  0.00000000E+00  0.00000000E+00  0.00000000E+00
  0.00000000E+00  0.00000000E+00  0.00000000E+00
  0.00000000E+00  0.00000000E+00  0.00000000E+00
  0.00000000E+00  0.00000000E+00  0.00000000E+00
  0.00000000E+00  0.00000000E+00  0.00000000E+00
  0.00000000E+00  0.00000000E+00  0.00000000E+00
  0.00000000E+00  0.00000000E+00  0.00000000E+00
  0.00000000E+00  0.00000000E+00  0.00000000E+00
  0.00000000E+00  0.00000000E+00  0.00000000E+00
