       N       E                     dE             d eps       ncg     rms          ort
SDA:   1    -0.334499062187E+03   -0.33450E+03    0.00000E+00  3328   0.117E+03 0.000E+00
CGA:   2    -0.404850798939E+03   -0.70352E+02   -0.70422E+02  3328   0.614E+02-0.299E+01
CGA:   3    -0.424165583655E+03   -0.19315E+02   -0.19194E+02  3328   0.227E+02 0.760E+00
CGA:   4    -0.431507878855E+03   -0.73423E+01   -0.73670E+01  3328   0.849E+01-0.219E+00
CGA:   5    -0.433981317838E+03   -0.24734E+01   -0.24837E+01  3328   0.281E+01-0.114E+00
CGA:   6    -0.434821199752E+03   -0.83988E+00   -0.84372E+00  3328   0.860E+00-0.357E-01
CGA:   7    -0.435074207274E+03   -0.25301E+00   -0.25312E+00  3328   0.238E+00-0.590E-03
CGA:   8    -0.435154216844E+03   -0.80010E-01   -0.79619E-01  3328   0.759E-01 0.307E-02
CGA:   9    -0.435183249309E+03   -0.29032E-01   -0.28989E-01  3328   0.286E-01 0.262E-03
CGA:  10    -0.435194554806E+03   -0.11305E-01   -0.11310E-01  3328   0.995E-02-0.305E-04
CGA:  11    -0.435198388325E+03   -0.38335E-02   -0.38365E-02  3328   0.284E-02-0.223E-04
CGA:  12    -0.435199451528E+03   -0.10632E-02   -0.10640E-02  3328   0.745E-03-0.571E-05
CGA:  13    -0.435199744856E+03   -0.29333E-03   -0.29345E-03  3328   0.214E-03-0.906E-06
CGA:  14    -0.435199837464E+03   -0.92608E-04   -0.92595E-04  3328   0.731E-04 0.785E-07
CGA:  15    -0.435199870621E+03   -0.33158E-04   -0.33167E-04  3328   0.245E-04-0.563E-07
CGA:  16    -0.435199881638E+03   -0.11016E-04   -0.11039E-04  3328   0.726E-05-0.136E-06
CGA:  17    -0.435199884864E+03   -0.32259E-05   -0.32438E-05  3328   0.211E-05-0.121E-06
   1 F= -.43684187E+03 E0= -.43684174E+03  d E =-.258292E-03
