C  N  Ba                                
   1.00000000000000     
    12.3000000000000007    0.0000000000000000    0.0000000000000000
    -6.1499999999999977   10.6521124665485960    0.0000000000000000
     0.0000000000000000    0.0000000000000000   20.0000000000000000
   C    N    Ba
    44     4     1
Direct
  0.9994241037649405  0.0005758791515682  0.7411473880045090
  0.1321400176588703  0.0654111616465126  0.7420478758589211
  0.1987372216903339  0.9988234265305764  0.7420382569154641
  0.3314810274237715  0.0647380925446670  0.7457208618906855
  0.3987542162485808  0.9982163685848732  0.7449953266820216
  0.5318984264365303  0.0663557543922952  0.7470137549170371
  0.5994200730951168  0.0004271724138810  0.7451099795271823
  0.7326366215493669  0.0688603939093246  0.7453189463242462
  0.7996916117067898  0.0019172272763852  0.7434129499841646
  0.9326056279544562  0.0673942721255959  0.7423769845427954
  0.9980829291029762  0.2003080789630836  0.7434129440868820
  0.1315457243143524  0.2654316943085425  0.7449969416792258
  0.1980829499749241  0.1981406900805573  0.7457356176188850
  0.3301042158241822  0.2651135701851078  0.7537285840724033
  0.3984236138509575  0.1967792976559394  0.7537308348730444
  0.5938594290995471  0.2000810783509202  0.7542600019978803
  0.7296418562607524  0.2703582481132703  0.7537690161406494
  0.7970599649796298  0.2029398534123485  0.7479303300915732
  0.9311396009533578  0.2673634702825488  0.7453189580240115
  0.9995726562231299  0.4005794207209837  0.7451099814097638
  0.1337754912094366  0.4661121875773459  0.7451103418120760
  0.1996848142075305  0.3985509394385938  0.7470124315375027
  0.3334228445292284  0.4605210054449443  0.7542594011754772
  0.7999188899652130  0.4061405678331216  0.7542600046804752
  0.9336442483923340  0.4681014811719129  0.7470137526236681
  0.0017836508427472  0.6012457990871957  0.7449953259665467
  0.1352480836138530  0.6663750250843630  0.7434118618245485
  0.2021928453051769  0.5993086424735875  0.7453257787206103
  0.3362667186836910  0.6637332759899924  0.7479335791903282
  0.4036873315681317  0.5963126718980786  0.7537751449722682
  0.5394789938323890  0.6665771526993681  0.7542594015478723
  0.7348864331898628  0.6698957817485941  0.7537285840008896
  0.8032207036225051  0.6015763957693797  0.7537308351316737
  0.9352619098041726  0.6685189722326209  0.7457208616496419
  0.0011765816057025  0.8012627755660141  0.7420382577512520
  0.1339195636122152  0.8660804327059279  0.7411563108714906
  0.2007241902592720  0.7992758208802174  0.7423795174493933
  0.3336249654438896  0.8647519087918155  0.7434118616433938
  0.4006913769540004  0.7978071673787120  0.7453257793649829
  0.5338877894707172  0.8662244340016664  0.7451103422670706
  0.6014490312253329  0.8003151908577230  0.7470124313362442
  0.7345683517422931  0.8684543379875240  0.7449969419443043
  0.8018593187330996  0.8019170477401225  0.7457356166687621
  0.9345888310742979  0.8678599853249669  0.7420478765430166
  0.5258063210513807  0.2588823996318857  0.7621059170821048
  0.3922135225279999  0.3924787667030068  0.7621060899622997
  0.7411176063932133  0.4741936732128756  0.7621059176232046
  0.6075212333575203  0.6077864790407265  0.7621060895099702
  0.5666654696702306  0.4333345310787350  0.8456472105076432
 
  0.00000000E+00  0.00000000E+00  0.00000000E+00
  0.00000000E+00  0.00000000E+00  0.00000000E+00
  0.00000000E+00  0.00000000E+00  0.00000000E+00
  0.00000000E+00  0.00000000E+00  0.00000000E+00
  0.00000000E+00  0.00000000E+00  0.00000000E+00
  0.00000000E+00  0.00000000E+00  0.00000000E+00
  0.00000000E+00  0.00000000E+00  0.00000000E+00
  0.00000000E+00  0.00000000E+00  0.00000000E+00
  0.00000000E+00  0.00000000E+00  0.00000000E+00
  0.00000000E+00  0.00000000E+00  0.00000000E+00
  0.00000000E+00  0.00000000E+00  0.00000000E+00
  0.00000000E+00  0.00000000E+00  0.00000000E+00
  0.00000000E+00  0.00000000E+00  0.00000000E+00
  0.00000000E+00  0.00000000E+00  0.00000000E+00
  0.00000000E+00  0.00000000E+00  0.00000000E+00
  0.00000000E+00  0.00000000E+00  0.00000000E+00
  0.00000000E+00  0.00000000E+00  0.00000000E+00
  0.00000000E+00  0.00000000E+00  0.00000000E+00
  0.00000000E+00  0.00000000E+00  0.00000000E+00
  0.00000000E+00  0.00000000E+00  0.00000000E+00
  0.00000000E+00  0.00000000E+00  0.00000000E+00
  0.00000000E+00  0.00000000E+00  0.00000000E+00
  0.00000000E+00  0.00000000E+00  0.00000000E+00
  0.00000000E+00  0.00000000E+00  0.00000000E+00
  0.00000000E+00  0.00000000E+00  0.00000000E+00
  0.00000000E+00  0.00000000E+00  0.00000000E+00
  0.00000000E+00  0.00000000E+00  0.00000000E+00
  0.00000000E+00  0.00000000E+00  0.00000000E+00
  0.00000000E+00  0.00000000E+00  0.00000000E+00
  0.00000000E+00  0.00000000E+00  0.00000000E+00
  0.00000000E+00  0.00000000E+00  0.00000000E+00
  0.00000000E+00  0.00000000E+00  0.00000000E+00
  0.00000000E+00  0.00000000E+00  0.00000000E+00
  0.00000000E+00  0.00000000E+00  0.00000000E+00
  0.00000000E+00  0.00000000E+00  0.00000000E+00
  0.00000000E+00  0.00000000E+00  0.00000000E+00
  0.00000000E+00  0.00000000E+00  0.00000000E+00
  0.00000000E+00  0.00000000E+00  0.00000000E+00
  0.00000000E+00  0.00000000E+00  0.00000000E+00
  0.00000000E+00  0.00000000E+00  0.00000000E+00
  0.00000000E+00  0.00000000E+00  0.00000000E+00
  0.00000000E+00  0.00000000E+00  0.00000000E+00
  0.00000000E+00  0.00000000E+00  0.00000000E+00
  0.00000000E+00  0.00000000E+00  0.00000000E+00
  0.00000000E+00  0.00000000E+00  0.00000000E+00
  0.00000000E+00  0.00000000E+00  0.00000000E+00
  0.00000000E+00  0.00000000E+00  0.00000000E+00
  0.00000000E+00  0.00000000E+00  0.00000000E+00
  0.00000000E+00  0.00000000E+00  0.00000000E+00
