       N       E                     dE             d eps       ncg     rms          rms(c)
DAV:   1     0.121900170322E+04    0.12190E+04   -0.85549E+04  4096   0.591E+02
DAV:   2    -0.395602582433E+03   -0.16146E+04   -0.16129E+04  6144   0.115E+02
DAV:   3    -0.474178545414E+03   -0.78576E+02   -0.78576E+02  7424   0.379E+01
DAV:   4    -0.474378688404E+03   -0.20014E+00   -0.20014E+00  5888   0.186E+00
DAV:   5    -0.474378880656E+03   -0.19225E-03   -0.19225E-03  7424   0.654E-02    0.281E+01
DAV:   6    -0.450080384887E+03    0.24298E+02   -0.38440E+01  7680   0.744E+00    0.142E+01
DAV:   7    -0.441938995636E+03    0.81414E+01   -0.18351E+01  8192   0.515E+00    0.412E+00
DAV:   8    -0.441149096539E+03    0.78990E+00   -0.18631E+00  8192   0.158E+00    0.189E+00
DAV:   9    -0.440871261220E+03    0.27784E+00   -0.18519E-01  8192   0.542E-01    0.437E-01
DAV:  10    -0.440818922034E+03    0.52339E-01   -0.25338E-02  8192   0.147E-01    0.335E-01
DAV:  11    -0.440772858420E+03    0.46064E-01   -0.87693E-02  8192   0.258E-01    0.162E-01
DAV:  12    -0.440785349995E+03   -0.12492E-01   -0.64551E-03  7680   0.771E-02    0.839E-02
DAV:  13    -0.440807259705E+03   -0.21910E-01   -0.25684E-03  7168   0.474E-02    0.523E-02
DAV:  14    -0.440819918366E+03   -0.12659E-01   -0.11807E-03  7680   0.327E-02    0.343E-02
DAV:  15    -0.440829757213E+03   -0.98388E-02   -0.12710E-03  8192   0.281E-02    0.157E-02
DAV:  16    -0.440832408297E+03   -0.26511E-02   -0.22250E-04  6656   0.120E-02    0.923E-03
DAV:  17    -0.440833613476E+03   -0.12052E-02   -0.11495E-04  6656   0.816E-03    0.517E-03
DAV:  18    -0.440834069722E+03   -0.45625E-03   -0.36039E-05  6144   0.434E-03    0.343E-03
DAV:  19    -0.440834338213E+03   -0.26849E-03   -0.21494E-05  6144   0.300E-03    0.238E-03
DAV:  20    -0.440834453232E+03   -0.11502E-03   -0.64695E-06  6656   0.155E-03    0.165E-03
DAV:  21    -0.440834545721E+03   -0.92489E-04   -0.21375E-06  5632   0.907E-04    0.107E-03
DAV:  22    -0.440834593175E+03   -0.47454E-04   -0.61166E-07  6656   0.542E-04    0.650E-04
DAV:  23    -0.440834621166E+03   -0.27991E-04   -0.27813E-07  5632   0.394E-04    0.333E-04
DAV:  24    -0.440834630363E+03   -0.91973E-05   -0.95740E-08  6656   0.250E-04
   1 F= -.44257566E+03 E0= -.44257442E+03  d E =-.442576E+03  mag=    -0.0000
       N       E                     dE             d eps       ncg     rms          rms(c)
DAV:   1    -0.440834904964E+03   -0.28380E-03   -0.18559E-02  7680   0.211E-01    0.274E-02
DAV:   2    -0.440834898730E+03    0.62341E-05   -0.13530E-04  6656   0.199E-02    0.152E-02
DAV:   3    -0.440834898884E+03   -0.15401E-06   -0.14575E-05  8192   0.565E-03
   2 F= -.44257594E+03 E0= -.44257472E+03  d E =-.279790E-03  mag=     0.0000
