C  N  Ba
 1.0000000000000000
    12.3000000000000007    0.0000000000000000    0.0000000000000000
    -6.1499999999999977   10.6521124665485960    0.0000000000000000
     0.0000000000000000    0.0000000000000000   20.0000000000000000
 C   N   Ba 
  44   4   1
Direct
  0.9994100000000001  0.0005900000000000  0.7411680000000000
  0.1321260000000000  0.0654090000000000  0.7420570000000000
  0.1987390000000000  0.9987950000000000  0.7420570000000000
  0.3314730000000000  0.0647620000000000  0.7457350000000000
  0.3987500000000002  0.9982050000000001  0.7449789999999999
  0.5318870000000000  0.0663530000000000  0.7470160000000000
  0.5994400000000000  0.0004280000000000  0.7451030000000000
  0.7326520000000000  0.0688920000000000  0.7453100000000000
  0.7996940000000000  0.0019300000000000  0.7434040000000000
  0.9325900000000000  0.0674100000000000  0.7423940000000000
  0.9980700000000001  0.2003060000000000  0.7434040000000000
  0.1315340000000000  0.2654190000000000  0.7449789999999999
  0.1980920000000000  0.1981440000000000  0.7457350000000000
  0.3301490000000000  0.2651390000000000  0.7537450000000000
  0.3984680000000000  0.1968180000000000  0.7537450000000000
  0.5938240000000000  0.2001090000000000  0.7542650000000002
  0.7296410000000000  0.2703590000000000  0.7537710000000000
  0.7970490000000000  0.2029510000000000  0.7479060000000000
  0.9311080000000002  0.2673470000000000  0.7453100000000000
  0.9995720000000000  0.4005600000000000  0.7451030000000000
  0.1337580000000000  0.4661090000000000  0.7451030000000000
  0.1996830000000000  0.3985560000000000  0.7470160000000000
  0.3334390000000000  0.4604940000000000  0.7542650000000002
  0.7998910000000001  0.4061760000000000  0.7542650000000002
  0.9336470000000000  0.4681130000000000  0.7470160000000000
  0.0017950000000000  0.6012500000000000  0.7449789999999999
  0.1352590000000000  0.6663640000000000  0.7434040000000000
  0.2022220000000001  0.5993220000000000  0.7453100000000000
  0.3362820000000000  0.6637180000000000  0.7479060000000000
  0.4036890000000001  0.5963110000000000  0.7537710000000000
  0.5395060000000000  0.6665610000000000  0.7542650000000002
  0.7348610000000000  0.6698510000000000  0.7537450000000000
  0.8031820000000000  0.6015320000000000  0.7537450000000000
  0.9352380000000001  0.6685270000000000  0.7457350000000000
  0.0012050000000000  0.8012610000000001  0.7420570000000000
  0.1339200000000001  0.8660800000000001  0.7411680000000000
  0.2007400000000000  0.7992600000000000  0.7423940000000000
  0.3336360000000000  0.8647410000000001  0.7434040000000000
  0.4006780000000000  0.7977780000000000  0.7453100000000000
  0.5338910000000001  0.8662420000000001  0.7451030000000000
  0.6014440000000001  0.8003169999999998  0.7470160000000000
  0.7345810000000000  0.8684659999999998  0.7449789999999999
  0.8018560000000000  0.8019080000000000  0.7457350000000000
  0.9345909999999999  0.8678740000000001  0.7420570000000000
  0.5258090000000000  0.2589070000000000  0.7621050000000000
  0.3922380000000000  0.3924790000000000  0.7621050000000000
  0.7410930000000000  0.4741910000000000  0.7621050000000000
  0.6075210000000000  0.6077620000000000  0.7621050000000000
  0.5666660000000000  0.4333340000000001  0.8456450000000001
