       N       E                     dE             d eps       ncg     rms          ort
SDA:   1    -0.336098959093E+03   -0.33610E+03    0.00000E+00  3328   0.136E+03 0.000E+00
CGA:   2    -0.413825129770E+03   -0.77726E+02   -0.74903E+02  3328   0.584E+02 0.441E+01
CGA:   3    -0.432730758844E+03   -0.18906E+02   -0.18767E+02  3328   0.247E+02 0.937E+00
CGA:   4    -0.439901195589E+03   -0.71704E+01   -0.71564E+01  3328   0.125E+02 0.372E-01
CGA:   5    -0.442387926163E+03   -0.24867E+01   -0.24912E+01  3328   0.472E+01 0.216E-01
CGA:   6    -0.443480558024E+03   -0.10926E+01   -0.10925E+01  3328   0.158E+01-0.180E-02
CGA:   7    -0.443883562241E+03   -0.40300E+00   -0.40330E+00  3328   0.581E+00-0.699E-02
CGA:   8    -0.444024960514E+03   -0.14140E+00   -0.14143E+00  3328   0.190E+00-0.110E-02
CGA:   9    -0.444077117857E+03   -0.52157E-01   -0.52160E-01  3328   0.630E-01-0.889E-04
CGA:  10    -0.444096789257E+03   -0.19671E-01   -0.19672E-01  3328   0.260E-01-0.151E-04
CGA:  11    -0.444105503805E+03   -0.87145E-02   -0.87180E-02  3328   0.108E-01-0.391E-04
CGA:  12    -0.444109360558E+03   -0.38568E-02   -0.38620E-02  3328   0.431E-02-0.414E-04
CGA:  13    -0.444110906050E+03   -0.15455E-02   -0.15478E-02  3328   0.169E-02-0.161E-04
CGA:  14    -0.444111588368E+03   -0.68232E-03   -0.68296E-03  3328   0.909E-03-0.285E-05
CGA:  15    -0.444112044818E+03   -0.45645E-03   -0.45652E-03  3328   0.722E-03 0.159E-06
CGA:  16    -0.444112461502E+03   -0.41668E-03   -0.41692E-03  3328   0.621E-03-0.729E-06
CGA:  17    -0.444112785827E+03   -0.32432E-03   -0.32451E-03  3328   0.394E-03-0.712E-06
CGA:  18    -0.444112974414E+03   -0.18859E-03   -0.18851E-03  3328   0.207E-03 0.516E-06
CGA:  19    -0.444113072995E+03   -0.98581E-04   -0.98455E-04  3328   0.103E-03 0.735E-06
CGA:  20    -0.444113122124E+03   -0.49129E-04   -0.48991E-04  3328   0.496E-04 0.827E-06
CGA:  21    -0.444113146847E+03   -0.24723E-04   -0.24562E-04  3328   0.264E-04 0.959E-06
CGA:  22    -0.444113161753E+03   -0.14907E-04   -0.14745E-04  3328   0.186E-04 0.765E-06
CGA:  23    -0.444113173771E+03   -0.12018E-04   -0.11887E-04  3328   0.164E-04 0.493E-06
CGA:  24    -0.444113184835E+03   -0.11064E-04   -0.10982E-04  3328   0.151E-04 0.295E-06
CGA:  25    -0.444113194334E+03   -0.94990E-05   -0.94921E-05  3328   0.121E-04 0.224E-07
   1 F= -.44588624E+03 E0= -.44587650E+03  d E =-.194854E-01  mag=    -1.0102
