C  N  Ce                                
   1.00000000000000     
    12.3000000000000007    0.0000000000000000    0.0000000000000000
    -6.1499999999999977   10.6521124665485960    0.0000000000000000
     0.0000000000000000    0.0000000000000000   20.0000000000000000
   C    N    Ce
    44     4     1
Direct
  0.9993708814930615  0.0006296385161490  0.7490108622512615
  0.1320424002454965  0.0655733107037080  0.7495303496226504
  0.1988707579740868  0.9987489304092395  0.7494880928821824
  0.3308945819108607  0.0640790704108606  0.7495942590556093
  0.3986088371457536  0.9980379683861335  0.7476251073894268
  0.5322533131710552  0.0665346521631037  0.7463705339658051
  0.5997541999939238  0.0005222426125308  0.7452390390178320
  0.7325696831466484  0.0684647117737902  0.7459356636415663
  0.7997382545914115  0.0013146253956713  0.7470196106772395
  0.9327993040012338  0.0672260517282825  0.7479477958251843
  0.9987030454968883  0.2002873633076870  0.7470287924322431
  0.1313841549250953  0.2653278060459139  0.7477304903282002
  0.1974012722775483  0.1975850766573922  0.7496787478509606
  0.3303095003265614  0.2646258610647695  0.7519700935695404
  0.3979542583489201  0.1969758436392281  0.7519915959635580
  0.5952576585049048  0.1998541286150541  0.7491413863950532
  0.7300644181171501  0.2699127001260494  0.7484261111965730
  0.7976941499113552  0.2023085425725092  0.7464791334267796
  0.9315503730244605  0.2674444865528461  0.7459445869598055
  0.9994779922530863  0.4002520496188209  0.7452586192068956
  0.1339094083475498  0.4664441345377177  0.7452324119324445
  0.1999382915593450  0.3989280146643775  0.7464018124845674
  0.3333079479718781  0.4619265861959799  0.7490973414608940
  0.8000879219714628  0.4047354073094979  0.7491551018365522
  0.9334317306410989  0.4677414939200194  0.7463961385616487
  0.0019320843437465  0.6013745259118630  0.7476295779411973
  0.1346283150125732  0.6663865053384266  0.7468657564100039
  0.2018015801588871  0.5992440995861427  0.7458280626878387
  0.3356441291532973  0.6643488825194342  0.7463815481099800
  0.4032822889993514  0.5967524416944725  0.7484154890514106
  0.5380826445638106  0.6667699718339297  0.7491746512961602
  0.7353397945247873  0.6696879832162143  0.7520691691415038
  0.8030219457490195  0.6020764238334304  0.7520266625621115
  0.9359197502710608  0.6691223611634926  0.7496070336585766
  0.0012537233923745  0.8011405738868376  0.7494860422066991
  0.1339383229658646  0.8660683144772615  0.7489319749479473
  0.2005126581160352  0.7994689763278222  0.7477965369571326
  0.3335964781595863  0.8653549699297816  0.7468740997423228
  0.4007546757015960  0.7981865797922594  0.7458303796049091
  0.5335603626050243  0.8661010829595513  0.7452156813094410
  0.6010848796104878  0.8001015501259134  0.7464032762361801
  0.7346970907216712  0.8686429376455752  0.7477287064270464
  0.8023986442408330  0.8025910981494776  0.7496940411712105
  0.9344213310854160  0.8679598289766861  0.7495192805625409
  0.5271075894395216  0.2601775682926398  0.7547773560170723
  0.3935890170532721  0.3937604946972842  0.7546700753074467
  0.7398104130874467  0.4729332409524418  0.7547623024999994
  0.6061931433147618  0.6064333728455120  0.7548815338119127
  0.5666418003787190  0.4332495189162059  0.8187380844049060
 
  0.00000000E+00  0.00000000E+00  0.00000000E+00
  0.00000000E+00  0.00000000E+00  0.00000000E+00
  0.00000000E+00  0.00000000E+00  0.00000000E+00
  0.00000000E+00  0.00000000E+00  0.00000000E+00
  0.00000000E+00  0.00000000E+00  0.00000000E+00
  0.00000000E+00  0.00000000E+00  0.00000000E+00
  0.00000000E+00  0.00000000E+00  0.00000000E+00
  0.00000000E+00  0.00000000E+00  0.00000000E+00
  0.00000000E+00  0.00000000E+00  0.00000000E+00
  0.00000000E+00  0.00000000E+00  0.00000000E+00
  0.00000000E+00  0.00000000E+00  0.00000000E+00
  0.00000000E+00  0.00000000E+00  0.00000000E+00
  0.00000000E+00  0.00000000E+00  0.00000000E+00
  0.00000000E+00  0.00000000E+00  0.00000000E+00
  0.00000000E+00  0.00000000E+00  0.00000000E+00
  0.00000000E+00  0.00000000E+00  0.00000000E+00
  0.00000000E+00  0.00000000E+00  0.00000000E+00
  0.00000000E+00  0.00000000E+00  0.00000000E+00
  0.00000000E+00  0.00000000E+00  0.00000000E+00
  0.00000000E+00  0.00000000E+00  0.00000000E+00
  0.00000000E+00  0.00000000E+00  0.00000000E+00
  0.00000000E+00  0.00000000E+00  0.00000000E+00
  0.00000000E+00  0.00000000E+00  0.00000000E+00
  0.00000000E+00  0.00000000E+00  0.00000000E+00
  0.00000000E+00  0.00000000E+00  0.00000000E+00
  0.00000000E+00  0.00000000E+00  0.00000000E+00
  0.00000000E+00  0.00000000E+00  0.00000000E+00
  0.00000000E+00  0.00000000E+00  0.00000000E+00
  0.00000000E+00  0.00000000E+00  0.00000000E+00
  0.00000000E+00  0.00000000E+00  0.00000000E+00
  0.00000000E+00  0.00000000E+00  0.00000000E+00
  0.00000000E+00  0.00000000E+00  0.00000000E+00
  0.00000000E+00  0.00000000E+00  0.00000000E+00
  0.00000000E+00  0.00000000E+00  0.00000000E+00
  0.00000000E+00  0.00000000E+00  0.00000000E+00
  0.00000000E+00  0.00000000E+00  0.00000000E+00
  0.00000000E+00  0.00000000E+00  0.00000000E+00
  0.00000000E+00  0.00000000E+00  0.00000000E+00
  0.00000000E+00  0.00000000E+00  0.00000000E+00
  0.00000000E+00  0.00000000E+00  0.00000000E+00
  0.00000000E+00  0.00000000E+00  0.00000000E+00
  0.00000000E+00  0.00000000E+00  0.00000000E+00
  0.00000000E+00  0.00000000E+00  0.00000000E+00
  0.00000000E+00  0.00000000E+00  0.00000000E+00
  0.00000000E+00  0.00000000E+00  0.00000000E+00
  0.00000000E+00  0.00000000E+00  0.00000000E+00
  0.00000000E+00  0.00000000E+00  0.00000000E+00
  0.00000000E+00  0.00000000E+00  0.00000000E+00
  0.00000000E+00  0.00000000E+00  0.00000000E+00
