       N       E                     dE             d eps       ncg     rms          ort
SDA:   1    -0.328858259678E+03   -0.32886E+03    0.00000E+00  3328   0.139E+03 0.000E+00
CGA:   2    -0.409830600017E+03   -0.80972E+02   -0.78833E+02  3328   0.522E+02 0.355E+01
CGA:   3    -0.428029573881E+03   -0.18199E+02   -0.18050E+02  3328   0.211E+02 0.834E+00
CGA:   4    -0.434960965819E+03   -0.69314E+01   -0.69403E+01  3328   0.813E+01-0.244E+00
CGA:   5    -0.437196703300E+03   -0.22357E+01   -0.22348E+01  3328   0.248E+01-0.397E-02
CGA:   6    -0.437923395717E+03   -0.72669E+00   -0.72737E+00  3328   0.724E+00-0.942E-02
CGA:   7    -0.438139967069E+03   -0.21657E+00   -0.21702E+00  3328   0.199E+00-0.488E-02
CGA:   8    -0.438202352701E+03   -0.62386E-01   -0.62443E-01  3328   0.554E-01-0.552E-03
CGA:   9    -0.438221708522E+03   -0.19356E-01   -0.19357E-01  3328   0.178E-01-0.104E-04
CGA:  10    -0.438228603169E+03   -0.68946E-02   -0.68926E-02  3328   0.611E-02 0.978E-05
CGA:  11    -0.438231000482E+03   -0.23973E-02   -0.23990E-02  3328   0.182E-02-0.127E-04
CGA:  12    -0.438231686081E+03   -0.68560E-03   -0.68630E-03  3328   0.464E-03-0.523E-05
CGA:  13    -0.438231863356E+03   -0.17728E-03   -0.17723E-03  3328   0.117E-03 0.555E-06
CGA:  14    -0.438231911615E+03   -0.48258E-04   -0.48323E-04  3328   0.336E-04-0.464E-06
CGA:  15    -0.438231926324E+03   -0.14709E-04   -0.14729E-04  3328   0.105E-04-0.135E-06
CGA:  16    -0.438231931033E+03   -0.47093E-05   -0.47484E-05  3328   0.324E-05-0.234E-06
   1 F= -.44004619E+03 E0= -.44003670E+03  d E =-.189783E-01  mag=    -0.0000
