C  N  Au                                
   1.00000000000000     
    12.3000000000000007    0.0000000000000000    0.0000000000000000
    -6.1499999999999977   10.6521124665485960    0.0000000000000000
     0.0000000000000000    0.0000000000000000   20.0000000000000000
   C    N    Au
    44     4     1
Direct
  0.9988849864287520  0.0011150141698302  0.7458176371085001
  0.1305395550558003  0.0641001424919010  0.7465637100949690
  0.1974236145959708  0.9972409693550386  0.7465960084714149
  0.3286056621206895  0.0606539857781057  0.7496688393546816
  0.3980285683937179  0.9965223560644720  0.7499766886466931
  0.5314676189739875  0.0665295363858211  0.7517234471877315
  0.5994213975158142  0.0007817276410041  0.7508561400249387
  0.7320381889779233  0.0695962539271876  0.7502715515621214
  0.7993743624357588  0.0025480849446824  0.7486948182019756
  0.9321691271968472  0.0678308741076840  0.7472397119322997
  0.9974519144542622  0.2006256376177704  0.7486948182827077
  0.1298353428565149  0.2646948957029048  0.7499700292968996
  0.1939766355198681  0.1952793517766390  0.7496237680937524
  0.3246237734195745  0.2579957492747201  0.7533643817470341
  0.3913200455890524  0.1913081372775665  0.7533738929437082
  0.5938728337713510  0.2003128820284394  0.7541369226842800
  0.7285701953457389  0.2714298044795388  0.7536416574773448
  0.7965643932422072  0.2034356060560480  0.7512342806937888
  0.9304037457283016  0.2679618112555756  0.7502715519132070
  0.9992182728106864  0.4005786032749926  0.7508561403379183
  0.1340997939768926  0.4660912119008926  0.7508604659722268
  0.1998505588894116  0.3981261195034605  0.7517367038778778
  0.3336510468290140  0.4605209698340147  0.7541315271123717
  0.7996871181975389  0.4061271661812687  0.7541369225471404
  0.9334704635244164  0.4685323805846552  0.7517234472499053
  0.0034776433597629  0.6019714310642188  0.7499766885831300
  0.1358750464134063  0.6660317222927811  0.7486810726157518
  0.2029351001816228  0.5987031808459234  0.7502381105450439
  0.3367800082738909  0.6632199911866848  0.7511650549120267
  0.4047898634537366  0.5952101364313881  0.7536330312917257
  0.5394790298346333  0.6663489531252121  0.7541315268792781
  0.7420042506520185  0.6753762266302797  0.7533643816796886
  0.8086918626258081  0.6086799541044943  0.7533738927681669
  0.9393460137628147  0.6713943376056282  0.7496688395198888
  0.0027590312946991  0.8025763859950744  0.7465960089686325
  0.1344387523963421  0.8655612482777999  0.7458741491631247
  0.2011573981875843  0.7988426027330084  0.7472627782203448
  0.3339682774729832  0.8641249528924994  0.7486810725372213
  0.4012968192641228  0.7970648993397013  0.7502381107754391
  0.5339087886888503  0.8659002063968364  0.7508604662122285
  0.6018738801676085  0.8001494411434947  0.7517367038617514
  0.7353051036350754  0.8701646564446186  0.7499700293399212
  0.8047206477461146  0.8060233638224800  0.7496237681396932
  0.9358998581191819  0.8694604457463194  0.7465637105182044
  0.5201549836851806  0.2553898963181632  0.7565269024550966
  0.3887199291341034  0.3868182217121621  0.7565164007233712
  0.7446101041291389  0.4798450165414675  0.7565269024744902
  0.6131817784031196  0.6112800711062797  0.7565164007465008
  0.5666656132681126  0.4333343866292746  0.7581069342537842
 
  0.00000000E+00  0.00000000E+00  0.00000000E+00
  0.00000000E+00  0.00000000E+00  0.00000000E+00
  0.00000000E+00  0.00000000E+00  0.00000000E+00
  0.00000000E+00  0.00000000E+00  0.00000000E+00
  0.00000000E+00  0.00000000E+00  0.00000000E+00
  0.00000000E+00  0.00000000E+00  0.00000000E+00
  0.00000000E+00  0.00000000E+00  0.00000000E+00
  0.00000000E+00  0.00000000E+00  0.00000000E+00
  0.00000000E+00  0.00000000E+00  0.00000000E+00
  0.00000000E+00  0.00000000E+00  0.00000000E+00
  0.00000000E+00  0.00000000E+00  0.00000000E+00
  0.00000000E+00  0.00000000E+00  0.00000000E+00
  0.00000000E+00  0.00000000E+00  0.00000000E+00
  0.00000000E+00  0.00000000E+00  0.00000000E+00
  0.00000000E+00  0.00000000E+00  0.00000000E+00
  0.00000000E+00  0.00000000E+00  0.00000000E+00
  0.00000000E+00  0.00000000E+00  0.00000000E+00
  0.00000000E+00  0.00000000E+00  0.00000000E+00
  0.00000000E+00  0.00000000E+00  0.00000000E+00
  0.00000000E+00  0.00000000E+00  0.00000000E+00
  0.00000000E+00  0.00000000E+00  0.00000000E+00
  0.00000000E+00  0.00000000E+00  0.00000000E+00
  0.00000000E+00  0.00000000E+00  0.00000000E+00
  0.00000000E+00  0.00000000E+00  0.00000000E+00
  0.00000000E+00  0.00000000E+00  0.00000000E+00
  0.00000000E+00  0.00000000E+00  0.00000000E+00
  0.00000000E+00  0.00000000E+00  0.00000000E+00
  0.00000000E+00  0.00000000E+00  0.00000000E+00
  0.00000000E+00  0.00000000E+00  0.00000000E+00
  0.00000000E+00  0.00000000E+00  0.00000000E+00
  0.00000000E+00  0.00000000E+00  0.00000000E+00
  0.00000000E+00  0.00000000E+00  0.00000000E+00
  0.00000000E+00  0.00000000E+00  0.00000000E+00
  0.00000000E+00  0.00000000E+00  0.00000000E+00
  0.00000000E+00  0.00000000E+00  0.00000000E+00
  0.00000000E+00  0.00000000E+00  0.00000000E+00
  0.00000000E+00  0.00000000E+00  0.00000000E+00
  0.00000000E+00  0.00000000E+00  0.00000000E+00
  0.00000000E+00  0.00000000E+00  0.00000000E+00
  0.00000000E+00  0.00000000E+00  0.00000000E+00
  0.00000000E+00  0.00000000E+00  0.00000000E+00
  0.00000000E+00  0.00000000E+00  0.00000000E+00
  0.00000000E+00  0.00000000E+00  0.00000000E+00
  0.00000000E+00  0.00000000E+00  0.00000000E+00
  0.00000000E+00  0.00000000E+00  0.00000000E+00
  0.00000000E+00  0.00000000E+00  0.00000000E+00
  0.00000000E+00  0.00000000E+00  0.00000000E+00
  0.00000000E+00  0.00000000E+00  0.00000000E+00
  0.00000000E+00  0.00000000E+00  0.00000000E+00
