       N       E                     dE             d eps       ncg     rms          ort
DAV:   1     0.151948187352E+01    0.15195E+01   -0.49061E+03   256   0.390E+01
DAV:   2    -0.345646827817E+01   -0.49760E+01   -0.49760E+01   256   0.345E+00
DAV:   3    -0.345973123575E+01   -0.32630E-02   -0.32630E-02   256   0.965E-02
DAV:   4    -0.345978977698E+01   -0.58541E-04   -0.58541E-04   256   0.120E-02
DAV:   5    -0.345978982865E+01   -0.51668E-07   -0.51672E-07   256   0.265E-04
SDA:   6    -0.375443134565E+01   -0.29464E+00   -0.51672E-07   256   0.607E+01 0.000E+00
CGA:   7    -0.438158779476E+01   -0.62716E+00   -0.63816E+00   256   0.818E+00-0.870E-01
CGA:   8    -0.451168413145E+01   -0.13010E+00   -0.13029E+00   256   0.558E+00-0.393E-02
CGA:   9    -0.462911868408E+01   -0.11743E+00   -0.11716E+00   256   0.219E+00 0.805E-02
CGA:  10    -0.466374599574E+01   -0.34627E-01   -0.34675E-01   256   0.602E-01-0.220E-04
CGA:  11    -0.467657595162E+01   -0.12830E-01   -0.12823E-01   256   0.271E-01 0.182E-03
CGA:  12    -0.468189784203E+01   -0.53219E-02   -0.53216E-02   256   0.630E-02 0.790E-04
CGA:  13    -0.468315615954E+01   -0.12583E-02   -0.12582E-02   256   0.148E-02 0.211E-04
CGA:  14    -0.468350440343E+01   -0.34824E-03   -0.34819E-03   256   0.435E-03 0.126E-05
CGA:  15    -0.468361482199E+01   -0.11042E-03   -0.11069E-03   256   0.121E-03-0.467E-05
CGA:  16    -0.468364884436E+01   -0.34022E-04   -0.34138E-04   256   0.471E-04-0.136E-05
CGA:  17    -0.468366280543E+01   -0.13961E-04   -0.13807E-04   256   0.172E-04 0.166E-05
CGA:  18    -0.468366821725E+01   -0.54118E-05   -0.52504E-05   256   0.503E-05 0.185E-05
   1 F= -.46836682E+01 E0= -.46836682E+01  d E =-.205052E-16  mag=     5.0000
