 vasp.5.4.4.18Apr17-6-g9f103f2a35 (build Nov 21 2023 15:34:30) complex          
  
 executed on             LinuxIFC date 2026.09.21  18:07:34
 running on  256 total cores
 distrk:  each k-point on  256 cores,    1 groups
 distr:  one band on NCORES_PER_BAND=   1 cores,  256 groups


--------------------------------------------------------------------------------------------------------


 INCAR:
 POTCAR:   PAW_PBE Mn_pv 07Sep2000                

 ----------------------------------------------------------------------------- 
|                                                                             |
|           W    W    AA    RRRRR   N    N  II  N    N   GGGG   !!!           |
|           W    W   A  A   R    R  NN   N  II  NN   N  G    G  !!!           |
|           W    W  A    A  R    R  N N  N  II  N N  N  G       !!!           |
|           W WW W  AAAAAA  RRRRR   N  N N  II  N  N N  G  GGG   !            |
|           WW  WW  A    A  R   R   N   NN  II  N   NN  G    G                |
|           W    W  A    A  R    R  N    N  II  N    N   GGGG   !!!           |
|                                                                             |
|      For optimal performance we recommend to set                            |
|        NCORE= 4 - approx SQRT( number of cores)                             |
|      NCORE specifies how many cores store one orbital (NPAR=cpu/NCORE).     |
|      This setting can  greatly improve the performance of VASP for DFT.     |
|      The default,   NCORE=1            might be grossly inefficient         |
|      on modern multi-core architectures or massively parallel machines.     |
|      Do your own testing !!!!                                               |
|      Unfortunately you need to use the default for GW and RPA calculations. |
|      (for HF NCORE is supported but not extensively tested yet)             |
|                                                                             |
 ----------------------------------------------------------------------------- 

 POTCAR:   PAW_PBE Mn_pv 07Sep2000                
   VRHFIN =Mn: 3p4s3d                                                           
   LEXCH  = PE                                                                  
   EATOM  =  2024.8347 eV,  148.8212 Ry                                         
                                                                                
   TITEL  = PAW_PBE Mn_pv 07Sep2000                                             
   LULTRA =        F    use ultrasoft PP ?                                      
   IUNSCR =        1    unscreen: 0-lin 1-nonlin 2-no                           
   RPACOR =    2.080    partial core radius                                     
   POMASS =   54.938; ZVAL   =   13.000    mass and valenz                      
   RCORE  =    2.300    outmost cutoff radius                                   
   RWIGS  =    2.500; RWIGS  =    1.323    wigner-seitz radius (au A)           
   ENMAX  =  269.865; ENMIN  =  202.399 eV                                      
   RCLOC  =    1.725    cutoff for local pot                                    
   LCOR   =        T    correct aug charges                                     
   LPAW   =        T    paw PP                                                  
   EAUG   =  569.085                                                            
   DEXC   =    -.003                                                            
   RMAX   =    2.807    core radius for proj-oper                               
   RAUG   =    1.300    factor for augmentation sphere                          
   RDEP   =    2.338    radius for radial grids                                 
   QCUT   =   -4.454; QGAM   =    8.907    optimization parameters              
                                                                                
   Description                                                                  
     l     E      TYP  RCUT    TYP  RCUT                                        
     1   .000     23  2.000                                                     
     1  -.100     23  2.000                                                     
     2   .000     23  2.300                                                     
     2   .000     23  2.300                                                     
     0   .000     23  2.300                                                     
     0   .000     23  2.300                                                     
     3   .000      7   .000                                                     
  local pseudopotential read in
  partial core-charges read in
  atomic valenz-charges read in
  non local Contribution for L=           1  read in
    real space projection operators read in
  non local Contribution for L=           1  read in
    real space projection operators read in
  non local Contribution for L=           2  read in
    real space projection operators read in
  non local Contribution for L=           2  read in
    real space projection operators read in
  non local Contribution for L=           0  read in
    real space projection operators read in
  non local Contribution for L=           0  read in
    real space projection operators read in
    PAW grid and wavefunctions read in
 
   number of l-projection  operators is LMAX  =           6
   number of lm-projection operators is LMMAX =          18
 
 PAW_PBE Mn_pv 07Sep2000                :
 energy of atom  1       EATOM=-2024.8347
 kinetic energy error for atom=    0.0058 (will be added to EATOM!!)
 
 
 POSCAR: Mn                                      
  positions in direct lattice
  No initial velocities read in
 exchange correlation table for  LEXCH =        8
   RHO(1)=    0.500       N(1)  =     2000
   RHO(2)=  100.500       N(2)  =     4000

 VTST: version 3.2, (02/03/18)

 CHAIN: initializing optimizer
 
 OPT: Using VASP Dynamics algorithm
 CHAIN: Read ICHAIN            0
 
 POSCAR: Mn                                      
  positions in direct lattice
  No initial velocities read in
 


--------------------------------------------------------------------------------------------------------


 ion  position               nearest neighbor table
   1  0.010  0.010  0.751-
 

IMPORTANT INFORMATION: All symmetrisations will be switched off!
NOSYMM: (Re-)initialisation of all symmetry stuff for point group C_1.

 
 

Automatic generation of k-mesh.
 generate k-points for:    1    1    1
Space group operators:
 irot       det(A)        alpha          n_x          n_y          n_z        tau_x        tau_y        tau_z
    1     1.000000     0.000000     1.000000     0.000000     0.000000     0.000000     0.000000     0.000000
 
 Subroutine IBZKPT returns following result:
 ===========================================
 
 Found      1 irreducible k-points:
 
 Following reciprocal coordinates:
            Coordinates               Weight
  0.000000  0.000000  0.000000      1.000000
 
 Following cartesian coordinates:
            Coordinates               Weight
  0.000000  0.000000  0.000000      1.000000
 


--------------------------------------------------------------------------------------------------------




 Dimension of arrays:
   k-points           NKPTS =      1   k-points in BZ     NKDIM =      1   number of bands    NBANDS=    256
   number of dos      NEDOS =    301   number of ions     NIONS =      1
   non local maximal  LDIM  =      6   non local SUM 2l+1 LMDIM =     18
   total plane-waves  NPLWV = ******
   max r-space proj   IRMAX =      1   max aug-charges    IRDMAX=  12829
   dimension x,y,z NGX =   112 NGY =  112 NGZ =  112
   dimension x,y,z NGXF=   224 NGYF=  224 NGZF=  224
   support grid    NGXF=   224 NGYF=  224 NGZF=  224
   ions per type =               1
   NGX,Y,Z   is equivalent  to a cutoff of  12.41, 12.41, 12.41 a.u.
   NGXF,Y,Z  is equivalent  to a cutoff of  24.83, 24.83, 24.83 a.u.

 SYSTEM =  Mn                                      
 POSCAR =  Mn                                      

 Startparameter for this run:
   NWRITE =      2    write-flag & timer
   PREC   = accura    normal or accurate (medium, high low for compatibility)
   ISTART =      0    job   : 0-new  1-cont  2-samecut
   ICHARG =      2    charge: 1-file 2-atom 10-const
   ISPIN  =      2    spin polarized calculation?
   LNONCOLLINEAR =      F non collinear calculations
   LSORBIT =      F    spin-orbit coupling
   INIWAV =      1    electr: 0-lowe 1-rand  2-diag
   LASPH  =      T    aspherical Exc in radial PAW
   METAGGA=      F    non-selfconsistent MetaGGA calc.

 Electronic Relaxation 1
   ENCUT  =  520.0 eV  38.22 Ry    6.18 a.u.  27.89 27.89 27.89*2*pi/ulx,y,z
   ENINI  =  520.0     initial cutoff
   ENAUG  =  569.1 eV  augmentation charge cutoff
   NELM   =    200;   NELMIN=  2; NELMDL= -5     # of ELM steps 
   EDIFF  = 0.1E-04   stopping-criterion for ELM
   LREAL  =      F    real-space projection
   NLSPLINE    = F    spline interpolate recip. space projectors
   LCOMPAT=      F    compatible to vasp.4.4
   GGA_COMPAT  = T    GGA compatible to vasp.4.4-vasp.4.6
   LMAXPAW     = -100 max onsite density
   LMAXMIX     =    4 max onsite mixed and CHGCAR
   VOSKOWN=      0    Vosko Wilk Nusair interpolation
   ROPT   =    0.00000
 Ionic relaxation
   EDIFFG = 0.1E-03   stopping-criterion for IOM
   NSW    =      0    number of steps for IOM
   NBLOCK =      1;   KBLOCK =      1    inner block; outer block 
   IBRION =     -1    ionic relax: 0-MD 1-quasi-New 2-CG
   NFREE  =      0    steps in history (QN), initial steepest desc. (CG)
   ISIF   =      0    stress and relaxation
   IWAVPR =     10    prediction:  0-non 1-charg 2-wave 3-comb
   ISYM   =      0    0-nonsym 1-usesym 2-fastsym
   LCORR  =      T    Harris-Foulkes like correction to forces

   POTIM  = 0.5000    time-step for ionic-motion
   TEIN   =    0.0    initial temperature
   TEBEG  =    0.0;   TEEND  =   0.0 temperature during run
   SMASS  =  -3.00    Nose mass-parameter (am)
   estimated Nose-frequenzy (Omega)   =  0.10E-29 period in steps =****** mass=  -0.514E-26a.u.
   SCALEE = 1.0000    scale energy and forces
   NPACO  =    256;   APACO  = 16.0  distance and # of slots for P.C.
   PSTRESS=    0.0 pullay stress

  Mass of Ions in am
   POMASS =  54.94
  Ionic Valenz
   ZVAL   =  13.00
  Atomic Wigner-Seitz radii
   RWIGS  =  -1.00
  virtual crystal weights 
   VCA    =   1.00
   NELECT =      13.0000    total number of electrons
   NUPDOWN=       5.0000    fix difference up-down

 DOS related values:
   EMIN   =  10.00;   EMAX   =-10.00  energy-range for DOS
   EFERMI =   0.00
   ISMEAR =     0;   SIGMA  =   0.05  broadening in eV -4-tet -1-fermi 0-gaus

 Electronic relaxation 2 (details)
   IALGO  =     58    algorithm
   LDIAG  =      T    sub-space diagonalisation (order eigenvalues)
   LSUBROT=      F    optimize rotation matrix (better conditioning)
   TURBO    =      0    0=normal 1=particle mesh
   IRESTART =      0    0=no restart 2=restart with 2 vectors
   NREBOOT  =      0    no. of reboots
   NMIN     =      0    reboot dimension
   EREF     =   0.00    reference energy to select bands
   IMIX   =      4    mixing-type and parameters
     AMIX     =   0.40;   BMIX     =  1.00
     AMIX_MAG =   1.60;   BMIX_MAG =  1.00
     AMIN     =   0.10
     WC   =   100.;   INIMIX=   1;  MIXPRE=   1;  MAXMIX= -45

 Intra band minimization:
   WEIMIN = 0.0000     energy-eigenvalue tresh-hold
   EBREAK =  0.98E-08  absolut break condition
   DEPER  =   0.30     relativ break condition  

   TIME   =   0.40     timestep for ELM

  volume/ion in A,a.u.               =    3375.00     22775.62
  Fermi-wavevector in a.u.,A,eV,Ry     =   0.256624  0.484950  0.896027  0.065856
  Thomas-Fermi vector in A             =   1.080197
 
 Write flags
   LWAVE        =      F    write WAVECAR
   LDOWNSAMPLE  =      F    k-point downsampling of WAVECAR
   LCHARG       =      F    write CHGCAR
   LVTOT        =      F    write LOCPOT, total local potential
   LVHAR        =      F    write LOCPOT, Hartree potential only
   LELF         =      F    write electronic localiz. function (ELF)
   LORBIT       =      0    0 simple, 1 ext, 2 COOP (PROOUT), +10 PAW based schemes


 Dipole corrections
   LMONO  =      F    monopole corrections only (constant potential shift)
   LDIPOL =      F    correct potential (dipole corrections)
   IDIPOL =      0    1-x, 2-y, 3-z, 4-all directions 
   EPSILON=  1.0000000 bulk dielectric constant

 LDA+U is selected, type is set to LDAUTYPE =  2
   angular momentum for each species LDAUL =     2
   U (eV)           for each species LDAUU =   4.0
   J (eV)           for each species LDAUJ =   0.0
 Exchange correlation treatment:
   GGA     =    --    GGA type
   LEXCH   =     8    internal setting for exchange type
   VOSKOWN=      0    Vosko Wilk Nusair interpolation
   LHFCALC =     F    Hartree Fock is set to
   LHFONE  =     F    Hartree Fock one center treatment
   AEXX    =    0.0000 exact exchange contribution

 Linear response parameters
   LEPSILON=     F    determine dielectric tensor
   LRPA    =     F    only Hartree local field effects (RPA)
   LNABLA  =     F    use nabla operator in PAW spheres
   LVEL    =     F    velocity operator in full k-point grid
   LINTERFAST=   F  fast interpolation
   KINTER  =     0    interpolate to denser k-point grid
   CSHIFT  =0.1000    complex shift for real part using Kramers Kronig
   OMEGAMAX=  -1.0    maximum frequency
   DEG_THRESHOLD= 0.2000000E-02 threshold for treating states as degnerate
   RTIME   =   -0.100 relaxation time in fs
  (WPLASMAI=    0.000 imaginary part of plasma frequency in eV, 0.658/RTIME)
   DFIELD  = 0.0000000 0.0000000 0.0000000 field for delta impulse in time
 
 Orbital magnetization related:
   ORBITALMAG=     F  switch on orbital magnetization
   LCHIMAG   =     F  perturbation theory with respect to B field
   DQ        =  0.001000  dq finite difference perturbation B field
   LLRAUG    =     F  two centre corrections for induced B field



--------------------------------------------------------------------------------------------------------


 Static calculation
 charge density and potential will be updated during run
 spin polarized calculation
 Conjugate gradient for all bands (Freysoldt, et al. PRB 79, 241103 (2009))
 preconditioned conjugated gradient                                        
 perform sub-space diagonalisation
    before iterative eigenvector-optimisation
 modified Broyden-mixing scheme, WC =      100.0
 initial mixing is a Kerker type mixing with AMIX =  0.4000 and BMIX =      1.0000
 Hartree-type preconditioning will be used
 using additional bands          249
 reciprocal scheme for non local part
 use partial core corrections
 no Harris-corrections to forces 
 use gradient corrections 
 use of overlap-Matrix (Vanderbilt PP)
 Gauss-broadening in eV      SIGMA  =   0.05


--------------------------------------------------------------------------------------------------------


  energy-cutoff  :      520.00
  volume of cell :     3375.00
      direct lattice vectors                 reciprocal lattice vectors
    15.000000000  0.000000000  0.000000000     0.066666667  0.000000000  0.000000000
     0.000000000 15.000000000  0.000000000     0.000000000  0.066666667  0.000000000
     0.000000000  0.000000000 15.000000000     0.000000000  0.000000000  0.066666667

  length of vectors
    15.000000000 15.000000000 15.000000000     0.066666667  0.066666667  0.066666667


 
 k-points in units of 2pi/SCALE and weight: read from INCAR                         
   0.00000000  0.00000000  0.00000000       1.000
 
 k-points in reciprocal lattice and weights: read from INCAR                         
   0.00000000  0.00000000  0.00000000       1.000
 
 position of ions in fractional coordinates (direct lattice) 
   0.01000000  0.01000000  0.75100000
 
 position of ions in cartesian coordinates  (Angst):
   0.15000000  0.15000000 11.26500000
 


--------------------------------------------------------------------------------------------------------


 k-point  1 :   0.0000 0.0000 0.0000  plane waves:   90879

 maximum and minimum number of plane-waves per node :     90879    90879

 maximum number of plane-waves:     90879
 maximum index in each direction: 
   IXMAX=   27   IYMAX=   27   IZMAX=   27
   IXMIN=  -27   IYMIN=  -27   IZMIN=  -27


 serial   3D FFT for wavefunctions
 parallel 3D FFT for charge:
    minimum data exchange during FFTs selected (reduces bandwidth)


 total amount of memory used by VASP MPI-rank0   177231. kBytes
=======================================================================

   base      :      30000. kBytes
   nonl-proj :      14540. kBytes
   fftplans  :       7479. kBytes
   grid      :     116433. kBytes
   one-center:         31. kBytes
   wavefun   :       8748. kBytes
 
     INWAV:  cpu time    0.0000: real time    0.0000
 Broyden mixing: mesh for mixing (old mesh)
   NGX = 55   NGY = 55   NGZ = 55
  (NGX  =224   NGY  =224   NGZ  =224)
  gives a total of 166375 points

 initial charge density was supplied:
 charge density of overlapping atoms calculated
 number of electron      13.0000000 magnetization       5.0000000
 keeping initial charge density in first step


--------------------------------------------------------------------------------------------------------


 Maximum index for augmentation-charges          624 (set IRDMAX)


--------------------------------------------------------------------------------------------------------


 First call to EWALD:  gamma=   0.118
 Maximum number of real-space cells 3x 3x 3
 Maximum number of reciprocal cells 3x 3x 3

    FEWALD:  cpu time    0.0097: real time    0.0100


--------------------------------------- Iteration      1(   1)  ---------------------------------------


    POTLOK:  cpu time    2.5431: real time    2.5859
    SETDIJ:  cpu time    0.4202: real time    0.4463
    TRIAL :  cpu time   19.2396: real time   19.3851
    CORREC:  cpu time    0.1232: real time    0.1298
    --------------------------------------------
      LOOP:  cpu time   22.3354: real time   22.5599

 eigenvalue-minimisations  :  1536
 total energy-change (2. order) : 0.1519482E+01  (-0.4906121E+03)
 number of electron      13.0000000 magnetization       5.0000000
 augmentation part       13.0000000 magnetization       5.0000000

 Free energy of the ion-electron system (eV)
  ---------------------------------------------------
  alpha Z        PSCENC =         0.51933455
  Ewald energy   TEWEN  =      -230.15817073
  -Hartree energ DENC   =     -1484.28657177
  -exchange      EXHF   =         0.00000000
  -V(xc)+E(xc)   XCENC  =        68.31810185
  PAW double counting   =      1490.18545359    -1534.21496847
  entropy T*S    EENTRO =        -0.00000000
  eigenvalues    EBANDS =      -333.67261924
  atomic energy  EATOM  =      2024.82892208
  ---------------------------------------------------
  free energy    TOTEN  =         1.51948187 eV

  energy without entropy =        1.51948187  energy(sigma->0) =        1.51948187


--------------------------------------------------------------------------------------------------------




--------------------------------------- Iteration      1(   2)  ---------------------------------------


    TRIAL :  cpu time   32.7747: real time   32.8276
    CORREC:  cpu time    0.0268: real time    0.0268
    --------------------------------------------
      LOOP:  cpu time   33.0077: real time   33.0944

 eigenvalue-minimisations  :  1536
 total energy-change (2. order) :-0.4975950E+01  (-0.4975950E+01)
 number of electron      13.0000000 magnetization       5.0000000
 augmentation part       13.0000000 magnetization       5.0000000

 Free energy of the ion-electron system (eV)
  ---------------------------------------------------
  alpha Z        PSCENC =         0.51933455
  Ewald energy   TEWEN  =      -230.15817073
  -Hartree energ DENC   =     -1484.28657177
  -exchange      EXHF   =         0.00000000
  -V(xc)+E(xc)   XCENC  =        68.31810185
  PAW double counting   =      1490.18545359    -1534.21496847
  entropy T*S    EENTRO =        -0.00000000
  eigenvalues    EBANDS =      -338.64856939
  atomic energy  EATOM  =      2024.82892208
  ---------------------------------------------------
  free energy    TOTEN  =        -3.45646828 eV

  energy without entropy =       -3.45646828  energy(sigma->0) =       -3.45646828


--------------------------------------------------------------------------------------------------------




--------------------------------------- Iteration      1(   3)  ---------------------------------------


    TRIAL :  cpu time    8.6977: real time    8.7322
    CORREC:  cpu time    0.0270: real time    0.0270
    --------------------------------------------
      LOOP:  cpu time    8.7314: real time    8.7659

 eigenvalue-minimisations  :  1024
 total energy-change (2. order) :-0.3262958E-02  (-0.3262958E-02)
 number of electron      13.0000000 magnetization       5.0000000
 augmentation part       13.0000000 magnetization       5.0000000

 Free energy of the ion-electron system (eV)
  ---------------------------------------------------
  alpha Z        PSCENC =         0.51933455
  Ewald energy   TEWEN  =      -230.15817073
  -Hartree energ DENC   =     -1484.28657177
  -exchange      EXHF   =         0.00000000
  -V(xc)+E(xc)   XCENC  =        68.31810185
  PAW double counting   =      1490.18545359    -1534.21496847
  entropy T*S    EENTRO =        -0.00000000
  eigenvalues    EBANDS =      -338.65183235
  atomic energy  EATOM  =      2024.82892208
  ---------------------------------------------------
  free energy    TOTEN  =        -3.45973124 eV

  energy without entropy =       -3.45973124  energy(sigma->0) =       -3.45973124


--------------------------------------------------------------------------------------------------------




--------------------------------------- Iteration      1(   4)  ---------------------------------------


    TRIAL :  cpu time   23.4960: real time   23.6331
    CORREC:  cpu time    0.0320: real time    0.0320
    --------------------------------------------
      LOOP:  cpu time   23.5355: real time   23.6727

 eigenvalue-minimisations  :  2048
 total energy-change (2. order) :-0.5854123E-04  (-0.5854123E-04)
 number of electron      13.0000000 magnetization       5.0000000
 augmentation part       13.0000000 magnetization       5.0000000

 Free energy of the ion-electron system (eV)
  ---------------------------------------------------
  alpha Z        PSCENC =         0.51933455
  Ewald energy   TEWEN  =      -230.15817073
  -Hartree energ DENC   =     -1484.28657177
  -exchange      EXHF   =         0.00000000
  -V(xc)+E(xc)   XCENC  =        68.31810185
  PAW double counting   =      1490.18545359    -1534.21496847
  entropy T*S    EENTRO =        -0.00000000
  eigenvalues    EBANDS =      -338.65189089
  atomic energy  EATOM  =      2024.82892208
  ---------------------------------------------------
  free energy    TOTEN  =        -3.45978978 eV

  energy without entropy =       -3.45978978  energy(sigma->0) =       -3.45978978


--------------------------------------------------------------------------------------------------------




--------------------------------------- Iteration      1(   5)  ---------------------------------------


    TRIAL :  cpu time    8.5654: real time    8.5983
    CORREC:  cpu time    0.0325: real time    0.0325
    CHARGE:  cpu time    1.3252: real time    1.3542
    --------------------------------------------
      LOOP:  cpu time    9.9324: real time    9.9944

 eigenvalue-minimisations  :  1024
 total energy-change (2. order) :-0.5166817E-07  (-0.5167233E-07)
 number of electron      13.0000004 magnetization       5.0000002
 augmentation part        7.0512828 magnetization       3.1279496

 Free energy of the ion-electron system (eV)
  ---------------------------------------------------
  alpha Z        PSCENC =         0.51933455
  Ewald energy   TEWEN  =      -230.15817073
  -Hartree energ DENC   =     -1484.28657177
  -exchange      EXHF   =         0.00000000
  -V(xc)+E(xc)   XCENC  =        68.31810185
  PAW double counting   =      1490.18545359    -1534.21496847
  entropy T*S    EENTRO =        -0.00000000
  eigenvalues    EBANDS =      -338.65189094
  atomic energy  EATOM  =      2024.82892208
  ---------------------------------------------------
  free energy    TOTEN  =        -3.45978983 eV

  energy without entropy =       -3.45978983  energy(sigma->0) =       -3.45978983


--------------------------------------------------------------------------------------------------------




--------------------------------------- Iteration      1(   6)  ---------------------------------------


    POTLOK:  cpu time    2.5275: real time    2.5501
    SETDIJ:  cpu time    0.4388: real time    0.4389
    TRIAL :  cpu time    3.5999: real time    3.9107
    CORREC:  cpu time    6.0216: real time    6.1313
    CHARGE:  cpu time    1.3611: real time    1.3685
    --------------------------------------------
      LOOP:  cpu time   13.9762: real time   14.4271

 eigenvalue-minimisations  :     0
 total energy-change (2. order) :-0.2946415E+00  (-0.6381559E+00)
 number of electron      13.0000004 magnetization       5.0000002
 augmentation part        7.2489142 magnetization       3.2661135

 Free energy of the ion-electron system (eV)
  ---------------------------------------------------
  alpha Z        PSCENC =         0.51933455
  Ewald energy   TEWEN  =      -230.15817073
  -Hartree energ DENC   =     -1394.79736984
  -exchange      EXHF   =         0.00000000
  -V(xc)+E(xc)   XCENC  =        65.33266080
  PAW double counting   =      1368.61566826    -1414.02382372
  entropy T*S    EENTRO =        -0.00000000
  eigenvalues    EBANDS =      -424.07165275
  atomic energy  EATOM  =      2024.82892208
  ---------------------------------------------------
  free energy    TOTEN  =        -3.75443135 eV

  energy without entropy =       -3.75443135  energy(sigma->0) =       -3.75443135


--------------------------------------------------------------------------------------------------------




--------------------------------------- Iteration      1(   7)  ---------------------------------------


    POTLOK:  cpu time    2.4810: real time    2.5035
    SETDIJ:  cpu time    0.4233: real time    0.4236
    TRIAL :  cpu time    3.5846: real time    3.6664
    CORREC:  cpu time    6.0227: real time    6.1163
    CHARGE:  cpu time    1.3749: real time    1.3761
    --------------------------------------------
      LOOP:  cpu time   13.9146: real time   14.1143

 eigenvalue-minimisations  :     0
 total energy-change (2. order) :-0.6271564E+00  (-0.1302904E+00)
 number of electron      13.0000004 magnetization       5.0000002
 augmentation part        7.2588193 magnetization       3.2918893

 Free energy of the ion-electron system (eV)
  ---------------------------------------------------
  alpha Z        PSCENC =         0.51933455
  Ewald energy   TEWEN  =      -230.15817073
  -Hartree energ DENC   =     -1425.10459298
  -exchange      EXHF   =         0.00000000
  -V(xc)+E(xc)   XCENC  =        66.65949763
  PAW double counting   =      1398.05697934    -1447.98345819
  entropy T*S    EENTRO =        -0.00000000
  eigenvalues    EBANDS =      -391.20009951
  atomic energy  EATOM  =      2024.82892208
  ---------------------------------------------------
  free energy    TOTEN  =        -4.38158779 eV

  energy without entropy =       -4.38158779  energy(sigma->0) =       -4.38158779


--------------------------------------------------------------------------------------------------------




--------------------------------------- Iteration      1(   8)  ---------------------------------------


    POTLOK:  cpu time    2.4925: real time    2.4939
    SETDIJ:  cpu time    0.4230: real time    0.4232
    TRIAL :  cpu time    4.0176: real time    4.2096
    CORREC:  cpu time    6.0702: real time    6.1305
    CHARGE:  cpu time    1.3236: real time    1.3236
    --------------------------------------------
      LOOP:  cpu time   14.3477: real time   14.6018

 eigenvalue-minimisations  :     0
 total energy-change (2. order) :-0.1300963E+00  (-0.1171620E+00)
 number of electron      13.0000004 magnetization       5.0000002
 augmentation part        7.2439959 magnetization       3.2849372

 Free energy of the ion-electron system (eV)
  ---------------------------------------------------
  alpha Z        PSCENC =         0.51933455
  Ewald energy   TEWEN  =      -230.15817073
  -Hartree energ DENC   =     -1432.11528778
  -exchange      EXHF   =         0.00000000
  -V(xc)+E(xc)   XCENC  =        66.90883634
  PAW double counting   =      1408.53190074    -1458.57427771
  entropy T*S    EENTRO =        -0.00000000
  eigenvalues    EBANDS =      -384.45294163
  atomic energy  EATOM  =      2024.82892208
  ---------------------------------------------------
  free energy    TOTEN  =        -4.51168413 eV

  energy without entropy =       -4.51168413  energy(sigma->0) =       -4.51168413


--------------------------------------------------------------------------------------------------------




--------------------------------------- Iteration      1(   9)  ---------------------------------------


    POTLOK:  cpu time    2.5138: real time    2.5141
    SETDIJ:  cpu time    0.4237: real time    0.4237
    TRIAL :  cpu time    3.5135: real time    3.5826
    CORREC:  cpu time    6.0394: real time    6.1236
    CHARGE:  cpu time    1.3816: real time    1.3827
    --------------------------------------------
      LOOP:  cpu time   13.9002: real time   14.0550

 eigenvalue-minimisations  :     0
 total energy-change (2. order) :-0.1174346E+00  (-0.3467520E-01)
 number of electron      13.0000004 magnetization       5.0000002
 augmentation part        7.2424973 magnetization       3.2750986

 Free energy of the ion-electron system (eV)
  ---------------------------------------------------
  alpha Z        PSCENC =         0.51933455
  Ewald energy   TEWEN  =      -230.15817073
  -Hartree energ DENC   =     -1437.66947712
  -exchange      EXHF   =         0.00000000
  -V(xc)+E(xc)   XCENC  =        67.05341710
  PAW double counting   =      1420.54796851    -1469.95954577
  entropy T*S    EENTRO =        -0.00000000
  eigenvalues    EBANDS =      -379.79156731
  atomic energy  EATOM  =      2024.82892208
  ---------------------------------------------------
  free energy    TOTEN  =        -4.62911868 eV

  energy without entropy =       -4.62911868  energy(sigma->0) =       -4.62911868


--------------------------------------------------------------------------------------------------------




--------------------------------------- Iteration      1(  10)  ---------------------------------------


    POTLOK:  cpu time    2.4710: real time    2.4724
    SETDIJ:  cpu time    0.4242: real time    0.4245
    TRIAL :  cpu time    3.6472: real time    3.7264
    CORREC:  cpu time    6.0499: real time    6.1187
    CHARGE:  cpu time    1.3315: real time    1.3315
    --------------------------------------------
      LOOP:  cpu time   13.9496: real time   14.0994

 eigenvalue-minimisations  :     0
 total energy-change (2. order) :-0.3462731E-01  (-0.1282254E-01)
 number of electron      13.0000004 magnetization       5.0000002
 augmentation part        7.2493078 magnetization       3.2789518

 Free energy of the ion-electron system (eV)
  ---------------------------------------------------
  alpha Z        PSCENC =         0.51933455
  Ewald energy   TEWEN  =      -230.15817073
  -Hartree energ DENC   =     -1439.28252213
  -exchange      EXHF   =         0.00000000
  -V(xc)+E(xc)   XCENC  =        67.09403859
  PAW double counting   =      1423.93220259    -1473.13846254
  entropy T*S    EENTRO =        -0.00000000
  eigenvalues    EBANDS =      -378.45908841
  atomic energy  EATOM  =      2024.82892208
  ---------------------------------------------------
  free energy    TOTEN  =        -4.66374600 eV

  energy without entropy =       -4.66374600  energy(sigma->0) =       -4.66374600


--------------------------------------------------------------------------------------------------------




--------------------------------------- Iteration      1(  11)  ---------------------------------------


    POTLOK:  cpu time    2.4770: real time    2.4770
    SETDIJ:  cpu time    0.4263: real time    0.4263
    TRIAL :  cpu time    3.5498: real time    3.5983
    CORREC:  cpu time    6.1046: real time    6.1639
    CHARGE:  cpu time    1.3704: real time    1.3715
    --------------------------------------------
      LOOP:  cpu time   13.9781: real time   14.0869

 eigenvalue-minimisations  :     0
 total energy-change (2. order) :-0.1282996E-01  (-0.5321558E-02)
 number of electron      13.0000004 magnetization       5.0000002
 augmentation part        7.2550445 magnetization       3.2848831

 Free energy of the ion-electron system (eV)
  ---------------------------------------------------
  alpha Z        PSCENC =         0.51933455
  Ewald energy   TEWEN  =      -230.15817073
  -Hartree energ DENC   =     -1440.27222969
  -exchange      EXHF   =         0.00000000
  -V(xc)+E(xc)   XCENC  =        67.13669519
  PAW double counting   =      1424.44822646    -1473.69788041
  entropy T*S    EENTRO =        -0.00000000
  eigenvalues    EBANDS =      -377.48147341
  atomic energy  EATOM  =      2024.82892208
  ---------------------------------------------------
  free energy    TOTEN  =        -4.67657595 eV

  energy without entropy =       -4.67657595  energy(sigma->0) =       -4.67657595


--------------------------------------------------------------------------------------------------------




--------------------------------------- Iteration      1(  12)  ---------------------------------------


    POTLOK:  cpu time    2.4771: real time    2.4789
    SETDIJ:  cpu time    0.4235: real time    0.4237
    TRIAL :  cpu time    3.7146: real time    3.7887
    CORREC:  cpu time    6.1195: real time    6.2195
    CHARGE:  cpu time    1.3099: real time    1.3121
    --------------------------------------------
      LOOP:  cpu time   14.0775: real time   14.2557

 eigenvalue-minimisations  :     0
 total energy-change (2. order) :-0.5321890E-02  (-0.1258201E-02)
 number of electron      13.0000004 magnetization       5.0000002
 augmentation part        7.2555689 magnetization       3.2868668

 Free energy of the ion-electron system (eV)
  ---------------------------------------------------
  alpha Z        PSCENC =         0.51933455
  Ewald energy   TEWEN  =      -230.15817073
  -Hartree energ DENC   =     -1440.94395586
  -exchange      EXHF   =         0.00000000
  -V(xc)+E(xc)   XCENC  =        67.16969639
  PAW double counting   =      1424.36054922    -1473.68816613
  entropy T*S    EENTRO =        -0.00000000
  eigenvalues    EBANDS =      -376.77010737
  atomic energy  EATOM  =      2024.82892208
  ---------------------------------------------------
  free energy    TOTEN  =        -4.68189784 eV

  energy without entropy =       -4.68189784  energy(sigma->0) =       -4.68189784


--------------------------------------------------------------------------------------------------------




--------------------------------------- Iteration      1(  13)  ---------------------------------------


    POTLOK:  cpu time    2.5234: real time    2.5253
    SETDIJ:  cpu time    0.4244: real time    0.4247
    TRIAL :  cpu time    3.5903: real time    3.6713
    CORREC:  cpu time    6.0532: real time    6.1224
    CHARGE:  cpu time    1.3403: real time    1.3413
    --------------------------------------------
      LOOP:  cpu time   13.9578: real time   14.1112

 eigenvalue-minimisations  :     0
 total energy-change (2. order) :-0.1258318E-02  (-0.3481898E-03)
 number of electron      13.0000004 magnetization       5.0000002
 augmentation part        7.2549207 magnetization       3.2864585

 Free energy of the ion-electron system (eV)
  ---------------------------------------------------
  alpha Z        PSCENC =         0.51933455
  Ewald energy   TEWEN  =      -230.15817073
  -Hartree energ DENC   =     -1441.10066026
  -exchange      EXHF   =         0.00000000
  -V(xc)+E(xc)   XCENC  =        67.17646507
  PAW double counting   =      1424.31404899    -1473.64456615
  entropy T*S    EENTRO =        -0.00000000
  eigenvalues    EBANDS =      -376.61852971
  atomic energy  EATOM  =      2024.82892208
  ---------------------------------------------------
  free energy    TOTEN  =        -4.68315616 eV

  energy without entropy =       -4.68315616  energy(sigma->0) =       -4.68315616


--------------------------------------------------------------------------------------------------------




--------------------------------------- Iteration      1(  14)  ---------------------------------------


    POTLOK:  cpu time    2.4848: real time    2.4863
    SETDIJ:  cpu time    0.4267: real time    0.4267
    TRIAL :  cpu time    3.5350: real time    3.5946
    CORREC:  cpu time    5.9961: real time    6.0538
    CHARGE:  cpu time    1.3456: real time    1.3461
    --------------------------------------------
      LOOP:  cpu time   13.8152: real time   13.9344

 eigenvalue-minimisations  :     0
 total energy-change (2. order) :-0.3482439E-03  (-0.1106881E-03)
 number of electron      13.0000004 magnetization       5.0000002
 augmentation part        7.2549663 magnetization       3.2861310

 Free energy of the ion-electron system (eV)
  ---------------------------------------------------
  alpha Z        PSCENC =         0.51933455
  Ewald energy   TEWEN  =      -230.15817073
  -Hartree energ DENC   =     -1441.13753067
  -exchange      EXHF   =         0.00000000
  -V(xc)+E(xc)   XCENC  =        67.17634660
  PAW double counting   =      1424.38190646    -1473.69824901
  entropy T*S    EENTRO =        -0.00000000
  eigenvalues    EBANDS =      -376.59606370
  atomic energy  EATOM  =      2024.82892208
  ---------------------------------------------------
  free energy    TOTEN  =        -4.68350440 eV

  energy without entropy =       -4.68350440  energy(sigma->0) =       -4.68350440


--------------------------------------------------------------------------------------------------------




--------------------------------------- Iteration      1(  15)  ---------------------------------------


    POTLOK:  cpu time    2.4952: real time    2.4962
    SETDIJ:  cpu time    0.4242: real time    0.4243
    TRIAL :  cpu time    3.4458: real time    3.5162
    CORREC:  cpu time    6.0635: real time    6.1534
    CHARGE:  cpu time    1.3673: real time    1.3683
    --------------------------------------------
      LOOP:  cpu time   13.8124: real time   13.9749

 eigenvalue-minimisations  :     0
 total energy-change (2. order) :-0.1104186E-03  (-0.3413815E-04)
 number of electron      13.0000004 magnetization       5.0000002
 augmentation part        7.2552103 magnetization       3.2861034

 Free energy of the ion-electron system (eV)
  ---------------------------------------------------
  alpha Z        PSCENC =         0.51933455
  Ewald energy   TEWEN  =      -230.15817073
  -Hartree energ DENC   =     -1441.20521262
  -exchange      EXHF   =         0.00000000
  -V(xc)+E(xc)   XCENC  =        67.17851390
  PAW double counting   =      1424.49312639    -1473.81142092
  entropy T*S    EENTRO =        -0.00000000
  eigenvalues    EBANDS =      -376.52870747
  atomic energy  EATOM  =      2024.82892208
  ---------------------------------------------------
  free energy    TOTEN  =        -4.68361482 eV

  energy without entropy =       -4.68361482  energy(sigma->0) =       -4.68361482


--------------------------------------------------------------------------------------------------------




--------------------------------------- Iteration      1(  16)  ---------------------------------------


    POTLOK:  cpu time    2.4734: real time    2.4745
    SETDIJ:  cpu time    0.4217: real time    0.4218
    TRIAL :  cpu time    3.5221: real time    3.6094
    CORREC:  cpu time    6.1998: real time    6.3885
    CHARGE:  cpu time    1.4686: real time    1.5240
    --------------------------------------------
      LOOP:  cpu time   14.1141: real time   14.4466

 eigenvalue-minimisations  :     0
 total energy-change (2. order) :-0.3402237E-04  (-0.1380667E-04)
 number of electron      13.0000004 magnetization       5.0000002
 augmentation part        7.2552845 magnetization       3.2860527

 Free energy of the ion-electron system (eV)
  ---------------------------------------------------
  alpha Z        PSCENC =         0.51933455
  Ewald energy   TEWEN  =      -230.15817073
  -Hartree energ DENC   =     -1441.23101777
  -exchange      EXHF   =         0.00000000
  -V(xc)+E(xc)   XCENC  =        67.18008031
  PAW double counting   =      1424.53170533    -1473.85255749
  entropy T*S    EENTRO =        -0.00000000
  eigenvalues    EBANDS =      -376.50194512
  atomic energy  EATOM  =      2024.82892208
  ---------------------------------------------------
  free energy    TOTEN  =        -4.68364884 eV

  energy without entropy =       -4.68364884  energy(sigma->0) =       -4.68364884


--------------------------------------------------------------------------------------------------------




--------------------------------------- Iteration      1(  17)  ---------------------------------------


    POTLOK:  cpu time    2.4945: real time    2.4952
    SETDIJ:  cpu time    0.4242: real time    0.4243
    TRIAL :  cpu time    3.5773: real time    3.6436
    CORREC:  cpu time    5.9448: real time    6.1247
    CHARGE:  cpu time    1.3054: real time    1.3055
    --------------------------------------------
      LOOP:  cpu time   13.7752: real time   14.0222

 eigenvalue-minimisations  :     0
 total energy-change (2. order) :-0.1396106E-04  (-0.5250377E-05)
 number of electron      13.0000004 magnetization       5.0000002
 augmentation part        7.2553641 magnetization       3.2861068

 Free energy of the ion-electron system (eV)
  ---------------------------------------------------
  alpha Z        PSCENC =         0.51933455
  Ewald energy   TEWEN  =      -230.15817073
  -Hartree energ DENC   =     -1441.21251947
  -exchange      EXHF   =         0.00000000
  -V(xc)+E(xc)   XCENC  =        67.18006227
  PAW double counting   =      1424.51704150    -1473.83432330
  entropy T*S    EENTRO =        -0.00000000
  eigenvalues    EBANDS =      -376.52400970
  atomic energy  EATOM  =      2024.82892208
  ---------------------------------------------------
  free energy    TOTEN  =        -4.68366281 eV

  energy without entropy =       -4.68366281  energy(sigma->0) =       -4.68366281


--------------------------------------------------------------------------------------------------------




--------------------------------------- Iteration      1(  18)  ---------------------------------------


    POTLOK:  cpu time    2.4643: real time    2.4644
    SETDIJ:  cpu time    0.4228: real time    0.4228
    TRIAL :  cpu time    3.4871: real time    3.5602
    CORREC:  cpu time    6.0797: real time    6.1443
    EDDIAG:  cpu time    1.6817: real time    1.6979
    CHARGE:  cpu time    1.3067: real time    1.3073
    --------------------------------------------
      LOOP:  cpu time   15.4788: real time   15.6335

 eigenvalue-minimisations  :     0
 total energy-change (2. order) :-0.5411822E-05  (-0.1555259E-05)
 number of electron      13.0000004 magnetization       5.0000002
 augmentation part        7.2553848 magnetization       3.2861296

 Free energy of the ion-electron system (eV)
  ---------------------------------------------------
  alpha Z        PSCENC =         0.51933455
  Ewald energy   TEWEN  =      -230.15817073
  -Hartree energ DENC   =     -1441.20284910
  -exchange      EXHF   =         0.00000000
  -V(xc)+E(xc)   XCENC  =        67.18026539
  PAW double counting   =      1424.51057062    -1473.82554517
  entropy T*S    EENTRO =        -0.00000000
  eigenvalues    EBANDS =      -376.53619587
  atomic energy  EATOM  =      2024.82892208
  ---------------------------------------------------
  free energy    TOTEN  =        -4.68366822 eV

  energy without entropy =       -4.68366822  energy(sigma->0) =       -4.68366822


--------------------------------------------------------------------------------------------------------


  average scaling for gradient   1.2336


 average (electrostatic) potential at core
  the test charge radii are     0.9577
  (the norm of the test charge is              1.0000)
       1 -56.7185
 
 
 
 E-fermi :  -4.0537     XC(G=0):  -0.3573     alpha+bet : -0.0486


 spin component 1

 k-point     1 :       0.0000    0.0000    0.0000
  band No.  band energies     occupation 
      1     -55.7309      1.00000
      2     -55.7309      1.00000
      3     -55.7309      1.00000
      4      -9.5314      1.00000
      5      -9.5314      1.00000
      6      -9.5314      1.00000
      7      -9.5314      1.00000
      8      -9.5314      1.00000
      9      -5.3477      1.00000
     10      -1.4397      0.00000
     11      -1.4397      0.00000
     12      -1.4397      0.00000
     13      -0.1146      0.00000
     14       0.5532      0.00000
     15       0.5532      0.00000
     16       0.6015      0.00000
     17       0.6810      0.00000
     18       0.6810      0.00000
     19       0.6810      0.00000
     20       0.9987      0.00000
     21       0.9987      0.00000
     22       0.9987      0.00000
     23       1.2164      0.00000
     24       1.2165      0.00000
     25       1.2853      0.00000
     26       1.2853      0.00000
     27       1.2853      0.00000
     28       1.3980      0.00000
     29       1.3980      0.00000
     30       1.3980      0.00000
     31       1.4233      0.00000
     32       1.7673      0.00000
     33       1.7673      0.00000
     34       1.7673      0.00000
     35       1.8512      0.00000
     36       2.0036      0.00000
     37       2.0036      0.00000
     38       2.0036      0.00000
     39       2.0344      0.00000
     40       2.0344      0.00000
     41       2.0849      0.00000
     42       2.6196      0.00000
     43       2.6196      0.00000
     44       2.6196      0.00000
     45       2.7061      0.00000
     46       2.7061      0.00000
     47       2.7062      0.00000
     48       2.7243      0.00000
     49       2.9349      0.00000
     50       2.9349      0.00000
     51       3.0137      0.00000
     52       3.0137      0.00000
     53       3.0137      0.00000
     54       3.1475      0.00000
     55       3.1475      0.00000
     56       3.1475      0.00000
     57       3.2335      0.00000
     58       3.2335      0.00000
     59       3.2335      0.00000
     60       3.2768      0.00000
     61       3.2768      0.00000
     62       3.3228      0.00000
     63       3.3228      0.00000
     64       3.3228      0.00000
     65       3.3472      0.00000
     66       3.5082      0.00000
     67       3.5082      0.00000
     68       3.5082      0.00000
     69       3.5785      0.00000
     70       3.5935      0.00000
     71       3.5996      0.00000
     72       3.5996      0.00000
     73       3.5996      0.00000
     74       3.8532      0.00000
     75       3.8532      0.00000
     76       3.8775      0.00000
     77       3.8775      0.00000
     78       3.8775      0.00000
     79       3.8957      0.00000
     80       3.8957      0.00000
     81       3.8957      0.00000
     82       3.9196      0.00000
     83       3.9196      0.00000
     84       3.9196      0.00000
     85       3.9241      0.00000
     86       3.9241      0.00000
     87       3.9241      0.00000
     88       3.9456      0.00000
     89       3.9456      0.00000
     90       4.3495      0.00000
     91       4.3495      0.00000
     92       4.3495      0.00000
     93       4.6141      0.00000
     94       4.8421      0.00000
     95       4.8421      0.00000
     96       4.8421      0.00000
     97       4.8638      0.00000
     98       4.8638      0.00000
     99       5.0047      0.00000
    100       5.0047      0.00000
    101       5.0047      0.00000
    102       5.3106      0.00000
    103       5.3107      0.00000
    104       5.3174      0.00000
    105       5.3174      0.00000
    106       5.3175      0.00000
    107       5.4351      0.00000
    108       5.4831      0.00000
    109       5.5014      0.00000
    110       5.5014      0.00000
    111       5.5014      0.00000
    112       5.5576      0.00000
    113       5.5576      0.00000
    114       5.5577      0.00000
    115       5.6905      0.00000
    116       5.8542      0.00000
    117       5.8542      0.00000
    118       5.8542      0.00000
    119       5.8848      0.00000
    120       5.8848      0.00000
    121       5.8848      0.00000
    122       5.8932      0.00000
    123       5.8932      0.00000
    124       5.9205      0.00000
    125       5.9205      0.00000
    126       5.9205      0.00000
    127       5.9236      0.00000
    128       5.9236      0.00000
    129       5.9236      0.00000
    130       5.9302      0.00000
    131       5.9302      0.00000
    132       6.2148      0.00000
    133       6.2148      0.00000
    134       6.2148      0.00000
    135       6.2448      0.00000
    136       6.2448      0.00000
    137       6.2864      0.00000
    138       6.3820      0.00000
    139       6.3820      0.00000
    140       6.3820      0.00000
    141       6.3847      0.00000
    142       6.3847      0.00000
    143       6.3847      0.00000
    144       6.3983      0.00000
    145       6.3983      0.00000
    146       6.3983      0.00000
    147       6.4080      0.00000
    148       6.4080      0.00000
    149       6.4080      0.00000
    150       6.6241      0.00000
    151       6.6241      0.00000
    152       6.6275      0.00000
    153       6.6275      0.00000
    154       6.6275      0.00000
    155       6.6349      0.00000
    156       6.9319      0.00000
    157       6.9319      0.00000
    158       6.9319      0.00000
    159       7.0416      0.00000
    160       7.0416      0.00000
    161       7.0416      0.00000
    162       7.0707      0.00000
    163       7.1103      0.00000
    164       7.1103      0.00000
    165       7.1127      0.00000
    166       7.1426      0.00000
    167       7.1426      0.00000
    168       7.1426      0.00000
    169       7.1443      0.00000
    170       7.1443      0.00000
    171       7.1443      0.00000
    172       7.1647      0.00000
    173       7.1647      0.00000
    174       7.1647      0.00000
    175       7.1870      0.00000
    176       7.1870      0.00000
    177       7.1870      0.00000
    178       7.1971      0.00000
    179       7.1971      0.00000
    180       7.5779      0.00000
    181       7.5779      0.00000
    182       7.5779      0.00000
    183       7.6636      0.00000
    184       7.6636      0.00000
    185       7.6636      0.00000
    186       7.6992      0.00000
    187       7.7172      0.00000
    188       8.0175      0.00000
    189       8.0175      0.00000
    190       8.0175      0.00000
    191       8.0666      0.00000
    192       8.0666      0.00000
    193       8.0855      0.00000
    194       8.0855      0.00000
    195       8.0855      0.00000
    196       8.0874      0.00000
    197       8.0874      0.00000
    198       8.0874      0.00000
    199       8.1696      0.00000
    200       8.4890      0.00000
    201       8.4890      0.00000
    202       8.4890      0.00000
    203       8.4964      0.00000
    204       8.4965      0.00000
    205       8.5349      0.00000
    206       8.5349      0.00000
    207       8.5349      0.00000
    208       8.5531      0.00000
    209       8.5531      0.00000
    210       8.5531      0.00000
    211       8.5685      0.00000
    212       8.8050      0.00000
    213       8.8465      0.00000
    214       8.8465      0.00000
    215       8.8465      0.00000
    216       8.8507      0.00000
    217       8.8507      0.00000
    218       8.8507      0.00000
    219       8.9689      0.00000
    220       9.0189      0.00000
    221       9.0189      0.00000
    222       9.0297      0.00000
    223       9.0297      0.00000
    224       9.0297      0.00000
    225       9.0579      0.00000
    226       9.0579      0.00000
    227       9.0579      0.00000
    228       9.0731      0.00000
    229       9.0731      0.00000
    230       9.0731      0.00000
    231       9.0736      0.00000
    232       9.0736      0.00000
    233       9.0736      0.00000
    234       9.0789      0.00000
    235       9.0789      0.00000
    236       9.2425      0.00000
    237       9.2425      0.00000
    238       9.2518      0.00000
    239       9.2518      0.00000
    240       9.2518      0.00000
    241       9.2631      0.00000
    242       9.2631      0.00000
    243       9.2631      0.00000
    244       9.2693      0.00000
    245       9.2700      0.00000
    246       9.2700      0.00000
    247       9.2762      0.00000
    248       9.2762      0.00000
    249       9.2762      0.00000
    250       9.2852      0.00000
    251       9.2852      0.00000
    252       9.3177      0.00000
    253       9.3280      0.00000
    254       9.3280      0.00000
    255       9.3280      0.00000
    256       9.3360      0.00000

 spin component 2

 k-point     1 :       0.0000    0.0000    0.0000
  band No.  band energies     occupation 
      1     -50.6658      1.00000
      2     -50.6658      1.00000
      3     -50.6658      1.00000
      4      -4.3458      1.00000
      5      -1.8322      0.00000
      6      -1.8322      0.00000
      7      -1.8322      0.00000
      8      -1.8322      0.00000
      9      -1.8322      0.00000
     10      -1.1024      0.00000
     11      -1.1024      0.00000
     12      -1.1024      0.00000
     13      -0.1512      0.00000
     14       0.4964      0.00000
     15       0.4965      0.00000
     16       0.6125      0.00000
     17       0.6643      0.00000
     18       0.6643      0.00000
     19       0.6643      0.00000
     20       0.9544      0.00000
     21       0.9544      0.00000
     22       0.9544      0.00000
     23       1.1885      0.00000
     24       1.1885      0.00000
     25       1.2210      0.00000
     26       1.2210      0.00000
     27       1.2210      0.00000
     28       1.4065      0.00000
     29       1.4065      0.00000
     30       1.4065      0.00000
     31       1.4517      0.00000
     32       1.7514      0.00000
     33       1.7514      0.00000
     34       1.7514      0.00000
     35       1.7609      0.00000
     36       1.9576      0.00000
     37       1.9576      0.00000
     38       1.9576      0.00000
     39       2.0599      0.00000
     40       2.0893      0.00000
     41       2.0893      0.00000
     42       2.5784      0.00000
     43       2.5784      0.00000
     44       2.5784      0.00000
     45       2.7013      0.00000
     46       2.7721      0.00000
     47       2.7721      0.00000
     48       2.7721      0.00000
     49       2.9175      0.00000
     50       2.9175      0.00000
     51       2.9175      0.00000
     52       2.9361      0.00000
     53       2.9361      0.00000
     54       3.0787      0.00000
     55       3.0787      0.00000
     56       3.0787      0.00000
     57       3.1459      0.00000
     58       3.1459      0.00000
     59       3.1459      0.00000
     60       3.2146      0.00000
     61       3.2146      0.00000
     62       3.2665      0.00000
     63       3.2665      0.00000
     64       3.2665      0.00000
     65       3.3010      0.00000
     66       3.4968      0.00000
     67       3.4972      0.00000
     68       3.4972      0.00000
     69       3.4972      0.00000
     70       3.5819      0.00000
     71       3.5832      0.00000
     72       3.5832      0.00000
     73       3.5832      0.00000
     74       3.8358      0.00000
     75       3.8358      0.00000
     76       3.8358      0.00000
     77       3.8485      0.00000
     78       3.8485      0.00000
     79       3.8510      0.00000
     80       3.8510      0.00000
     81       3.8510      0.00000
     82       3.8610      0.00000
     83       3.8610      0.00000
     84       3.8610      0.00000
     85       3.8634      0.00000
     86       3.8634      0.00000
     87       3.8634      0.00000
     88       3.8728      0.00000
     89       3.8728      0.00000
     90       4.4032      0.00000
     91       4.4032      0.00000
     92       4.4032      0.00000
     93       4.6816      0.00000
     94       4.9031      0.00000
     95       4.9031      0.00000
     96       4.9031      0.00000
     97       4.9281      0.00000
     98       4.9281      0.00000
     99       4.9403      0.00000
    100       4.9403      0.00000
    101       4.9403      0.00000
    102       5.2539      0.00000
    103       5.2539      0.00000
    104       5.2539      0.00000
    105       5.3297      0.00000
    106       5.3297      0.00000
    107       5.3805      0.00000
    108       5.4371      0.00000
    109       5.4997      0.00000
    110       5.4997      0.00000
    111       5.4997      0.00000
    112       5.5058      0.00000
    113       5.5058      0.00000
    114       5.5058      0.00000
    115       5.6178      0.00000
    116       5.8202      0.00000
    117       5.8202      0.00000
    118       5.8202      0.00000
    119       5.8394      0.00000
    120       5.8394      0.00000
    121       5.8394      0.00000
    122       5.8506      0.00000
    123       5.8506      0.00000
    124       5.8538      0.00000
    125       5.8538      0.00000
    126       5.8538      0.00000
    127       5.8562      0.00000
    128       5.8562      0.00000
    129       5.8562      0.00000
    130       5.8587      0.00000
    131       5.8587      0.00000
    132       6.1920      0.00000
    133       6.1920      0.00000
    134       6.1920      0.00000
    135       6.2444      0.00000
    136       6.2444      0.00000
    137       6.2645      0.00000
    138       6.2992      0.00000
    139       6.2993      0.00000
    140       6.2993      0.00000
    141       6.3137      0.00000
    142       6.3137      0.00000
    143       6.3137      0.00000
    144       6.3163      0.00000
    145       6.3163      0.00000
    146       6.3163      0.00000
    147       6.3358      0.00000
    148       6.3358      0.00000
    149       6.3358      0.00000
    150       6.5680      0.00000
    151       6.5680      0.00000
    152       6.5680      0.00000
    153       6.5688      0.00000
    154       6.5688      0.00000
    155       6.5700      0.00000
    156       6.9457      0.00000
    157       6.9457      0.00000
    158       6.9457      0.00000
    159       7.0553      0.00000
    160       7.0643      0.00000
    161       7.0643      0.00000
    162       7.0643      0.00000
    163       7.0754      0.00000
    164       7.1000      0.00000
    165       7.1000      0.00000
    166       7.1000      0.00000
    167       7.1036      0.00000
    168       7.1036      0.00000
    169       7.1036      0.00000
    170       7.1086      0.00000
    171       7.1087      0.00000
    172       7.1118      0.00000
    173       7.1118      0.00000
    174       7.1118      0.00000
    175       7.1141      0.00000
    176       7.1141      0.00000
    177       7.1174      0.00000
    178       7.1174      0.00000
    179       7.1174      0.00000
    180       7.5621      0.00000
    181       7.5621      0.00000
    182       7.5621      0.00000
    183       7.6662      0.00000
    184       7.6712      0.00000
    185       7.6712      0.00000
    186       7.6712      0.00000
    187       7.6752      0.00000
    188       7.9798      0.00000
    189       7.9798      0.00000
    190       7.9798      0.00000
    191       8.0369      0.00000
    192       8.0369      0.00000
    193       8.0369      0.00000
    194       8.0911      0.00000
    195       8.0911      0.00000
    196       8.0917      0.00000
    197       8.0917      0.00000
    198       8.0917      0.00000
    199       8.1435      0.00000
    200       8.4291      0.00000
    201       8.4291      0.00000
    202       8.4291      0.00000
    203       8.4502      0.00000
    204       8.4502      0.00000
    205       8.4681      0.00000
    206       8.4681      0.00000
    207       8.4681      0.00000
    208       8.4779      0.00000
    209       8.4779      0.00000
    210       8.4779      0.00000
    211       8.4879      0.00000
    212       8.7640      0.00000
    213       8.8227      0.00000
    214       8.8227      0.00000
    215       8.8227      0.00000
    216       8.8515      0.00000
    217       8.8515      0.00000
    218       8.8515      0.00000
    219       8.9580      0.00000
    220       8.9810      0.00000
    221       8.9810      0.00000
    222       8.9810      0.00000
    223       9.0003      0.00000
    224       9.0003      0.00000
    225       9.0029      0.00000
    226       9.0029      0.00000
    227       9.0029      0.00000
    228       9.0119      0.00000
    229       9.0119      0.00000
    230       9.0119      0.00000
    231       9.0236      0.00000
    232       9.0236      0.00000
    233       9.0236      0.00000
    234       9.0238      0.00000
    235       9.0238      0.00000
    236       9.2002      0.00000
    237       9.2003      0.00000
    238       9.2003      0.00000
    239       9.2034      0.00000
    240       9.2034      0.00000
    241       9.2090      0.00000
    242       9.2091      0.00000
    243       9.2091      0.00000
    244       9.2105      0.00000
    245       9.2106      0.00000
    246       9.2106      0.00000
    247       9.2126      0.00000
    248       9.2126      0.00000
    249       9.2126      0.00000
    250       9.2137      0.00000
    251       9.2137      0.00000
    252       9.2717      0.00000
    253       9.2765      0.00000
    254       9.2765      0.00000
    255       9.2767      0.00000
    256       9.2813      0.00000


--------------------------------------------------------------------------------------------------------


 soft charge-density along one line, spin component           1
         0         1         2         3         4         5         6         7         8         9
 total charge-density along one line
 
 soft charge-density along one line, spin component           2
         0         1         2         3         4         5         6         7         8         9
 total charge-density along one line
 
 pseudopotential strength for first ion, spin component:           1
-57.142   0.000   0.000  26.553  -0.000  -0.000  -0.000  -0.000
  0.000 -57.142   0.000  -0.000  26.553  -0.000   0.000  -0.000
  0.000   0.000 -57.142  -0.000  -0.000  26.553  -0.000   0.000
 26.553  -0.000  -0.000  -7.514   0.000   0.000  -0.000   0.000
 -0.000  26.553  -0.000   0.000  -7.514   0.000  -0.000   0.000
 -0.000  -0.000  26.553   0.000   0.000  -7.514  -0.000  -0.000
 -0.000   0.000  -0.000  -0.000  -0.000  -0.000 -14.976  -0.000
 -0.000  -0.000   0.000   0.000   0.000  -0.000  -0.000 -14.976
 -0.000   0.000  -0.000   0.000  -0.000   0.000  -0.000   0.000
  0.000  -0.000  -0.000  -0.000   0.000   0.000  -0.000  -0.000
 -0.000   0.000   0.000   0.000  -0.000  -0.000  -0.000  -0.000
  0.000  -0.000   0.000   0.000   0.000   0.000   1.334   0.000
  0.000   0.000  -0.000   0.000   0.000   0.000   0.000   1.334
  0.000  -0.000   0.000  -0.000   0.000  -0.000   0.000  -0.000
 -0.000   0.000   0.000   0.000   0.000   0.000   0.000   0.000
  0.000  -0.000  -0.000  -0.000   0.000   0.000   0.000   0.000
 -0.000  -0.000  -0.000   0.000   0.000   0.000  -0.000  -0.000
  0.000   0.000   0.000  -0.000  -0.000  -0.000   0.000   0.000
 pseudopotential strength for first ion, spin component:           2
-53.735   0.000   0.000  24.129  -0.000  -0.000  -0.000  -0.000
  0.000 -53.735   0.000  -0.000  24.129  -0.000   0.000  -0.000
  0.000   0.000 -53.735  -0.000  -0.000  24.129  -0.000   0.000
 24.129  -0.000  -0.000  -5.931   0.000   0.000   0.000   0.000
 -0.000  24.129  -0.000   0.000  -5.931   0.000  -0.000   0.000
 -0.000  -0.000  24.129   0.000   0.000  -5.931   0.000  -0.000
 -0.000   0.000  -0.000   0.000  -0.000   0.000  -8.594  -0.000
 -0.000  -0.000   0.000   0.000   0.000  -0.000  -0.000  -8.594
 -0.000   0.000  -0.000   0.000  -0.000   0.000  -0.000   0.000
  0.000  -0.000  -0.000  -0.000   0.000   0.000  -0.000  -0.000
 -0.000  -0.000   0.000   0.000   0.000  -0.000   0.000  -0.000
  0.000  -0.000   0.000  -0.000   0.000  -0.000   0.308   0.000
  0.000   0.000  -0.000  -0.000  -0.000   0.000   0.000   0.308
  0.000  -0.000   0.000  -0.000   0.000  -0.000   0.000  -0.000
 -0.000   0.000   0.000   0.000  -0.000  -0.000   0.000   0.000
  0.000   0.000  -0.000  -0.000  -0.000   0.000  -0.000   0.000
 -0.000  -0.000  -0.000   0.000   0.000   0.000  -0.000  -0.000
  0.000   0.000   0.000  -0.000  -0.000  -0.000   0.000   0.000
 total augmentation occupancy for first ion, spin component:           1
  1.978   0.000   0.000  -0.028   0.000   0.000   0.000   0.000  -0.000   0.000  -0.000   0.000  -0.000  -0.000   0.000  -0.000
  0.000   1.978   0.000   0.000  -0.028   0.000   0.000   0.000   0.000   0.000   0.000   0.000  -0.000   0.000  -0.000   0.000
  0.000   0.000   1.978   0.000   0.000  -0.028   0.000   0.000  -0.000   0.000   0.000   0.000   0.000  -0.000  -0.000   0.000
 -0.028   0.000   0.000   0.000  -0.000  -0.000   0.000   0.000   0.000   0.000   0.000  -0.000  -0.000  -0.000  -0.000  -0.000
  0.000  -0.028   0.000  -0.000   0.000  -0.000   0.000   0.000  -0.000   0.000   0.000  -0.000  -0.000   0.000  -0.000  -0.000
  0.000   0.000  -0.028  -0.000  -0.000   0.000   0.000   0.000   0.000   0.000  -0.000  -0.000  -0.000  -0.000  -0.000   0.000
  0.000   0.000   0.000   0.000   0.000   0.000   1.015   0.000   0.000   0.000  -0.000  -0.264   0.000  -0.000   0.000  -0.000
  0.000   0.000   0.000   0.000   0.000   0.000   0.000   1.015  -0.000   0.000   0.000   0.000  -0.264   0.000   0.000  -0.000
 -0.000   0.000  -0.000   0.000  -0.000   0.000   0.000  -0.000   1.015  -0.000  -0.000  -0.000   0.000  -0.264   0.000  -0.000
  0.000   0.000   0.000   0.000   0.000   0.000   0.000   0.000  -0.000   1.015  -0.000   0.000   0.000   0.000  -0.264   0.000
 -0.000   0.000   0.000   0.000   0.000  -0.000  -0.000   0.000  -0.000  -0.000   1.015  -0.000  -0.000  -0.000   0.000  -0.264
  0.000   0.000   0.000  -0.000  -0.000  -0.000  -0.264   0.000  -0.000   0.000  -0.000   0.069  -0.000   0.000  -0.000   0.000
 -0.000  -0.000   0.000  -0.000  -0.000  -0.000   0.000  -0.264   0.000   0.000  -0.000  -0.000   0.069  -0.000  -0.000   0.000
 -0.000   0.000  -0.000  -0.000   0.000  -0.000  -0.000   0.000  -0.264   0.000  -0.000   0.000  -0.000   0.069  -0.000   0.000
  0.000  -0.000  -0.000  -0.000  -0.000  -0.000   0.000   0.000   0.000  -0.264   0.000  -0.000  -0.000  -0.000   0.069  -0.000
 -0.000   0.000   0.000  -0.000  -0.000   0.000  -0.000  -0.000  -0.000   0.000  -0.264   0.000   0.000   0.000  -0.000   0.069
  0.000   0.000   0.000   0.000   0.000   0.000   0.000   0.000  -0.000   0.000  -0.000   0.000   0.000   0.000   0.000   0.000
  0.000   0.000   0.000  -0.000  -0.000  -0.000  -0.000  -0.000   0.000  -0.000   0.000   0.000   0.000   0.000   0.000   0.000
 total augmentation occupancy for first ion, spin component:           2
 -0.011  -0.000  -0.000  -0.015  -0.000  -0.000  -0.000  -0.000   0.000   0.000   0.000   0.000   0.000   0.000   0.000   0.000
 -0.000  -0.011  -0.000  -0.000  -0.015  -0.000   0.000  -0.000  -0.000  -0.000  -0.000   0.000   0.000  -0.000   0.000  -0.000
 -0.000  -0.000  -0.011  -0.000  -0.000  -0.015  -0.000   0.000   0.000  -0.000  -0.000   0.000   0.000   0.000   0.000  -0.000
 -0.015  -0.000  -0.000   0.000  -0.000  -0.000   0.000   0.000   0.000   0.000   0.000  -0.000  -0.000  -0.000  -0.000  -0.000
 -0.000  -0.015  -0.000  -0.000   0.000  -0.000   0.000   0.000  -0.000   0.000   0.000  -0.000  -0.000   0.000  -0.000  -0.000
 -0.000  -0.000  -0.015  -0.000  -0.000   0.000   0.000   0.000   0.000   0.000  -0.000  -0.000  -0.000  -0.000  -0.000   0.000
 -0.000   0.000  -0.000   0.000   0.000   0.000   1.015   0.000   0.000   0.000  -0.000  -0.264   0.000  -0.000   0.000  -0.000
 -0.000  -0.000   0.000   0.000   0.000   0.000   0.000   1.015  -0.000   0.000   0.000   0.000  -0.264   0.000   0.000  -0.000
  0.000  -0.000   0.000   0.000  -0.000   0.000   0.000  -0.000   1.015  -0.000  -0.000  -0.000   0.000  -0.264   0.000  -0.000
  0.000  -0.000  -0.000   0.000   0.000   0.000   0.000   0.000  -0.000   1.015  -0.000   0.000   0.000   0.000  -0.264   0.000
  0.000  -0.000  -0.000   0.000   0.000  -0.000  -0.000   0.000  -0.000  -0.000   1.015  -0.000  -0.000  -0.000   0.000  -0.264
  0.000   0.000   0.000  -0.000  -0.000  -0.000  -0.264   0.000  -0.000   0.000  -0.000   0.069  -0.000   0.000  -0.000   0.000
  0.000   0.000   0.000  -0.000  -0.000  -0.000   0.000  -0.264   0.000   0.000  -0.000  -0.000   0.069  -0.000  -0.000   0.000
  0.000  -0.000   0.000  -0.000   0.000  -0.000  -0.000   0.000  -0.264   0.000  -0.000   0.000  -0.000   0.069  -0.000   0.000
  0.000   0.000   0.000  -0.000  -0.000  -0.000   0.000   0.000   0.000  -0.264   0.000  -0.000  -0.000  -0.000   0.069  -0.000
  0.000  -0.000  -0.000  -0.000  -0.000   0.000  -0.000  -0.000  -0.000   0.000  -0.264   0.000   0.000   0.000  -0.000   0.069
 -0.000  -0.000  -0.000  -0.000  -0.000  -0.000  -0.000  -0.000   0.000  -0.000   0.000  -0.000  -0.000   0.000  -0.000   0.000
  0.000   0.000   0.000   0.000  -0.000   0.000  -0.000  -0.000   0.000  -0.000   0.000   0.000   0.000   0.000   0.000   0.000


------------------------ aborting loop because EDIFF is reached ----------------------------------------


    FORLOC:  cpu time    0.0022: real time    0.0045
    FORNL :  cpu time    0.0464: real time    0.0596
    FORCOR:  cpu time    2.4055: real time    2.4167
    OFIELD:  cpu time    0.0006: real time    0.0049

 VOLUME and BASIS-vectors are now :
 -----------------------------------------------------------------------------
  energy-cutoff  :      520.00
  volume of cell :     3375.00
      direct lattice vectors                 reciprocal lattice vectors
    15.000000000  0.000000000  0.000000000     0.066666667  0.000000000  0.000000000
     0.000000000 15.000000000  0.000000000     0.000000000  0.066666667  0.000000000
     0.000000000  0.000000000 15.000000000     0.000000000  0.000000000  0.066666667

  length of vectors
    15.000000000 15.000000000 15.000000000     0.066666667  0.066666667  0.066666667


 FORCES acting on ions:
    Electron-Ion                     Ewald-Force                    Non-Local-Force
 -----------------------------------------------------------------------------------------------
   -.135E-04 -.135E-04 -.122E-04   0.924E-16 0.347E-17 0.186E-16   -.139E-02 -.139E-02 -.132E-02
 -----------------------------------------------------------------------------------------------
   -.133E-04 -.133E-04 -.119E-04   0.924E-16 0.347E-17 0.186E-16   -.139E-02 -.139E-02 -.132E-02
 
 
 POSITION                                       TOTAL-FORCE (eV/Angst)
 -----------------------------------------------------------------------------------
      0.15000      0.15000     11.26500        -0.001401     -0.001401     -0.001332
 -----------------------------------------------------------------------------------
    total drift:                               -0.001401     -0.001401     -0.001332


--------------------------------------------------------------------------------------------------------



  FREE ENERGIE OF THE ION-ELECTRON SYSTEM (eV)
  ---------------------------------------------------
  free  energy   TOTEN  =        -4.68366822 eV

  energy  without entropy=       -4.68366822  energy(sigma->0) =       -4.68366822
 


--------------------------------------------------------------------------------------------------------


    POTLOK:  cpu time    2.9001: real time    2.9129


--------------------------------------------------------------------------------------------------------


 stress matrix after NEB project (eV)
      0.00000      0.00000      0.00000
      0.00000      0.00000      0.00000
      0.00000      0.00000      0.00000
  FORCES: max atom, RMS     0.002388    0.002388
  FORCE total and by dimension    0.002388    0.001401
  Stress total and by dimension    0.000000    0.000000
     LOOP+:  cpu time  286.0479: real time  289.3568
    4ORBIT:  cpu time    0.0000: real time    0.0000

 total amount of memory used by VASP MPI-rank0   177231. kBytes
=======================================================================

   base      :      30000. kBytes
   nonl-proj :      14540. kBytes
   fftplans  :       7479. kBytes
   grid      :     116433. kBytes
   one-center:         31. kBytes
   wavefun   :       8748. kBytes
 
  
  
 General timing and accounting informations for this job:
 ========================================================
  
                  Total CPU time used (sec):      300.189
                            User time (sec):      291.927
                          System time (sec):        8.261
                         Elapsed time (sec):      305.998
  
                   Maximum memory used (kb):      457448.
                   Average memory used (kb):           0.
  
                          Minor page faults:        61065
                          Major page faults:            0
                 Voluntary context switches:         2687
