C  N  Li                                
   1.00000000000000     
    12.3000000000000007    0.0000000000000000    0.0000000000000000
    -6.1499999999999977   10.6521124665485960    0.0000000000000000
     0.0000000000000000    0.0000000000000000   20.0000000000000000
   C    N    Li
    44     4     1
Direct
  0.9994299999999967  0.0005700000000033  0.7500000000000000
  0.1316839999999999  0.0650660000000016  0.7500000000000000
  0.1983880000000013  0.9983599999999981  0.7500000000000000
  0.3310269999999988  0.0636999999999972  0.7500000000000000
  0.3987260000000035  0.9976989999999972  0.7500000000000000
  0.5313400000000001  0.0662889999999976  0.7500000000000000
  0.5992170000000030  0.0003699999999967  0.7500000000000000
  0.7320459999999969  0.0692650000000015  0.7500000000000000
  0.7995110000000025  0.0026239999999973  0.7500000000000000
  0.9322200000000009  0.0677799999999991  0.7500000000000000
  0.9973760000000027  0.2004889999999975  0.7500000000000000
  0.1310280000000006  0.2653910000000010  0.7500000000000000
  0.1970359999999971  0.1976960000000005  0.7500000000000000
  0.3293630000000007  0.2653359999999978  0.7500000000000000
  0.3986700000000027  0.1960329999999999  0.7500000000000000
  0.5927829999999972  0.2007440000000003  0.7500000000000000
  0.7286989999999989  0.2713010000000011  0.7500000000000000
  0.7961719999999985  0.2038280000000015  0.7500000000000000
  0.9307349999999985  0.2679540000000031  0.7500000000000000
  0.9996300000000033  0.4007829999999970  0.7500000000000000
  0.1336930000000009  0.4658889999999971  0.7500000000000000
  0.1996159999999989  0.3979959999999991  0.7500000000000000
  0.3340800000000002  0.4594560000000030  0.7500000000000000
  0.7992559999999997  0.4072170000000028  0.7500000000000000
  0.9337110000000024  0.4686599999999999  0.7500000000000000
  0.0023010000000028  0.6012739999999965  0.7500000000000000
  0.1359530000000007  0.6661829999999966  0.7500000000000000
  0.2025900000000007  0.5987069999999974  0.7500000000000000
  0.3371530000000007  0.6628469999999993  0.7500000000000000
  0.4046340000000015  0.5953659999999985  0.7500000000000000
  0.5405439999999970  0.6659199999999998  0.7500000000000000
  0.7346640000000022  0.6706369999999993  0.7500000000000000
  0.8039670000000001  0.6013299999999973  0.7500000000000000
  0.9363000000000028  0.6689730000000012  0.7500000000000000
  0.0016400000000019  0.8016119999999987  0.7500000000000000
  0.1339029999999966  0.8660970000000034  0.7500000000000000
  0.2011079999999978  0.7988920000000022  0.7500000000000000
  0.3338170000000034  0.8640469999999993  0.7500000000000000
  0.4012930000000026  0.7974099999999993  0.7500000000000000
  0.5341110000000029  0.8663069999999991  0.7500000000000000
  0.6020040000000009  0.8003840000000011  0.7500000000000000
  0.7346080000000015  0.8689719999999994  0.7500000000000000
  0.8023039999999995  0.8029640000000029  0.7500000000000000
  0.9349339999999984  0.8683160000000001  0.7500000000000000
  0.5247170000000025  0.2599950000000035  0.7500000000000000
  0.3933290000000014  0.3913900000000012  0.7500000000000000
  0.7400050000000036  0.4752829999999975  0.7500000000000000
  0.6086099999999988  0.6066709999999986  0.7500000000000000
  0.5666640000000029  0.4333359999999971  0.7500000000000000
 
  0.00000000E+00  0.00000000E+00  0.00000000E+00
  0.00000000E+00  0.00000000E+00  0.00000000E+00
  0.00000000E+00  0.00000000E+00  0.00000000E+00
  0.00000000E+00  0.00000000E+00  0.00000000E+00
  0.00000000E+00  0.00000000E+00  0.00000000E+00
  0.00000000E+00  0.00000000E+00  0.00000000E+00
  0.00000000E+00  0.00000000E+00  0.00000000E+00
  0.00000000E+00  0.00000000E+00  0.00000000E+00
  0.00000000E+00  0.00000000E+00  0.00000000E+00
  0.00000000E+00  0.00000000E+00  0.00000000E+00
  0.00000000E+00  0.00000000E+00  0.00000000E+00
  0.00000000E+00  0.00000000E+00  0.00000000E+00
  0.00000000E+00  0.00000000E+00  0.00000000E+00
  0.00000000E+00  0.00000000E+00  0.00000000E+00
  0.00000000E+00  0.00000000E+00  0.00000000E+00
  0.00000000E+00  0.00000000E+00  0.00000000E+00
  0.00000000E+00  0.00000000E+00  0.00000000E+00
  0.00000000E+00  0.00000000E+00  0.00000000E+00
  0.00000000E+00  0.00000000E+00  0.00000000E+00
  0.00000000E+00  0.00000000E+00  0.00000000E+00
  0.00000000E+00  0.00000000E+00  0.00000000E+00
  0.00000000E+00  0.00000000E+00  0.00000000E+00
  0.00000000E+00  0.00000000E+00  0.00000000E+00
  0.00000000E+00  0.00000000E+00  0.00000000E+00
  0.00000000E+00  0.00000000E+00  0.00000000E+00
  0.00000000E+00  0.00000000E+00  0.00000000E+00
  0.00000000E+00  0.00000000E+00  0.00000000E+00
  0.00000000E+00  0.00000000E+00  0.00000000E+00
  0.00000000E+00  0.00000000E+00  0.00000000E+00
  0.00000000E+00  0.00000000E+00  0.00000000E+00
  0.00000000E+00  0.00000000E+00  0.00000000E+00
  0.00000000E+00  0.00000000E+00  0.00000000E+00
  0.00000000E+00  0.00000000E+00  0.00000000E+00
  0.00000000E+00  0.00000000E+00  0.00000000E+00
  0.00000000E+00  0.00000000E+00  0.00000000E+00
  0.00000000E+00  0.00000000E+00  0.00000000E+00
  0.00000000E+00  0.00000000E+00  0.00000000E+00
  0.00000000E+00  0.00000000E+00  0.00000000E+00
  0.00000000E+00  0.00000000E+00  0.00000000E+00
  0.00000000E+00  0.00000000E+00  0.00000000E+00
  0.00000000E+00  0.00000000E+00  0.00000000E+00
  0.00000000E+00  0.00000000E+00  0.00000000E+00
  0.00000000E+00  0.00000000E+00  0.00000000E+00
  0.00000000E+00  0.00000000E+00  0.00000000E+00
  0.00000000E+00  0.00000000E+00  0.00000000E+00
  0.00000000E+00  0.00000000E+00  0.00000000E+00
  0.00000000E+00  0.00000000E+00  0.00000000E+00
  0.00000000E+00  0.00000000E+00  0.00000000E+00
  0.00000000E+00  0.00000000E+00  0.00000000E+00
