       N       E                     dE             d eps       ncg     rms          ort
SDA:   1    -0.339219833698E+03   -0.33922E+03    0.00000E+00  3328   0.121E+03 0.000E+00
CGA:   2    -0.412071849672E+03   -0.72852E+02   -0.82303E+02  3328   0.691E+02-0.178E+02
CGA:   3    -0.429255530301E+03   -0.17184E+02   -0.17089E+02  3328   0.238E+02 0.785E+00
CGA:   4    -0.437039689140E+03   -0.77842E+01   -0.77755E+01  3328   0.857E+01 0.256E-02
CGA:   5    -0.439536446168E+03   -0.24968E+01   -0.25005E+01  3328   0.288E+01-0.617E-01
CGA:   6    -0.440378639628E+03   -0.84219E+00   -0.84306E+00  3328   0.875E+00-0.881E-02
CGA:   7    -0.440646476537E+03   -0.26784E+00   -0.26779E+00  3328   0.255E+00 0.126E-02
CGA:   8    -0.440729925848E+03   -0.83449E-01   -0.83439E-01  3328   0.790E-01-0.383E-04
CGA:   9    -0.440759009365E+03   -0.29084E-01   -0.29106E-01  3328   0.283E-01-0.164E-03
CGA:  10    -0.440769693770E+03   -0.10684E-01   -0.10694E-01  3328   0.952E-02-0.706E-04
CGA:  11    -0.440773225658E+03   -0.35319E-02   -0.35356E-02  3328   0.273E-02-0.295E-04
CGA:  12    -0.440774231685E+03   -0.10060E-02   -0.10071E-02  3328   0.741E-03-0.839E-05
CGA:  13    -0.440774520561E+03   -0.28888E-03   -0.28924E-03  3328   0.227E-03-0.284E-05
CGA:  14    -0.440774615717E+03   -0.95156E-04   -0.95383E-04  3328   0.787E-04-0.157E-05
CGA:  15    -0.440774650019E+03   -0.34302E-04   -0.34508E-04  3328   0.270E-04-0.131E-05
CGA:  16    -0.440774661516E+03   -0.11497E-04   -0.11611E-04  3328   0.834E-05-0.766E-06
CGA:  17    -0.440774665033E+03   -0.35177E-05   -0.35644E-05  3328   0.250E-05-0.324E-06
   1 F= -.44243607E+03 E0= -.44243029E+03  d E =-.115588E-01  mag=    -0.0000
