       N       E                     dE             d eps       ncg     rms          rms(c)
DAV:   1     0.123983145538E+04    0.12398E+04   -0.86399E+04  4096   0.597E+02
DAV:   2    -0.391726174916E+03   -0.16316E+04   -0.16307E+04  6144   0.118E+02
DAV:   3    -0.468348124884E+03   -0.76622E+02   -0.76587E+02  7680   0.381E+01
DAV:   4    -0.468536074649E+03   -0.18795E+00   -0.18765E+00  4608   0.175E+00
DAV:   5    -0.468536378409E+03   -0.30376E-03   -0.30376E-03  7680   0.956E-02    0.290E+01
DAV:   6    -0.442899107195E+03    0.25637E+02   -0.11926E+02  6144   0.136E+01    0.154E+01
DAV:   7    -0.434757916355E+03    0.81412E+01   -0.17523E+01  8192   0.787E+00    0.652E+00
DAV:   8    -0.433288274840E+03    0.14696E+01   -0.42253E+00  8192   0.290E+00    0.274E+00
DAV:   9    -0.433190476504E+03    0.97798E-01   -0.14910E+00  5120   0.295E+00    0.163E+00
DAV:  10    -0.433034995179E+03    0.15548E+00   -0.33157E-01  8192   0.139E+00    0.697E-01
DAV:  11    -0.432982934811E+03    0.52060E-01   -0.46432E-02  6912   0.475E-01    0.305E-01
DAV:  12    -0.432976694921E+03    0.62399E-02   -0.32439E-02  7168   0.345E-01    0.328E-01
DAV:  13    -0.432978113913E+03   -0.14190E-02   -0.24208E-02  8192   0.327E-01    0.231E-01
DAV:  14    -0.432979861052E+03   -0.17471E-02   -0.68910E-03  6656   0.189E-01    0.754E-02
DAV:  15    -0.432992642407E+03   -0.12781E-01   -0.11163E-03  6656   0.412E-02    0.687E-02
DAV:  16    -0.433001381658E+03   -0.87393E-02   -0.10670E-03  6656   0.679E-02    0.305E-02
DAV:  17    -0.433005851154E+03   -0.44695E-02   -0.33583E-04  7680   0.233E-02    0.140E-02
DAV:  18    -0.433008812928E+03   -0.29618E-02   -0.26195E-04  7168   0.144E-02    0.102E-02
DAV:  19    -0.433009451609E+03   -0.63868E-03   -0.32970E-05  4864   0.782E-03    0.414E-03
DAV:  20    -0.433009886476E+03   -0.43487E-03   -0.29428E-05  4608   0.465E-03    0.335E-03
DAV:  21    -0.433010012181E+03   -0.12571E-03   -0.45115E-06  6912   0.229E-03    0.184E-03
DAV:  22    -0.433010110387E+03   -0.98206E-04   -0.39369E-06  6144   0.147E-03    0.992E-04
DAV:  23    -0.433010153012E+03   -0.42624E-04   -0.13966E-06  7680   0.110E-03    0.140E-03
DAV:  24    -0.433010187959E+03   -0.34947E-04   -0.13550E-07  5632   0.479E-04    0.696E-04
DAV:  25    -0.433010211716E+03   -0.23757E-04   -0.13873E-07  7168   0.684E-04    0.572E-04
DAV:  26    -0.433010218561E+03   -0.68452E-05   -0.27087E-08  7168   0.200E-04
   1 F= -.43486107E+03 E0= -.43484689E+03  d E =-.434861E+03  mag=     0.0000
       N       E                     dE             d eps       ncg     rms          rms(c)
DAV:   1    -0.433010424628E+03   -0.21291E-03   -0.13185E-02  7168   0.176E-01    0.305E-02
DAV:   2    -0.433010419204E+03    0.54236E-05   -0.14032E-04  7168   0.254E-02    0.198E-02
DAV:   3    -0.433010413774E+03    0.54305E-05   -0.33302E-05  6144   0.137E-02
   2 F= -.43486124E+03 E0= -.43484728E+03  d E =-.169961E-03  mag=     0.0000
