C  N  Hg
 1.0000000000000000
    12.3000000000000007    0.0000000000000000    0.0000000000000000
    -6.1499999999999977   10.6521124665485960    0.0000000000000000
     0.0000000000000000    0.0000000000000000   20.0000000000000000
 C   N   Hg 
  44   4   1
Direct
  0.9989290000000001  0.0010710000000000  0.7500000000000000
  0.1299050000000000  0.0632600000000000  0.7500000000000000
  0.1965940000000000  0.9965650000000000  0.7500000000000000
  0.3277720000000000  0.0595650000000000  0.7500000000000000
  0.3978380000000001  0.9958520000000000  0.7500000000000000
  0.5311010000000000  0.0637190000000000  0.7500000000000000
  0.5994630000000000  0.9999070000000000  0.7500000000000000
  0.7323780000000000  0.0695200000000000  0.7500000000000000
  0.7997890000000000  0.0032410000000000  0.7500000000000000
  0.9321330000000000  0.0678670000000000  0.7500000000000000
  0.9967590000000000  0.2002110000000000  0.7500000000000000
  0.1291750000000000  0.2645090000000000  0.7500000000000000
  0.1928830000000000  0.1944490000000000  0.7500000000000000
  0.3229050000000000  0.2586050000000000  0.7500000000000000
  0.3919130000000000  0.1895890000000000  0.7500000000000000
  0.5932460000000001  0.1966560000000000  0.7500000000000000
  0.7290860000000002  0.2709140000000000  0.7500000000000000
  0.7966500000000000  0.2033500000000000  0.7500000000000000
  0.9304800000000001  0.2676220000000000  0.7500000000000000
  0.0000930000000000  0.4005370000000000  0.7500000000000000
  0.1332590000000000  0.4661359999999999  0.7500000000000000
  0.1970700000000000  0.3977650000000000  0.7500000000000000
  0.3300060000000000  0.4599330000000000  0.7500000000000000
  0.8033440000000001  0.4067540000000000  0.7500000000000000
  0.9362810000000000  0.4688990000000000  0.7500000000000000
  0.0041480000000000  0.6021620000000000  0.7500000000000000
  0.1365780000000000  0.6664679999999999  0.7500000000000000
  0.2028520000000000  0.5990529999999999  0.7500000000000000
  0.3366720000000001  0.6633280000000000  0.7500000000000000
  0.4042380000000000  0.5957620000000000  0.7500000000000000
  0.5400670000000000  0.6699940000000000  0.7500000000000000
  0.7413950000000000  0.6770950000000000  0.7500000000000000
  0.8104110000000000  0.6080870000000000  0.7500000000000000
  0.9404350000000001  0.6722280000000000  0.7500000000000000
  0.0034350000000000  0.8034060000000000  0.7500000000000000
  0.1344140000000001  0.8655860000000000  0.7500000000000000
  0.2011989999999999  0.7988009999999999  0.7500000000000000
  0.3335319999999999  0.8634219999999999  0.7500000000000000
  0.4009470000000000  0.7971480000000000  0.7500000000000000
  0.5338640000000000  0.8667410000000000  0.7500000000000000
  0.6022350000000000  0.8029300000000000  0.7500000000000000
  0.7354910000000000  0.8708250000000000  0.7500000000000000
  0.8055510000000000  0.8071170000000000  0.7500000000000000
  0.9367400000000000  0.8700950000000000  0.7500000000000000
  0.5183390000000000  0.2469540000000000  0.7500000000000000
  0.3803010000000000  0.3850260000000000  0.7500000000000000
  0.7530460000000001  0.4816610000000000  0.7500000000000000
  0.6149740000000000  0.6196990000000000  0.7500000000000000
  0.5666710000000000  0.4333290000000000  0.7500000000000000
