C  N  Dy                                
   1.00000000000000     
    12.3000000000000007    0.0000000000000000    0.0000000000000000
    -6.1499999999999977   10.6521124665485960    0.0000000000000000
     0.0000000000000000    0.0000000000000000   20.0000000000000000
   C    N    Dy
    44     4     1
Direct
  0.9993992736514343  0.0006024556131408  0.7548894860686701
  0.1319555371798842  0.0652711213184816  0.7545788063615007
  0.1985994868433281  0.9986295665577600  0.7545587868663830
  0.3311357111241762  0.0642396142393338  0.7527170614477114
  0.3986758307115466  0.9980443587344752  0.7531808246926843
  0.5319839112653142  0.0665406318689605  0.7524037517984112
  0.5995088843710690  0.0004558559240095  0.7535336364354990
  0.7325840191503588  0.0687802953138501  0.7529579542693909
  0.7997236725340642  0.0017995154082726  0.7537771936004489
  0.9326400345639172  0.0673606350030340  0.7541516837233004
  0.9982000142380301  0.2002768211636337  0.7537770945820412
  0.1313706834560762  0.2653466533228368  0.7532105998954890
  0.1975783804533222  0.1978025073662550  0.7528247967148189
  0.3298101355288523  0.2644122952113506  0.7484423804364440
  0.3977236004565512  0.1964905834380843  0.7483144805506754
  0.5943233185826955  0.2002909170242546  0.7478821810164646
  0.7296189308531353  0.2703805938783432  0.7481913884024394
  0.7972164778188571  0.2027822528029475  0.7514678689687102
  0.9312193170512941  0.2674153549432958  0.7529580331740888
  0.9995421380133607  0.4004904836343286  0.7535334033214411
  0.1338184819329911  0.4662022253549125  0.7536875716955578
  0.1998777923013506  0.3986330911857792  0.7526081205057338
  0.3336468088972921  0.4609858258158184  0.7482373984459443
  0.7997053013291904  0.4056762020563980  0.7478862974148228
  0.9334581559109907  0.4680167661344399  0.7524068518109743
  0.0019544724629128  0.6013233752316935  0.7531833670848158
  0.1351341093600738  0.6663836790952260  0.7539722453784776
  0.2021293839989795  0.5992549769310997  0.7532975256144780
  0.3361191729258621  0.6638815484621503  0.7519093264969996
  0.4037254189577695  0.5962761785119142  0.7486540619785913
  0.5390137992119008  0.6663525672339006  0.7482326231793763
  0.7355917112692012  0.6701940214785225  0.7484383863597515
  0.8035096628732816  0.6022770950821155  0.7483167517087210
  0.9357621314076283  0.6688657174905899  0.7527194891724278
  0.0013712280679812  0.8014007073333005  0.7545587358929140
  0.1339378121483676  0.8660634589729383  0.7549411271681805
  0.2006937424860382  0.7993060325227503  0.7543478541924671
  0.3336171390398306  0.8648666440365105  0.7539718236744406
  0.4007444978957366  0.7978690199855123  0.7532983019923662
  0.5337973262371634  0.8661797143508352  0.7536892250194924
  0.6013673681777334  0.8001212546447647  0.7526073239320468
  0.7346551560909234  0.8686305571813264  0.7532098388207658
  0.8021995093818433  0.8024231688626315  0.7528238162192977
  0.9347318447042241  0.8680468328445130  0.7545789883133693
  0.5260638120602295  0.2600954774200446  0.7421356958778418
  0.3934476043671253  0.3927643321236545  0.7423896923839237
  0.7399013414894924  0.4739372235818351  0.7421424976112334
  0.6072408919440377  0.6065559178725053  0.7423794139985631
  0.5665659652225514  0.4334128754356712  0.6830262357298551
 
  0.00000000E+00  0.00000000E+00  0.00000000E+00
  0.00000000E+00  0.00000000E+00  0.00000000E+00
  0.00000000E+00  0.00000000E+00  0.00000000E+00
  0.00000000E+00  0.00000000E+00  0.00000000E+00
  0.00000000E+00  0.00000000E+00  0.00000000E+00
  0.00000000E+00  0.00000000E+00  0.00000000E+00
  0.00000000E+00  0.00000000E+00  0.00000000E+00
  0.00000000E+00  0.00000000E+00  0.00000000E+00
  0.00000000E+00  0.00000000E+00  0.00000000E+00
  0.00000000E+00  0.00000000E+00  0.00000000E+00
  0.00000000E+00  0.00000000E+00  0.00000000E+00
  0.00000000E+00  0.00000000E+00  0.00000000E+00
  0.00000000E+00  0.00000000E+00  0.00000000E+00
  0.00000000E+00  0.00000000E+00  0.00000000E+00
  0.00000000E+00  0.00000000E+00  0.00000000E+00
  0.00000000E+00  0.00000000E+00  0.00000000E+00
  0.00000000E+00  0.00000000E+00  0.00000000E+00
  0.00000000E+00  0.00000000E+00  0.00000000E+00
  0.00000000E+00  0.00000000E+00  0.00000000E+00
  0.00000000E+00  0.00000000E+00  0.00000000E+00
  0.00000000E+00  0.00000000E+00  0.00000000E+00
  0.00000000E+00  0.00000000E+00  0.00000000E+00
  0.00000000E+00  0.00000000E+00  0.00000000E+00
  0.00000000E+00  0.00000000E+00  0.00000000E+00
  0.00000000E+00  0.00000000E+00  0.00000000E+00
  0.00000000E+00  0.00000000E+00  0.00000000E+00
  0.00000000E+00  0.00000000E+00  0.00000000E+00
  0.00000000E+00  0.00000000E+00  0.00000000E+00
  0.00000000E+00  0.00000000E+00  0.00000000E+00
  0.00000000E+00  0.00000000E+00  0.00000000E+00
  0.00000000E+00  0.00000000E+00  0.00000000E+00
  0.00000000E+00  0.00000000E+00  0.00000000E+00
  0.00000000E+00  0.00000000E+00  0.00000000E+00
  0.00000000E+00  0.00000000E+00  0.00000000E+00
  0.00000000E+00  0.00000000E+00  0.00000000E+00
  0.00000000E+00  0.00000000E+00  0.00000000E+00
  0.00000000E+00  0.00000000E+00  0.00000000E+00
  0.00000000E+00  0.00000000E+00  0.00000000E+00
  0.00000000E+00  0.00000000E+00  0.00000000E+00
  0.00000000E+00  0.00000000E+00  0.00000000E+00
  0.00000000E+00  0.00000000E+00  0.00000000E+00
  0.00000000E+00  0.00000000E+00  0.00000000E+00
  0.00000000E+00  0.00000000E+00  0.00000000E+00
  0.00000000E+00  0.00000000E+00  0.00000000E+00
  0.00000000E+00  0.00000000E+00  0.00000000E+00
  0.00000000E+00  0.00000000E+00  0.00000000E+00
  0.00000000E+00  0.00000000E+00  0.00000000E+00
  0.00000000E+00  0.00000000E+00  0.00000000E+00
  0.00000000E+00  0.00000000E+00  0.00000000E+00
