       N       E                     dE             d eps       ncg     rms          ort
SDA:   1    -0.329711626972E+03   -0.32971E+03    0.00000E+00  3328   0.135E+03 0.000E+00
CGA:   2    -0.408618455305E+03   -0.78907E+02   -0.87208E+02  3328   0.702E+02-0.165E+02
CGA:   3    -0.426992686518E+03   -0.18374E+02   -0.18227E+02  3328   0.243E+02 0.116E+01
CGA:   4    -0.435108144973E+03   -0.81155E+01   -0.81137E+01  3328   0.853E+01-0.421E-01
CGA:   5    -0.437570691749E+03   -0.24625E+01   -0.24660E+01  3328   0.289E+01-0.544E-01
CGA:   6    -0.438417220534E+03   -0.84653E+00   -0.84724E+00  3328   0.854E+00-0.880E-02
CGA:   7    -0.438679964463E+03   -0.26274E+00   -0.26283E+00  3328   0.242E+00-0.836E-03
CGA:   8    -0.438758308145E+03   -0.78344E-01   -0.78374E-01  3328   0.727E-01-0.356E-03
CGA:   9    -0.438784566604E+03   -0.26258E-01   -0.26279E-01  3328   0.246E-01-0.150E-03
CGA:  10    -0.438793974465E+03   -0.94079E-02   -0.94168E-02  3328   0.829E-02-0.635E-04
CGA:  11    -0.438797108431E+03   -0.31340E-02   -0.31377E-02  3328   0.241E-02-0.284E-04
CGA:  12    -0.438798010276E+03   -0.90184E-03   -0.90272E-03  3328   0.658E-03-0.670E-05
CGA:  13    -0.438798266595E+03   -0.25632E-03   -0.25649E-03  3328   0.193E-03-0.127E-05
CGA:  14    -0.438798348273E+03   -0.81678E-04   -0.81773E-04  3328   0.648E-04-0.648E-06
CGA:  15    -0.438798376572E+03   -0.28299E-04   -0.28408E-04  3328   0.214E-04-0.693E-06
CGA:  16    -0.438798385762E+03   -0.91901E-05   -0.92697E-05  3328   0.632E-05-0.535E-06
   1 F= -.44063085E+03 E0= -.44062422E+03  d E =-.132513E-01  mag=     0.0000
