C  N  Ni                                
   1.00000000000000     
    12.3000000000000007    0.0000000000000000    0.0000000000000000
    -6.1499999999999977   10.6521124665485960    0.0000000000000000
     0.0000000000000000    0.0000000000000000   20.0000000000000000
   C    N    Ni
    44     4     1
Direct
  0.9991981724217128  0.0008018313112947  0.7500007318189184
  0.1315236472409086  0.0648350764238464  0.7499898120176126
  0.1981507510433944  0.9981815930775351  0.7499905862860416
  0.3307928122435975  0.0634532381410519  0.7499787578165642
  0.3986350402321168  0.9977892918324872  0.7499938824330648
  0.5315393412893390  0.0679587174539682  0.7499888782026787
  0.5990864413575303  0.0009454496093362  0.7499888709027781
  0.7321750208673252  0.0696011273398667  0.7499992060777705
  0.7993221638703480  0.0024177044133484  0.7500023399117475
  0.9322500700795124  0.0677499249194604  0.7500032524848288
  0.9975822926177824  0.2006778261429026  0.7500023422535627
  0.1310966499697788  0.2652799577639676  0.7499927750776771
  0.1967767301354231  0.1974676074223744  0.7499772598810512
  0.3285014814523092  0.2621292482571499  0.7500193843300547
  0.3954058462811404  0.1951813854582566  0.7500204316613875
  0.5933413669489516  0.2034224305343707  0.7500475303575064
  0.7281533838211880  0.2718466161567404  0.7500217613442791
  0.7962210727441584  0.2037789005196048  0.7499987425221106
  0.9303988373978060  0.2678249388661351  0.7499992091230807
  0.9990545096750205  0.4009134991233020  0.7499888705467153
  0.1342977841282770  0.4657427520010918  0.7499883075461004
  0.2012854856383006  0.3981799611201546  0.7499876896049451
  0.3367493395559256  0.4600248756171041  0.7500466102699267
  0.7965775734331026  0.4066586357588255  0.7500475320014157
  0.9320412805944782  0.4684606470519492  0.7499888781258386
  0.0022107319434764  0.6013649350926428  0.7499938783007197
  0.1357309436459112  0.6659715798056748  0.7500022713866665
  0.2029289871750954  0.5988234853707487  0.7499987611577489
  0.3371035445880375  0.6628963967652394  0.7499989772408795
  0.4051785445433245  0.5948214572729583  0.7500222936558623
  0.5399751264341309  0.6632506742827725  0.7500466101089017
  0.7378707608029148  0.6714985262357965  0.7500193818539450
  0.8048186335678645  0.6045941571866913  0.7500204301608697
  0.9365467846324925  0.6692071833659804  0.7499787544945288
  0.0018183868490248  0.8018492426476564  0.7499905816813157
  0.1341513894605140  0.8658485738957472  0.7500007803994643
  0.2010954860681026  0.7989044297678436  0.7500033427482645
  0.3340283156372503  0.8642690638511745  0.7500022760986935
  0.4011763478659953  0.7970709666053402  0.7499987644118299
  0.5342570992069778  0.8657021654648366  0.7499883083145897
  0.6018199626671054  0.7987145163527318  0.7499876891265170
  0.7347199895558111  0.8689033469161219  0.7499927732200705
  0.8025323694949664  0.8032232746990949  0.7499772559750785
  0.9351649059423988  0.8684763545910110  0.7499898094810289
  0.5241710324115404  0.2638044888621159  0.7501576499855522
  0.3971530066118078  0.3908808068973160  0.7501559488897936
  0.7361955159815105  0.4758289721886419  0.7501576503554980
  0.6091191997307441  0.6028470019824442  0.7501559501963239
  0.5666658401435626  0.4333341635833033  0.7502962181581767
 
  0.00000000E+00  0.00000000E+00  0.00000000E+00
  0.00000000E+00  0.00000000E+00  0.00000000E+00
  0.00000000E+00  0.00000000E+00  0.00000000E+00
  0.00000000E+00  0.00000000E+00  0.00000000E+00
  0.00000000E+00  0.00000000E+00  0.00000000E+00
  0.00000000E+00  0.00000000E+00  0.00000000E+00
  0.00000000E+00  0.00000000E+00  0.00000000E+00
  0.00000000E+00  0.00000000E+00  0.00000000E+00
  0.00000000E+00  0.00000000E+00  0.00000000E+00
  0.00000000E+00  0.00000000E+00  0.00000000E+00
  0.00000000E+00  0.00000000E+00  0.00000000E+00
  0.00000000E+00  0.00000000E+00  0.00000000E+00
  0.00000000E+00  0.00000000E+00  0.00000000E+00
  0.00000000E+00  0.00000000E+00  0.00000000E+00
  0.00000000E+00  0.00000000E+00  0.00000000E+00
  0.00000000E+00  0.00000000E+00  0.00000000E+00
  0.00000000E+00  0.00000000E+00  0.00000000E+00
  0.00000000E+00  0.00000000E+00  0.00000000E+00
  0.00000000E+00  0.00000000E+00  0.00000000E+00
  0.00000000E+00  0.00000000E+00  0.00000000E+00
  0.00000000E+00  0.00000000E+00  0.00000000E+00
  0.00000000E+00  0.00000000E+00  0.00000000E+00
  0.00000000E+00  0.00000000E+00  0.00000000E+00
  0.00000000E+00  0.00000000E+00  0.00000000E+00
  0.00000000E+00  0.00000000E+00  0.00000000E+00
  0.00000000E+00  0.00000000E+00  0.00000000E+00
  0.00000000E+00  0.00000000E+00  0.00000000E+00
  0.00000000E+00  0.00000000E+00  0.00000000E+00
  0.00000000E+00  0.00000000E+00  0.00000000E+00
  0.00000000E+00  0.00000000E+00  0.00000000E+00
  0.00000000E+00  0.00000000E+00  0.00000000E+00
  0.00000000E+00  0.00000000E+00  0.00000000E+00
  0.00000000E+00  0.00000000E+00  0.00000000E+00
  0.00000000E+00  0.00000000E+00  0.00000000E+00
  0.00000000E+00  0.00000000E+00  0.00000000E+00
  0.00000000E+00  0.00000000E+00  0.00000000E+00
  0.00000000E+00  0.00000000E+00  0.00000000E+00
  0.00000000E+00  0.00000000E+00  0.00000000E+00
  0.00000000E+00  0.00000000E+00  0.00000000E+00
  0.00000000E+00  0.00000000E+00  0.00000000E+00
  0.00000000E+00  0.00000000E+00  0.00000000E+00
  0.00000000E+00  0.00000000E+00  0.00000000E+00
  0.00000000E+00  0.00000000E+00  0.00000000E+00
  0.00000000E+00  0.00000000E+00  0.00000000E+00
  0.00000000E+00  0.00000000E+00  0.00000000E+00
  0.00000000E+00  0.00000000E+00  0.00000000E+00
  0.00000000E+00  0.00000000E+00  0.00000000E+00
  0.00000000E+00  0.00000000E+00  0.00000000E+00
  0.00000000E+00  0.00000000E+00  0.00000000E+00
