       N       E                     dE             d eps       ncg     rms          ort
DAV:   1     0.710042167208E+01    0.71004E+01   -0.39052E+03   256   0.333E+01
DAV:   2    -0.213607233850E+01   -0.92365E+01   -0.92025E+01   256   0.202E+00
DAV:   3    -0.217402314676E+01   -0.37951E-01   -0.37951E-01   256   0.164E-01
DAV:   4    -0.217423675844E+01   -0.21361E-03   -0.21361E-03   256   0.144E-02
DAV:   5    -0.217423679353E+01   -0.35094E-07   -0.35204E-07   256   0.164E-04
SDA:   6    -0.189285352699E+01    0.28138E+00   -0.35204E-07   256   0.459E+00 0.000E+00
CGA:   7    -0.200221431333E+01   -0.10936E+00   -0.10912E+00   256   0.223E+00 0.978E-03
CGA:   8    -0.204854902172E+01   -0.46335E-01   -0.46323E-01   256   0.907E-01 0.369E-03
CGA:   9    -0.206591928965E+01   -0.17370E-01   -0.17367E-01   256   0.376E-01-0.115E-02
CGA:  10    -0.207456849262E+01   -0.86492E-02   -0.88007E-02   256   0.148E-01-0.692E-02
CGA:  11    -0.208323227908E+01   -0.86638E-02    0.16228E-02   256   0.470E-02-0.641E-03
CGA:  12    -0.210879431752E+01   -0.25562E-01    0.35187E-04   256   0.506E-02 0.223E-02
CGA:  13    -0.217287862071E+01   -0.64084E-01    0.37782E-04   256   0.108E-01 0.642E-02
CGA:  14    -0.218184570567E+01   -0.89671E-02    0.10630E-02   256   0.493E-02 0.482E-02
CGA:  15    -0.218454219475E+01   -0.26965E-02   -0.28373E-02   256   0.166E-02-0.476E-03
CGA:  16    -0.218490745575E+01   -0.36526E-03   -0.36533E-03   256   0.501E-03-0.220E-05
CGA:  17    -0.218507007560E+01   -0.16262E-03   -0.16314E-03   256   0.205E-03-0.469E-05
CGA:  18    -0.218513556198E+01   -0.65486E-04   -0.65365E-04   256   0.837E-04 0.116E-05
CGA:  19    -0.218515994541E+01   -0.24383E-04   -0.24181E-04   256   0.233E-04 0.322E-05
CGA:  20    -0.218516775742E+01   -0.78120E-05   -0.77676E-05   256   0.905E-05 0.413E-06
   1 F= -.21851678E+01 E0= -.21710634E+01  d E =-.282087E-01  mag=     1.0000
