C  N  Ti                                
   1.00000000000000     
    12.3000000000000007    0.0000000000000000    0.0000000000000000
    -6.1499999999999977   10.6521124665485960    0.0000000000000000
     0.0000000000000000    0.0000000000000000   20.0000000000000000
   C    N    Ti
    44     4     1
Direct
  0.9992840815645536  0.0007002916173562  0.7483082412327704
  0.1316151177711404  0.0649060901046852  0.7486833550530250
  0.1982349896819571  0.9982684646572935  0.7486662487937537
  0.3304543361392192  0.0633959117702361  0.7492890868396955
  0.3984742694535370  0.9977413683278442  0.7483070894168549
  0.5321438855288889  0.0667587172073638  0.7479599021221901
  0.5996657165196453  0.0005380147474554  0.7468517750075847
  0.7324901633185661  0.0687142170299637  0.7473613323542807
  0.7996773594816844  0.0015808665915031  0.7476483702785188
  0.9326627003684962  0.0673292816501743  0.7479606327054569
  0.9984160530749833  0.2003089215701621  0.7476444828839632
  0.1310642657450956  0.2651297761662690  0.7482581471101994
  0.1967326155197782  0.1971181205543999  0.7492682167223421
  0.3284626942093993  0.2623460438707923  0.7516394503121262
  0.3956141321404019  0.1951299602098899  0.7516754672140351
  0.5948964351279855  0.2000222976993058  0.7508959366463372
  0.7296936386408603  0.2703053392647590  0.7500641635452823
  0.7974063636756696  0.2025904940229637  0.7480434911359737
  0.9312901652834640  0.2675027523662692  0.7473595834118427
  0.9994850054473901  0.4003250774424103  0.7468490525780425
  0.1339182702275963  0.4663539394163010  0.7467649762809572
  0.2001109078571304  0.3987933948192861  0.7478136076099915
  0.3333810383295841  0.4615980254459231  0.7507501695580885
  0.8000122990263421  0.4050902042369202  0.7508503256139818
  0.9332628632861102  0.4678441195353855  0.7479440932009496
  0.0022575660915436  0.6015163008972593  0.7483129864174600
  0.1349104074541856  0.6663267149480134  0.7476154653595231
  0.2020472361043346  0.5991585363012319  0.7472642658374440
  0.3358934183592410  0.6640962157456514  0.7479239184358875
  0.4036048435766659  0.5963807286792076  0.7499213431796861
  0.5383729818460665  0.6666476905222609  0.7507021178380668
  0.7376330050723894  0.6715295942414627  0.7516317217734994
  0.8048568544500867  0.6043712227940077  0.7516657691865873
  0.9366004625511621  0.6695365671772180  0.7493217838212232
  0.0017177352015167  0.8017510226721640  0.7486973831770456
  0.1340534460464227  0.8659329549742054  0.7483044340918497
  0.2006719418501106  0.7993143497695385  0.7479644174984941
  0.3336657824533802  0.8650889044395811  0.7476094966328120
  0.4008306385140301  0.7979523506611486  0.7472598264567978
  0.5336300545291550  0.8661035288393748  0.7467589322877330
  0.6011878258036631  0.7999074928190950  0.7477951474413445
  0.7348546369955500  0.8689342730186311  0.7482636839904941
  0.8028664226469431  0.8032650141313979  0.7493029701819296
  0.9350788392462803  0.8683786753451344  0.7487147113751575
  0.5254928835317827  0.2596344043237764  0.7560844627582171
  0.3930023009129258  0.3922228040012428  0.7560031882959279
  0.7403899335950257  0.4744764830551134  0.7559909525253730
  0.6077378770433199  0.6070231174892342  0.7559134615118950
  0.5667815387047384  0.4334723628291357  0.7851173622973349
 
  0.00000000E+00  0.00000000E+00  0.00000000E+00
  0.00000000E+00  0.00000000E+00  0.00000000E+00
  0.00000000E+00  0.00000000E+00  0.00000000E+00
  0.00000000E+00  0.00000000E+00  0.00000000E+00
  0.00000000E+00  0.00000000E+00  0.00000000E+00
  0.00000000E+00  0.00000000E+00  0.00000000E+00
  0.00000000E+00  0.00000000E+00  0.00000000E+00
  0.00000000E+00  0.00000000E+00  0.00000000E+00
  0.00000000E+00  0.00000000E+00  0.00000000E+00
  0.00000000E+00  0.00000000E+00  0.00000000E+00
  0.00000000E+00  0.00000000E+00  0.00000000E+00
  0.00000000E+00  0.00000000E+00  0.00000000E+00
  0.00000000E+00  0.00000000E+00  0.00000000E+00
  0.00000000E+00  0.00000000E+00  0.00000000E+00
  0.00000000E+00  0.00000000E+00  0.00000000E+00
  0.00000000E+00  0.00000000E+00  0.00000000E+00
  0.00000000E+00  0.00000000E+00  0.00000000E+00
  0.00000000E+00  0.00000000E+00  0.00000000E+00
  0.00000000E+00  0.00000000E+00  0.00000000E+00
  0.00000000E+00  0.00000000E+00  0.00000000E+00
  0.00000000E+00  0.00000000E+00  0.00000000E+00
  0.00000000E+00  0.00000000E+00  0.00000000E+00
  0.00000000E+00  0.00000000E+00  0.00000000E+00
  0.00000000E+00  0.00000000E+00  0.00000000E+00
  0.00000000E+00  0.00000000E+00  0.00000000E+00
  0.00000000E+00  0.00000000E+00  0.00000000E+00
  0.00000000E+00  0.00000000E+00  0.00000000E+00
  0.00000000E+00  0.00000000E+00  0.00000000E+00
  0.00000000E+00  0.00000000E+00  0.00000000E+00
  0.00000000E+00  0.00000000E+00  0.00000000E+00
  0.00000000E+00  0.00000000E+00  0.00000000E+00
  0.00000000E+00  0.00000000E+00  0.00000000E+00
  0.00000000E+00  0.00000000E+00  0.00000000E+00
  0.00000000E+00  0.00000000E+00  0.00000000E+00
  0.00000000E+00  0.00000000E+00  0.00000000E+00
  0.00000000E+00  0.00000000E+00  0.00000000E+00
  0.00000000E+00  0.00000000E+00  0.00000000E+00
  0.00000000E+00  0.00000000E+00  0.00000000E+00
  0.00000000E+00  0.00000000E+00  0.00000000E+00
  0.00000000E+00  0.00000000E+00  0.00000000E+00
  0.00000000E+00  0.00000000E+00  0.00000000E+00
  0.00000000E+00  0.00000000E+00  0.00000000E+00
  0.00000000E+00  0.00000000E+00  0.00000000E+00
  0.00000000E+00  0.00000000E+00  0.00000000E+00
  0.00000000E+00  0.00000000E+00  0.00000000E+00
  0.00000000E+00  0.00000000E+00  0.00000000E+00
  0.00000000E+00  0.00000000E+00  0.00000000E+00
  0.00000000E+00  0.00000000E+00  0.00000000E+00
  0.00000000E+00  0.00000000E+00  0.00000000E+00
