       N       E                     dE             d eps       ncg     rms          ort
DAV:   1     0.102862725454E+04    0.10286E+04   -0.89300E+04  3328   0.678E+02
DAV:   2    -0.363125957076E+03   -0.13918E+04   -0.13914E+04  3328   0.992E+01
DAV:   3    -0.442529760081E+03   -0.79404E+02   -0.79383E+02  3328   0.373E+01
DAV:   4    -0.443709513734E+03   -0.11798E+01   -0.11797E+01  3328   0.483E+00
DAV:   5    -0.443710003256E+03   -0.48952E-03   -0.48952E-03  3328   0.104E-01
SDA:   6    -0.443710003256E+03    0.00000E+00   -0.48952E-03  3328   0.873E-05 0.000E+00
   1 F= -.44545200E+03 E0= -.44544700E+03  d E =-.100049E-01  mag=     1.2785
