       N       E                     dE             d eps       ncg     rms          ort
DAV:   1     0.307192190206E+02    0.30719E+02   -0.45048E+03   256   0.392E+01
DAV:   2    -0.142831023130E+00   -0.30862E+02   -0.30824E+02   256   0.541E+00
DAV:   3    -0.165096706310E+00   -0.22266E-01   -0.22261E-01   256   0.262E-01
DAV:   4    -0.165181587858E+00   -0.84882E-04   -0.84881E-04   256   0.143E-02
DAV:   5    -0.165181588334E+00   -0.47635E-09   -0.56462E-09   256   0.353E-05
SDA:   6    -0.325073469661E+00   -0.15989E+00   -0.56462E-09   256   0.227E-01 0.000E+00
CGA:   7    -0.332250142686E+00   -0.71767E-02   -0.71800E-02   256   0.648E-02-0.574E-04
CGA:   8    -0.334501705926E+00   -0.22516E-02   -0.22559E-02   256   0.259E-02-0.236E-04
CGA:   9    -0.335602880352E+00   -0.11012E-02   -0.11012E-02   256   0.103E-02 0.277E-06
CGA:  10    -0.335981339500E+00   -0.37846E-03   -0.37852E-03   256   0.182E-03-0.283E-06
CGA:  11    -0.336039775912E+00   -0.58436E-04   -0.58497E-04   256   0.216E-04-0.683E-06
CGA:  12    -0.336046599942E+00   -0.68240E-05   -0.68275E-05   256   0.268E-05-0.439E-07
   1 F= -.33604660E+00 E0= -.31676381E+00  d E =-.385656E-01  mag=     1.0000
