 vasp.5.4.4.18Apr17-6-g9f103f2a35 (build Nov 21 2023 15:34:30) complex          
  
 executed on             LinuxIFC date 2026.09.21  18:42:37
 running on  256 total cores
 distrk:  each k-point on  256 cores,    1 groups
 distr:  one band on NCORES_PER_BAND=   1 cores,  256 groups


--------------------------------------------------------------------------------------------------------


 INCAR:
 POTCAR:   PAW_PBE Tl_d 06Sep2000                 

 ----------------------------------------------------------------------------- 
|                                                                             |
|           W    W    AA    RRRRR   N    N  II  N    N   GGGG   !!!           |
|           W    W   A  A   R    R  NN   N  II  NN   N  G    G  !!!           |
|           W    W  A    A  R    R  N N  N  II  N N  N  G       !!!           |
|           W WW W  AAAAAA  RRRRR   N  N N  II  N  N N  G  GGG   !            |
|           WW  WW  A    A  R   R   N   NN  II  N   NN  G    G                |
|           W    W  A    A  R    R  N    N  II  N    N   GGGG   !!!           |
|                                                                             |
|      For optimal performance we recommend to set                            |
|        NCORE= 4 - approx SQRT( number of cores)                             |
|      NCORE specifies how many cores store one orbital (NPAR=cpu/NCORE).     |
|      This setting can  greatly improve the performance of VASP for DFT.     |
|      The default,   NCORE=1            might be grossly inefficient         |
|      on modern multi-core architectures or massively parallel machines.     |
|      Do your own testing !!!!                                               |
|      Unfortunately you need to use the default for GW and RPA calculations. |
|      (for HF NCORE is supported but not extensively tested yet)             |
|                                                                             |
 ----------------------------------------------------------------------------- 

 POTCAR:   PAW_PBE Tl_d 06Sep2000                 
   VRHFIN =Tl:                                                                  
   LEXCH  = PE                                                                  
   EATOM  =  1391.5348 eV,  102.2749 Ry                                         
                                                                                
   TITEL  = PAW_PBE Tl_d 06Sep2000                                              
   LULTRA =        F    use ultrasoft PP ?                                      
   IUNSCR =        1    unscreen: 0-lin 1-nonlin 2-no                           
   RPACOR =    2.200    partial core radius                                     
   POMASS =  204.380; ZVAL   =   13.000    mass and valenz                      
   RCORE  =    2.500    outmost cutoff radius                                   
   RWIGS  =    3.260; RWIGS  =    1.725    wigner-seitz radius (au A)           
   ENMAX  =  237.063; ENMIN  =  177.797 eV                                      
   ICORE  =        3    local potential                                         
   LCOR   =        T    correct aug charges                                     
   LPAW   =        T    paw PP                                                  
   EAUG   =  395.511                                                            
   DEXC   =    -.006                                                            
   RMAX   =    2.995    core radius for proj-oper                               
   RAUG   =    1.300    factor for augmentation sphere                          
   RDEP   =    2.630    radius for radial grids                                 
   QCUT   =   -4.174; QGAM   =    8.348    optimization parameters              
                                                                                
   Description                                                                  
     l     E      TYP  RCUT    TYP  RCUT                                        
     2   .000     23  2.500                                                     
     2   .000     23  2.500                                                     
     0   .000     23  2.500                                                     
     0  1.000     23  2.500                                                     
     1   .000     23  2.500                                                     
     1  1.000     23  2.500                                                     
     3  -.100      7  2.500                                                     
  local pseudopotential read in
  partial core-charges read in
  atomic valenz-charges read in
  non local Contribution for L=           2  read in
    real space projection operators read in
  non local Contribution for L=           2  read in
    real space projection operators read in
  non local Contribution for L=           0  read in
    real space projection operators read in
  non local Contribution for L=           0  read in
    real space projection operators read in
  non local Contribution for L=           1  read in
    real space projection operators read in
  non local Contribution for L=           1  read in
    real space projection operators read in
    PAW grid and wavefunctions read in
 
   number of l-projection  operators is LMAX  =           6
   number of lm-projection operators is LMMAX =          18
 
 PAW_PBE Tl_d 06Sep2000                 :
 energy of atom  1       EATOM=-1391.5348
 kinetic energy error for atom=    0.0040 (will be added to EATOM!!)
 
 
 POSCAR: Tl                                      
  positions in direct lattice
  No initial velocities read in
 exchange correlation table for  LEXCH =        8
   RHO(1)=    0.500       N(1)  =     2000
   RHO(2)=  100.500       N(2)  =     4000

 VTST: version 3.2, (02/03/18)

 CHAIN: initializing optimizer
 
 OPT: Using VASP Dynamics algorithm
 CHAIN: Read ICHAIN            0
 
 POSCAR: Tl                                      
  positions in direct lattice
  No initial velocities read in
 


--------------------------------------------------------------------------------------------------------


 ion  position               nearest neighbor table
   1  0.010  0.010  0.751-
 

IMPORTANT INFORMATION: All symmetrisations will be switched off!
NOSYMM: (Re-)initialisation of all symmetry stuff for point group C_1.

 
 

Automatic generation of k-mesh.
 generate k-points for:    1    1    1
Space group operators:
 irot       det(A)        alpha          n_x          n_y          n_z        tau_x        tau_y        tau_z
    1     1.000000     0.000000     1.000000     0.000000     0.000000     0.000000     0.000000     0.000000
 
 Subroutine IBZKPT returns following result:
 ===========================================
 
 Found      1 irreducible k-points:
 
 Following reciprocal coordinates:
            Coordinates               Weight
  0.000000  0.000000  0.000000      1.000000
 
 Following cartesian coordinates:
            Coordinates               Weight
  0.000000  0.000000  0.000000      1.000000
 


--------------------------------------------------------------------------------------------------------




 Dimension of arrays:
   k-points           NKPTS =      1   k-points in BZ     NKDIM =      1   number of bands    NBANDS=    256
   number of dos      NEDOS =    301   number of ions     NIONS =      1
   non local maximal  LDIM  =      6   non local SUM 2l+1 LMDIM =     18
   total plane-waves  NPLWV = ******
   max r-space proj   IRMAX =      1   max aug-charges    IRDMAX=  21997
   dimension x,y,z NGX =   112 NGY =  112 NGZ =  112
   dimension x,y,z NGXF=   224 NGYF=  224 NGZF=  224
   support grid    NGXF=   224 NGYF=  224 NGZF=  224
   ions per type =               1
   NGX,Y,Z   is equivalent  to a cutoff of  12.41, 12.41, 12.41 a.u.
   NGXF,Y,Z  is equivalent  to a cutoff of  24.83, 24.83, 24.83 a.u.

 SYSTEM =  Tl                                      
 POSCAR =  Tl                                      

 Startparameter for this run:
   NWRITE =      2    write-flag & timer
   PREC   = accura    normal or accurate (medium, high low for compatibility)
   ISTART =      0    job   : 0-new  1-cont  2-samecut
   ICHARG =      2    charge: 1-file 2-atom 10-const
   ISPIN  =      2    spin polarized calculation?
   LNONCOLLINEAR =      F non collinear calculations
   LSORBIT =      F    spin-orbit coupling
   INIWAV =      1    electr: 0-lowe 1-rand  2-diag
   LASPH  =      T    aspherical Exc in radial PAW
   METAGGA=      F    non-selfconsistent MetaGGA calc.

 Electronic Relaxation 1
   ENCUT  =  520.0 eV  38.22 Ry    6.18 a.u.  27.89 27.89 27.89*2*pi/ulx,y,z
   ENINI  =  520.0     initial cutoff
   ENAUG  =  395.5 eV  augmentation charge cutoff
   NELM   =    200;   NELMIN=  2; NELMDL= -5     # of ELM steps 
   EDIFF  = 0.1E-04   stopping-criterion for ELM
   LREAL  =      F    real-space projection
   NLSPLINE    = F    spline interpolate recip. space projectors
   LCOMPAT=      F    compatible to vasp.4.4
   GGA_COMPAT  = T    GGA compatible to vasp.4.4-vasp.4.6
   LMAXPAW     = -100 max onsite density
   LMAXMIX     =    2 max onsite mixed and CHGCAR
   VOSKOWN=      0    Vosko Wilk Nusair interpolation
   ROPT   =    0.00000
 Ionic relaxation
   EDIFFG = 0.1E-03   stopping-criterion for IOM
   NSW    =      0    number of steps for IOM
   NBLOCK =      1;   KBLOCK =      1    inner block; outer block 
   IBRION =     -1    ionic relax: 0-MD 1-quasi-New 2-CG
   NFREE  =      0    steps in history (QN), initial steepest desc. (CG)
   ISIF   =      0    stress and relaxation
   IWAVPR =     10    prediction:  0-non 1-charg 2-wave 3-comb
   ISYM   =      0    0-nonsym 1-usesym 2-fastsym
   LCORR  =      T    Harris-Foulkes like correction to forces

   POTIM  = 0.5000    time-step for ionic-motion
   TEIN   =    0.0    initial temperature
   TEBEG  =    0.0;   TEEND  =   0.0 temperature during run
   SMASS  =  -3.00    Nose mass-parameter (am)
   estimated Nose-frequenzy (Omega)   =  0.10E-29 period in steps =****** mass=  -0.514E-26a.u.
   SCALEE = 1.0000    scale energy and forces
   NPACO  =    256;   APACO  = 16.0  distance and # of slots for P.C.
   PSTRESS=    0.0 pullay stress

  Mass of Ions in am
   POMASS = 204.38
  Ionic Valenz
   ZVAL   =  13.00
  Atomic Wigner-Seitz radii
   RWIGS  =  -1.00
  virtual crystal weights 
   VCA    =   1.00
   NELECT =      13.0000    total number of electrons
   NUPDOWN=       1.0000    fix difference up-down

 DOS related values:
   EMIN   =  10.00;   EMAX   =-10.00  energy-range for DOS
   EFERMI =   0.00
   ISMEAR =     0;   SIGMA  =   0.05  broadening in eV -4-tet -1-fermi 0-gaus

 Electronic relaxation 2 (details)
   IALGO  =     58    algorithm
   LDIAG  =      T    sub-space diagonalisation (order eigenvalues)
   LSUBROT=      F    optimize rotation matrix (better conditioning)
   TURBO    =      0    0=normal 1=particle mesh
   IRESTART =      0    0=no restart 2=restart with 2 vectors
   NREBOOT  =      0    no. of reboots
   NMIN     =      0    reboot dimension
   EREF     =   0.00    reference energy to select bands
   IMIX   =      4    mixing-type and parameters
     AMIX     =   0.40;   BMIX     =  1.00
     AMIX_MAG =   1.60;   BMIX_MAG =  1.00
     AMIN     =   0.10
     WC   =   100.;   INIMIX=   1;  MIXPRE=   1;  MAXMIX= -45

 Intra band minimization:
   WEIMIN = 0.0000     energy-eigenvalue tresh-hold
   EBREAK =  0.98E-08  absolut break condition
   DEPER  =   0.30     relativ break condition  

   TIME   =   0.40     timestep for ELM

  volume/ion in A,a.u.               =    3375.00     22775.62
  Fermi-wavevector in a.u.,A,eV,Ry     =   0.256624  0.484950  0.896027  0.065856
  Thomas-Fermi vector in A             =   1.080197
 
 Write flags
   LWAVE        =      F    write WAVECAR
   LDOWNSAMPLE  =      F    k-point downsampling of WAVECAR
   LCHARG       =      F    write CHGCAR
   LVTOT        =      F    write LOCPOT, total local potential
   LVHAR        =      F    write LOCPOT, Hartree potential only
   LELF         =      F    write electronic localiz. function (ELF)
   LORBIT       =      0    0 simple, 1 ext, 2 COOP (PROOUT), +10 PAW based schemes


 Dipole corrections
   LMONO  =      F    monopole corrections only (constant potential shift)
   LDIPOL =      F    correct potential (dipole corrections)
   IDIPOL =      0    1-x, 2-y, 3-z, 4-all directions 
   EPSILON=  1.0000000 bulk dielectric constant

 Exchange correlation treatment:
   GGA     =    --    GGA type
   LEXCH   =     8    internal setting for exchange type
   VOSKOWN=      0    Vosko Wilk Nusair interpolation
   LHFCALC =     F    Hartree Fock is set to
   LHFONE  =     F    Hartree Fock one center treatment
   AEXX    =    0.0000 exact exchange contribution

 Linear response parameters
   LEPSILON=     F    determine dielectric tensor
   LRPA    =     F    only Hartree local field effects (RPA)
   LNABLA  =     F    use nabla operator in PAW spheres
   LVEL    =     F    velocity operator in full k-point grid
   LINTERFAST=   F  fast interpolation
   KINTER  =     0    interpolate to denser k-point grid
   CSHIFT  =0.1000    complex shift for real part using Kramers Kronig
   OMEGAMAX=  -1.0    maximum frequency
   DEG_THRESHOLD= 0.2000000E-02 threshold for treating states as degnerate
   RTIME   =   -0.100 relaxation time in fs
  (WPLASMAI=    0.000 imaginary part of plasma frequency in eV, 0.658/RTIME)
   DFIELD  = 0.0000000 0.0000000 0.0000000 field for delta impulse in time
 
 Orbital magnetization related:
   ORBITALMAG=     F  switch on orbital magnetization
   LCHIMAG   =     F  perturbation theory with respect to B field
   DQ        =  0.001000  dq finite difference perturbation B field
   LLRAUG    =     F  two centre corrections for induced B field



--------------------------------------------------------------------------------------------------------


 Static calculation
 charge density and potential will be updated during run
 spin polarized calculation
 Conjugate gradient for all bands (Freysoldt, et al. PRB 79, 241103 (2009))
 preconditioned conjugated gradient                                        
 perform sub-space diagonalisation
    before iterative eigenvector-optimisation
 modified Broyden-mixing scheme, WC =      100.0
 initial mixing is a Kerker type mixing with AMIX =  0.4000 and BMIX =      1.0000
 Hartree-type preconditioning will be used
 using additional bands          249
 reciprocal scheme for non local part
 use partial core corrections
 no Harris-corrections to forces 
 use gradient corrections 
 use of overlap-Matrix (Vanderbilt PP)
 Gauss-broadening in eV      SIGMA  =   0.05


--------------------------------------------------------------------------------------------------------


  energy-cutoff  :      520.00
  volume of cell :     3375.00
      direct lattice vectors                 reciprocal lattice vectors
    15.000000000  0.000000000  0.000000000     0.066666667  0.000000000  0.000000000
     0.000000000 15.000000000  0.000000000     0.000000000  0.066666667  0.000000000
     0.000000000  0.000000000 15.000000000     0.000000000  0.000000000  0.066666667

  length of vectors
    15.000000000 15.000000000 15.000000000     0.066666667  0.066666667  0.066666667


 
 k-points in units of 2pi/SCALE and weight: read from INCAR                         
   0.00000000  0.00000000  0.00000000       1.000
 
 k-points in reciprocal lattice and weights: read from INCAR                         
   0.00000000  0.00000000  0.00000000       1.000
 
 position of ions in fractional coordinates (direct lattice) 
   0.01000000  0.01000000  0.75100000
 
 position of ions in cartesian coordinates  (Angst):
   0.15000000  0.15000000 11.26500000
 


--------------------------------------------------------------------------------------------------------


 k-point  1 :   0.0000 0.0000 0.0000  plane waves:   90879

 maximum and minimum number of plane-waves per node :     90879    90879

 maximum number of plane-waves:     90879
 maximum index in each direction: 
   IXMAX=   27   IYMAX=   27   IZMAX=   27
   IXMIN=  -27   IYMIN=  -27   IZMIN=  -27


 serial   3D FFT for wavefunctions
 parallel 3D FFT for charge:
    minimum data exchange during FFTs selected (reduces bandwidth)


 total amount of memory used by VASP MPI-rank0   177231. kBytes
=======================================================================

   base      :      30000. kBytes
   nonl-proj :      14540. kBytes
   fftplans  :       7479. kBytes
   grid      :     116433. kBytes
   one-center:         31. kBytes
   wavefun   :       8748. kBytes
 
     INWAV:  cpu time    0.0000: real time    0.0000
 Broyden mixing: mesh for mixing (old mesh)
   NGX = 55   NGY = 55   NGZ = 55
  (NGX  =224   NGY  =224   NGZ  =224)
  gives a total of 166375 points

 initial charge density was supplied:
 charge density of overlapping atoms calculated
 number of electron      13.0000000 magnetization       1.0000000
 keeping initial charge density in first step


--------------------------------------------------------------------------------------------------------


 Maximum index for augmentation-charges          911 (set IRDMAX)


--------------------------------------------------------------------------------------------------------


 First call to EWALD:  gamma=   0.118
 Maximum number of real-space cells 3x 3x 3
 Maximum number of reciprocal cells 3x 3x 3

    FEWALD:  cpu time    0.0161: real time    0.0161


--------------------------------------- Iteration      1(   1)  ---------------------------------------


    POTLOK:  cpu time    2.5126: real time    2.5431
    SETDIJ:  cpu time    0.3982: real time    0.4162
    TRIAL :  cpu time   11.5994: real time   11.6376
    CORREC:  cpu time    0.3171: real time    0.3202
    --------------------------------------------
      LOOP:  cpu time   14.8365: real time   14.9643

 eigenvalue-minimisations  :  1024
 total energy-change (2. order) : 0.3071922E+02  (-0.4504765E+03)
 number of electron      13.0000000 magnetization       1.0000000
 augmentation part       13.0000000 magnetization       1.0000000

 Free energy of the ion-electron system (eV)
  ---------------------------------------------------
  alpha Z        PSCENC =         0.43145324
  Ewald energy   TEWEN  =      -230.15817073
  -Hartree energ DENC   =     -1042.32360165
  -exchange      EXHF   =         0.00000000
  -V(xc)+E(xc)   XCENC  =        24.02087071
  PAW double counting   =      1073.48681708    -1041.51094752
  entropy T*S    EENTRO =        -0.00000002
  eigenvalues    EBANDS =      -144.75804857
  atomic energy  EATOM  =      1391.53084647
  ---------------------------------------------------
  free energy    TOTEN  =        30.71921902 eV

  energy without entropy =       30.71921904  energy(sigma->0) =       30.71921903


--------------------------------------------------------------------------------------------------------




--------------------------------------- Iteration      1(   2)  ---------------------------------------


    TRIAL :  cpu time   35.5094: real time   35.5132
    CORREC:  cpu time    0.1141: real time    0.1141
    --------------------------------------------
      LOOP:  cpu time   35.7338: real time   35.7467

 eigenvalue-minimisations  :  1536
 total energy-change (2. order) :-0.3086205E+02  (-0.3082415E+02)
 number of electron      13.0000000 magnetization       1.0000000
 augmentation part       13.0000000 magnetization       1.0000000

 Free energy of the ion-electron system (eV)
  ---------------------------------------------------
  alpha Z        PSCENC =         0.43145324
  Ewald energy   TEWEN  =      -230.15817073
  -Hartree energ DENC   =     -1042.32360165
  -exchange      EXHF   =         0.00000000
  -V(xc)+E(xc)   XCENC  =        24.02087071
  PAW double counting   =      1073.48681708    -1041.51094752
  entropy T*S    EENTRO =        -0.03856081
  eigenvalues    EBANDS =      -175.58153783
  atomic energy  EATOM  =      1391.53084647
  ---------------------------------------------------
  free energy    TOTEN  =        -0.14283102 eV

  energy without entropy =       -0.10427021  energy(sigma->0) =       -0.12355062


--------------------------------------------------------------------------------------------------------




--------------------------------------- Iteration      1(   3)  ---------------------------------------


    TRIAL :  cpu time    8.7366: real time    8.7379
    CORREC:  cpu time    0.0963: real time    0.0963
    --------------------------------------------
      LOOP:  cpu time    8.8411: real time    8.8426

 eigenvalue-minimisations  :  1024
 total energy-change (2. order) :-0.2226568E-01  (-0.2226093E-01)
 number of electron      13.0000000 magnetization       1.0000000
 augmentation part       13.0000000 magnetization       1.0000000

 Free energy of the ion-electron system (eV)
  ---------------------------------------------------
  alpha Z        PSCENC =         0.43145324
  Ewald energy   TEWEN  =      -230.15817073
  -Hartree energ DENC   =     -1042.32360165
  -exchange      EXHF   =         0.00000000
  -V(xc)+E(xc)   XCENC  =        24.02087071
  PAW double counting   =      1073.48681708    -1041.51094752
  entropy T*S    EENTRO =        -0.03856558
  eigenvalues    EBANDS =      -175.60379874
  atomic energy  EATOM  =      1391.53084647
  ---------------------------------------------------
  free energy    TOTEN  =        -0.16509671 eV

  energy without entropy =       -0.12653113  energy(sigma->0) =       -0.14581392


--------------------------------------------------------------------------------------------------------




--------------------------------------- Iteration      1(   4)  ---------------------------------------


    TRIAL :  cpu time   21.9234: real time   21.9261
    CORREC:  cpu time    0.1067: real time    0.1067
    --------------------------------------------
      LOOP:  cpu time   22.0382: real time   22.0409

 eigenvalue-minimisations  :  2048
 total energy-change (2. order) :-0.8488155E-04  (-0.8488134E-04)
 number of electron      13.0000000 magnetization       1.0000000
 augmentation part       13.0000000 magnetization       1.0000000

 Free energy of the ion-electron system (eV)
  ---------------------------------------------------
  alpha Z        PSCENC =         0.43145324
  Ewald energy   TEWEN  =      -230.15817073
  -Hartree energ DENC   =     -1042.32360165
  -exchange      EXHF   =         0.00000000
  -V(xc)+E(xc)   XCENC  =        24.02087071
  PAW double counting   =      1073.48681708    -1041.51094752
  entropy T*S    EENTRO =        -0.03856558
  eigenvalues    EBANDS =      -175.60388362
  atomic energy  EATOM  =      1391.53084647
  ---------------------------------------------------
  free energy    TOTEN  =        -0.16518159 eV

  energy without entropy =       -0.12661601  energy(sigma->0) =       -0.14589880


--------------------------------------------------------------------------------------------------------




--------------------------------------- Iteration      1(   5)  ---------------------------------------


    TRIAL :  cpu time    8.6928: real time    8.6940
    CORREC:  cpu time    0.0975: real time    0.0975
    CHARGE:  cpu time    1.4039: real time    1.4222
    --------------------------------------------
      LOOP:  cpu time   10.2026: real time   10.2221

 eigenvalue-minimisations  :  1024
 total energy-change (2. order) :-0.4763479E-09  (-0.5646214E-09)
 number of electron      13.0000001 magnetization       1.0000000
 augmentation part        5.1186378 magnetization      -0.0246240

 Free energy of the ion-electron system (eV)
  ---------------------------------------------------
  alpha Z        PSCENC =         0.43145324
  Ewald energy   TEWEN  =      -230.15817073
  -Hartree energ DENC   =     -1042.32360165
  -exchange      EXHF   =         0.00000000
  -V(xc)+E(xc)   XCENC  =        24.02087071
  PAW double counting   =      1073.48681708    -1041.51094752
  entropy T*S    EENTRO =        -0.03856558
  eigenvalues    EBANDS =      -175.60388362
  atomic energy  EATOM  =      1391.53084647
  ---------------------------------------------------
  free energy    TOTEN  =        -0.16518159 eV

  energy without entropy =       -0.12661601  energy(sigma->0) =       -0.14589880


--------------------------------------------------------------------------------------------------------




--------------------------------------- Iteration      1(   6)  ---------------------------------------


    POTLOK:  cpu time    2.5922: real time    2.5928
    SETDIJ:  cpu time    0.4111: real time    0.4111
    TRIAL :  cpu time    3.7032: real time    3.9722
    CORREC:  cpu time    6.3041: real time    6.3973
    CHARGE:  cpu time    1.3464: real time    1.3466
    --------------------------------------------
      LOOP:  cpu time   14.3757: real time   14.7387

 eigenvalue-minimisations  :     0
 total energy-change (2. order) :-0.1598919E+00  (-0.7180032E-02)
 number of electron      13.0000001 magnetization       1.0000000
 augmentation part        5.1179026 magnetization      -0.0327041

 Free energy of the ion-electron system (eV)
  ---------------------------------------------------
  alpha Z        PSCENC =         0.43145324
  Ewald energy   TEWEN  =      -230.15817073
  -Hartree energ DENC   =     -1043.47638450
  -exchange      EXHF   =         0.00000000
  -V(xc)+E(xc)   XCENC  =        24.05782643
  PAW double counting   =      1074.48040624    -1042.55725509
  entropy T*S    EENTRO =        -0.03856558
  eigenvalues    EBANDS =      -174.59522995
  atomic energy  EATOM  =      1391.53084647
  ---------------------------------------------------
  free energy    TOTEN  =        -0.32507347 eV

  energy without entropy =       -0.28650789  energy(sigma->0) =       -0.30579068


--------------------------------------------------------------------------------------------------------




--------------------------------------- Iteration      1(   7)  ---------------------------------------


    POTLOK:  cpu time    2.5508: real time    2.5511
    SETDIJ:  cpu time    0.4107: real time    0.4108
    TRIAL :  cpu time    3.5232: real time    3.5953
    CORREC:  cpu time    6.2424: real time    6.3105
    CHARGE:  cpu time    1.3224: real time    1.3226
    --------------------------------------------
      LOOP:  cpu time   14.0694: real time   14.2101

 eigenvalue-minimisations  :     0
 total energy-change (2. order) :-0.7176673E-02  (-0.2255937E-02)
 number of electron      13.0000001 magnetization       1.0000000
 augmentation part        5.1195022 magnetization      -0.0327171

 Free energy of the ion-electron system (eV)
  ---------------------------------------------------
  alpha Z        PSCENC =         0.43145324
  Ewald energy   TEWEN  =      -230.15817073
  -Hartree energ DENC   =     -1042.86464787
  -exchange      EXHF   =         0.00000000
  -V(xc)+E(xc)   XCENC  =        24.04257058
  PAW double counting   =      1073.53763259    -1041.57746670
  entropy T*S    EENTRO =        -0.03856558
  eigenvalues    EBANDS =      -175.23590216
  atomic energy  EATOM  =      1391.53084647
  ---------------------------------------------------
  free energy    TOTEN  =        -0.33225014 eV

  energy without entropy =       -0.29368456  energy(sigma->0) =       -0.31296735


--------------------------------------------------------------------------------------------------------




--------------------------------------- Iteration      1(   8)  ---------------------------------------


    POTLOK:  cpu time    2.5205: real time    2.5207
    SETDIJ:  cpu time    0.4128: real time    0.4129
    TRIAL :  cpu time    3.5647: real time    3.6379
    CORREC:  cpu time    6.3364: real time    6.4012
    CHARGE:  cpu time    1.4778: real time    1.4783
    --------------------------------------------
      LOOP:  cpu time   14.3341: real time   14.4727

 eigenvalue-minimisations  :     0
 total energy-change (2. order) :-0.2251563E-02  (-0.1101225E-02)
 number of electron      13.0000001 magnetization       1.0000000
 augmentation part        5.1190758 magnetization      -0.0334227

 Free energy of the ion-electron system (eV)
  ---------------------------------------------------
  alpha Z        PSCENC =         0.43145324
  Ewald energy   TEWEN  =      -230.15817073
  -Hartree energ DENC   =     -1043.08764342
  -exchange      EXHF   =         0.00000000
  -V(xc)+E(xc)   XCENC  =        24.05150944
  PAW double counting   =      1073.73964391    -1041.76308972
  entropy T*S    EENTRO =        -0.03856558
  eigenvalues    EBANDS =      -175.04048533
  atomic energy  EATOM  =      1391.53084647
  ---------------------------------------------------
  free energy    TOTEN  =        -0.33450171 eV

  energy without entropy =       -0.29593613  energy(sigma->0) =       -0.31521892


--------------------------------------------------------------------------------------------------------




--------------------------------------- Iteration      1(   9)  ---------------------------------------


    POTLOK:  cpu time    2.5914: real time    2.5958
    SETDIJ:  cpu time    0.4122: real time    0.4123
    TRIAL :  cpu time    3.5741: real time    3.6299
    CORREC:  cpu time    6.3159: real time    6.4006
    CHARGE:  cpu time    1.3291: real time    1.3294
    --------------------------------------------
      LOOP:  cpu time   14.2393: real time   14.3847

 eigenvalue-minimisations  :     0
 total energy-change (2. order) :-0.1101174E-02  (-0.3785155E-03)
 number of electron      13.0000001 magnetization       1.0000000
 augmentation part        5.1189432 magnetization      -0.0338961

 Free energy of the ion-electron system (eV)
  ---------------------------------------------------
  alpha Z        PSCENC =         0.43145324
  Ewald energy   TEWEN  =      -230.15817073
  -Hartree energ DENC   =     -1043.06688647
  -exchange      EXHF   =         0.00000000
  -V(xc)+E(xc)   XCENC  =        24.05122004
  PAW double counting   =      1073.67552061    -1041.69956538
  entropy T*S    EENTRO =        -0.03856558
  eigenvalues    EBANDS =      -175.06145509
  atomic energy  EATOM  =      1391.53084647
  ---------------------------------------------------
  free energy    TOTEN  =        -0.33560288 eV

  energy without entropy =       -0.29703730  energy(sigma->0) =       -0.31632009


--------------------------------------------------------------------------------------------------------




--------------------------------------- Iteration      1(  10)  ---------------------------------------


    POTLOK:  cpu time    2.5479: real time    2.5489
    SETDIJ:  cpu time    0.4101: real time    0.4101
    TRIAL :  cpu time    3.5483: real time    3.6182
    CORREC:  cpu time    6.2457: real time    6.3115
    CHARGE:  cpu time    1.3142: real time    1.3149
    --------------------------------------------
      LOOP:  cpu time   14.0850: real time   14.2224

 eigenvalue-minimisations  :     0
 total energy-change (2. order) :-0.3784591E-03  (-0.5849663E-04)
 number of electron      13.0000001 magnetization       1.0000000
 augmentation part        5.1188852 magnetization      -0.0339056

 Free energy of the ion-electron system (eV)
  ---------------------------------------------------
  alpha Z        PSCENC =         0.43145324
  Ewald energy   TEWEN  =      -230.15817073
  -Hartree energ DENC   =     -1043.07683865
  -exchange      EXHF   =         0.00000000
  -V(xc)+E(xc)   XCENC  =        24.05178882
  PAW double counting   =      1073.71502891    -1041.74298892
  entropy T*S    EENTRO =        -0.03856558
  eigenvalues    EBANDS =      -175.04853492
  atomic energy  EATOM  =      1391.53084647
  ---------------------------------------------------
  free energy    TOTEN  =        -0.33598134 eV

  energy without entropy =       -0.29741576  energy(sigma->0) =       -0.31669855


--------------------------------------------------------------------------------------------------------




--------------------------------------- Iteration      1(  11)  ---------------------------------------


    POTLOK:  cpu time    2.5273: real time    2.5283
    SETDIJ:  cpu time    0.4139: real time    0.4141
    TRIAL :  cpu time    3.4863: real time    3.5472
    CORREC:  cpu time    6.2227: real time    6.2715
    CHARGE:  cpu time    1.3663: real time    1.3670
    --------------------------------------------
      LOOP:  cpu time   14.0373: real time   14.1489

 eigenvalue-minimisations  :     0
 total energy-change (2. order) :-0.5843641E-04  (-0.6827494E-05)
 number of electron      13.0000001 magnetization       1.0000000
 augmentation part        5.1188538 magnetization      -0.0338935

 Free energy of the ion-electron system (eV)
  ---------------------------------------------------
  alpha Z        PSCENC =         0.43145324
  Ewald energy   TEWEN  =      -230.15817073
  -Hartree energ DENC   =     -1043.08881170
  -exchange      EXHF   =         0.00000000
  -V(xc)+E(xc)   XCENC  =        24.05226944
  PAW double counting   =      1073.75087756    -1041.78162156
  entropy T*S    EENTRO =        -0.03856558
  eigenvalues    EBANDS =      -175.03431693
  atomic energy  EATOM  =      1391.53084647
  ---------------------------------------------------
  free energy    TOTEN  =        -0.33603978 eV

  energy without entropy =       -0.29747420  energy(sigma->0) =       -0.31675699


--------------------------------------------------------------------------------------------------------




--------------------------------------- Iteration      1(  12)  ---------------------------------------


    POTLOK:  cpu time    2.5021: real time    2.5028
    SETDIJ:  cpu time    0.4099: real time    0.4100
    TRIAL :  cpu time    3.5117: real time    3.5692
    CORREC:  cpu time    6.5139: real time    6.5821
    EDDIAG:  cpu time    1.6935: real time    1.7093
    CHARGE:  cpu time    1.3528: real time    1.3534
    --------------------------------------------
      LOOP:  cpu time   16.0015: real time   16.1444

 eigenvalue-minimisations  :     0
 total energy-change (2. order) :-0.6824029E-05  (-0.9638290E-06)
 number of electron      13.0000001 magnetization       1.0000000
 augmentation part        5.1188464 magnetization      -0.0338396

 Free energy of the ion-electron system (eV)
  ---------------------------------------------------
  alpha Z        PSCENC =         0.43145324
  Ewald energy   TEWEN  =      -230.15817073
  -Hartree energ DENC   =     -1043.08922615
  -exchange      EXHF   =         0.00000000
  -V(xc)+E(xc)   XCENC  =        24.05230381
  PAW double counting   =      1073.75485539    -1041.78642108
  entropy T*S    EENTRO =        -0.03856558
  eigenvalues    EBANDS =      -175.03312199
  atomic energy  EATOM  =      1391.53084647
  ---------------------------------------------------
  free energy    TOTEN  =        -0.33604660 eV

  energy without entropy =       -0.29748102  energy(sigma->0) =       -0.31676381


--------------------------------------------------------------------------------------------------------


  average scaling for gradient   1.2122


 average (electrostatic) potential at core
  the test charge radii are     1.1488
  (the norm of the test charge is              1.0000)
       1 -93.8690
 
 
 
 E-fermi :  -8.8151     XC(G=0):  -0.3789     alpha+bet : -0.1004


 spin component 1

 k-point     1 :       0.0000    0.0000    0.0000
  band No.  band energies     occupation 
      1     -15.4291      1.00000
      2     -15.4291      1.00000
      3     -15.4291      1.00000
      4     -15.4291      1.00000
      5     -15.4291      1.00000
      6      -9.5876      1.00000
      7      -2.5125      0.33337
      8      -2.5125      0.33332
      9      -2.5125      0.33331
     10      -0.5449      0.00000
     11       0.3469      0.00000
     12       0.3469      0.00000
     13       0.3478      0.00000
     14       0.3883      0.00000
     15       0.3883      0.00000
     16       0.3883      0.00000
     17       0.7017      0.00000
     18       0.7017      0.00000
     19       0.7017      0.00000
     20       1.1032      0.00000
     21       1.1032      0.00000
     22       1.1189      0.00000
     23       1.1189      0.00000
     24       1.1189      0.00000
     25       1.1383      0.00000
     26       1.1383      0.00000
     27       1.1383      0.00000
     28       1.1838      0.00000
     29       1.5999      0.00000
     30       1.6431      0.00000
     31       1.6431      0.00000
     32       1.6431      0.00000
     33       1.8261      0.00000
     34       1.8261      0.00000
     35       1.8261      0.00000
     36       1.8346      0.00000
     37       1.8346      0.00000
     38       1.9222      0.00000
     39       2.3788      0.00000
     40       2.3788      0.00000
     41       2.3788      0.00000
     42       2.5073      0.00000
     43       2.5099      0.00000
     44       2.5099      0.00000
     45       2.5099      0.00000
     46       2.7698      0.00000
     47       2.7698      0.00000
     48       2.7698      0.00000
     49       2.8220      0.00000
     50       2.8220      0.00000
     51       2.9798      0.00000
     52       2.9798      0.00000
     53       2.9798      0.00000
     54       2.9913      0.00000
     55       2.9913      0.00000
     56       2.9913      0.00000
     57       3.1363      0.00000
     58       3.1363      0.00000
     59       3.1836      0.00000
     60       3.1836      0.00000
     61       3.1836      0.00000
     62       3.2446      0.00000
     63       3.3257      0.00000
     64       3.3257      0.00000
     65       3.3257      0.00000
     66       3.3626      0.00000
     67       3.3833      0.00000
     68       3.4292      0.00000
     69       3.4293      0.00000
     70       3.4293      0.00000
     71       3.7406      0.00000
     72       3.7406      0.00000
     73       3.7530      0.00000
     74       3.7530      0.00000
     75       3.7530      0.00000
     76       3.7673      0.00000
     77       3.7673      0.00000
     78       3.7673      0.00000
     79       3.7840      0.00000
     80       3.7840      0.00000
     81       3.7840      0.00000
     82       3.7879      0.00000
     83       3.7879      0.00000
     84       3.7989      0.00000
     85       3.7989      0.00000
     86       3.7989      0.00000
     87       4.0761      0.00000
     88       4.0761      0.00000
     89       4.0761      0.00000
     90       4.1594      0.00000
     91       4.6625      0.00000
     92       4.6625      0.00000
     93       4.6625      0.00000
     94       4.6799      0.00000
     95       4.6799      0.00000
     96       4.8076      0.00000
     97       4.8076      0.00000
     98       4.8076      0.00000
     99       5.0664      0.00000
    100       5.0664      0.00000
    101       5.0664      0.00000
    102       5.0826      0.00000
    103       5.0826      0.00000
    104       5.1728      0.00000
    105       5.3004      0.00000
    106       5.3443      0.00000
    107       5.3443      0.00000
    108       5.3443      0.00000
    109       5.3710      0.00000
    110       5.3710      0.00000
    111       5.3710      0.00000
    112       5.5107      0.00000
    113       5.7420      0.00000
    114       5.7420      0.00000
    115       5.7420      0.00000
    116       5.7434      0.00000
    117       5.7434      0.00000
    118       5.7625      0.00000
    119       5.7625      0.00000
    120       5.7625      0.00000
    121       5.7634      0.00000
    122       5.7634      0.00000
    123       5.7634      0.00000
    124       5.7671      0.00000
    125       5.7671      0.00000
    126       5.7671      0.00000
    127       5.7997      0.00000
    128       5.7997      0.00000
    129       6.0593      0.00000
    130       6.0593      0.00000
    131       6.0593      0.00000
    132       6.1221      0.00000
    133       6.1407      0.00000
    134       6.1407      0.00000
    135       6.1407      0.00000
    136       6.1415      0.00000
    137       6.1415      0.00000
    138       6.1416      0.00000
    139       6.1470      0.00000
    140       6.1471      0.00000
    141       6.1517      0.00000
    142       6.1517      0.00000
    143       6.1517      0.00000
    144       6.1732      0.00000
    145       6.1732      0.00000
    146       6.1732      0.00000
    147       6.4782      0.00000
    148       6.4828      0.00000
    149       6.4828      0.00000
    150       6.4828      0.00000
    151       6.4906      0.00000
    152       6.4906      0.00000
    153       6.7669      0.00000
    154       6.7669      0.00000
    155       6.7669      0.00000
    156       6.8700      0.00000
    157       6.9033      0.00000
    158       6.9361      0.00000
    159       6.9361      0.00000
    160       6.9361      0.00000
    161       6.9828      0.00000
    162       6.9828      0.00000
    163       6.9940      0.00000
    164       6.9940      0.00000
    165       6.9940      0.00000
    166       7.0174      0.00000
    167       7.0174      0.00000
    168       7.0174      0.00000
    169       7.0340      0.00000
    170       7.0340      0.00000
    171       7.0356      0.00000
    172       7.0356      0.00000
    173       7.0356      0.00000
    174       7.0528      0.00000
    175       7.0528      0.00000
    176       7.0528      0.00000
    177       7.3891      0.00000
    178       7.3891      0.00000
    179       7.3891      0.00000
    180       7.4792      0.00000
    181       7.5184      0.00000
    182       7.5184      0.00000
    183       7.5184      0.00000
    184       7.5228      0.00000
    185       7.8037      0.00000
    186       7.8037      0.00000
    187       7.8037      0.00000
    188       7.8335      0.00000
    189       7.8335      0.00000
    190       7.8335      0.00000
    191       7.8696      0.00000
    192       7.9075      0.00000
    193       7.9075      0.00000
    194       7.9075      0.00000
    195       7.9178      0.00000
    196       7.9178      0.00000
    197       8.2891      0.00000
    198       8.2891      0.00000
    199       8.2892      0.00000
    200       8.3336      0.00000
    201       8.3336      0.00000
    202       8.3528      0.00000
    203       8.3528      0.00000
    204       8.3528      0.00000
    205       8.3675      0.00000
    206       8.3675      0.00000
    207       8.3675      0.00000
    208       8.3797      0.00000
    209       8.5805      0.00000
    210       8.6850      0.00000
    211       8.6850      0.00000
    212       8.6850      0.00000
    213       8.7198      0.00000
    214       8.7198      0.00000
    215       8.7198      0.00000
    216       8.7914      0.00000
    217       8.8410      0.00000
    218       8.8410      0.00000
    219       8.8410      0.00000
    220       8.8904      0.00000
    221       8.8904      0.00000
    222       8.8904      0.00000
    223       8.8928      0.00000
    224       8.8928      0.00000
    225       8.9070      0.00000
    226       8.9070      0.00000
    227       8.9070      0.00000
    228       8.9191      0.00000
    229       8.9191      0.00000
    230       8.9266      0.00000
    231       8.9267      0.00000
    232       8.9267      0.00000
    233       9.0984      0.00000
    234       9.0984      0.00000
    235       9.1150      0.00000
    236       9.1150      0.00000
    237       9.1150      0.00000
    238       9.1240      0.00000
    239       9.1240      0.00000
    240       9.1240      0.00000
    241       9.1245      0.00000
    242       9.1245      0.00000
    243       9.1245      0.00000
    244       9.1411      0.00000
    245       9.1411      0.00000
    246       9.1411      0.00000
    247       9.1564      0.00000
    248       9.1564      0.00000
    249       9.1853      0.00000
    250       9.2044      0.00000
    251       9.2044      0.00000
    252       9.2044      0.00000
    253       9.2205      0.00000
    254       9.2205      0.00000
    255       9.2205      0.00000
    256       9.2334      0.00000

 spin component 2

 k-point     1 :       0.0000    0.0000    0.0000
  band No.  band energies     occupation 
      1     -15.3380      1.00000
      2     -15.3380      1.00000
      3     -15.3380      1.00000
      4     -15.3380      1.00000
      5     -15.3380      1.00000
      6      -9.0967      1.00000
      7      -1.8754      0.00000
      8      -1.8754      0.00000
      9      -1.8754      0.00000
     10      -0.0144      0.00000
     11       0.6098      0.00000
     12       0.7133      0.00000
     13       0.7133      0.00000
     14       0.7821      0.00000
     15       0.7821      0.00000
     16       0.7821      0.00000
     17       1.2664      0.00000
     18       1.2664      0.00000
     19       1.2664      0.00000
     20       1.3563      0.00000
     21       1.3563      0.00000
     22       1.3954      0.00000
     23       1.4120      0.00000
     24       1.4120      0.00000
     25       1.4120      0.00000
     26       1.4927      0.00000
     27       1.4927      0.00000
     28       1.4927      0.00000
     29       1.9206      0.00000
     30       1.9206      0.00000
     31       1.9206      0.00000
     32       2.0372      0.00000
     33       2.1268      0.00000
     34       2.1316      0.00000
     35       2.1316      0.00000
     36       2.1316      0.00000
     37       2.3209      0.00000
     38       2.3209      0.00000
     39       2.7628      0.00000
     40       2.7628      0.00000
     41       2.7628      0.00000
     42       2.7942      0.00000
     43       2.9358      0.00000
     44       2.9358      0.00000
     45       2.9358      0.00000
     46       3.0554      0.00000
     47       3.0555      0.00000
     48       3.2564      0.00000
     49       3.2564      0.00000
     50       3.2564      0.00000
     51       3.3246      0.00000
     52       3.3246      0.00000
     53       3.3246      0.00000
     54       3.3992      0.00000
     55       3.3992      0.00000
     56       3.3993      0.00000
     57       3.4069      0.00000
     58       3.4069      0.00000
     59       3.4319      0.00000
     60       3.4319      0.00000
     61       3.4319      0.00000
     62       3.4394      0.00000
     63       3.5974      0.00000
     64       3.5974      0.00000
     65       3.5974      0.00000
     66       3.6180      0.00000
     67       3.7493      0.00000
     68       3.7493      0.00000
     69       3.7493      0.00000
     70       3.8268      0.00000
     71       3.9456      0.00000
     72       3.9456      0.00000
     73       4.0029      0.00000
     74       4.0029      0.00000
     75       4.0029      0.00000
     76       4.0146      0.00000
     77       4.0146      0.00000
     78       4.0146      0.00000
     79       4.0560      0.00000
     80       4.0560      0.00000
     81       4.0560      0.00000
     82       4.0666      0.00000
     83       4.0666      0.00000
     84       4.0666      0.00000
     85       4.0878      0.00000
     86       4.0878      0.00000
     87       4.4084      0.00000
     88       4.4084      0.00000
     89       4.4084      0.00000
     90       4.4811      0.00000
     91       5.0370      0.00000
     92       5.0370      0.00000
     93       5.0370      0.00000
     94       5.0875      0.00000
     95       5.0875      0.00000
     96       5.1966      0.00000
     97       5.1966      0.00000
     98       5.1966      0.00000
     99       5.4841      0.00000
    100       5.4841      0.00000
    101       5.4841      0.00000
    102       5.5385      0.00000
    103       5.5631      0.00000
    104       5.5631      0.00000
    105       5.6690      0.00000
    106       5.6733      0.00000
    107       5.6733      0.00000
    108       5.6733      0.00000
    109       5.7441      0.00000
    110       5.7441      0.00000
    111       5.7441      0.00000
    112       5.9243      0.00000
    113       5.9542      0.00000
    114       5.9542      0.00000
    115       5.9542      0.00000
    116       6.0219      0.00000
    117       6.0219      0.00000
    118       6.0254      0.00000
    119       6.0254      0.00000
    120       6.0254      0.00000
    121       6.0650      0.00000
    122       6.0651      0.00000
    123       6.0651      0.00000
    124       6.0719      0.00000
    125       6.0719      0.00000
    126       6.0719      0.00000
    127       6.0772      0.00000
    128       6.0772      0.00000
    129       6.2984      0.00000
    130       6.2984      0.00000
    131       6.2984      0.00000
    132       6.3458      0.00000
    133       6.3600      0.00000
    134       6.3600      0.00000
    135       6.5748      0.00000
    136       6.5748      0.00000
    137       6.5748      0.00000
    138       6.5890      0.00000
    139       6.5890      0.00000
    140       6.5890      0.00000
    141       6.5899      0.00000
    142       6.5899      0.00000
    143       6.5899      0.00000
    144       6.6348      0.00000
    145       6.6348      0.00000
    146       6.6348      0.00000
    147       6.7454      0.00000
    148       6.7454      0.00000
    149       6.7506      0.00000
    150       6.7506      0.00000
    151       6.7507      0.00000
    152       6.7581      0.00000
    153       6.9906      0.00000
    154       6.9906      0.00000
    155       6.9906      0.00000
    156       7.0682      0.00000
    157       7.1815      0.00000
    158       7.1815      0.00000
    159       7.1815      0.00000
    160       7.2210      0.00000
    161       7.2210      0.00000
    162       7.2496      0.00000
    163       7.2496      0.00000
    164       7.2496      0.00000
    165       7.2514      0.00000
    166       7.2590      0.00000
    167       7.2590      0.00000
    168       7.2590      0.00000
    169       7.3043      0.00000
    170       7.3043      0.00000
    171       7.3043      0.00000
    172       7.3587      0.00000
    173       7.3587      0.00000
    174       7.3587      0.00000
    175       7.3765      0.00000
    176       7.3765      0.00000
    177       7.6839      0.00000
    178       7.6839      0.00000
    179       7.6839      0.00000
    180       7.7602      0.00000
    181       7.8462      0.00000
    182       7.8483      0.00000
    183       7.8483      0.00000
    184       7.8483      0.00000
    185       8.1589      0.00000
    186       8.1589      0.00000
    187       8.1589      0.00000
    188       8.2392      0.00000
    189       8.2393      0.00000
    190       8.2393      0.00000
    191       8.2405      0.00000
    192       8.3124      0.00000
    193       8.3124      0.00000
    194       8.3124      0.00000
    195       8.3177      0.00000
    196       8.3177      0.00000
    197       8.6259      0.00000
    198       8.6259      0.00000
    199       8.6259      0.00000
    200       8.6679      0.00000
    201       8.6679      0.00000
    202       8.6903      0.00000
    203       8.6903      0.00000
    204       8.6903      0.00000
    205       8.7161      0.00000
    206       8.7161      0.00000
    207       8.7161      0.00000
    208       8.7303      0.00000
    209       8.9162      0.00000
    210       8.9487      0.00000
    211       8.9487      0.00000
    212       8.9487      0.00000
    213       9.0113      0.00000
    214       9.0225      0.00000
    215       9.0225      0.00000
    216       9.0225      0.00000
    217       9.1553      0.00000
    218       9.1553      0.00000
    219       9.1553      0.00000
    220       9.1611      0.00000
    221       9.1611      0.00000
    222       9.1611      0.00000
    223       9.1628      0.00000
    224       9.1628      0.00000
    225       9.2339      0.00000
    226       9.2339      0.00000
    227       9.2339      0.00000
    228       9.2518      0.00000
    229       9.2518      0.00000
    230       9.2518      0.00000
    231       9.2882      0.00000
    232       9.2882      0.00000
    233       9.3559      0.00000
    234       9.3559      0.00000
    235       9.3850      0.00000
    236       9.3850      0.00000
    237       9.3850      0.00000
    238       9.3887      0.00000
    239       9.3887      0.00000
    240       9.3887      0.00000
    241       9.4054      0.00000
    242       9.4054      0.00000
    243       9.4054      0.00000
    244       9.4147      0.00000
    245       9.4147      0.00000
    246       9.4147      0.00000
    247       9.4234      0.00000
    248       9.4272      0.00000
    249       9.4272      0.00000
    250       9.4405      0.00000
    251       9.4405      0.00000
    252       9.4405      0.00000
    253       9.4498      0.00000
    254       9.4498      0.00000
    255       9.4498      0.00000
    256       9.4551      0.00000


--------------------------------------------------------------------------------------------------------


 soft charge-density along one line, spin component           1
         0         1         2         3         4         5         6         7         8         9
 total charge-density along one line
 
 soft charge-density along one line, spin component           2
         0         1         2         3         4         5         6         7         8         9
 total charge-density along one line
 
 pseudopotential strength for first ion, spin component:           1
-15.305   0.000  -0.000   0.000  -0.000   2.986  -0.000   0.000
  0.000 -15.305   0.000   0.000  -0.000  -0.000   2.986  -0.000
 -0.000   0.000 -15.305   0.000  -0.000   0.000  -0.000   2.986
  0.000   0.000   0.000 -15.305   0.000  -0.000  -0.000  -0.000
 -0.000  -0.000  -0.000   0.000 -15.305   0.000   0.000   0.000
  2.986  -0.000   0.000  -0.000   0.000  -0.228   0.000  -0.000
 -0.000   2.986  -0.000  -0.000   0.000   0.000  -0.228   0.000
  0.000  -0.000   2.986  -0.000   0.000  -0.000   0.000  -0.228
 -0.000  -0.000  -0.000   2.986  -0.000   0.000   0.000   0.000
  0.000   0.000   0.000  -0.000   2.986  -0.000  -0.000  -0.000
 -0.000  -0.000  -0.000  -0.000  -0.000   0.000   0.000   0.000
 -0.000  -0.000  -0.000  -0.000  -0.000   0.000   0.000   0.000
  0.000   0.000  -0.000   0.000  -0.000  -0.000  -0.000   0.000
  0.000   0.000   0.000   0.000  -0.000  -0.000  -0.000  -0.000
  0.000   0.000  -0.000   0.000   0.000  -0.000  -0.000   0.000
  0.000   0.000   0.000  -0.000   0.000   0.000   0.000  -0.000
 -0.000   0.000  -0.000   0.000   0.000   0.000   0.000   0.000
  0.000  -0.000   0.000   0.000  -0.000   0.000   0.000  -0.000
 pseudopotential strength for first ion, spin component:           2
-15.318   0.000  -0.000   0.000   0.000   2.987  -0.000   0.000
  0.000 -15.318   0.000   0.000  -0.000  -0.000   2.987  -0.000
 -0.000   0.000 -15.318   0.000  -0.000   0.000  -0.000   2.987
  0.000   0.000   0.000 -15.318   0.000  -0.000  -0.000  -0.000
  0.000  -0.000  -0.000   0.000 -15.318  -0.000   0.000   0.000
  2.987  -0.000   0.000  -0.000  -0.000  -0.229   0.000  -0.000
 -0.000   2.987  -0.000  -0.000   0.000   0.000  -0.229   0.000
  0.000  -0.000   2.987  -0.000   0.000  -0.000   0.000  -0.229
 -0.000  -0.000  -0.000   2.987  -0.000   0.000   0.000   0.000
 -0.000   0.000   0.000  -0.000   2.987   0.000  -0.000  -0.000
 -0.000  -0.000  -0.000  -0.000  -0.000   0.000   0.000   0.000
 -0.000  -0.000  -0.000  -0.000  -0.000   0.000   0.000   0.000
  0.000   0.000  -0.000   0.000  -0.000  -0.000  -0.000   0.000
  0.000   0.000   0.000   0.000  -0.000  -0.000  -0.000  -0.000
  0.000   0.000  -0.000   0.000   0.000  -0.000  -0.000   0.000
  0.000   0.000   0.000  -0.000   0.000   0.000   0.000  -0.000
 -0.000   0.000  -0.000   0.000   0.000   0.000   0.000   0.000
  0.000  -0.000   0.000   0.000  -0.000   0.000   0.000  -0.000
 total augmentation occupancy for first ion, spin component:           1
  1.999  -0.000   0.000  -0.000   0.000  -0.002  -0.000   0.000  -0.000   0.000  -0.000   0.000  -0.000  -0.000  -0.000  -0.000
 -0.000   1.999  -0.000  -0.000   0.000  -0.000  -0.002  -0.000  -0.000   0.000  -0.000   0.000  -0.000  -0.000  -0.000  -0.000
  0.000  -0.000   1.999  -0.000   0.000   0.000  -0.000  -0.002  -0.000   0.000  -0.000   0.000   0.000  -0.000   0.000  -0.000
 -0.000  -0.000  -0.000   1.999  -0.000  -0.000  -0.000  -0.000  -0.002  -0.000  -0.000   0.000   0.000  -0.000  -0.000   0.000
  0.000   0.000   0.000  -0.000   1.999   0.000   0.000   0.000  -0.000  -0.002  -0.000   0.000   0.000   0.000  -0.000  -0.000
 -0.002  -0.000   0.000  -0.000   0.000   0.000   0.000  -0.000   0.000   0.000  -0.000   0.000   0.000   0.000   0.000   0.000
 -0.000  -0.002  -0.000  -0.000   0.000   0.000   0.000   0.000   0.000  -0.000  -0.000   0.000   0.000   0.000   0.000   0.000
  0.000  -0.000  -0.002  -0.000   0.000  -0.000   0.000   0.000   0.000  -0.000  -0.000   0.000  -0.000   0.000  -0.000   0.000
 -0.000  -0.000  -0.000  -0.002  -0.000   0.000   0.000   0.000   0.000   0.000  -0.000   0.000   0.000   0.000   0.000   0.000
  0.000   0.000   0.000  -0.000  -0.002   0.000  -0.000  -0.000   0.000   0.000  -0.000   0.000  -0.000   0.000   0.000   0.000
 -0.000  -0.000  -0.000  -0.000  -0.000  -0.000  -0.000  -0.000  -0.000  -0.000   2.001  -0.003  -0.000  -0.000  -0.000  -0.000
  0.000   0.000   0.000   0.000   0.000   0.000   0.000   0.000   0.000   0.000  -0.003   0.000   0.000   0.000   0.000   0.000
 -0.000  -0.000   0.000   0.000   0.000   0.000   0.000  -0.000   0.000  -0.000  -0.000   0.000   0.335   0.000   0.000  -0.003
 -0.000  -0.000  -0.000  -0.000   0.000   0.000   0.000   0.000   0.000   0.000  -0.000   0.000   0.000   0.335   0.000  -0.000
 -0.000  -0.000   0.000  -0.000  -0.000   0.000   0.000  -0.000   0.000   0.000  -0.000   0.000   0.000   0.000   0.335  -0.000
 -0.000  -0.000  -0.000   0.000  -0.000   0.000   0.000   0.000   0.000   0.000  -0.000   0.000  -0.003  -0.000  -0.000   0.000
  0.000  -0.000   0.000  -0.000   0.000   0.000   0.000  -0.000   0.000   0.000  -0.000   0.000  -0.000  -0.003  -0.000   0.000
 -0.000   0.000  -0.000  -0.000   0.000   0.000   0.000   0.000   0.000  -0.000  -0.000   0.000  -0.000  -0.000  -0.003   0.000
 total augmentation occupancy for first ion, spin component:           2
  0.003   0.000  -0.000   0.000   0.000   0.013   0.000  -0.000   0.000   0.000  -0.000   0.000   0.000   0.000   0.000   0.000
  0.000   0.003   0.000   0.000  -0.000   0.000   0.013   0.000   0.000  -0.000  -0.000   0.000   0.000   0.000   0.000   0.000
 -0.000   0.000   0.003   0.000  -0.000  -0.000   0.000   0.013   0.000  -0.000  -0.000   0.000  -0.000   0.000  -0.000   0.000
  0.000   0.000   0.000   0.003   0.000   0.000   0.000   0.000   0.013   0.000  -0.000   0.000   0.000   0.000   0.000   0.000
  0.000  -0.000  -0.000   0.000   0.003   0.000  -0.000  -0.000   0.000   0.013  -0.000   0.000  -0.000   0.000   0.000   0.000
  0.013   0.000  -0.000   0.000   0.000  -0.000  -0.000   0.000  -0.000   0.000   0.000  -0.000   0.000   0.000   0.000  -0.000
  0.000   0.013   0.000   0.000  -0.000  -0.000  -0.000  -0.000  -0.000   0.000   0.000  -0.000   0.000   0.000   0.000  -0.000
 -0.000   0.000   0.013   0.000  -0.000   0.000  -0.000  -0.000  -0.000   0.000   0.000  -0.000   0.000   0.000   0.000  -0.000
  0.000   0.000   0.000   0.013   0.000  -0.000  -0.000  -0.000  -0.000  -0.000   0.000  -0.000   0.000   0.000   0.000   0.000
  0.000  -0.000  -0.000   0.000   0.013   0.000   0.000   0.000  -0.000  -0.000   0.000  -0.000   0.000   0.000  -0.000  -0.000
 -0.000  -0.000  -0.000  -0.000  -0.000   0.000   0.000   0.000   0.000   0.000  -0.030   0.016   0.000   0.000   0.000   0.000
  0.000   0.000   0.000   0.000   0.000  -0.000  -0.000  -0.000  -0.000  -0.000   0.016  -0.000   0.000   0.000   0.000  -0.000
  0.000   0.000  -0.000   0.000  -0.000   0.000   0.000   0.000   0.000   0.000   0.000   0.000   0.335   0.000   0.000  -0.003
  0.000   0.000   0.000   0.000   0.000   0.000   0.000   0.000   0.000   0.000   0.000   0.000   0.000   0.335   0.000  -0.000
  0.000   0.000  -0.000   0.000   0.000   0.000   0.000   0.000   0.000  -0.000   0.000   0.000   0.000   0.000   0.335  -0.000
  0.000   0.000   0.000   0.000   0.000  -0.000  -0.000  -0.000   0.000  -0.000   0.000  -0.000  -0.003  -0.000  -0.000   0.000
  0.000   0.000  -0.000   0.000   0.000   0.000  -0.000   0.000  -0.000   0.000   0.000  -0.000  -0.000  -0.003  -0.000   0.000
  0.000   0.000   0.000   0.000  -0.000  -0.000   0.000  -0.000  -0.000   0.000   0.000  -0.000  -0.000  -0.000  -0.003   0.000


------------------------ aborting loop because EDIFF is reached ----------------------------------------


    FORLOC:  cpu time    0.0034: real time    0.0071
    FORNL :  cpu time    0.0535: real time    0.0702
    FORCOR:  cpu time    2.4604: real time    2.4671
    OFIELD:  cpu time    0.0005: real time    0.0036

 VOLUME and BASIS-vectors are now :
 -----------------------------------------------------------------------------
  energy-cutoff  :      520.00
  volume of cell :     3375.00
      direct lattice vectors                 reciprocal lattice vectors
    15.000000000  0.000000000  0.000000000     0.066666667  0.000000000  0.000000000
     0.000000000 15.000000000  0.000000000     0.000000000  0.066666667  0.000000000
     0.000000000  0.000000000 15.000000000     0.000000000  0.000000000  0.066666667

  length of vectors
    15.000000000 15.000000000 15.000000000     0.066666667  0.066666667  0.066666667


 FORCES acting on ions:
    Electron-Ion                     Ewald-Force                    Non-Local-Force
 -----------------------------------------------------------------------------------------------
   0.535E-05 0.535E-05 0.737E-05   0.924E-16 0.347E-17 0.186E-16   -.279E-03 -.279E-03 -.262E-03
 -----------------------------------------------------------------------------------------------
   0.460E-05 0.460E-05 0.664E-05   0.924E-16 0.347E-17 0.186E-16   -.279E-03 -.279E-03 -.262E-03
 
 
 POSITION                                       TOTAL-FORCE (eV/Angst)
 -----------------------------------------------------------------------------------
      0.15000      0.15000     11.26500        -0.000274     -0.000274     -0.000255
 -----------------------------------------------------------------------------------
    total drift:                               -0.000274     -0.000274     -0.000255


--------------------------------------------------------------------------------------------------------



  FREE ENERGIE OF THE ION-ELECTRON SYSTEM (eV)
  ---------------------------------------------------
  free  energy   TOTEN  =        -0.33604660 eV

  energy  without entropy=       -0.29748102  energy(sigma->0) =       -0.31676381
 


--------------------------------------------------------------------------------------------------------


    POTLOK:  cpu time    2.9929: real time    3.0120


--------------------------------------------------------------------------------------------------------


 stress matrix after NEB project (eV)
      0.00000      0.00000      0.00000
      0.00000      0.00000      0.00000
      0.00000      0.00000      0.00000
  FORCES: max atom, RMS     0.000464    0.000464
  FORCE total and by dimension    0.000464    0.000274
  Stress total and by dimension    0.000000    0.000000
     LOOP+:  cpu time  198.3601: real time  199.8145
    4ORBIT:  cpu time    0.0000: real time    0.0000

 total amount of memory used by VASP MPI-rank0   177231. kBytes
=======================================================================

   base      :      30000. kBytes
   nonl-proj :      14540. kBytes
   fftplans  :       7479. kBytes
   grid      :     116433. kBytes
   one-center:         31. kBytes
   wavefun   :       8748. kBytes
 
  
  
 General timing and accounting informations for this job:
 ========================================================
  
                  Total CPU time used (sec):      212.712
                            User time (sec):      207.653
                          System time (sec):        5.059
                         Elapsed time (sec):      216.526
  
                   Maximum memory used (kb):      454388.
                   Average memory used (kb):           0.
  
                          Minor page faults:       162736
                          Major page faults:            0
                 Voluntary context switches:         2696
