       N       E                     dE             d eps       ncg     rms          ort
DAV:   1     0.343833484133E+02    0.34383E+02   -0.80922E+03   256   0.820E+01
DAV:   2    -0.117390274919E+02   -0.46122E+02   -0.46122E+02   256   0.790E+00
DAV:   3    -0.118195438873E+02   -0.80516E-01   -0.80516E-01   256   0.462E-01
DAV:   4    -0.118198970468E+02   -0.35316E-03   -0.35316E-03   256   0.282E-02
DAV:   5    -0.118198970797E+02   -0.32869E-07   -0.32932E-07   256   0.212E-04
SDA:   6     0.267058043149E+02    0.38526E+02   -0.32932E-07   256   0.163E+03 0.000E+00
CGA:   7     0.352601925611E+01   -0.23180E+02   -0.19479E+02   256   0.108E+02 0.162E+02
CGA:   8     0.264767641318E+01   -0.87834E+00   -0.81017E+00   256   0.432E+01 0.913E+00
CGA:   9     0.219987192188E+01   -0.44780E+00   -0.27895E+00   256   0.240E+01 0.288E+01
CGA:  10     0.191769973312E+01   -0.28217E+00   -0.28581E+00   256   0.243E+01-0.202E-01
CGA:  11     0.181021903712E+01   -0.10748E+00   -0.54209E-01   256   0.214E+01 0.230E+01
CGA:  12     0.177275486628E+01   -0.37464E-01   -0.19668E-01   256   0.175E+01 0.195E+01
CGA:  13     0.174635033954E+01   -0.26405E-01   -0.13659E-01   256   0.151E+01 0.163E+01
CGA:  14     0.172639151895E+01   -0.19959E-01   -0.10208E-01   256   0.135E+01 0.144E+01
CGA:  15     0.171027906530E+01   -0.16112E-01   -0.80882E-02   256   0.129E+01 0.135E+01
CGA:  16     0.169533644320E+01   -0.14943E-01   -0.70774E-02   256   0.143E+01 0.148E+01
CGA:  17     0.167482612750E+01   -0.20510E-01   -0.81985E-02   256   0.228E+01 0.235E+01
CGA:  18     0.160204617756E+01   -0.72780E-01   -0.18775E-01   256   0.754E+01 0.790E+01
CGA:  19     0.593760015683E+00   -0.10083E+01   -0.15363E+00   256   0.113E+02 0.216E+02
CGA:  20     0.603063412803E+00    0.93034E-02   -0.73457E+00   256   0.119E+03-0.845E+01
CGA:  21     0.375945265643E+01    0.31564E+01   -0.52222E+01   256   0.313E+02-0.304E+02
CGA:  22     0.118389150192E+01   -0.25756E+01   -0.13814E+01   256   0.354E+02-0.185E+02
CGA:  23    -0.315944671336E+00   -0.14998E+01   -0.88597E+00   256   0.159E+02 0.250E+02
CGA:  24    -0.739366822473E+00   -0.42342E+00   -0.22886E+00   256   0.110E+02 0.136E+02
CGA:  25    -0.958833507798E+00   -0.21947E+00   -0.11274E+00   256   0.954E+01 0.110E+02
CGA:  26    -0.115792803510E+01   -0.19909E+00   -0.81176E-01   256   0.133E+02 0.155E+02
CGA:  27    -0.152233838725E+01   -0.36441E+00   -0.13856E+00   256   0.964E+01 0.181E+02
CGA:  28    -0.164949548143E+01   -0.12716E+00   -0.88106E-01   256   0.149E+01 0.314E+01
CGA:  29    -0.167870669084E+01   -0.29211E-01   -0.24712E-01   256   0.206E+01 0.312E+00
CGA:  30    -0.211020117997E+01   -0.43149E+00    0.11093E+01   256   0.477E+02 0.330E+01
CGA:  31    -0.383419803818E+01   -0.17240E+01   -0.25514E+01   256   0.196E+02 0.704E+01
CGA:  32    -0.424953128057E+01   -0.41533E+00   -0.10082E+01   256   0.617E+00 0.616E+00
CGA:  33    -0.436175916919E+01   -0.11223E+00   -0.10894E+00   256   0.628E-01 0.310E-01
CGA:  34    -0.440231948231E+01   -0.40560E-01   -0.54153E-02   256   0.160E-01 0.112E-01
CGA:  35    -0.440764570025E+01   -0.53262E-02   -0.53284E-02   256   0.754E-02-0.438E-04
CGA:  36    -0.441150747107E+01   -0.38618E-02   -0.38471E-02   256   0.129E-02 0.542E-04
CGA:  37    -0.441215888956E+01   -0.65142E-03   -0.65111E-03   256   0.695E-03 0.964E-06
CGA:  38    -0.441242106717E+01   -0.26218E-03   -0.26223E-03   256   0.340E-03-0.513E-06
CGA:  39    -0.441255773419E+01   -0.13667E-03   -0.13842E-03   256   0.139E-03-0.831E-05
CGA:  40    -0.441263842484E+01   -0.80691E-04   -0.82420E-04   256   0.589E-04-0.433E-05
CGA:  41    -0.441266170099E+01   -0.23276E-04   -0.23370E-04   256   0.138E-04-0.516E-06
CGA:  42    -0.441266818229E+01   -0.64813E-05   -0.64523E-05   256   0.787E-05 0.125E-06
   1 F= -.44126682E+01 E0= -.44126682E+01  d E =-.180299E-19  mag=     1.0000
