       N       E                     dE             d eps       ncg     rms          ort
DAV:   1     0.100516322998E+04    0.10052E+04   -0.89275E+04  3328   0.684E+02
DAV:   2    -0.360843677560E+03   -0.13660E+04   -0.13655E+04  3328   0.984E+01
DAV:   3    -0.438234780653E+03   -0.77391E+02   -0.77390E+02  3328   0.367E+01
DAV:   4    -0.439278678734E+03   -0.10439E+01   -0.10439E+01  3328   0.508E+00
DAV:   5    -0.439278856791E+03   -0.17806E-03   -0.17806E-03  3328   0.768E-02
SDA:   6    -0.439278856791E+03    0.00000E+00   -0.17806E-03  3328   0.330E-05 0.000E+00
   1 F= -.44106337E+03 E0= -.44106064E+03  d E =-.546187E-02  mag=     0.0000
