       N       E                     dE             d eps       ncg     rms          ort
SDA:   1    -0.334016148023E+03   -0.33402E+03    0.00000E+00  3328   0.131E+03 0.000E+00
CGA:   2    -0.411122035678E+03   -0.77106E+02   -0.93307E+02  3328   0.789E+02-0.279E+02
CGA:   3    -0.428192655858E+03   -0.17071E+02   -0.16994E+02  3328   0.285E+02 0.854E+00
CGA:   4    -0.437430713907E+03   -0.92381E+01   -0.92215E+01  3328   0.104E+02 0.789E-01
CGA:   5    -0.440584384874E+03   -0.31537E+01   -0.31827E+01  3328   0.381E+01-0.310E+00
CGA:   6    -0.441641052386E+03   -0.10567E+01   -0.10534E+01  3328   0.119E+01 0.421E-01
CGA:   7    -0.442008161441E+03   -0.36711E+00   -0.36727E+00  3328   0.374E+00-0.119E-02
CGA:   8    -0.442131925172E+03   -0.12376E+00   -0.12394E+00  3328   0.128E+00-0.148E-02
CGA:   9    -0.442177891064E+03   -0.45966E-01   -0.45981E-01  3328   0.482E-01-0.935E-04
CGA:  10    -0.442195619460E+03   -0.17728E-01   -0.17727E-01  3328   0.166E-01-0.341E-05
CGA:  11    -0.442201570381E+03   -0.59509E-02   -0.59557E-02  3328   0.490E-02-0.443E-04
CGA:  12    -0.442203317185E+03   -0.17468E-02   -0.17474E-02  3328   0.143E-02-0.484E-05
CGA:  13    -0.442203857025E+03   -0.53984E-03   -0.54076E-03  3328   0.469E-03-0.823E-05
CGA:  14    -0.442204043958E+03   -0.18693E-03   -0.18697E-03  3328   0.173E-03-0.337E-06
CGA:  15    -0.442204116161E+03   -0.72203E-04   -0.72703E-04  3328   0.633E-04-0.353E-05
CGA:  16    -0.442204140522E+03   -0.24361E-04   -0.24294E-04  3328   0.200E-04 0.660E-06
CGA:  17    -0.442204148718E+03   -0.81964E-05   -0.83560E-05  3328   0.670E-05-0.130E-05
   1 F= -.44398706E+03 E0= -.44398229E+03  d E =-.954327E-02  mag=     0.0000
