C  N  Mn                                
   1.00000000000000     
    12.3000000000000007    0.0000000000000000    0.0000000000000000
    -6.1499999999999977   10.6521124665485960    0.0000000000000000
     0.0000000000000000    0.0000000000000000   20.0000000000000000
   C    N    Mn
    44     4     1
Direct
  0.9991780552423464  0.0008219470972151  0.7499974563959171
  0.1312047129699749  0.0644624483319305  0.7499832159953783
  0.1978086631281286  0.9978597244117253  0.7499834009022521
  0.3301512792874632  0.0627375163889781  0.7499763978502045
  0.3984906306397491  0.9974682035631375  0.7499884064017976
  0.5316827334432688  0.0669110291146282  0.7499833449779842
  0.5992939471405236  0.0005892783200423  0.7499786148846326
  0.7323418966086805  0.0693534931762372  0.7499970237779934
  0.7995112039190246  0.0023324057258947  0.7500007771668891
  0.9323459603153879  0.0676540389935312  0.7500044746221164
  0.9976675953298084  0.2004887968662175  0.7500007858138886
  0.1307291625310185  0.2651016157193737  0.7499876185869283
  0.1960380398581592  0.1968158919063043  0.7499744843549294
  0.3271578812670839  0.2609835485580874  0.7500207478869285
  0.3942603141990730  0.1939317696203346  0.7500213064398125
  0.5938407856662096  0.2011139632452270  0.7500443365342520
  0.7287622769139972  0.2712377231108505  0.7500274501467246
  0.7966666841744399  0.2033333165243221  0.7500026981643018
  0.9306465073336057  0.2676581038451573  0.7499970323070997
  0.9994107236393504  0.4007060538431162  0.7499786157024459
  0.1339418121639113  0.4658942924512175  0.7499796779183328
  0.2002408473400408  0.3982706056104703  0.7499840261924433
  0.3344497171627765  0.4605242980219657  0.7500497648061142
  0.7988860372551230  0.4061592146739059  0.7500443217745385
  0.9330889713170123  0.4683172667263875  0.7499833371911535
  0.0025317963348783  0.6015093697406400  0.7499883908855054
  0.1356183594626756  0.6661045415459554  0.7500018900450911
  0.2026360943798835  0.5989642284015702  0.7499976175803909
  0.3366471916797096  0.6633528069249266  0.7500030879427015
  0.4045275058558602  0.5954724941372262  0.7500356531387027
  0.5394757010418374  0.6655502839968506  0.7500497496596168
  0.7390164499449625  0.6728421187530174  0.7500207279390096
  0.8060682307521461  0.6057396873226679  0.7500212912469877
  0.9372624801068028  0.6698487188730695  0.7499763983627759
  0.0021402763526908  0.8021913382219168  0.7499834005078370
  0.1341972303900150  0.8658027672740118  0.7499993219941530
  0.2010270314438927  0.7989729676642057  0.7500072408808194
  0.3338954570215904  0.8643816386254102  0.7500019061763368
  0.4010357711437749  0.7973639046533592  0.7499976278712879
  0.5341057068053203  0.8660581888021639  0.7499796811526238
  0.6017293941386725  0.7997591542837128  0.7499840166678382
  0.7348983836016743  0.8692708374675888  0.7499876084951111
  0.8031841097057324  0.8039619631662944  0.7499744829679003
  0.9355375495112170  0.8687952856438130  0.7499832211157411
  0.5236651528410832  0.2601829162070786  0.7501553059533066
  0.3935297014008228  0.3904239407023553  0.7501563718959972
  0.7398170842216061  0.4763348474219526  0.7501552683681965
  0.6095760580934595  0.6064702990164008  0.7501563316178945
  0.5666708449236211  0.4333291553075327  0.7504040907390888
 
  0.00000000E+00  0.00000000E+00  0.00000000E+00
  0.00000000E+00  0.00000000E+00  0.00000000E+00
  0.00000000E+00  0.00000000E+00  0.00000000E+00
  0.00000000E+00  0.00000000E+00  0.00000000E+00
  0.00000000E+00  0.00000000E+00  0.00000000E+00
  0.00000000E+00  0.00000000E+00  0.00000000E+00
  0.00000000E+00  0.00000000E+00  0.00000000E+00
  0.00000000E+00  0.00000000E+00  0.00000000E+00
  0.00000000E+00  0.00000000E+00  0.00000000E+00
  0.00000000E+00  0.00000000E+00  0.00000000E+00
  0.00000000E+00  0.00000000E+00  0.00000000E+00
  0.00000000E+00  0.00000000E+00  0.00000000E+00
  0.00000000E+00  0.00000000E+00  0.00000000E+00
  0.00000000E+00  0.00000000E+00  0.00000000E+00
  0.00000000E+00  0.00000000E+00  0.00000000E+00
  0.00000000E+00  0.00000000E+00  0.00000000E+00
  0.00000000E+00  0.00000000E+00  0.00000000E+00
  0.00000000E+00  0.00000000E+00  0.00000000E+00
  0.00000000E+00  0.00000000E+00  0.00000000E+00
  0.00000000E+00  0.00000000E+00  0.00000000E+00
  0.00000000E+00  0.00000000E+00  0.00000000E+00
  0.00000000E+00  0.00000000E+00  0.00000000E+00
  0.00000000E+00  0.00000000E+00  0.00000000E+00
  0.00000000E+00  0.00000000E+00  0.00000000E+00
  0.00000000E+00  0.00000000E+00  0.00000000E+00
  0.00000000E+00  0.00000000E+00  0.00000000E+00
  0.00000000E+00  0.00000000E+00  0.00000000E+00
  0.00000000E+00  0.00000000E+00  0.00000000E+00
  0.00000000E+00  0.00000000E+00  0.00000000E+00
  0.00000000E+00  0.00000000E+00  0.00000000E+00
  0.00000000E+00  0.00000000E+00  0.00000000E+00
  0.00000000E+00  0.00000000E+00  0.00000000E+00
  0.00000000E+00  0.00000000E+00  0.00000000E+00
  0.00000000E+00  0.00000000E+00  0.00000000E+00
  0.00000000E+00  0.00000000E+00  0.00000000E+00
  0.00000000E+00  0.00000000E+00  0.00000000E+00
  0.00000000E+00  0.00000000E+00  0.00000000E+00
  0.00000000E+00  0.00000000E+00  0.00000000E+00
  0.00000000E+00  0.00000000E+00  0.00000000E+00
  0.00000000E+00  0.00000000E+00  0.00000000E+00
  0.00000000E+00  0.00000000E+00  0.00000000E+00
  0.00000000E+00  0.00000000E+00  0.00000000E+00
  0.00000000E+00  0.00000000E+00  0.00000000E+00
  0.00000000E+00  0.00000000E+00  0.00000000E+00
  0.00000000E+00  0.00000000E+00  0.00000000E+00
  0.00000000E+00  0.00000000E+00  0.00000000E+00
  0.00000000E+00  0.00000000E+00  0.00000000E+00
  0.00000000E+00  0.00000000E+00  0.00000000E+00
  0.00000000E+00  0.00000000E+00  0.00000000E+00
