       N       E                     dE             d eps       ncg     rms          ort
DAV:   1     0.178813670832E+03    0.17881E+03   -0.96863E+04  3328   0.682E+02
DAV:   2    -0.416807600357E+03   -0.59562E+03   -0.59343E+03  3328   0.865E+01
DAV:   3    -0.444659110688E+03   -0.27852E+02   -0.27850E+02  3328   0.223E+01
DAV:   4    -0.444670508672E+03   -0.11398E-01   -0.11398E-01  3328   0.544E-01
DAV:   5    -0.444670572996E+03   -0.64324E-04   -0.64324E-04  3328   0.386E-02
SDA:   6    -0.444670572996E+03   -0.72760E-11   -0.64324E-04  3328   0.361E-07 0.000E+00
   1 F= -.44643118E+03 E0= -.44643002E+03  d E =-.231920E-02  mag=     3.0185
