C  N  Gd                                
   1.00000000000000     
    12.3000000000000007    0.0000000000000000    0.0000000000000000
    -6.1499999999999977   10.6521124665485960    0.0000000000000000
     0.0000000000000000    0.0000000000000000   20.0000000000000000
   C    N    Gd
    44     4     1
Direct
  0.9993771198549055  0.0006228950118796  0.7435752770575519
  0.1320767665079572  0.0655632540988407  0.7440777733066000
  0.1988809461086589  0.9987340753846610  0.7441603929630816
  0.3308659687863269  0.0640161733150535  0.7471349459336238
  0.3986146312664545  0.9979793083354664  0.7472022649136747
  0.5322412153041967  0.0668264454147121  0.7482760722772994
  0.5997208031718202  0.0006101384996597  0.7472221487103994
  0.7324873693055736  0.0686367012826565  0.7473339525424976
  0.7996691619826066  0.0013865601753906  0.7461121365308543
  0.9327542088089018  0.0672458000481555  0.7450554177992359
  0.9986134355648986  0.2003308457953565  0.7461121390163541
  0.1313093126912932  0.2652899896414382  0.7470899898310250
  0.1973672045484491  0.1975497026725321  0.7470016085670323
  0.3298285396548124  0.2639776384940262  0.7519103909666214
  0.3972800081785195  0.1964963377362707  0.7519508558437735
  0.5949713320654482  0.2001643522743279  0.7521273433231030
  0.7297713105625760  0.2702286852431754  0.7516423953887426
  0.7974919533876630  0.2025080440328182  0.7485777807092617
  0.9313632942814110  0.2675126379673998  0.7473339539041604
  0.9993898532231569  0.4002792054394817  0.7472221468556697
  0.1339762988056563  0.4664114642167405  0.7473354786369626
  0.2001666911715461  0.3989041603017895  0.7483386598169872
  0.3335063328381906  0.4616449621079255  0.7522805669513630
  0.7998356379939509  0.4050286649176869  0.7521273444875973
  0.9331735452856194  0.4677587911396301  0.7482760709130503
  0.0020206860076968  0.6013853773896756  0.7472022562566139
  0.1347098602094476  0.6663295768667226  0.7463721932715970
  0.2019577839010651  0.5991629727160941  0.7475900992190248
  0.3358083337074120  0.6641916646926873  0.7489092600014615
  0.4035320652645638  0.5964679291272645  0.7518956102736993
  0.5383550331341809  0.6664936560643184  0.7522805659941056
  0.7360223553618397  0.6701714521431796  0.7519103826308751
  0.8035036538465121  0.6027199864738577  0.7519508496959659
  0.9359838229254009  0.6691340399162939  0.7471349414355402
  0.0012659365410244  0.8011190674931754  0.7441603882007684
  0.1339622697830904  0.8660377452176959  0.7436965615256383
  0.2005852536767492  0.7994147567988392  0.7453207518009037
  0.3336704333843912  0.8652901376258129  0.7463722021752872
  0.4008370360632512  0.7980422128766875  0.7475901042602473
  0.5335885447726625  0.8660236933228518  0.7473354806584567
  0.6010958446424013  0.7998332981642378  0.7483386584422576
  0.7347100169142635  0.8686906802234944  0.7470899876079145
  0.8024503045161779  0.8026327915909590  0.7470016014811165
  0.9344367588540550  0.8679232467637732  0.7440777706093797
  0.5262362543251768  0.2603999577114138  0.7577901378242871
  0.3937407977219181  0.3929107697680081  0.7578491446819982
  0.7396000288174989  0.4737637387538101  0.7577901344568616
  0.6070892227071170  0.6062591885128583  0.7578491391423512
  0.5666967615715066  0.4333032262392180  0.8140166711071117
 
  0.00000000E+00  0.00000000E+00  0.00000000E+00
  0.00000000E+00  0.00000000E+00  0.00000000E+00
  0.00000000E+00  0.00000000E+00  0.00000000E+00
  0.00000000E+00  0.00000000E+00  0.00000000E+00
  0.00000000E+00  0.00000000E+00  0.00000000E+00
  0.00000000E+00  0.00000000E+00  0.00000000E+00
  0.00000000E+00  0.00000000E+00  0.00000000E+00
  0.00000000E+00  0.00000000E+00  0.00000000E+00
  0.00000000E+00  0.00000000E+00  0.00000000E+00
  0.00000000E+00  0.00000000E+00  0.00000000E+00
  0.00000000E+00  0.00000000E+00  0.00000000E+00
  0.00000000E+00  0.00000000E+00  0.00000000E+00
  0.00000000E+00  0.00000000E+00  0.00000000E+00
  0.00000000E+00  0.00000000E+00  0.00000000E+00
  0.00000000E+00  0.00000000E+00  0.00000000E+00
  0.00000000E+00  0.00000000E+00  0.00000000E+00
  0.00000000E+00  0.00000000E+00  0.00000000E+00
  0.00000000E+00  0.00000000E+00  0.00000000E+00
  0.00000000E+00  0.00000000E+00  0.00000000E+00
  0.00000000E+00  0.00000000E+00  0.00000000E+00
  0.00000000E+00  0.00000000E+00  0.00000000E+00
  0.00000000E+00  0.00000000E+00  0.00000000E+00
  0.00000000E+00  0.00000000E+00  0.00000000E+00
  0.00000000E+00  0.00000000E+00  0.00000000E+00
  0.00000000E+00  0.00000000E+00  0.00000000E+00
  0.00000000E+00  0.00000000E+00  0.00000000E+00
  0.00000000E+00  0.00000000E+00  0.00000000E+00
  0.00000000E+00  0.00000000E+00  0.00000000E+00
  0.00000000E+00  0.00000000E+00  0.00000000E+00
  0.00000000E+00  0.00000000E+00  0.00000000E+00
  0.00000000E+00  0.00000000E+00  0.00000000E+00
  0.00000000E+00  0.00000000E+00  0.00000000E+00
  0.00000000E+00  0.00000000E+00  0.00000000E+00
  0.00000000E+00  0.00000000E+00  0.00000000E+00
  0.00000000E+00  0.00000000E+00  0.00000000E+00
  0.00000000E+00  0.00000000E+00  0.00000000E+00
  0.00000000E+00  0.00000000E+00  0.00000000E+00
  0.00000000E+00  0.00000000E+00  0.00000000E+00
  0.00000000E+00  0.00000000E+00  0.00000000E+00
  0.00000000E+00  0.00000000E+00  0.00000000E+00
  0.00000000E+00  0.00000000E+00  0.00000000E+00
  0.00000000E+00  0.00000000E+00  0.00000000E+00
  0.00000000E+00  0.00000000E+00  0.00000000E+00
  0.00000000E+00  0.00000000E+00  0.00000000E+00
  0.00000000E+00  0.00000000E+00  0.00000000E+00
  0.00000000E+00  0.00000000E+00  0.00000000E+00
  0.00000000E+00  0.00000000E+00  0.00000000E+00
  0.00000000E+00  0.00000000E+00  0.00000000E+00
  0.00000000E+00  0.00000000E+00  0.00000000E+00
