C  N  Cu                                
   1.00000000000000     
    12.3000000000000007    0.0000000000000000    0.0000000000000000
    -6.1499999999999977   10.6521124665485960    0.0000000000000000
     0.0000000000000000    0.0000000000000000   20.0000000000000000
   C    N    Cu
    44     4     1
Direct
  0.9991759999999985  0.0008240000000015  0.7500009999999975
  0.1312730000000002  0.0645730000000029  0.7499859999999998
  0.1978960000000001  0.9979370000000003  0.7499859999999998
  0.3303080000000023  0.0628430000000009  0.7499729999999971
  0.3984889999999979  0.9974449999999990  0.7499930000000035
  0.5314589999999981  0.0669129999999996  0.7499910000000014
  0.5991759999999999  0.0006989999999973  0.7499889999999994
  0.7322660000000027  0.0695300000000003  0.7499990000000025
  0.7994699999999995  0.0025600000000026  0.7500029999999995
  0.9322590000000019  0.0677409999999981  0.7500029999999995
  0.9974399999999974  0.2005300000000005  0.7500029999999995
  0.1307469999999995  0.2651070000000004  0.7499930000000035
  0.1961909999999989  0.1969789999999989  0.7499729999999971
  0.3276340000000033  0.2617940000000019  0.7500110000000006
  0.3950790000000026  0.1943070000000020  0.7500100000000032
  0.5933149999999969  0.2017370000000014  0.7500450000000001
  0.7284450000000007  0.2715549999999993  0.7500210000000038
  0.7963639999999970  0.2036360000000030  0.7499979999999979
  0.9304699999999997  0.2677339999999973  0.7499990000000025
  0.9993010000000027  0.4008240000000001  0.7499889999999994
  0.1339779999999990  0.4658170000000013  0.7499910000000014
  0.2001840000000001  0.3980779999999982  0.7499930000000035
  0.3350340000000003  0.4599529999999987  0.7500470000000021
  0.7982629999999986  0.4066850000000031  0.7500450000000001
  0.9330870000000004  0.4685410000000019  0.7499910000000014
  0.0025550000000010  0.6015110000000021  0.7499930000000035
  0.1358820000000023  0.6661270000000030  0.7500020000000021
  0.2028510000000026  0.5989220000000017  0.7499990000000025
  0.3369799999999969  0.6630200000000031  0.7499979999999979
  0.4049079999999989  0.5950920000000011  0.7500210000000038
  0.5400470000000013  0.6649659999999997  0.7500470000000021
  0.7382059999999981  0.6723659999999967  0.7500110000000006
  0.8056929999999980  0.6049209999999974  0.7500100000000032
  0.9371569999999991  0.6696919999999977  0.7499729999999971
  0.0020629999999997  0.8021039999999999  0.7499859999999998
  0.1341680000000025  0.8658319999999975  0.7500009999999975
  0.2010700000000014  0.7989299999999986  0.7500029999999995
  0.3338729999999970  0.8641179999999977  0.7500020000000021
  0.4010779999999983  0.7971489999999974  0.7499990000000025
  0.5341829999999987  0.8660220000000010  0.7499910000000014
  0.6019220000000018  0.7998150000000024  0.7499930000000035
  0.7348929999999996  0.8692530000000005  0.7499930000000035
  0.8030210000000011  0.8038090000000011  0.7499729999999971
  0.9354269999999971  0.8687269999999998  0.7499859999999998
  0.5232689999999991  0.2600970000000018  0.7501340000000027
  0.3934339999999992  0.3899619999999970  0.7501329999999982
  0.7399029999999982  0.4767310000000009  0.7501340000000027
  0.6100380000000030  0.6065660000000008  0.7501329999999982
  0.5666679999999999  0.4333320000000001  0.7504569999999973
 
  0.00000000E+00  0.00000000E+00  0.00000000E+00
  0.00000000E+00  0.00000000E+00  0.00000000E+00
  0.00000000E+00  0.00000000E+00  0.00000000E+00
  0.00000000E+00  0.00000000E+00  0.00000000E+00
  0.00000000E+00  0.00000000E+00  0.00000000E+00
  0.00000000E+00  0.00000000E+00  0.00000000E+00
  0.00000000E+00  0.00000000E+00  0.00000000E+00
  0.00000000E+00  0.00000000E+00  0.00000000E+00
  0.00000000E+00  0.00000000E+00  0.00000000E+00
  0.00000000E+00  0.00000000E+00  0.00000000E+00
  0.00000000E+00  0.00000000E+00  0.00000000E+00
  0.00000000E+00  0.00000000E+00  0.00000000E+00
  0.00000000E+00  0.00000000E+00  0.00000000E+00
  0.00000000E+00  0.00000000E+00  0.00000000E+00
  0.00000000E+00  0.00000000E+00  0.00000000E+00
  0.00000000E+00  0.00000000E+00  0.00000000E+00
  0.00000000E+00  0.00000000E+00  0.00000000E+00
  0.00000000E+00  0.00000000E+00  0.00000000E+00
  0.00000000E+00  0.00000000E+00  0.00000000E+00
  0.00000000E+00  0.00000000E+00  0.00000000E+00
  0.00000000E+00  0.00000000E+00  0.00000000E+00
  0.00000000E+00  0.00000000E+00  0.00000000E+00
  0.00000000E+00  0.00000000E+00  0.00000000E+00
  0.00000000E+00  0.00000000E+00  0.00000000E+00
  0.00000000E+00  0.00000000E+00  0.00000000E+00
  0.00000000E+00  0.00000000E+00  0.00000000E+00
  0.00000000E+00  0.00000000E+00  0.00000000E+00
  0.00000000E+00  0.00000000E+00  0.00000000E+00
  0.00000000E+00  0.00000000E+00  0.00000000E+00
  0.00000000E+00  0.00000000E+00  0.00000000E+00
  0.00000000E+00  0.00000000E+00  0.00000000E+00
  0.00000000E+00  0.00000000E+00  0.00000000E+00
  0.00000000E+00  0.00000000E+00  0.00000000E+00
  0.00000000E+00  0.00000000E+00  0.00000000E+00
  0.00000000E+00  0.00000000E+00  0.00000000E+00
  0.00000000E+00  0.00000000E+00  0.00000000E+00
  0.00000000E+00  0.00000000E+00  0.00000000E+00
  0.00000000E+00  0.00000000E+00  0.00000000E+00
  0.00000000E+00  0.00000000E+00  0.00000000E+00
  0.00000000E+00  0.00000000E+00  0.00000000E+00
  0.00000000E+00  0.00000000E+00  0.00000000E+00
  0.00000000E+00  0.00000000E+00  0.00000000E+00
  0.00000000E+00  0.00000000E+00  0.00000000E+00
  0.00000000E+00  0.00000000E+00  0.00000000E+00
  0.00000000E+00  0.00000000E+00  0.00000000E+00
  0.00000000E+00  0.00000000E+00  0.00000000E+00
  0.00000000E+00  0.00000000E+00  0.00000000E+00
  0.00000000E+00  0.00000000E+00  0.00000000E+00
  0.00000000E+00  0.00000000E+00  0.00000000E+00
