       N       E                     dE             d eps       ncg     rms          ort
DAV:   1     0.991857425847E+03    0.99186E+03   -0.88116E+04  3328   0.675E+02
DAV:   2    -0.364737988208E+03   -0.13566E+04   -0.13563E+04  3328   0.973E+01
DAV:   3    -0.439685652699E+03   -0.74948E+02   -0.74865E+02  3328   0.365E+01
DAV:   4    -0.440498552833E+03   -0.81290E+00   -0.81289E+00  3328   0.413E+00
DAV:   5    -0.440498674640E+03   -0.12181E-03   -0.12181E-03  3328   0.621E-02
SDA:   6    -0.440498674640E+03    0.00000E+00   -0.12181E-03  3328   0.191E-05 0.000E+00
   1 F= -.44226583E+03 E0= -.44226435E+03  d E =-.296621E-02  mag=    -1.0214
