C  N  Er                                
   1.00000000000000     
    12.3000000000000007    0.0000000000000000    0.0000000000000000
    -6.1499999999999977   10.6521124665485960    0.0000000000000000
     0.0000000000000000    0.0000000000000000   20.0000000000000000
   C    N    Er
    44     4     1
Direct
  0.9994304444566992  0.0005732389028950  0.7439247412163538
  0.1320006658293806  0.0653093699201861  0.7445457321754390
  0.1986225888771855  0.9986013347048939  0.7445631686817366
  0.3310081866202808  0.0640413842741197  0.7472768125875078
  0.3987067518702859  0.9980215840416377  0.7467783214082643
  0.5320315667113675  0.0666186712927015  0.7480240212896733
  0.5995632794107452  0.0005112055400005  0.7465411601885563
  0.7325487401022599  0.0687795398715920  0.7467422013298091
  0.7996939828554729  0.0017338143645347  0.7456142088496733
  0.9326687007989065  0.0673207942293032  0.7448494497796928
  0.9982719481321566  0.2003019893579250  0.7456092472970894
  0.1313646051948894  0.2653567309115558  0.7467277294030268
  0.1974526290567127  0.1977016031523036  0.7471590324369617
  0.3295921007046304  0.2640707002707501  0.7523917445573147
  0.3973525028314740  0.1961230342058115  0.7525132057557329
  0.5943653267256934  0.2002237112880465  0.7529287726809885
  0.7295698027265943  0.2704294619754678  0.7524156227709468
  0.7971677521672333  0.2028268487313909  0.7483825543561055
  0.9311896426195220  0.2674326449963615  0.7467399408138035
  0.9994634691643468  0.4004398690957700  0.7465462218899930
  0.1338248436380951  0.4662442567378093  0.7464475200225493
  0.1999832107183366  0.3986935168835188  0.7477971818495277
  0.3336570221853349  0.4610828632220247  0.7526564290547809
  0.7996626782907513  0.4056200513943083  0.7529371315395323
  0.9333209142313876  0.4679683665355795  0.7480396580545731
  0.0019824525245937  0.6013133304863914  0.7467825145438385
  0.1350613036738792  0.6663389274745199  0.7455875980427963
  0.2021417905498311  0.5992401982745291  0.7466019985971998
  0.3361216101244153  0.6638840600961301  0.7482070244602071
  0.4037334720314902  0.5962656650614662  0.7520597784450160
  0.5389487767547082  0.6664497560607997  0.7526507908361211
  0.7359549840624455  0.6705200725399365  0.7523914955534393
  0.8037786205683801  0.6026337907480297  0.7525133952647495
  0.9359158493222138  0.6689638056085910  0.7472906277235438
  0.0013937027396267  0.8013713322095198  0.7445633828335759
  0.1339430514395446  0.8660547939524578  0.7439203569232903
  0.2007166924546766  0.7992932226702009  0.7448928993852278
  0.3336697358152847  0.8649341967297985  0.7455913792133018
  0.4007804980240905  0.7978893645612288  0.7466039001416079
  0.5337546332364410  0.8661979207831790  0.7464396750109189
  0.6013087002882925  0.8000721830781431  0.7477816816522136
  0.7346171270184172  0.8686254611390963  0.7467220942905470
  0.8023361228593231  0.8025958174953303  0.7471373137713472
  0.9347025106747253  0.8680093128880841  0.7445451907477790
  0.5256973794179489  0.2598366281596611  0.7588126881881792
  0.3934988654094624  0.3925009858010994  0.7587135461690336
  0.7398368413456993  0.4742115331028102  0.7589069365638749
  0.6076073362180310  0.6068209598944989  0.7586251936393466
  0.5665735875267331  0.4333600952840015  0.8155027280132359
 
  0.00000000E+00  0.00000000E+00  0.00000000E+00
  0.00000000E+00  0.00000000E+00  0.00000000E+00
  0.00000000E+00  0.00000000E+00  0.00000000E+00
  0.00000000E+00  0.00000000E+00  0.00000000E+00
  0.00000000E+00  0.00000000E+00  0.00000000E+00
  0.00000000E+00  0.00000000E+00  0.00000000E+00
  0.00000000E+00  0.00000000E+00  0.00000000E+00
  0.00000000E+00  0.00000000E+00  0.00000000E+00
  0.00000000E+00  0.00000000E+00  0.00000000E+00
  0.00000000E+00  0.00000000E+00  0.00000000E+00
  0.00000000E+00  0.00000000E+00  0.00000000E+00
  0.00000000E+00  0.00000000E+00  0.00000000E+00
  0.00000000E+00  0.00000000E+00  0.00000000E+00
  0.00000000E+00  0.00000000E+00  0.00000000E+00
  0.00000000E+00  0.00000000E+00  0.00000000E+00
  0.00000000E+00  0.00000000E+00  0.00000000E+00
  0.00000000E+00  0.00000000E+00  0.00000000E+00
  0.00000000E+00  0.00000000E+00  0.00000000E+00
  0.00000000E+00  0.00000000E+00  0.00000000E+00
  0.00000000E+00  0.00000000E+00  0.00000000E+00
  0.00000000E+00  0.00000000E+00  0.00000000E+00
  0.00000000E+00  0.00000000E+00  0.00000000E+00
  0.00000000E+00  0.00000000E+00  0.00000000E+00
  0.00000000E+00  0.00000000E+00  0.00000000E+00
  0.00000000E+00  0.00000000E+00  0.00000000E+00
  0.00000000E+00  0.00000000E+00  0.00000000E+00
  0.00000000E+00  0.00000000E+00  0.00000000E+00
  0.00000000E+00  0.00000000E+00  0.00000000E+00
  0.00000000E+00  0.00000000E+00  0.00000000E+00
  0.00000000E+00  0.00000000E+00  0.00000000E+00
  0.00000000E+00  0.00000000E+00  0.00000000E+00
  0.00000000E+00  0.00000000E+00  0.00000000E+00
  0.00000000E+00  0.00000000E+00  0.00000000E+00
  0.00000000E+00  0.00000000E+00  0.00000000E+00
  0.00000000E+00  0.00000000E+00  0.00000000E+00
  0.00000000E+00  0.00000000E+00  0.00000000E+00
  0.00000000E+00  0.00000000E+00  0.00000000E+00
  0.00000000E+00  0.00000000E+00  0.00000000E+00
  0.00000000E+00  0.00000000E+00  0.00000000E+00
  0.00000000E+00  0.00000000E+00  0.00000000E+00
  0.00000000E+00  0.00000000E+00  0.00000000E+00
  0.00000000E+00  0.00000000E+00  0.00000000E+00
  0.00000000E+00  0.00000000E+00  0.00000000E+00
  0.00000000E+00  0.00000000E+00  0.00000000E+00
  0.00000000E+00  0.00000000E+00  0.00000000E+00
  0.00000000E+00  0.00000000E+00  0.00000000E+00
  0.00000000E+00  0.00000000E+00  0.00000000E+00
  0.00000000E+00  0.00000000E+00  0.00000000E+00
  0.00000000E+00  0.00000000E+00  0.00000000E+00
