       N       E                     dE             d eps       ncg     rms          ort
DAV:   1     0.280717384478E+02    0.28072E+02   -0.27913E+03   256   0.244E+01
DAV:   2    -0.293136048047E+01   -0.31003E+02   -0.30969E+02   256   0.147E+00
DAV:   3    -0.299079879891E+01   -0.59438E-01   -0.59316E-01   256   0.244E-01
DAV:   4    -0.299087865661E+01   -0.79858E-04   -0.79858E-04   256   0.104E-02
DAV:   5    -0.299087865826E+01   -0.16455E-08   -0.16574E-08   256   0.458E-05
SDA:   6    -0.224317792750E+01    0.74770E+00   -0.16574E-08   256   0.176E+01 0.000E+00
CGA:   7    -0.264255124951E+01   -0.39937E+00   -0.39846E+00   256   0.178E+00 0.106E-01
CGA:   8    -0.272612935753E+01   -0.83578E-01   -0.82364E-01   256   0.348E-01 0.605E-02
CGA:   9    -0.274033216311E+01   -0.14203E-01   -0.14189E-01   256   0.728E-02 0.692E-04
CGA:  10    -0.274696879773E+01   -0.66366E-02   -0.70662E-02   256   0.483E-01-0.776E-03
CGA:  11    -0.275620737194E+01   -0.92386E-02   -0.54192E-02   256   0.129E+00 0.126E-01
CGA:  12    -0.275810708041E+01   -0.18997E-02   -0.67394E-02   256   0.112E+00-0.121E+00
CGA:  13    -0.279017891878E+01   -0.32072E-01   -0.30795E-01   256   0.149E-01 0.226E-01
CGA:  14    -0.279997609687E+01   -0.97972E-02   -0.95848E-02   256   0.430E-02 0.559E-03
CGA:  15    -0.280198771555E+01   -0.20116E-02   -0.20204E-02   256   0.187E-02-0.407E-04
CGA:  16    -0.280435529580E+01   -0.23676E-02   -0.13138E-04   256   0.207E-01-0.117E-02
CGA:  17    -0.282512695302E+01   -0.20772E-01   -0.29493E-01   256   0.856E-01-0.110E-01
CGA:  18    -0.285470214521E+01   -0.29575E-01   -0.31842E-01   256   0.190E-01 0.926E-03
CGA:  19    -0.286362050532E+01   -0.89184E-02   -0.87299E-02   256   0.556E-02-0.712E-03
CGA:  20    -0.286709155996E+01   -0.34711E-02   -0.34356E-02   256   0.261E-02 0.193E-03
CGA:  21    -0.286832069606E+01   -0.12291E-02   -0.12370E-02   256   0.847E-03 0.376E-04
CGA:  22    -0.286879147327E+01   -0.47078E-03   -0.47090E-03   256   0.297E-03-0.382E-05
CGA:  23    -0.286896891534E+01   -0.17744E-03   -0.17753E-03   256   0.110E-03-0.108E-05
CGA:  24    -0.286903826166E+01   -0.69346E-04   -0.69223E-04   256   0.470E-04 0.102E-05
CGA:  25    -0.286906870330E+01   -0.30442E-04   -0.30481E-04   256   0.286E-04-0.364E-06
CGA:  26    -0.286908908520E+01   -0.20382E-04   -0.20377E-04   256   0.134E-04-0.201E-07
CGA:  27    -0.286909684969E+01   -0.77645E-05   -0.77578E-05   256   0.468E-05 0.236E-06
   1 F= -.28690968E+01 E0= -.28553744E+01  d E =-.274450E-01  mag=     4.0000
