       N       E                     dE             d eps       ncg     rms          ort
DAV:   1     0.258236168148E+02    0.25824E+02   -0.34534E+03   256   0.304E+01
DAV:   2     0.191676860047E+01   -0.23907E+02   -0.23862E+02   256   0.459E+00
DAV:   3     0.186886156651E+01   -0.47907E-01   -0.47897E-01   256   0.276E-01
DAV:   4     0.186876209092E+01   -0.99476E-04   -0.99476E-04   256   0.138E-02
DAV:   5     0.186876208301E+01   -0.79131E-08   -0.76693E-08   256   0.101E-04
SDA:   6     0.171448548184E+01   -0.15428E+00   -0.76693E-08   256   0.400E+00 0.000E+00
CGA:   7     0.166733658019E+01   -0.47149E-01   -0.46862E-01   256   0.363E-01 0.113E-02
CGA:   8     0.164954373645E+01   -0.17793E-01   -0.17796E-01   256   0.137E-01 0.341E-04
CGA:   9     0.164232517634E+01   -0.72186E-02    0.58105E-02   256   0.930E-01 0.206E-01
CGA:  10     0.150573296462E+01   -0.13659E+00    0.39305E-02   256   0.342E+01 0.512E+00
CGA:  11     0.978716470701E+00   -0.52702E+00   -0.57209E+00   256   0.377E+00 0.764E-01
CGA:  12     0.596185151532E+00   -0.38253E+00    0.29043E-01   256   0.668E+01 0.112E+01
CGA:  13     0.159336896310E+00   -0.43685E+00   -0.82765E+00   256   0.522E-01 0.439E-01
CGA:  14     0.138701754295E+00   -0.20635E-01   -0.18326E-01   256   0.897E-02 0.114E-01
CGA:  15     0.131185439036E+00   -0.75163E-02   -0.73655E-02   256   0.485E-02 0.371E-03
CGA:  16     0.129694920074E+00   -0.14905E-02   -0.14941E-02   256   0.283E-02-0.415E-04
CGA:  17     0.128962081766E+00   -0.73284E-03   -0.73250E-03   256   0.404E-03 0.748E-05
CGA:  18     0.128753282929E+00   -0.20880E-03   -0.20919E-03   256   0.152E-03-0.141E-05
CGA:  19     0.128712880764E+00   -0.40402E-04   -0.40395E-04   256   0.106E-03 0.570E-06
CGA:  20     0.128650367732E+00   -0.62513E-04   -0.62651E-04   256   0.943E-04-0.416E-06
CGA:  21     0.128525278581E+00   -0.12509E-03   -0.24390E-06   256   0.393E-03-0.234E-04
CGA:  22     0.128451847357E+00   -0.73431E-04   -0.72531E-04   256   0.299E-03 0.274E-05
CGA:  23     0.128298639701E+00   -0.15321E-03   -0.15329E-03   256   0.505E-03-0.158E-05
CGA:  24     0.128181987574E+00   -0.11665E-03   -0.11674E-03   256   0.241E-03-0.147E-05
CGA:  25     0.128088416072E+00   -0.93572E-04   -0.93764E-04   256   0.297E-03 0.501E-06
CGA:  26     0.128022583889E+00   -0.65832E-04   -0.66178E-04   256   0.709E-04-0.119E-07
CGA:  27     0.128004230754E+00   -0.18353E-04   -0.18417E-04   256   0.492E-04 0.317E-06
CGA:  28     0.127992462117E+00   -0.11769E-04   -0.11761E-04   256   0.103E-04-0.722E-07
CGA:  29     0.127990212881E+00   -0.22492E-05   -0.22231E-05   256   0.589E-05-0.124E-06
   1 F= 0.12799021E+00 E0= 0.12799021E+00  d E =-.464029E-11  mag=     2.0000
