 vasp.5.4.4.18Apr17-6-g9f103f2a35 (build Nov 21 2023 15:34:30) complex          
  
 executed on             LinuxIFC date 2026.09.21  18:17:34
 running on  256 total cores
 distrk:  each k-point on  256 cores,    1 groups
 distr:  one band on NCORES_PER_BAND=   1 cores,  256 groups


--------------------------------------------------------------------------------------------------------


 INCAR:
 POTCAR:   PAW_PBE Ni 06Sep2000                   

 ----------------------------------------------------------------------------- 
|                                                                             |
|           W    W    AA    RRRRR   N    N  II  N    N   GGGG   !!!           |
|           W    W   A  A   R    R  NN   N  II  NN   N  G    G  !!!           |
|           W    W  A    A  R    R  N N  N  II  N N  N  G       !!!           |
|           W WW W  AAAAAA  RRRRR   N  N N  II  N  N N  G  GGG   !            |
|           WW  WW  A    A  R   R   N   NN  II  N   NN  G    G                |
|           W    W  A    A  R    R  N    N  II  N    N   GGGG   !!!           |
|                                                                             |
|      For optimal performance we recommend to set                            |
|        NCORE= 4 - approx SQRT( number of cores)                             |
|      NCORE specifies how many cores store one orbital (NPAR=cpu/NCORE).     |
|      This setting can  greatly improve the performance of VASP for DFT.     |
|      The default,   NCORE=1            might be grossly inefficient         |
|      on modern multi-core architectures or massively parallel machines.     |
|      Do your own testing !!!!                                               |
|      Unfortunately you need to use the default for GW and RPA calculations. |
|      (for HF NCORE is supported but not extensively tested yet)             |
|                                                                             |
 ----------------------------------------------------------------------------- 

 POTCAR:   PAW_PBE Ni 06Sep2000                   
   VRHFIN =Ni:                                                                  
   LEXCH  = PE                                                                  
   EATOM  =  1077.9025 eV,   79.2236 Ry                                         
                                                                                
   TITEL  = PAW_PBE Ni 06Sep2000                                                
   LULTRA =        F    use ultrasoft PP ?                                      
   IUNSCR =        1    unscreen: 0-lin 1-nonlin 2-no                           
   RPACOR =    2.000    partial core radius                                     
   POMASS =   58.690; ZVAL   =   10.000    mass and valenz                      
   RCORE  =    2.300    outmost cutoff radius                                   
   RWIGS  =    2.430; RWIGS  =    1.286    wigner-seitz radius (au A)           
   ENMAX  =  269.533; ENMIN  =  202.150 eV                                      
   RCLOC  =    1.681    cutoff for local pot                                    
   LCOR   =        T    correct aug charges                                     
   LPAW   =        T    paw PP                                                  
   EAUG   =  544.565                                                            
   DEXC   =    -.009                                                            
   RMAX   =    2.808    core radius for proj-oper                               
   RAUG   =    1.300    factor for augmentation sphere                          
   RDEP   =    2.390    radius for radial grids                                 
   QCUT   =   -4.451; QGAM   =    8.902    optimization parameters              
                                                                                
   Description                                                                  
     l     E      TYP  RCUT    TYP  RCUT                                        
     2   .000     23  2.300                                                     
     2   .000     23  2.300                                                     
     0   .000     23  2.300                                                     
     0   .000     23  2.300                                                     
     1  -.200     23  2.300                                                     
     1   .000     23  2.300                                                     
     3   .000      7   .000                                                     
  local pseudopotential read in
  partial core-charges read in
  atomic valenz-charges read in
  non local Contribution for L=           2  read in
    real space projection operators read in
  non local Contribution for L=           2  read in
    real space projection operators read in
  non local Contribution for L=           0  read in
    real space projection operators read in
  non local Contribution for L=           0  read in
    real space projection operators read in
  non local Contribution for L=           1  read in
    real space projection operators read in
  non local Contribution for L=           1  read in
    real space projection operators read in
    PAW grid and wavefunctions read in
 
   number of l-projection  operators is LMAX  =           6
   number of lm-projection operators is LMMAX =          18
 
 PAW_PBE Ni 06Sep2000                   :
 energy of atom  1       EATOM=-1077.9025
 kinetic energy error for atom=    0.0030 (will be added to EATOM!!)
 
 
 POSCAR: Ni                                      
  positions in direct lattice
  No initial velocities read in
 exchange correlation table for  LEXCH =        8
   RHO(1)=    0.500       N(1)  =     2000
   RHO(2)=  100.500       N(2)  =     4000

 VTST: version 3.2, (02/03/18)

 CHAIN: initializing optimizer
 
 OPT: Using VASP Dynamics algorithm
 CHAIN: Read ICHAIN            0
 
 POSCAR: Ni                                      
  positions in direct lattice
  No initial velocities read in
 


--------------------------------------------------------------------------------------------------------


 ion  position               nearest neighbor table
   1  0.010  0.010  0.751-
 

IMPORTANT INFORMATION: All symmetrisations will be switched off!
NOSYMM: (Re-)initialisation of all symmetry stuff for point group C_1.

 
 

Automatic generation of k-mesh.
 generate k-points for:    1    1    1
Space group operators:
 irot       det(A)        alpha          n_x          n_y          n_z        tau_x        tau_y        tau_z
    1     1.000000     0.000000     1.000000     0.000000     0.000000     0.000000     0.000000     0.000000
 
 Subroutine IBZKPT returns following result:
 ===========================================
 
 Found      1 irreducible k-points:
 
 Following reciprocal coordinates:
            Coordinates               Weight
  0.000000  0.000000  0.000000      1.000000
 
 Following cartesian coordinates:
            Coordinates               Weight
  0.000000  0.000000  0.000000      1.000000
 


--------------------------------------------------------------------------------------------------------




 Dimension of arrays:
   k-points           NKPTS =      1   k-points in BZ     NKDIM =      1   number of bands    NBANDS=    256
   number of dos      NEDOS =    301   number of ions     NIONS =      1
   non local maximal  LDIM  =      6   non local SUM 2l+1 LMDIM =     18
   total plane-waves  NPLWV = ******
   max r-space proj   IRMAX =      1   max aug-charges    IRDMAX=  13691
   dimension x,y,z NGX =   112 NGY =  112 NGZ =  112
   dimension x,y,z NGXF=   224 NGYF=  224 NGZF=  224
   support grid    NGXF=   224 NGYF=  224 NGZF=  224
   ions per type =               1
   NGX,Y,Z   is equivalent  to a cutoff of  12.41, 12.41, 12.41 a.u.
   NGXF,Y,Z  is equivalent  to a cutoff of  24.83, 24.83, 24.83 a.u.

 SYSTEM =  Ni                                      
 POSCAR =  Ni                                      

 Startparameter for this run:
   NWRITE =      2    write-flag & timer
   PREC   = accura    normal or accurate (medium, high low for compatibility)
   ISTART =      0    job   : 0-new  1-cont  2-samecut
   ICHARG =      2    charge: 1-file 2-atom 10-const
   ISPIN  =      2    spin polarized calculation?
   LNONCOLLINEAR =      F non collinear calculations
   LSORBIT =      F    spin-orbit coupling
   INIWAV =      1    electr: 0-lowe 1-rand  2-diag
   LASPH  =      T    aspherical Exc in radial PAW
   METAGGA=      F    non-selfconsistent MetaGGA calc.

 Electronic Relaxation 1
   ENCUT  =  520.0 eV  38.22 Ry    6.18 a.u.  27.89 27.89 27.89*2*pi/ulx,y,z
   ENINI  =  520.0     initial cutoff
   ENAUG  =  544.6 eV  augmentation charge cutoff
   NELM   =    200;   NELMIN=  2; NELMDL= -5     # of ELM steps 
   EDIFF  = 0.1E-04   stopping-criterion for ELM
   LREAL  =      F    real-space projection
   NLSPLINE    = F    spline interpolate recip. space projectors
   LCOMPAT=      F    compatible to vasp.4.4
   GGA_COMPAT  = T    GGA compatible to vasp.4.4-vasp.4.6
   LMAXPAW     = -100 max onsite density
   LMAXMIX     =    4 max onsite mixed and CHGCAR
   VOSKOWN=      0    Vosko Wilk Nusair interpolation
   ROPT   =    0.00000
 Ionic relaxation
   EDIFFG = 0.1E-03   stopping-criterion for IOM
   NSW    =      0    number of steps for IOM
   NBLOCK =      1;   KBLOCK =      1    inner block; outer block 
   IBRION =     -1    ionic relax: 0-MD 1-quasi-New 2-CG
   NFREE  =      0    steps in history (QN), initial steepest desc. (CG)
   ISIF   =      0    stress and relaxation
   IWAVPR =     10    prediction:  0-non 1-charg 2-wave 3-comb
   ISYM   =      0    0-nonsym 1-usesym 2-fastsym
   LCORR  =      T    Harris-Foulkes like correction to forces

   POTIM  = 0.5000    time-step for ionic-motion
   TEIN   =    0.0    initial temperature
   TEBEG  =    0.0;   TEEND  =   0.0 temperature during run
   SMASS  =  -3.00    Nose mass-parameter (am)
   estimated Nose-frequenzy (Omega)   =  0.10E-29 period in steps =****** mass=  -0.514E-26a.u.
   SCALEE = 1.0000    scale energy and forces
   NPACO  =    256;   APACO  = 16.0  distance and # of slots for P.C.
   PSTRESS=    0.0 pullay stress

  Mass of Ions in am
   POMASS =  58.69
  Ionic Valenz
   ZVAL   =  10.00
  Atomic Wigner-Seitz radii
   RWIGS  =  -1.00
  virtual crystal weights 
   VCA    =   1.00
   NELECT =      10.0000    total number of electrons
   NUPDOWN=       2.0000    fix difference up-down

 DOS related values:
   EMIN   =  10.00;   EMAX   =-10.00  energy-range for DOS
   EFERMI =   0.00
   ISMEAR =     0;   SIGMA  =   0.05  broadening in eV -4-tet -1-fermi 0-gaus

 Electronic relaxation 2 (details)
   IALGO  =     58    algorithm
   LDIAG  =      T    sub-space diagonalisation (order eigenvalues)
   LSUBROT=      F    optimize rotation matrix (better conditioning)
   TURBO    =      0    0=normal 1=particle mesh
   IRESTART =      0    0=no restart 2=restart with 2 vectors
   NREBOOT  =      0    no. of reboots
   NMIN     =      0    reboot dimension
   EREF     =   0.00    reference energy to select bands
   IMIX   =      4    mixing-type and parameters
     AMIX     =   0.40;   BMIX     =  1.00
     AMIX_MAG =   1.60;   BMIX_MAG =  1.00
     AMIN     =   0.10
     WC   =   100.;   INIMIX=   1;  MIXPRE=   1;  MAXMIX= -45

 Intra band minimization:
   WEIMIN = 0.0000     energy-eigenvalue tresh-hold
   EBREAK =  0.98E-08  absolut break condition
   DEPER  =   0.30     relativ break condition  

   TIME   =   0.40     timestep for ELM

  volume/ion in A,a.u.               =    3375.00     22775.62
  Fermi-wavevector in a.u.,A,eV,Ry     =   0.235135  0.444340  0.752244  0.055288
  Thomas-Fermi vector in A             =   1.033980
 
 Write flags
   LWAVE        =      F    write WAVECAR
   LDOWNSAMPLE  =      F    k-point downsampling of WAVECAR
   LCHARG       =      F    write CHGCAR
   LVTOT        =      F    write LOCPOT, total local potential
   LVHAR        =      F    write LOCPOT, Hartree potential only
   LELF         =      F    write electronic localiz. function (ELF)
   LORBIT       =      0    0 simple, 1 ext, 2 COOP (PROOUT), +10 PAW based schemes


 Dipole corrections
   LMONO  =      F    monopole corrections only (constant potential shift)
   LDIPOL =      F    correct potential (dipole corrections)
   IDIPOL =      0    1-x, 2-y, 3-z, 4-all directions 
   EPSILON=  1.0000000 bulk dielectric constant

 LDA+U is selected, type is set to LDAUTYPE =  2
   angular momentum for each species LDAUL =     2
   U (eV)           for each species LDAUU =   4.0
   J (eV)           for each species LDAUJ =   0.0
 Exchange correlation treatment:
   GGA     =    --    GGA type
   LEXCH   =     8    internal setting for exchange type
   VOSKOWN=      0    Vosko Wilk Nusair interpolation
   LHFCALC =     F    Hartree Fock is set to
   LHFONE  =     F    Hartree Fock one center treatment
   AEXX    =    0.0000 exact exchange contribution

 Linear response parameters
   LEPSILON=     F    determine dielectric tensor
   LRPA    =     F    only Hartree local field effects (RPA)
   LNABLA  =     F    use nabla operator in PAW spheres
   LVEL    =     F    velocity operator in full k-point grid
   LINTERFAST=   F  fast interpolation
   KINTER  =     0    interpolate to denser k-point grid
   CSHIFT  =0.1000    complex shift for real part using Kramers Kronig
   OMEGAMAX=  -1.0    maximum frequency
   DEG_THRESHOLD= 0.2000000E-02 threshold for treating states as degnerate
   RTIME   =   -0.100 relaxation time in fs
  (WPLASMAI=    0.000 imaginary part of plasma frequency in eV, 0.658/RTIME)
   DFIELD  = 0.0000000 0.0000000 0.0000000 field for delta impulse in time
 
 Orbital magnetization related:
   ORBITALMAG=     F  switch on orbital magnetization
   LCHIMAG   =     F  perturbation theory with respect to B field
   DQ        =  0.001000  dq finite difference perturbation B field
   LLRAUG    =     F  two centre corrections for induced B field



--------------------------------------------------------------------------------------------------------


 Static calculation
 charge density and potential will be updated during run
 spin polarized calculation
 Conjugate gradient for all bands (Freysoldt, et al. PRB 79, 241103 (2009))
 preconditioned conjugated gradient                                        
 perform sub-space diagonalisation
    before iterative eigenvector-optimisation
 modified Broyden-mixing scheme, WC =      100.0
 initial mixing is a Kerker type mixing with AMIX =  0.4000 and BMIX =      1.0000
 Hartree-type preconditioning will be used
 using additional bands          251
 reciprocal scheme for non local part
 use partial core corrections
 no Harris-corrections to forces 
 use gradient corrections 
 use of overlap-Matrix (Vanderbilt PP)
 Gauss-broadening in eV      SIGMA  =   0.05


--------------------------------------------------------------------------------------------------------


  energy-cutoff  :      520.00
  volume of cell :     3375.00
      direct lattice vectors                 reciprocal lattice vectors
    15.000000000  0.000000000  0.000000000     0.066666667  0.000000000  0.000000000
     0.000000000 15.000000000  0.000000000     0.000000000  0.066666667  0.000000000
     0.000000000  0.000000000 15.000000000     0.000000000  0.000000000  0.066666667

  length of vectors
    15.000000000 15.000000000 15.000000000     0.066666667  0.066666667  0.066666667


 
 k-points in units of 2pi/SCALE and weight: read from INCAR                         
   0.00000000  0.00000000  0.00000000       1.000
 
 k-points in reciprocal lattice and weights: read from INCAR                         
   0.00000000  0.00000000  0.00000000       1.000
 
 position of ions in fractional coordinates (direct lattice) 
   0.01000000  0.01000000  0.75100000
 
 position of ions in cartesian coordinates  (Angst):
   0.15000000  0.15000000 11.26500000
 


--------------------------------------------------------------------------------------------------------


 k-point  1 :   0.0000 0.0000 0.0000  plane waves:   90879

 maximum and minimum number of plane-waves per node :     90879    90879

 maximum number of plane-waves:     90879
 maximum index in each direction: 
   IXMAX=   27   IYMAX=   27   IZMAX=   27
   IXMIN=  -27   IYMIN=  -27   IZMIN=  -27


 serial   3D FFT for wavefunctions
 parallel 3D FFT for charge:
    minimum data exchange during FFTs selected (reduces bandwidth)


 total amount of memory used by VASP MPI-rank0   177231. kBytes
=======================================================================

   base      :      30000. kBytes
   nonl-proj :      14540. kBytes
   fftplans  :       7479. kBytes
   grid      :     116433. kBytes
   one-center:         31. kBytes
   wavefun   :       8748. kBytes
 
     INWAV:  cpu time    0.0000: real time    0.0000
 Broyden mixing: mesh for mixing (old mesh)
   NGX = 55   NGY = 55   NGZ = 55
  (NGX  =224   NGY  =224   NGZ  =224)
  gives a total of 166375 points

 initial charge density was supplied:
 charge density of overlapping atoms calculated
 number of electron      10.0000000 magnetization       2.0000000
 keeping initial charge density in first step


--------------------------------------------------------------------------------------------------------


 Maximum index for augmentation-charges          657 (set IRDMAX)


--------------------------------------------------------------------------------------------------------


 First call to EWALD:  gamma=   0.118
 Maximum number of real-space cells 3x 3x 3
 Maximum number of reciprocal cells 3x 3x 3

    FEWALD:  cpu time    0.0118: real time    0.0121


--------------------------------------- Iteration      1(   1)  ---------------------------------------


    POTLOK:  cpu time    2.4846: real time    2.5198
    SETDIJ:  cpu time    0.4443: real time    0.4578
    TRIAL :  cpu time    8.5914: real time    8.6301
    CORREC:  cpu time    0.2155: real time    0.2199
    --------------------------------------------
      LOOP:  cpu time   11.7446: real time   11.8420

 eigenvalue-minimisations  :  1024
 total energy-change (2. order) : 0.2582362E+02  (-0.3453428E+03)
 number of electron      10.0000000 magnetization       2.0000000
 augmentation part       10.0000000 magnetization       2.0000000

 Free energy of the ion-electron system (eV)
  ---------------------------------------------------
  alpha Z        PSCENC =         0.29871659
  Ewald energy   TEWEN  =      -136.18826670
  -Hartree energ DENC   =      -858.27464280
  -exchange      EXHF   =         0.00000000
  -V(xc)+E(xc)   XCENC  =        29.60582285
  PAW double counting   =       870.17725088     -922.10043881
  entropy T*S    EENTRO =        -0.00327986
  eigenvalues    EBANDS =       -35.59106476
  atomic energy  EATOM  =      1077.89951942
  ---------------------------------------------------
  free energy    TOTEN  =        25.82361681 eV

  energy without entropy =       25.82689667  energy(sigma->0) =       25.82525674


--------------------------------------------------------------------------------------------------------




--------------------------------------- Iteration      1(   2)  ---------------------------------------


    TRIAL :  cpu time   33.5901: real time   38.6284
    CORREC:  cpu time    0.3989: real time    0.4019
    --------------------------------------------
      LOOP:  cpu time   34.0106: real time   39.1410

 eigenvalue-minimisations  :  1536
 total energy-change (2. order) :-0.2390685E+02  (-0.2386173E+02)
 number of electron      10.0000000 magnetization       2.0000000
 augmentation part       10.0000000 magnetization       2.0000000

 Free energy of the ion-electron system (eV)
  ---------------------------------------------------
  alpha Z        PSCENC =         0.29871659
  Ewald energy   TEWEN  =      -136.18826670
  -Hartree energ DENC   =      -858.27464280
  -exchange      EXHF   =         0.00000000
  -V(xc)+E(xc)   XCENC  =        29.60582285
  PAW double counting   =       870.17725088     -922.10043881
  entropy T*S    EENTRO =        -0.04948018
  eigenvalues    EBANDS =       -59.45171265
  atomic energy  EATOM  =      1077.89951942
  ---------------------------------------------------
  free energy    TOTEN  =         1.91676860 eV

  energy without entropy =        1.96624878  energy(sigma->0) =        1.94150869


--------------------------------------------------------------------------------------------------------




--------------------------------------- Iteration      1(   3)  ---------------------------------------


    TRIAL :  cpu time    8.8603: real time    8.8711
    CORREC:  cpu time    0.1279: real time    0.1279
    --------------------------------------------
      LOOP:  cpu time    9.0092: real time    9.0200

 eigenvalue-minimisations  :  1024
 total energy-change (2. order) :-0.4790703E-01  (-0.4789661E-01)
 number of electron      10.0000000 magnetization       2.0000000
 augmentation part       10.0000000 magnetization       2.0000000

 Free energy of the ion-electron system (eV)
  ---------------------------------------------------
  alpha Z        PSCENC =         0.29871659
  Ewald energy   TEWEN  =      -136.18826670
  -Hartree energ DENC   =      -858.27464280
  -exchange      EXHF   =         0.00000000
  -V(xc)+E(xc)   XCENC  =        29.60582285
  PAW double counting   =       870.17725088     -922.10043881
  entropy T*S    EENTRO =        -0.04949074
  eigenvalues    EBANDS =       -59.49960912
  atomic energy  EATOM  =      1077.89951942
  ---------------------------------------------------
  free energy    TOTEN  =         1.86886157 eV

  energy without entropy =        1.91835231  energy(sigma->0) =        1.89360694


--------------------------------------------------------------------------------------------------------




--------------------------------------- Iteration      1(   4)  ---------------------------------------


    TRIAL :  cpu time   13.6550: real time   13.6654
    CORREC:  cpu time    0.1052: real time    0.1052
    --------------------------------------------
      LOOP:  cpu time   13.7693: real time   13.7799

 eigenvalue-minimisations  :  1536
 total energy-change (2. order) :-0.9947558E-04  (-0.9947590E-04)
 number of electron      10.0000000 magnetization       2.0000000
 augmentation part       10.0000000 magnetization       2.0000000

 Free energy of the ion-electron system (eV)
  ---------------------------------------------------
  alpha Z        PSCENC =         0.29871659
  Ewald energy   TEWEN  =      -136.18826670
  -Hartree energ DENC   =      -858.27464280
  -exchange      EXHF   =         0.00000000
  -V(xc)+E(xc)   XCENC  =        29.60582285
  PAW double counting   =       870.17725088     -922.10043881
  entropy T*S    EENTRO =        -0.04949074
  eigenvalues    EBANDS =       -59.49970859
  atomic energy  EATOM  =      1077.89951942
  ---------------------------------------------------
  free energy    TOTEN  =         1.86876209 eV

  energy without entropy =        1.91825283  energy(sigma->0) =        1.89350746


--------------------------------------------------------------------------------------------------------




--------------------------------------- Iteration      1(   5)  ---------------------------------------


    TRIAL :  cpu time    8.6587: real time    8.6829
    CORREC:  cpu time    0.0908: real time    0.0909
    CHARGE:  cpu time    1.3330: real time    1.3558
    --------------------------------------------
      LOOP:  cpu time   10.0900: real time   10.1399

 eigenvalue-minimisations  :  1024
 total energy-change (2. order) :-0.7913059E-08  (-0.7669255E-08)
 number of electron       9.9999998 magnetization       2.0000000
 augmentation part        6.4482750 magnetization       0.7385571

 Free energy of the ion-electron system (eV)
  ---------------------------------------------------
  alpha Z        PSCENC =         0.29871659
  Ewald energy   TEWEN  =      -136.18826670
  -Hartree energ DENC   =      -858.27464280
  -exchange      EXHF   =         0.00000000
  -V(xc)+E(xc)   XCENC  =        29.60582285
  PAW double counting   =       870.17725088     -922.10043881
  entropy T*S    EENTRO =        -0.04949074
  eigenvalues    EBANDS =       -59.49970860
  atomic energy  EATOM  =      1077.89951942
  ---------------------------------------------------
  free energy    TOTEN  =         1.86876208 eV

  energy without entropy =        1.91825283  energy(sigma->0) =        1.89350745


--------------------------------------------------------------------------------------------------------




--------------------------------------- Iteration      1(   6)  ---------------------------------------


    POTLOK:  cpu time    2.4995: real time    2.4998
    SETDIJ:  cpu time    0.4261: real time    0.4261
    TRIAL :  cpu time    3.6005: real time    3.9765
    CORREC:  cpu time    6.1216: real time    6.3079
    CHARGE:  cpu time    1.4420: real time    1.4438
    --------------------------------------------
      LOOP:  cpu time   14.1070: real time   14.6714

 eigenvalue-minimisations  :     0
 total energy-change (2. order) :-0.1542766E+00  (-0.4686167E-01)
 number of electron       9.9999998 magnetization       2.0000000
 augmentation part        6.3964494 magnetization       0.7198502

 Free energy of the ion-electron system (eV)
  ---------------------------------------------------
  alpha Z        PSCENC =         0.29871659
  Ewald energy   TEWEN  =      -136.18826670
  -Hartree energ DENC   =      -871.73273673
  -exchange      EXHF   =         0.00000000
  -V(xc)+E(xc)   XCENC  =        29.98261786
  PAW double counting   =       891.75258727     -945.18242867
  entropy T*S    EENTRO =        -0.04949073
  eigenvalues    EBANDS =       -45.06603282
  atomic energy  EATOM  =      1077.89951942
  ---------------------------------------------------
  free energy    TOTEN  =         1.71448548 eV

  energy without entropy =        1.76397622  energy(sigma->0) =        1.73923085


--------------------------------------------------------------------------------------------------------




--------------------------------------- Iteration      1(   7)  ---------------------------------------


    POTLOK:  cpu time    2.5619: real time    2.5631
    SETDIJ:  cpu time    0.4254: real time    0.4258
    TRIAL :  cpu time    3.5702: real time    3.6602
    CORREC:  cpu time    6.1535: real time    6.2488
    CHARGE:  cpu time    1.3156: real time    1.3163
    --------------------------------------------
      LOOP:  cpu time   14.0468: real time   14.2342

 eigenvalue-minimisations  :     0
 total energy-change (2. order) :-0.4714890E-01  (-0.1779586E-01)
 number of electron       9.9999998 magnetization       2.0000000
 augmentation part        6.4030131 magnetization       0.6637595

 Free energy of the ion-electron system (eV)
  ---------------------------------------------------
  alpha Z        PSCENC =         0.29871659
  Ewald energy   TEWEN  =      -136.18826670
  -Hartree energ DENC   =      -865.28596502
  -exchange      EXHF   =         0.00000000
  -V(xc)+E(xc)   XCENC  =        29.69654048
  PAW double counting   =       885.47340159     -936.91938249
  entropy T*S    EENTRO =        -0.04948880
  eigenvalues    EBANDS =       -53.25773656
  atomic energy  EATOM  =      1077.89951942
  ---------------------------------------------------
  free energy    TOTEN  =         1.66733658 eV

  energy without entropy =        1.71682538  energy(sigma->0) =        1.69208098


--------------------------------------------------------------------------------------------------------




--------------------------------------- Iteration      1(   8)  ---------------------------------------


    POTLOK:  cpu time    2.5559: real time    2.5577
    SETDIJ:  cpu time    0.4275: real time    0.4275
    TRIAL :  cpu time    3.5762: real time    3.6659
    CORREC:  cpu time    5.0914: real time    5.0948
    CHARGE:  cpu time    1.3120: real time    1.3137
    --------------------------------------------
      LOOP:  cpu time   12.9890: real time   13.0857

 eigenvalue-minimisations  :     0
 total energy-change (2. order) :-0.1779284E-01  ( 0.5810489E-02)
 number of electron       9.9999998 magnetization       2.0000000
 augmentation part        6.4040031 magnetization       0.6608251

 Free energy of the ion-electron system (eV)
  ---------------------------------------------------
  alpha Z        PSCENC =         0.29871659
  Ewald energy   TEWEN  =      -136.18826670
  -Hartree energ DENC   =      -864.89304896
  -exchange      EXHF   =         0.00000000
  -V(xc)+E(xc)   XCENC  =        29.68964642
  PAW double counting   =       884.22850266     -935.85324759
  entropy T*S    EENTRO =        -0.04940097
  eigenvalues    EBANDS =       -53.48278931
  atomic energy  EATOM  =      1077.89951942
  ---------------------------------------------------
  free energy    TOTEN  =         1.64954374 eV

  energy without entropy =        1.69894470  energy(sigma->0) =        1.67424422


--------------------------------------------------------------------------------------------------------




--------------------------------------- Iteration      1(   9)  ---------------------------------------


    POTLOK:  cpu time    2.4897: real time    2.4913
    SETDIJ:  cpu time    0.4252: real time    0.4252
    TRIAL :  cpu time    3.7211: real time    3.7995
    CORREC:  cpu time    5.0658: real time    5.0931
    CHARGE:  cpu time    1.3070: real time    1.3078
    --------------------------------------------
      LOOP:  cpu time   13.0258: real time   13.1341

 eigenvalue-minimisations  :     0
 total energy-change (2. order) :-0.7218560E-02  ( 0.3930491E-02)
 number of electron       9.9999999 magnetization       1.9999999
 augmentation part        6.4016254 magnetization       0.6648135

 Free energy of the ion-electron system (eV)
  ---------------------------------------------------
  alpha Z        PSCENC =         0.29871659
  Ewald energy   TEWEN  =      -136.18826670
  -Hartree energ DENC   =      -864.83753658
  -exchange      EXHF   =         0.00000000
  -V(xc)+E(xc)   XCENC  =        29.68891438
  PAW double counting   =       884.04713978     -935.72101521
  entropy T*S    EENTRO =        -0.04551628
  eigenvalues    EBANDS =       -53.49574553
  atomic energy  EATOM  =      1077.89951942
  ---------------------------------------------------
  free energy    TOTEN  =         1.64232518 eV

  energy without entropy =        1.68784146  energy(sigma->0) =        1.66508332


--------------------------------------------------------------------------------------------------------




--------------------------------------- Iteration      1(  10)  ---------------------------------------


    POTLOK:  cpu time    2.5060: real time    2.5074
    SETDIJ:  cpu time    0.4262: real time    0.4263
    TRIAL :  cpu time    3.5910: real time    3.6658
    CORREC:  cpu time    6.1038: real time    6.2118
    CHARGE:  cpu time    1.3013: real time    1.3045
    --------------------------------------------
      LOOP:  cpu time   13.9403: real time   14.1279

 eigenvalue-minimisations  :     0
 total energy-change (2. order) :-0.1365922E+00  (-0.5720920E+00)
 number of electron       9.9999999 magnetization       1.9999999
 augmentation part        6.4030109 magnetization       0.6645002

 Free energy of the ion-electron system (eV)
  ---------------------------------------------------
  alpha Z        PSCENC =         0.29871659
  Ewald energy   TEWEN  =      -136.18826670
  -Hartree energ DENC   =      -864.61868869
  -exchange      EXHF   =         0.00000000
  -V(xc)+E(xc)   XCENC  =        29.68765305
  PAW double counting   =       883.88646859     -935.36972441
  entropy T*S    EENTRO =        -0.02795121
  eigenvalues    EBANDS =       -54.04442860
  atomic energy  EATOM  =      1077.89951942
  ---------------------------------------------------
  free energy    TOTEN  =         1.50573296 eV

  energy without entropy =        1.53368417  energy(sigma->0) =        1.51970857


--------------------------------------------------------------------------------------------------------




--------------------------------------- Iteration      1(  11)  ---------------------------------------


    POTLOK:  cpu time    2.5476: real time    2.5807
    SETDIJ:  cpu time    0.4250: real time    0.4260
    TRIAL :  cpu time    7.2549: real time    7.3434
    CORREC:  cpu time    4.9673: real time    4.9839
    CHARGE:  cpu time    1.3115: real time    1.3146
    --------------------------------------------
      LOOP:  cpu time   16.5295: real time   16.6721

 eigenvalue-minimisations  :     0
 total energy-change (2. order) :-0.5270165E+00  ( 0.2904288E-01)
 number of electron       9.9999999 magnetization       1.9999999
 augmentation part        6.4023458 magnetization       0.6628399

 Free energy of the ion-electron system (eV)
  ---------------------------------------------------
  alpha Z        PSCENC =         0.29871659
  Ewald energy   TEWEN  =      -136.18826670
  -Hartree energ DENC   =      -864.88604705
  -exchange      EXHF   =         0.00000000
  -V(xc)+E(xc)   XCENC  =        29.73850198
  PAW double counting   =       884.22062253     -935.27626332
  entropy T*S    EENTRO =        -0.01703148
  eigenvalues    EBANDS =       -54.80011577
  atomic energy  EATOM  =      1077.89951942
  ---------------------------------------------------
  free energy    TOTEN  =         0.97871647 eV

  energy without entropy =        0.99574795  energy(sigma->0) =        0.98723221


--------------------------------------------------------------------------------------------------------




--------------------------------------- Iteration      1(  12)  ---------------------------------------


    POTLOK:  cpu time    2.5183: real time    2.5262
    SETDIJ:  cpu time    0.4375: real time    0.4383
    TRIAL :  cpu time    3.4970: real time    3.6060
    CORREC:  cpu time    6.0908: real time    6.1611
    CHARGE:  cpu time    1.4102: real time    1.4108
    --------------------------------------------
      LOOP:  cpu time   13.9692: real time   14.1596

 eigenvalue-minimisations  :     0
 total energy-change (2. order) :-0.3825313E+00  (-0.8276478E+00)
 number of electron      10.0000000 magnetization       1.9999999
 augmentation part        6.4022967 magnetization       0.6618624

 Free energy of the ion-electron system (eV)
  ---------------------------------------------------
  alpha Z        PSCENC =         0.29871659
  Ewald energy   TEWEN  =      -136.18826670
  -Hartree energ DENC   =      -865.03252188
  -exchange      EXHF   =         0.00000000
  -V(xc)+E(xc)   XCENC  =        29.79696630
  PAW double counting   =       884.57225681     -935.17242543
  entropy T*S    EENTRO =        -0.00000644
  eigenvalues    EBANDS =       -55.56102848
  atomic energy  EATOM  =      1077.89951942
  ---------------------------------------------------
  free energy    TOTEN  =         0.59618515 eV

  energy without entropy =        0.59619159  energy(sigma->0) =        0.59618837


--------------------------------------------------------------------------------------------------------




--------------------------------------- Iteration      1(  13)  ---------------------------------------


    POTLOK:  cpu time    2.4662: real time    2.4672
    SETDIJ:  cpu time    0.4256: real time    0.4257
    TRIAL :  cpu time    3.4857: real time    3.5773
    CORREC:  cpu time    6.0728: real time    6.1473
    CHARGE:  cpu time    1.3040: real time    1.3046
    --------------------------------------------
      LOOP:  cpu time   13.7705: real time   13.9398

 eigenvalue-minimisations  :     0
 total energy-change (2. order) :-0.4368483E+00  (-0.1832603E-01)
 number of electron      10.0000000 magnetization       1.9999999
 augmentation part        6.4015779 magnetization       0.6585507

 Free energy of the ion-electron system (eV)
  ---------------------------------------------------
  alpha Z        PSCENC =         0.29871659
  Ewald energy   TEWEN  =      -136.18826670
  -Hartree energ DENC   =      -865.27187388
  -exchange      EXHF   =         0.00000000
  -V(xc)+E(xc)   XCENC  =        29.86815303
  PAW double counting   =       884.99729114     -935.09793870
  entropy T*S    EENTRO =        -0.00000000
  eigenvalues    EBANDS =       -56.34625756
  atomic energy  EATOM  =      1077.89951942
  ---------------------------------------------------
  free energy    TOTEN  =         0.15933690 eV

  energy without entropy =        0.15933690  energy(sigma->0) =        0.15933690


--------------------------------------------------------------------------------------------------------




--------------------------------------- Iteration      1(  14)  ---------------------------------------


    POTLOK:  cpu time    2.6046: real time    2.6051
    SETDIJ:  cpu time    0.4244: real time    0.4246
    TRIAL :  cpu time    3.5434: real time    3.6338
    CORREC:  cpu time    6.0372: real time    6.1955
    CHARGE:  cpu time    1.3459: real time    1.3463
    --------------------------------------------
      LOOP:  cpu time   13.9682: real time   14.2180

 eigenvalue-minimisations  :     0
 total energy-change (2. order) :-0.2063514E-01  (-0.7365455E-02)
 number of electron       9.9999999 magnetization       1.9999999
 augmentation part        6.4070900 magnetization       0.6474731

 Free energy of the ion-electron system (eV)
  ---------------------------------------------------
  alpha Z        PSCENC =         0.29871659
  Ewald energy   TEWEN  =      -136.18826670
  -Hartree energ DENC   =      -865.48031634
  -exchange      EXHF   =         0.00000000
  -V(xc)+E(xc)   XCENC  =        29.87323092
  PAW double counting   =       885.94952350     -935.87601752
  entropy T*S    EENTRO =        -0.00000000
  eigenvalues    EBANDS =       -56.33768811
  atomic energy  EATOM  =      1077.89951942
  ---------------------------------------------------
  free energy    TOTEN  =         0.13870175 eV

  energy without entropy =        0.13870175  energy(sigma->0) =        0.13870175


--------------------------------------------------------------------------------------------------------




--------------------------------------- Iteration      1(  15)  ---------------------------------------


    POTLOK:  cpu time    2.5193: real time    2.5200
    SETDIJ:  cpu time    0.4264: real time    0.4266
    TRIAL :  cpu time    3.7475: real time    3.8317
    CORREC:  cpu time    6.0252: real time    6.1000
    CHARGE:  cpu time    1.3361: real time    1.3382
    --------------------------------------------
      LOOP:  cpu time   14.0739: real time   14.2356

 eigenvalue-minimisations  :     0
 total energy-change (2. order) :-0.7516315E-02  (-0.1494118E-02)
 number of electron       9.9999999 magnetization       1.9999999
 augmentation part        6.4005605 magnetization       0.6411489

 Free energy of the ion-electron system (eV)
  ---------------------------------------------------
  alpha Z        PSCENC =         0.29871659
  Ewald energy   TEWEN  =      -136.18826670
  -Hartree energ DENC   =      -866.26608672
  -exchange      EXHF   =         0.00000000
  -V(xc)+E(xc)   XCENC  =        29.90583882
  PAW double counting   =       887.21529624     -937.22668293
  entropy T*S    EENTRO =        -0.00000000
  eigenvalues    EBANDS =       -55.50714929
  atomic energy  EATOM  =      1077.89951942
  ---------------------------------------------------
  free energy    TOTEN  =         0.13118544 eV

  energy without entropy =        0.13118544  energy(sigma->0) =        0.13118544


--------------------------------------------------------------------------------------------------------




--------------------------------------- Iteration      1(  16)  ---------------------------------------


    POTLOK:  cpu time    2.5493: real time    2.5508
    SETDIJ:  cpu time    0.4257: real time    0.4258
    TRIAL :  cpu time    3.4766: real time    3.5710
    CORREC:  cpu time    6.0090: real time    6.0984
    CHARGE:  cpu time    1.3289: real time    1.3291
    --------------------------------------------
      LOOP:  cpu time   13.8119: real time   13.9980

 eigenvalue-minimisations  :     0
 total energy-change (2. order) :-0.1490519E-02  (-0.7325043E-03)
 number of electron       9.9999999 magnetization       1.9999999
 augmentation part        6.4043603 magnetization       0.6376235

 Free energy of the ion-electron system (eV)
  ---------------------------------------------------
  alpha Z        PSCENC =         0.29871659
  Ewald energy   TEWEN  =      -136.18826670
  -Hartree energ DENC   =      -865.42858172
  -exchange      EXHF   =         0.00000000
  -V(xc)+E(xc)   XCENC  =        29.86889897
  PAW double counting   =       886.38485385     -936.14595491
  entropy T*S    EENTRO =        -0.00000000
  eigenvalues    EBANDS =       -56.55949057
  atomic energy  EATOM  =      1077.89951942
  ---------------------------------------------------
  free energy    TOTEN  =         0.12969492 eV

  energy without entropy =        0.12969492  energy(sigma->0) =        0.12969492


--------------------------------------------------------------------------------------------------------




--------------------------------------- Iteration      1(  17)  ---------------------------------------


    POTLOK:  cpu time    2.8593: real time    2.8597
    SETDIJ:  cpu time    0.4338: real time    0.4338
    TRIAL :  cpu time    3.5059: real time    3.6089
    CORREC:  cpu time    6.7788: real time    6.8832
    CHARGE:  cpu time    1.2537: real time    1.2718
    --------------------------------------------
      LOOP:  cpu time   14.8473: real time   15.0751

 eigenvalue-minimisations  :     0
 total energy-change (2. order) :-0.7328383E-03  (-0.2091908E-03)
 number of electron       9.9999999 magnetization       1.9999999
 augmentation part        6.4048510 magnetization       0.6366239

 Free energy of the ion-electron system (eV)
  ---------------------------------------------------
  alpha Z        PSCENC =         0.29871659
  Ewald energy   TEWEN  =      -136.18826670
  -Hartree energ DENC   =      -865.80128304
  -exchange      EXHF   =         0.00000000
  -V(xc)+E(xc)   XCENC  =        29.88598059
  PAW double counting   =       886.61004167     -936.52250648
  entropy T*S    EENTRO =        -0.00000000
  eigenvalues    EBANDS =       -56.05323997
  atomic energy  EATOM  =      1077.89951942
  ---------------------------------------------------
  free energy    TOTEN  =         0.12896208 eV

  energy without entropy =        0.12896208  energy(sigma->0) =        0.12896208


--------------------------------------------------------------------------------------------------------




--------------------------------------- Iteration      1(  18)  ---------------------------------------


    POTLOK:  cpu time    2.3848: real time    2.4585
    SETDIJ:  cpu time    0.4031: real time    0.4258
    TRIAL :  cpu time    3.6118: real time    3.7663
    CORREC:  cpu time    5.9502: real time    6.0456
    CHARGE:  cpu time    1.2965: real time    1.2967
    --------------------------------------------
      LOOP:  cpu time   13.6637: real time   14.0102

 eigenvalue-minimisations  :     0
 total energy-change (2. order) :-0.2087988E-03  (-0.4039469E-04)
 number of electron       9.9999999 magnetization       1.9999999
 augmentation part        6.4035269 magnetization       0.6364972

 Free energy of the ion-electron system (eV)
  ---------------------------------------------------
  alpha Z        PSCENC =         0.29871659
  Ewald energy   TEWEN  =      -136.18826670
  -Hartree energ DENC   =      -865.82523586
  -exchange      EXHF   =         0.00000000
  -V(xc)+E(xc)   XCENC  =        29.88712492
  PAW double counting   =       886.54239821     -936.48642051
  entropy T*S    EENTRO =        -0.00000000
  eigenvalues    EBANDS =       -55.99908278
  atomic energy  EATOM  =      1077.89951942
  ---------------------------------------------------
  free energy    TOTEN  =         0.12875328 eV

  energy without entropy =        0.12875328  energy(sigma->0) =        0.12875328


--------------------------------------------------------------------------------------------------------




--------------------------------------- Iteration      1(  19)  ---------------------------------------


    POTLOK:  cpu time    2.5169: real time    2.5172
    SETDIJ:  cpu time    0.4272: real time    0.4273
    TRIAL :  cpu time    3.5784: real time    3.7222
    CORREC:  cpu time    5.8711: real time    6.1034
    CHARGE:  cpu time    1.3141: real time    1.3144
    --------------------------------------------
      LOOP:  cpu time   13.7248: real time   14.1017

 eigenvalue-minimisations  :     0
 total energy-change (2. order) :-0.4040216E-04  (-0.6265069E-04)
 number of electron       9.9999999 magnetization       1.9999999
 augmentation part        6.4041092 magnetization       0.6369445

 Free energy of the ion-electron system (eV)
  ---------------------------------------------------
  alpha Z        PSCENC =         0.29871659
  Ewald energy   TEWEN  =      -136.18826670
  -Hartree energ DENC   =      -865.67018642
  -exchange      EXHF   =         0.00000000
  -V(xc)+E(xc)   XCENC  =        29.88016558
  PAW double counting   =       886.39229338     -936.28853452
  entropy T*S    EENTRO =        -0.00000000
  eigenvalues    EBANDS =       -56.19499445
  atomic energy  EATOM  =      1077.89951942
  ---------------------------------------------------
  free energy    TOTEN  =         0.12871288 eV

  energy without entropy =        0.12871288  energy(sigma->0) =        0.12871288


--------------------------------------------------------------------------------------------------------




--------------------------------------- Iteration      1(  20)  ---------------------------------------


    POTLOK:  cpu time    2.4647: real time    2.4651
    SETDIJ:  cpu time    0.4258: real time    0.4258
    TRIAL :  cpu time    3.5255: real time    3.6169
    CORREC:  cpu time   24.3460: real time   24.7277
    CHARGE:  cpu time    1.2599: real time    1.2867
    --------------------------------------------
      LOOP:  cpu time   32.0416: real time   32.5419

 eigenvalue-minimisations  :     0
 total energy-change (2. order) :-0.6251303E-04  (-0.2438960E-06)
 number of electron       9.9999999 magnetization       1.9999999
 augmentation part        6.4052324 magnetization       0.6378596

 Free energy of the ion-electron system (eV)
  ---------------------------------------------------
  alpha Z        PSCENC =         0.29871659
  Ewald energy   TEWEN  =      -136.18826670
  -Hartree energ DENC   =      -865.76172023
  -exchange      EXHF   =         0.00000000
  -V(xc)+E(xc)   XCENC  =        29.88400844
  PAW double counting   =       886.50127688     -936.41799585
  entropy T*S    EENTRO =        -0.00000000
  eigenvalues    EBANDS =       -56.08688817
  atomic energy  EATOM  =      1077.89951942
  ---------------------------------------------------
  free energy    TOTEN  =         0.12865037 eV

  energy without entropy =        0.12865037  energy(sigma->0) =        0.12865037


--------------------------------------------------------------------------------------------------------




--------------------------------------- Iteration      1(  21)  ---------------------------------------


    POTLOK:  cpu time    2.4634: real time    2.4650
    SETDIJ:  cpu time    0.4246: real time    0.4249
    TRIAL :  cpu time    3.5086: real time    3.5933
    CORREC:  cpu time    6.0193: real time    6.0994
    CHARGE:  cpu time    1.2854: real time    1.2855
    --------------------------------------------
      LOOP:  cpu time   13.7243: real time   13.8922

 eigenvalue-minimisations  :     0
 total energy-change (2. order) :-0.1250892E-03  (-0.7253134E-04)
 number of electron       9.9999999 magnetization       1.9999999
 augmentation part        6.4036733 magnetization       0.6379905

 Free energy of the ion-electron system (eV)
  ---------------------------------------------------
  alpha Z        PSCENC =         0.29871659
  Ewald energy   TEWEN  =      -136.18826670
  -Hartree energ DENC   =      -865.93516156
  -exchange      EXHF   =         0.00000000
  -V(xc)+E(xc)   XCENC  =        29.89160801
  PAW double counting   =       886.70619984     -936.66278992
  entropy T*S    EENTRO =        -0.00000000
  eigenvalues    EBANDS =       -55.88130040
  atomic energy  EATOM  =      1077.89951942
  ---------------------------------------------------
  free energy    TOTEN  =         0.12852528 eV

  energy without entropy =        0.12852528  energy(sigma->0) =        0.12852528


--------------------------------------------------------------------------------------------------------




--------------------------------------- Iteration      1(  22)  ---------------------------------------


    POTLOK:  cpu time    2.4841: real time    2.4845
    SETDIJ:  cpu time    0.4435: real time    0.4435
    TRIAL :  cpu time    3.6202: real time    3.7142
    CORREC:  cpu time    5.9955: real time    6.1000
    CHARGE:  cpu time    1.3042: real time    1.3045
    --------------------------------------------
      LOOP:  cpu time   13.8744: real time   14.0736

 eigenvalue-minimisations  :     0
 total energy-change (2. order) :-0.7343122E-04  (-0.1532881E-03)
 number of electron       9.9999999 magnetization       1.9999999
 augmentation part        6.4022969 magnetization       0.6379125

 Free energy of the ion-electron system (eV)
  ---------------------------------------------------
  alpha Z        PSCENC =         0.29871659
  Ewald energy   TEWEN  =      -136.18826670
  -Hartree energ DENC   =      -865.75755918
  -exchange      EXHF   =         0.00000000
  -V(xc)+E(xc)   XCENC  =        29.88379199
  PAW double counting   =       886.54249389     -936.44215490
  entropy T*S    EENTRO =        -0.00000000
  eigenvalues    EBANDS =       -56.10808926
  atomic energy  EATOM  =      1077.89951942
  ---------------------------------------------------
  free energy    TOTEN  =         0.12845185 eV

  energy without entropy =        0.12845185  energy(sigma->0) =        0.12845185


--------------------------------------------------------------------------------------------------------




--------------------------------------- Iteration      1(  23)  ---------------------------------------


    POTLOK:  cpu time    2.5070: real time    2.5074
    SETDIJ:  cpu time    0.4262: real time    0.4262
    TRIAL :  cpu time    3.5417: real time    3.6222
    CORREC:  cpu time    5.9663: real time    6.0639
    CHARGE:  cpu time    1.2871: real time    1.2873
    --------------------------------------------
      LOOP:  cpu time   13.7483: real time   13.9286

 eigenvalue-minimisations  :     0
 total energy-change (2. order) :-0.1532077E-03  (-0.1167438E-03)
 number of electron       9.9999999 magnetization       1.9999999
 augmentation part        6.4039664 magnetization       0.6380431

 Free energy of the ion-electron system (eV)
  ---------------------------------------------------
  alpha Z        PSCENC =         0.29871659
  Ewald energy   TEWEN  =      -136.18826670
  -Hartree energ DENC   =      -865.57793003
  -exchange      EXHF   =         0.00000000
  -V(xc)+E(xc)   XCENC  =        29.87612314
  PAW double counting   =       886.33855376     -936.19189758
  entropy T*S    EENTRO =        -0.00000000
  eigenvalues    EBANDS =       -56.32651996
  atomic energy  EATOM  =      1077.89951942
  ---------------------------------------------------
  free energy    TOTEN  =         0.12829864 eV

  energy without entropy =        0.12829864  energy(sigma->0) =        0.12829864


--------------------------------------------------------------------------------------------------------




--------------------------------------- Iteration      1(  24)  ---------------------------------------


    POTLOK:  cpu time    2.5010: real time    2.5012
    SETDIJ:  cpu time    0.4400: real time    0.4400
    TRIAL :  cpu time    3.5328: real time    3.6367
    CORREC:  cpu time    6.0137: real time    6.0962
    CHARGE:  cpu time    1.3168: real time    1.3173
    --------------------------------------------
      LOOP:  cpu time   13.8205: real time   14.0094

 eigenvalue-minimisations  :     0
 total energy-change (2. order) :-0.1166521E-03  (-0.9376418E-04)
 number of electron       9.9999999 magnetization       1.9999999
 augmentation part        6.4053254 magnetization       0.6381445

 Free energy of the ion-electron system (eV)
  ---------------------------------------------------
  alpha Z        PSCENC =         0.29871659
  Ewald energy   TEWEN  =      -136.18826670
  -Hartree energ DENC   =      -865.76040414
  -exchange      EXHF   =         0.00000000
  -V(xc)+E(xc)   XCENC  =        29.88444201
  PAW double counting   =       886.48243039     -936.40059729
  entropy T*S    EENTRO =        -0.00000000
  eigenvalues    EBANDS =       -56.08765829
  atomic energy  EATOM  =      1077.89951942
  ---------------------------------------------------
  free energy    TOTEN  =         0.12818199 eV

  energy without entropy =        0.12818199  energy(sigma->0) =        0.12818199


--------------------------------------------------------------------------------------------------------




--------------------------------------- Iteration      1(  25)  ---------------------------------------


    POTLOK:  cpu time    2.4124: real time    2.4135
    SETDIJ:  cpu time    0.4259: real time    0.4260
    TRIAL :  cpu time    3.4740: real time    3.5542
    CORREC:  cpu time    6.0228: real time    6.1398
    CHARGE:  cpu time    1.3105: real time    1.3106
    --------------------------------------------
      LOOP:  cpu time   13.6714: real time   13.8699

 eigenvalue-minimisations  :     0
 total energy-change (2. order) :-0.9357150E-04  (-0.6617782E-04)
 number of electron       9.9999999 magnetization       1.9999999
 augmentation part        6.4043020 magnetization       0.6379862

 Free energy of the ion-electron system (eV)
  ---------------------------------------------------
  alpha Z        PSCENC =         0.29871659
  Ewald energy   TEWEN  =      -136.18826670
  -Hartree energ DENC   =      -865.90754865
  -exchange      EXHF   =         0.00000000
  -V(xc)+E(xc)   XCENC  =        29.89109445
  PAW double counting   =       886.61202557     -936.57980350
  entropy T*S    EENTRO =        -0.00000000
  eigenvalues    EBANDS =       -55.89764877
  atomic energy  EATOM  =      1077.89951942
  ---------------------------------------------------
  free energy    TOTEN  =         0.12808842 eV

  energy without entropy =        0.12808842  energy(sigma->0) =        0.12808842


--------------------------------------------------------------------------------------------------------




--------------------------------------- Iteration      1(  26)  ---------------------------------------


    POTLOK:  cpu time    2.4738: real time    2.4740
    SETDIJ:  cpu time    0.4478: real time    0.4478
    TRIAL :  cpu time    3.4914: real time    3.5737
    CORREC:  cpu time    6.1111: real time    6.2535
    CHARGE:  cpu time    1.3659: real time    1.3672
    --------------------------------------------
      LOOP:  cpu time   13.9095: real time   14.1361

 eigenvalue-minimisations  :     0
 total energy-change (2. order) :-0.6583218E-04  (-0.1841735E-04)
 number of electron       9.9999999 magnetization       1.9999999
 augmentation part        6.4036158 magnetization       0.6377674

 Free energy of the ion-electron system (eV)
  ---------------------------------------------------
  alpha Z        PSCENC =         0.29871659
  Ewald energy   TEWEN  =      -136.18826670
  -Hartree energ DENC   =      -865.77500336
  -exchange      EXHF   =         0.00000000
  -V(xc)+E(xc)   XCENC  =        29.88525884
  PAW double counting   =       886.48990662     -936.41736517
  entropy T*S    EENTRO =        -0.00000000
  eigenvalues    EBANDS =       -56.06474366
  atomic energy  EATOM  =      1077.89951942
  ---------------------------------------------------
  free energy    TOTEN  =         0.12802258 eV

  energy without entropy =        0.12802258  energy(sigma->0) =        0.12802258


--------------------------------------------------------------------------------------------------------




--------------------------------------- Iteration      1(  27)  ---------------------------------------


    POTLOK:  cpu time    2.4809: real time    2.4822
    SETDIJ:  cpu time    0.4226: real time    0.4231
    TRIAL :  cpu time    3.4821: real time    3.5772
    CORREC:  cpu time    5.9566: real time    6.0387
    CHARGE:  cpu time    1.3201: real time    1.3211
    --------------------------------------------
      LOOP:  cpu time   13.6798: real time   13.8609

 eigenvalue-minimisations  :     0
 total energy-change (2. order) :-0.1835313E-04  (-0.1176110E-04)
 number of electron       9.9999999 magnetization       1.9999999
 augmentation part        6.4039463 magnetization       0.6375550

 Free energy of the ion-electron system (eV)
  ---------------------------------------------------
  alpha Z        PSCENC =         0.29871659
  Ewald energy   TEWEN  =      -136.18826670
  -Hartree energ DENC   =      -865.69435615
  -exchange      EXHF   =         0.00000000
  -V(xc)+E(xc)   XCENC  =        29.88162505
  PAW double counting   =       886.42603209     -936.32548247
  entropy T*S    EENTRO =        -0.00000000
  eigenvalues    EBANDS =       -56.16978360
  atomic energy  EATOM  =      1077.89951942
  ---------------------------------------------------
  free energy    TOTEN  =         0.12800423 eV

  energy without entropy =        0.12800423  energy(sigma->0) =        0.12800423


--------------------------------------------------------------------------------------------------------




--------------------------------------- Iteration      1(  28)  ---------------------------------------


    POTLOK:  cpu time    2.4677: real time    2.4687
    SETDIJ:  cpu time    0.4268: real time    0.4269
    TRIAL :  cpu time    3.5107: real time    3.6035
    CORREC:  cpu time    6.0418: real time    6.1234
    CHARGE:  cpu time    1.3063: real time    1.3067
    --------------------------------------------
      LOOP:  cpu time   13.7723: real time   13.9483

 eigenvalue-minimisations  :     0
 total energy-change (2. order) :-0.1176864E-04  (-0.2223096E-05)
 number of electron       9.9999999 magnetization       1.9999999
 augmentation part        6.4042406 magnetization       0.6374502

 Free energy of the ion-electron system (eV)
  ---------------------------------------------------
  alpha Z        PSCENC =         0.29871659
  Ewald energy   TEWEN  =      -136.18826670
  -Hartree energ DENC   =      -865.73797394
  -exchange      EXHF   =         0.00000000
  -V(xc)+E(xc)   XCENC  =        29.88347744
  PAW double counting   =       886.48109587     -936.39024271
  entropy T*S    EENTRO =        -0.00000000
  eigenvalues    EBANDS =       -56.11833351
  atomic energy  EATOM  =      1077.89951942
  ---------------------------------------------------
  free energy    TOTEN  =         0.12799246 eV

  energy without entropy =        0.12799246  energy(sigma->0) =        0.12799246


--------------------------------------------------------------------------------------------------------




--------------------------------------- Iteration      1(  29)  ---------------------------------------


    POTLOK:  cpu time    2.4493: real time    2.4503
    SETDIJ:  cpu time    0.4247: real time    0.4249
    TRIAL :  cpu time    4.0182: real time    4.0886
    CORREC:  cpu time    6.1223: real time    6.1985
    EDDIAG:  cpu time    1.6564: real time    1.6731
    CHARGE:  cpu time    1.3010: real time    1.3011
    --------------------------------------------
      LOOP:  cpu time   15.9906: real time   16.1555

 eigenvalue-minimisations  :     0
 total energy-change (2. order) :-0.2249236E-05  (-0.1965887E-05)
 number of electron       9.9999999 magnetization       1.9999999
 augmentation part        6.4042049 magnetization       0.6372603

 Free energy of the ion-electron system (eV)
  ---------------------------------------------------
  alpha Z        PSCENC =         0.29871659
  Ewald energy   TEWEN  =      -136.18826670
  -Hartree energ DENC   =      -865.77429780
  -exchange      EXHF   =         0.00000000
  -V(xc)+E(xc)   XCENC  =        29.88506294
  PAW double counting   =       886.51785130     -936.43748761
  entropy T*S    EENTRO =        -0.00000000
  eigenvalues    EBANDS =       -56.07310793
  atomic energy  EATOM  =      1077.89951942
  ---------------------------------------------------
  free energy    TOTEN  =         0.12799021 eV

  energy without entropy =        0.12799021  energy(sigma->0) =        0.12799021


--------------------------------------------------------------------------------------------------------


  average scaling for gradient   1.1364


 average (electrostatic) potential at core
  the test charge radii are     0.9791
  (the norm of the test charge is              1.0000)
       1 -49.4180
 
 
 
 E-fermi :  -4.4051     XC(G=0):  -0.2602     alpha+bet : -0.0383


 spin component 1

 k-point     1 :       0.0000    0.0000    0.0000
  band No.  band energies     occupation 
      1      -7.5968      1.00000
      2      -6.2193      1.00000
      3      -6.2031      1.00000
      4      -5.4710      1.00000
      5      -5.4710      1.00000
      6      -4.6725      1.00000
      7      -1.0003      0.00000
      8      -0.8399      0.00000
      9      -0.8365      0.00000
     10      -0.1602      0.00000
     11       0.5061      0.00000
     12       0.5155      0.00000
     13       0.5764      0.00000
     14       0.6675      0.00000
     15       0.6892      0.00000
     16       0.6897      0.00000
     17       0.9745      0.00000
     18       0.9748      0.00000
     19       0.9874      0.00000
     20       1.1874      0.00000
     21       1.1950      0.00000
     22       1.2349      0.00000
     23       1.2349      0.00000
     24       1.2360      0.00000
     25       1.3973      0.00000
     26       1.4009      0.00000
     27       1.4361      0.00000
     28       1.4369      0.00000
     29       1.7514      0.00000
     30       1.7516      0.00000
     31       1.7564      0.00000
     32       1.7947      0.00000
     33       1.9677      0.00000
     34       1.9852      0.00000
     35       1.9854      0.00000
     36       2.0450      0.00000
     37       2.0726      0.00000
     38       2.1073      0.00000
     39       2.5894      0.00000
     40       2.6040      0.00000
     41       2.6043      0.00000
     42       2.6856      0.00000
     43       2.7624      0.00000
     44       2.7630      0.00000
     45       2.7817      0.00000
     46       2.9261      0.00000
     47       2.9372      0.00000
     48       2.9729      0.00000
     49       2.9735      0.00000
     50       2.9739      0.00000
     51       3.1029      0.00000
     52       3.1079      0.00000
     53       3.1080      0.00000
     54       3.1729      0.00000
     55       3.1729      0.00000
     56       3.1779      0.00000
     57       3.2280      0.00000
     58       3.2294      0.00000
     59       3.2740      0.00000
     60       3.2740      0.00000
     61       3.2744      0.00000
     62       3.3026      0.00000
     63       3.4845      0.00000
     64       3.4999      0.00000
     65       3.5002      0.00000
     66       3.5538      0.00000
     67       3.5593      0.00000
     68       3.5910      0.00000
     69       3.5912      0.00000
     70       3.5963      0.00000
     71       3.8373      0.00000
     72       3.8420      0.00000
     73       3.8450      0.00000
     74       3.8471      0.00000
     75       3.8471      0.00000
     76       3.8605      0.00000
     77       3.8605      0.00000
     78       3.8610      0.00000
     79       3.8722      0.00000
     80       3.8722      0.00000
     81       3.8747      0.00000
     82       3.8756      0.00000
     83       3.8759      0.00000
     84       3.8760      0.00000
     85       3.8892      0.00000
     86       3.8909      0.00000
     87       4.3410      0.00000
     88       4.3925      0.00000
     89       4.3936      0.00000
     90       4.5845      0.00000
     91       4.8949      0.00000
     92       4.8954      0.00000
     93       4.9130      0.00000
     94       4.9138      0.00000
     95       4.9455      0.00000
     96       4.9891      0.00000
     97       4.9891      0.00000
     98       4.9895      0.00000
     99       5.2865      0.00000
    100       5.2978      0.00000
    101       5.2979      0.00000
    102       5.3263      0.00000
    103       5.3580      0.00000
    104       5.3863      0.00000
    105       5.4985      0.00000
    106       5.5058      0.00000
    107       5.5060      0.00000
    108       5.5138      0.00000
    109       5.5507      0.00000
    110       5.5566      0.00000
    111       5.5567      0.00000
    112       5.6495      0.00000
    113       5.8340      0.00000
    114       5.8341      0.00000
    115       5.8353      0.00000
    116       5.8479      0.00000
    117       5.8489      0.00000
    118       5.8490      0.00000
    119       5.8564      0.00000
    120       5.8584      0.00000
    121       5.8697      0.00000
    122       5.8718      0.00000
    123       5.8719      0.00000
    124       5.8722      0.00000
    125       5.8723      0.00000
    126       5.8750      0.00000
    127       5.8752      0.00000
    128       5.8784      0.00000
    129       6.1810      0.00000
    130       6.1904      0.00000
    131       6.1906      0.00000
    132       6.2309      0.00000
    133       6.2427      0.00000
    134       6.2484      0.00000
    135       6.3414      0.00000
    136       6.3478      0.00000
    137       6.3479      0.00000
    138       6.3553      0.00000
    139       6.3554      0.00000
    140       6.3590      0.00000
    141       6.3591      0.00000
    142       6.3604      0.00000
    143       6.3648      0.00000
    144       6.3654      0.00000
    145       6.3655      0.00000
    146       6.3655      0.00000
    147       6.5783      0.00000
    148       6.5797      0.00000
    149       6.5798      0.00000
    150       6.5798      0.00000
    151       6.5816      0.00000
    152       6.5839      0.00000
    153       6.9096      0.00000
    154       6.9297      0.00000
    155       6.9301      0.00000
    156       7.0380      0.00000
    157       7.0536      0.00000
    158       7.0538      0.00000
    159       7.0626      0.00000
    160       7.0953      0.00000
    161       7.0959      0.00000
    162       7.1051      0.00000
    163       7.1179      0.00000
    164       7.1196      0.00000
    165       7.1196      0.00000
    166       7.1200      0.00000
    167       7.1214      0.00000
    168       7.1215      0.00000
    169       7.1295      0.00000
    170       7.1295      0.00000
    171       7.1312      0.00000
    172       7.1367      0.00000
    173       7.1368      0.00000
    174       7.1377      0.00000
    175       7.1414      0.00000
    176       7.1415      0.00000
    177       7.5463      0.00000
    178       7.5655      0.00000
    179       7.5658      0.00000
    180       7.6627      0.00000
    181       7.6686      0.00000
    182       7.6688      0.00000
    183       7.6796      0.00000
    184       7.7092      0.00000
    185       7.9739      0.00000
    186       7.9865      0.00000
    187       7.9869      0.00000
    188       8.0905      0.00000
    189       8.0973      0.00000
    190       8.0976      0.00000
    191       8.1081      0.00000
    192       8.1152      0.00000
    193       8.1162      0.00000
    194       8.1275      0.00000
    195       8.1276      0.00000
    196       8.1283      0.00000
    197       8.4618      0.00000
    198       8.4619      0.00000
    199       8.4663      0.00000
    200       8.4663      0.00000
    201       8.4698      0.00000
    202       8.4905      0.00000
    203       8.4905      0.00000
    204       8.4955      0.00000
    205       8.5013      0.00000
    206       8.5031      0.00000
    207       8.5031      0.00000
    208       8.5132      0.00000
    209       8.8131      0.00000
    210       8.8240      0.00000
    211       8.8242      0.00000
    212       8.8368      0.00000
    213       8.8533      0.00000
    214       8.8536      0.00000
    215       8.8612      0.00000
    216       8.9302      0.00000
    217       9.0066      0.00000
    218       9.0083      0.00000
    219       9.0144      0.00000
    220       9.0144      0.00000
    221       9.0230      0.00000
    222       9.0306      0.00000
    223       9.0337      0.00000
    224       9.0338      0.00000
    225       9.0356      0.00000
    226       9.0388      0.00000
    227       9.0403      0.00000
    228       9.0404      0.00000
    229       9.0411      0.00000
    230       9.0421      0.00000
    231       9.0431      0.00000
    232       9.0432      0.00000
    233       9.2095      0.00000
    234       9.2107      0.00000
    235       9.2119      0.00000
    236       9.2134      0.00000
    237       9.2135      0.00000
    238       9.2202      0.00000
    239       9.2202      0.00000
    240       9.2206      0.00000
    241       9.2221      0.00000
    242       9.2221      0.00000
    243       9.2235      0.00000
    244       9.2257      0.00000
    245       9.2262      0.00000
    246       9.2263      0.00000
    247       9.2304      0.00000
    248       9.2316      0.00000
    249       9.2750      0.00000
    250       9.2814      0.00000
    251       9.2817      0.00000
    252       9.2817      0.00000
    253       9.2874      0.00000
    254       9.2874      0.00000
    255       9.2877      0.00000
    256       9.2926      0.00000

 spin component 2

 k-point     1 :       0.0000    0.0000    0.0000
  band No.  band energies     occupation 
      1      -5.5927      1.00000
      2      -5.5713      1.00000
      3      -4.6409      1.00000
      4      -4.6408      1.00000
      5      -3.5684      0.00000
      6      -1.1979      0.00000
      7      -0.0494      0.00000
      8      -0.0494      0.00000
      9      -0.0152      0.00000
     10       0.0373      0.00000
     11       0.6593      0.00000
     12       0.6700      0.00000
     13       0.7992      0.00000
     14       0.8326      0.00000
     15       0.8326      0.00000
     16       0.8339      0.00000
     17       1.2649      0.00000
     18       1.2675      0.00000
     19       1.2676      0.00000
     20       1.3177      0.00000
     21       1.3338      0.00000
     22       1.3423      0.00000
     23       1.3443      0.00000
     24       1.3444      0.00000
     25       1.6182      0.00000
     26       1.6367      0.00000
     27       1.6368      0.00000
     28       1.6379      0.00000
     29       1.9228      0.00000
     30       1.9260      0.00000
     31       1.9260      0.00000
     32       1.9769      0.00000
     33       2.2089      0.00000
     34       2.2091      0.00000
     35       2.2230      0.00000
     36       2.2329      0.00000
     37       2.4853      0.00000
     38       2.5441      0.00000
     39       2.7859      0.00000
     40       2.7892      0.00000
     41       2.7892      0.00000
     42       2.8133      0.00000
     43       3.0959      0.00000
     44       3.0960      0.00000
     45       3.1009      0.00000
     46       3.1021      0.00000
     47       3.1554      0.00000
     48       3.2502      0.00000
     49       3.2554      0.00000
     50       3.2556      0.00000
     51       3.2923      0.00000
     52       3.2923      0.00000
     53       3.3076      0.00000
     54       3.3300      0.00000
     55       3.3353      0.00000
     56       3.3353      0.00000
     57       3.3416      0.00000
     58       3.3445      0.00000
     59       3.3587      0.00000
     60       3.3595      0.00000
     61       3.3595      0.00000
     62       3.3670      0.00000
     63       3.6521      0.00000
     64       3.6570      0.00000
     65       3.6570      0.00000
     66       3.6942      0.00000
     67       3.7792      0.00000
     68       3.7793      0.00000
     69       3.7835      0.00000
     70       3.8567      0.00000
     71       3.9290      0.00000
     72       3.9484      0.00000
     73       3.9664      0.00000
     74       3.9664      0.00000
     75       3.9750      0.00000
     76       3.9760      0.00000
     77       3.9760      0.00000
     78       3.9842      0.00000
     79       3.9930      0.00000
     80       3.9983      0.00000
     81       3.9983      0.00000
     82       3.9999      0.00000
     83       4.0025      0.00000
     84       4.0026      0.00000
     85       4.0111      0.00000
     86       4.0137      0.00000
     87       4.7007      0.00000
     88       4.7008      0.00000
     89       4.7039      0.00000
     90       4.8579      0.00000
     91       5.1334      0.00000
     92       5.1335      0.00000
     93       5.1425      0.00000
     94       5.1962      0.00000
     95       5.2260      0.00000
     96       5.2359      0.00000
     97       5.2360      0.00000
     98       5.2405      0.00000
     99       5.5092      0.00000
    100       5.5093      0.00000
    101       5.5146      0.00000
    102       5.5733      0.00000
    103       5.6937      0.00000
    104       5.7117      0.00000
    105       5.7121      0.00000
    106       5.7234      0.00000
    107       5.7701      0.00000
    108       5.7741      0.00000
    109       5.8449      0.00000
    110       5.8452      0.00000
    111       5.8634      0.00000
    112       5.9269      0.00000
    113       5.9448      0.00000
    114       5.9501      0.00000
    115       5.9502      0.00000
    116       5.9792      0.00000
    117       5.9798      0.00000
    118       5.9798      0.00000
    119       5.9805      0.00000
    120       5.9810      0.00000
    121       6.0018      0.00000
    122       6.0018      0.00000
    123       6.0052      0.00000
    124       6.0069      0.00000
    125       6.0091      0.00000
    126       6.0109      0.00000
    127       6.0109      0.00000
    128       6.0127      0.00000
    129       6.3124      0.00000
    130       6.3126      0.00000
    131       6.3264      0.00000
    132       6.3662      0.00000
    133       6.3792      0.00000
    134       6.4090      0.00000
    135       6.5693      0.00000
    136       6.5694      0.00000
    137       6.5716      0.00000
    138       6.5828      0.00000
    139       6.5828      0.00000
    140       6.5893      0.00000
    141       6.5895      0.00000
    142       6.5923      0.00000
    143       6.5974      0.00000
    144       6.6086      0.00000
    145       6.6171      0.00000
    146       6.6172      0.00000
    147       6.6817      0.00000
    148       6.6846      0.00000
    149       6.6867      0.00000
    150       6.6886      0.00000
    151       6.6887      0.00000
    152       6.6919      0.00000
    153       7.0585      0.00000
    154       7.0624      0.00000
    155       7.0624      0.00000
    156       7.1396      0.00000
    157       7.1875      0.00000
    158       7.1877      0.00000
    159       7.1938      0.00000
    160       7.2004      0.00000
    161       7.2239      0.00000
    162       7.2457      0.00000
    163       7.2457      0.00000
    164       7.2586      0.00000
    165       7.2587      0.00000
    166       7.2597      0.00000
    167       7.2654      0.00000
    168       7.2655      0.00000
    169       7.2740      0.00000
    170       7.2833      0.00000
    171       7.2833      0.00000
    172       7.3088      0.00000
    173       7.3106      0.00000
    174       7.3107      0.00000
    175       7.3187      0.00000
    176       7.3202      0.00000
    177       7.7651      0.00000
    178       7.7701      0.00000
    179       7.7701      0.00000
    180       7.8547      0.00000
    181       7.8548      0.00000
    182       7.8623      0.00000
    183       7.8635      0.00000
    184       7.8799      0.00000
    185       8.2133      0.00000
    186       8.2133      0.00000
    187       8.2146      0.00000
    188       8.3492      0.00000
    189       8.3602      0.00000
    190       8.3605      0.00000
    191       8.3740      0.00000
    192       8.4076      0.00000
    193       8.4101      0.00000
    194       8.4238      0.00000
    195       8.4241      0.00000
    196       8.4605      0.00000
    197       8.6264      0.00000
    198       8.6264      0.00000
    199       8.6325      0.00000
    200       8.6372      0.00000
    201       8.6463      0.00000
    202       8.6473      0.00000
    203       8.6529      0.00000
    204       8.6529      0.00000
    205       8.6641      0.00000
    206       8.6648      0.00000
    207       8.6649      0.00000
    208       8.6738      0.00000
    209       8.9586      0.00000
    210       8.9636      0.00000
    211       8.9637      0.00000
    212       9.0281      0.00000
    213       9.0281      0.00000
    214       9.0418      0.00000
    215       9.0510      0.00000
    216       9.0516      0.00000
    217       9.1524      0.00000
    218       9.1723      0.00000
    219       9.1793      0.00000
    220       9.1794      0.00000
    221       9.1864      0.00000
    222       9.2028      0.00000
    223       9.2028      0.00000
    224       9.2259      0.00000
    225       9.2259      0.00000
    226       9.2284      0.00000
    227       9.2303      0.00000
    228       9.2428      0.00000
    229       9.2557      0.00000
    230       9.2558      0.00000
    231       9.2601      0.00000
    232       9.2715      0.00000
    233       9.3151      0.00000
    234       9.3244      0.00000
    235       9.3309      0.00000
    236       9.3310      0.00000
    237       9.3359      0.00000
    238       9.3372      0.00000
    239       9.3372      0.00000
    240       9.3379      0.00000
    241       9.3417      0.00000
    242       9.3459      0.00000
    243       9.3459      0.00000
    244       9.3503      0.00000
    245       9.3503      0.00000
    246       9.3503      0.00000
    247       9.3553      0.00000
    248       9.3583      0.00000
    249       9.3614      0.00000
    250       9.3688      0.00000
    251       9.3688      0.00000
    252       9.3704      0.00000
    253       9.3725      0.00000
    254       9.3739      0.00000
    255       9.3739      0.00000
    256       9.3762      0.00000


--------------------------------------------------------------------------------------------------------


 soft charge-density along one line, spin component           1
         0         1         2         3         4         5         6         7         8         9
 total charge-density along one line
 
 soft charge-density along one line, spin component           2
         0         1         2         3         4         5         6         7         8         9
 total charge-density along one line
 
 pseudopotential strength for first ion, spin component:           1
-11.441   0.014   0.017   0.014   0.000   1.441  -0.006  -0.007
  0.014 -12.067   0.050  -0.009  -0.015  -0.006   1.698  -0.021
  0.017   0.050 -13.275   0.050  -0.000  -0.007  -0.021   2.199
  0.014  -0.009   0.050 -12.067   0.015  -0.006   0.004  -0.021
  0.000  -0.015  -0.000   0.015 -11.441  -0.000   0.006   0.000
  1.441  -0.006  -0.007  -0.006  -0.000   0.557   0.002   0.003
 -0.006   1.698  -0.021   0.004   0.006   0.002   0.449   0.009
 -0.007  -0.021   2.199  -0.021   0.000   0.003   0.009   0.237
 -0.006   0.004  -0.021   1.698  -0.006   0.002  -0.002   0.009
 -0.000   0.006   0.000  -0.006   1.441   0.000  -0.003  -0.000
  0.003  -0.007   0.166  -0.007  -0.000  -0.001   0.002  -0.060
 -0.000   0.000  -0.012   0.000   0.000   0.000  -0.000   0.005
  0.000  -0.000   0.000   0.000   0.000  -0.000   0.000   0.000
  0.000   0.000  -0.000   0.000   0.000   0.000  -0.000   0.000
  0.000   0.000   0.000  -0.000  -0.000  -0.000   0.000   0.000
 -0.000  -0.000  -0.000  -0.000  -0.000   0.000  -0.000   0.000
 -0.000  -0.000   0.000  -0.000  -0.000   0.000   0.000  -0.000
 -0.000  -0.000  -0.000  -0.000   0.000   0.000   0.000   0.000
 pseudopotential strength for first ion, spin component:           2
-10.912   0.020  -0.025   0.020  -0.000   1.216  -0.008   0.006
  0.020 -11.702  -0.173  -0.002  -0.019  -0.008   1.544   0.047
 -0.025  -0.173  -7.562  -0.173   0.000   0.006   0.047   0.407
  0.020  -0.002  -0.173 -11.702   0.019  -0.008   0.002   0.047
 -0.000  -0.019   0.000   0.019 -10.912   0.000   0.008  -0.000
  1.216  -0.008   0.006  -0.008   0.000   0.643   0.004  -0.005
 -0.008   1.544   0.047   0.002   0.008   0.004   0.505  -0.035
  0.006   0.047   0.407   0.047  -0.000  -0.005  -0.035   1.352
 -0.008   0.002   0.047   1.544  -0.008   0.004  -0.000  -0.035
  0.000   0.008  -0.000  -0.008   1.216  -0.000  -0.003   0.000
  0.001  -0.001   0.022  -0.001  -0.000  -0.000   0.001  -0.017
 -0.000   0.000  -0.006   0.000   0.000   0.000  -0.000   0.003
  0.000   0.000   0.000   0.000   0.000   0.000  -0.000   0.000
  0.000  -0.000   0.000  -0.000   0.000   0.000   0.000   0.000
  0.000   0.000   0.000   0.000  -0.000   0.000   0.000   0.000
 -0.000   0.000  -0.000  -0.000  -0.000   0.000   0.000   0.000
 -0.000  -0.000  -0.000  -0.000  -0.000   0.000  -0.000   0.000
 -0.000  -0.000  -0.000   0.000   0.000   0.000   0.000   0.000
 total augmentation occupancy for first ion, spin component:           1
  2.071   0.000   0.009   0.000   0.000   0.107   0.001   0.001   0.001   0.000   0.000   0.002   0.000  -0.000   0.000   0.000
  0.000   2.050   0.043  -0.002  -0.000   0.001   0.047   0.003  -0.001  -0.001  -0.001  -0.002  -0.000   0.000  -0.000  -0.000
  0.009   0.043   1.010   0.043  -0.000   0.001   0.003  -0.027   0.003  -0.000   0.018   0.044  -0.000   0.000  -0.000  -0.000
  0.000  -0.002   0.043   2.050   0.000   0.001  -0.001   0.003   0.047   0.001  -0.001  -0.002  -0.000   0.000  -0.000   0.000
  0.000  -0.000  -0.000   0.000   2.071   0.000  -0.001  -0.000   0.001   0.107  -0.000  -0.000   0.000   0.000  -0.000   0.000
  0.107   0.001   0.001   0.001   0.000   0.006   0.000   0.000   0.000   0.000   0.001   0.000   0.000   0.000   0.000   0.000
  0.001   0.047   0.003  -0.001  -0.001   0.000   0.001  -0.000  -0.000  -0.000  -0.002   0.000  -0.000   0.000   0.000  -0.000
  0.001   0.003  -0.027   0.003  -0.000   0.000  -0.000   0.003  -0.000  -0.000   0.042  -0.002   0.000   0.000   0.000   0.000
  0.001  -0.001   0.003   0.047   0.001   0.000  -0.000  -0.000   0.001   0.000  -0.002   0.000   0.000   0.000  -0.000   0.000
  0.000  -0.001  -0.000   0.001   0.107   0.000  -0.000  -0.000   0.000   0.006  -0.000  -0.000   0.000  -0.000  -0.000   0.000
  0.000  -0.001   0.018  -0.001  -0.000   0.001  -0.002   0.042  -0.002  -0.000   0.996  -0.017   0.000   0.000   0.000   0.000
  0.002  -0.002   0.044  -0.002  -0.000   0.000   0.000  -0.002   0.000  -0.000  -0.017   0.002  -0.000  -0.000  -0.000   0.000
  0.000  -0.000  -0.000  -0.000   0.000   0.000  -0.000   0.000   0.000   0.000   0.000  -0.000   0.000  -0.000   0.000   0.000
 -0.000   0.000   0.000   0.000   0.000   0.000   0.000   0.000   0.000  -0.000   0.000  -0.000  -0.000   0.000  -0.000  -0.000
  0.000  -0.000  -0.000  -0.000  -0.000   0.000   0.000   0.000  -0.000  -0.000   0.000  -0.000   0.000  -0.000   0.000   0.000
  0.000  -0.000  -0.000   0.000   0.000   0.000  -0.000   0.000   0.000   0.000   0.000   0.000   0.000  -0.000   0.000   0.000
  0.000   0.000   0.000   0.000  -0.000   0.000   0.000   0.000   0.000  -0.000   0.000  -0.000  -0.000   0.000  -0.000  -0.000
  0.000   0.000  -0.000  -0.000  -0.000   0.000   0.000   0.000  -0.000  -0.000   0.000   0.000   0.000  -0.000   0.000   0.000
 total augmentation occupancy for first ion, spin component:           2
  0.004   0.000  -0.008   0.000  -0.000   0.012  -0.000   0.000  -0.000   0.000   0.000   0.000  -0.000   0.000  -0.000  -0.000
  0.000   0.008  -0.041   0.002   0.000  -0.000   0.019   0.002   0.000   0.000  -0.001  -0.002   0.000  -0.000   0.000   0.000
 -0.008  -0.041   1.003  -0.041   0.000   0.000   0.002  -0.027   0.002  -0.000   0.018   0.044   0.000  -0.000   0.000   0.000
  0.000   0.002  -0.041   0.008  -0.000  -0.000   0.000   0.002   0.019  -0.000  -0.001  -0.002   0.000  -0.000   0.000   0.000
 -0.000   0.000   0.000  -0.000   0.004  -0.000   0.000  -0.000  -0.000   0.012  -0.000  -0.000  -0.000  -0.000   0.000   0.000
  0.012  -0.000   0.000  -0.000  -0.000   0.001   0.000   0.000   0.000  -0.000   0.001   0.000  -0.000   0.000  -0.000  -0.000
 -0.000   0.019   0.002   0.000   0.000   0.000   0.001  -0.000  -0.000  -0.000  -0.002   0.000   0.000  -0.000  -0.000   0.000
  0.000   0.002  -0.027   0.002  -0.000   0.000  -0.000   0.003  -0.000  -0.000   0.042  -0.002   0.000   0.000   0.000   0.000
 -0.000   0.000   0.002   0.019  -0.000   0.000  -0.000  -0.000   0.001   0.000  -0.002   0.000  -0.000  -0.000   0.000  -0.000
  0.000   0.000  -0.000  -0.000   0.012  -0.000  -0.000  -0.000   0.000   0.001  -0.000  -0.000  -0.000   0.000   0.000   0.000
  0.000  -0.001   0.018  -0.001  -0.000   0.001  -0.002   0.042  -0.002  -0.000   0.996  -0.017   0.000   0.000   0.000   0.000
  0.000  -0.002   0.044  -0.002  -0.000   0.000   0.000  -0.002   0.000  -0.000  -0.017   0.002  -0.000  -0.000  -0.000   0.000
 -0.000   0.000   0.000   0.000  -0.000  -0.000   0.000   0.000  -0.000  -0.000   0.000  -0.000  -0.000   0.000  -0.000  -0.000
  0.000  -0.000  -0.000  -0.000  -0.000   0.000  -0.000   0.000  -0.000   0.000   0.000  -0.000   0.000  -0.000   0.000   0.000
 -0.000   0.000   0.000   0.000   0.000  -0.000  -0.000   0.000   0.000   0.000   0.000  -0.000  -0.000   0.000  -0.000  -0.000
 -0.000   0.000   0.000   0.000   0.000  -0.000   0.000   0.000  -0.000   0.000   0.000   0.000  -0.000   0.000  -0.000  -0.000
 -0.000  -0.000  -0.000  -0.000   0.000  -0.000  -0.000   0.000  -0.000   0.000   0.000  -0.000   0.000  -0.000   0.000   0.000
 -0.000   0.000   0.000   0.000  -0.000  -0.000  -0.000   0.000   0.000  -0.000   0.000   0.000  -0.000   0.000  -0.000  -0.000


------------------------ aborting loop because EDIFF is reached ----------------------------------------


    FORLOC:  cpu time    0.0042: real time    0.0042
    FORNL :  cpu time    0.0547: real time    0.0686
    FORCOR:  cpu time    2.4036: real time    2.4115
    OFIELD:  cpu time    0.0012: real time    0.0098

 VOLUME and BASIS-vectors are now :
 -----------------------------------------------------------------------------
  energy-cutoff  :      520.00
  volume of cell :     3375.00
      direct lattice vectors                 reciprocal lattice vectors
    15.000000000  0.000000000  0.000000000     0.066666667  0.000000000  0.000000000
     0.000000000 15.000000000  0.000000000     0.000000000  0.066666667  0.000000000
     0.000000000  0.000000000 15.000000000     0.000000000  0.000000000  0.066666667

  length of vectors
    15.000000000 15.000000000 15.000000000     0.066666667  0.066666667  0.066666667


 FORCES acting on ions:
    Electron-Ion                     Ewald-Force                    Non-Local-Force
 -----------------------------------------------------------------------------------------------
   -.763E-04 -.763E-04 -.120E-03   0.150E-16 0.245E-16 -.490E-16   0.154E-02 0.153E-02 0.224E-02
 -----------------------------------------------------------------------------------------------
   -.618E-04 -.618E-04 -.101E-03   0.150E-16 0.245E-16 -.490E-16   0.154E-02 0.153E-02 0.224E-02
 
 
 POSITION                                       TOTAL-FORCE (eV/Angst)
 -----------------------------------------------------------------------------------
      0.15000      0.15000     11.26500         0.001473      0.001473      0.002134
 -----------------------------------------------------------------------------------
    total drift:                                0.001473      0.001473      0.002134


--------------------------------------------------------------------------------------------------------



  FREE ENERGIE OF THE ION-ELECTRON SYSTEM (eV)
  ---------------------------------------------------
  free  energy   TOTEN  =         0.12799021 eV

  energy  without entropy=        0.12799021  energy(sigma->0) =        0.12799021
 


--------------------------------------------------------------------------------------------------------


    POTLOK:  cpu time    2.8770: real time    2.8837


--------------------------------------------------------------------------------------------------------


 stress matrix after NEB project (eV)
      0.00000      0.00000      0.00000
      0.00000      0.00000      0.00000
      0.00000      0.00000      0.00000
  FORCES: max atom, RMS     0.002983    0.002983
  FORCE total and by dimension    0.002983    0.002134
  Stress total and by dimension    0.000000    0.000000
     LOOP+:  cpu time  438.7156: real time  449.4911
    4ORBIT:  cpu time    0.0000: real time    0.0000

 total amount of memory used by VASP MPI-rank0   177231. kBytes
=======================================================================

   base      :      30000. kBytes
   nonl-proj :      14540. kBytes
   fftplans  :       7479. kBytes
   grid      :     116433. kBytes
   one-center:         31. kBytes
   wavefun   :       8748. kBytes
 
  
  
 General timing and accounting informations for this job:
 ========================================================
  
                  Total CPU time used (sec):      453.109
                            User time (sec):      441.970
                          System time (sec):       11.139
                         Elapsed time (sec):      466.928
  
                   Maximum memory used (kb):      454608.
                   Average memory used (kb):           0.
  
                          Minor page faults:        63280
                          Major page faults:            0
                 Voluntary context switches:         2991
