C  N  K                                 
   1.00000000000000     
    12.3000000000000007    0.0000000000000000    0.0000000000000000
    -6.1499999999999977   10.6521124665485960    0.0000000000000000
     0.0000000000000000    0.0000000000000000   20.0000000000000000
   C    N    K 
    44     4     1
Direct
  0.9995281340324972  0.0004717576277643  0.7416338284768254
  0.1321898035469938  0.0656034574716019  0.7421511387504864
  0.1988980728664383  0.9988950199188464  0.7421430152368572
  0.3317904887667179  0.0648152082319049  0.7453525595819616
  0.3988442526543566  0.9980860602466933  0.7456501663001217
  0.5314864535763679  0.0661649359001757  0.7479222080381662
  0.5993109849166145  0.0002737409290364  0.7467584527508858
  0.7322182572283336  0.0689915466763342  0.7467707314246685
  0.7996276817410651  0.0023328831312447  0.7446531335841605
  0.9323709633583600  0.0676287470697364  0.7433328786421503
  0.9976673406019749  0.2003719223990603  0.7446531411389166
  0.1314172185519188  0.2655375074728558  0.7456385120641557
  0.1981518564118824  0.1984803676483499  0.7453816673363577
  0.3307546896832874  0.2669874806917710  0.7518423261890910
  0.4003095581790964  0.1974178391408064  0.7518435820649186
  0.5929487807165869  0.2002293249459299  0.7533459437635353
  0.7291750559568616  0.2708250154858792  0.7532743782868352
  0.7964664942509966  0.2035335576270523  0.7488296652867857
  0.9310083912458627  0.2677813616732031  0.7467707674089202
  0.9997261293686205  0.4006885279014927  0.7467584617850500
  0.1336613618302822  0.4660218380136905  0.7467275470086578
  0.1995298008212560  0.3981693847238597  0.7478669269087569
  0.3335991511998840  0.4595929375623448  0.7533155800060343
  0.7997708238569864  0.4070513615811975  0.7533459395818447
  0.9338351215587594  0.4685132770167540  0.7479221978499737
  0.0019139496394342  0.6011555933378997  0.7456501532273972
  0.1356746163335321  0.6663044140190204  0.7446620256978426
  0.2023555541515198  0.5989003498195377  0.7467501445634386
  0.3368797068065614  0.6631203409967061  0.7488247309168035
  0.4041849894927727  0.5958150436678661  0.7532488146771805
  0.5404070985594708  0.6664008858955416  0.7533155758224394
  0.7330125602665275  0.6692453656757669  0.7518423123998579
  0.8025822084327950  0.5996904752857748  0.7518435700894238
  0.9351848451950201  0.6682095546819071  0.7453525481156454
  0.0011050278132971  0.8011019736848817  0.7421430104998504
  0.1337814191130086  0.8662186612416458  0.7416569209813216
  0.2009413851564026  0.7990586414526638  0.7433413242751761
  0.3336956964270696  0.8643254707477198  0.7446620389582075
  0.4010996203240707  0.7976443849883254  0.7467501546185604
  0.5339780097315577  0.8663385783055101  0.7467275485754820
  0.6018307791867408  0.8004702456901970  0.7478669220421877
  0.7344624628822728  0.8685830326615867  0.7456385057628858
  0.8015197039479168  0.8018482946169864  0.7453816546275236
  0.9343966369224870  0.8678102286248583  0.7421511321661035
  0.5257289568971685  0.2598799575796733  0.7583954402953261
  0.3932409877389187  0.3923963737699775  0.7583848019503505
  0.7401200703369837  0.4742711436717465  0.7583954363743873
  0.6076036755022701  0.6067590558696490  0.7583847917848390
  0.5666011722202359  0.4333988726269553  0.8497506921116452
 
  0.00000000E+00  0.00000000E+00  0.00000000E+00
  0.00000000E+00  0.00000000E+00  0.00000000E+00
  0.00000000E+00  0.00000000E+00  0.00000000E+00
  0.00000000E+00  0.00000000E+00  0.00000000E+00
  0.00000000E+00  0.00000000E+00  0.00000000E+00
  0.00000000E+00  0.00000000E+00  0.00000000E+00
  0.00000000E+00  0.00000000E+00  0.00000000E+00
  0.00000000E+00  0.00000000E+00  0.00000000E+00
  0.00000000E+00  0.00000000E+00  0.00000000E+00
  0.00000000E+00  0.00000000E+00  0.00000000E+00
  0.00000000E+00  0.00000000E+00  0.00000000E+00
  0.00000000E+00  0.00000000E+00  0.00000000E+00
  0.00000000E+00  0.00000000E+00  0.00000000E+00
  0.00000000E+00  0.00000000E+00  0.00000000E+00
  0.00000000E+00  0.00000000E+00  0.00000000E+00
  0.00000000E+00  0.00000000E+00  0.00000000E+00
  0.00000000E+00  0.00000000E+00  0.00000000E+00
  0.00000000E+00  0.00000000E+00  0.00000000E+00
  0.00000000E+00  0.00000000E+00  0.00000000E+00
  0.00000000E+00  0.00000000E+00  0.00000000E+00
  0.00000000E+00  0.00000000E+00  0.00000000E+00
  0.00000000E+00  0.00000000E+00  0.00000000E+00
  0.00000000E+00  0.00000000E+00  0.00000000E+00
  0.00000000E+00  0.00000000E+00  0.00000000E+00
  0.00000000E+00  0.00000000E+00  0.00000000E+00
  0.00000000E+00  0.00000000E+00  0.00000000E+00
  0.00000000E+00  0.00000000E+00  0.00000000E+00
  0.00000000E+00  0.00000000E+00  0.00000000E+00
  0.00000000E+00  0.00000000E+00  0.00000000E+00
  0.00000000E+00  0.00000000E+00  0.00000000E+00
  0.00000000E+00  0.00000000E+00  0.00000000E+00
  0.00000000E+00  0.00000000E+00  0.00000000E+00
  0.00000000E+00  0.00000000E+00  0.00000000E+00
  0.00000000E+00  0.00000000E+00  0.00000000E+00
  0.00000000E+00  0.00000000E+00  0.00000000E+00
  0.00000000E+00  0.00000000E+00  0.00000000E+00
  0.00000000E+00  0.00000000E+00  0.00000000E+00
  0.00000000E+00  0.00000000E+00  0.00000000E+00
  0.00000000E+00  0.00000000E+00  0.00000000E+00
  0.00000000E+00  0.00000000E+00  0.00000000E+00
  0.00000000E+00  0.00000000E+00  0.00000000E+00
  0.00000000E+00  0.00000000E+00  0.00000000E+00
  0.00000000E+00  0.00000000E+00  0.00000000E+00
  0.00000000E+00  0.00000000E+00  0.00000000E+00
  0.00000000E+00  0.00000000E+00  0.00000000E+00
  0.00000000E+00  0.00000000E+00  0.00000000E+00
  0.00000000E+00  0.00000000E+00  0.00000000E+00
  0.00000000E+00  0.00000000E+00  0.00000000E+00
  0.00000000E+00  0.00000000E+00  0.00000000E+00
