       N       E                     dE             d eps       ncg     rms          rms(c)
DAV:   1    -0.470565803618E+03   -0.47057E+03   -0.11667E+02  8192   0.121E+01    0.281E+01
DAV:   2    -0.447538161096E+03    0.23028E+02   -0.33460E+01  6144   0.703E+00    0.144E+01
DAV:   3    -0.439474268050E+03    0.80639E+01   -0.17642E+01  6144   0.504E+00    0.420E+00
DAV:   4    -0.438882074855E+03    0.59219E+00   -0.17313E+00  8192   0.161E+00    0.185E+00
DAV:   5    -0.438718424584E+03    0.16365E+00   -0.11533E-01  8192   0.454E-01    0.795E-01
DAV:   6    -0.438651609185E+03    0.66815E-01   -0.41025E-02  7936   0.251E-01    0.371E-01
DAV:   7    -0.438639378014E+03    0.12231E-01   -0.15912E-02  7680   0.137E-01    0.284E-01
DAV:   8    -0.438621780407E+03    0.17598E-01   -0.40919E-02  8192   0.196E-01    0.139E-01
DAV:   9    -0.438621084498E+03    0.69591E-03   -0.66447E-03  6912   0.771E-02    0.100E-01
DAV:  10    -0.438642972029E+03   -0.21888E-01   -0.28305E-03  6400   0.474E-02    0.617E-02
DAV:  11    -0.438661419305E+03   -0.18447E-01   -0.20805E-03  5888   0.391E-02    0.331E-02
DAV:  12    -0.438669114942E+03   -0.76956E-02   -0.64747E-04  7936   0.205E-02    0.224E-02
DAV:  13    -0.438673266638E+03   -0.41517E-02   -0.33227E-04  7424   0.141E-02    0.122E-02
DAV:  14    -0.438675201767E+03   -0.19351E-02   -0.14592E-04  6144   0.896E-03    0.611E-03
DAV:  15    -0.438675966624E+03   -0.76486E-03   -0.50492E-05  6400   0.524E-03    0.376E-03
DAV:  16    -0.438676279607E+03   -0.31298E-03   -0.20248E-05  4608   0.332E-03    0.242E-03
DAV:  17    -0.438676483606E+03   -0.20400E-03   -0.13703E-05  6400   0.235E-03    0.164E-03
DAV:  18    -0.438676558180E+03   -0.74574E-04   -0.24149E-06  6912   0.105E-03    0.118E-03
DAV:  19    -0.438676618114E+03   -0.59934E-04   -0.61501E-07  7168   0.605E-04    0.766E-04
DAV:  20    -0.438676651478E+03   -0.33364E-04   -0.28652E-07  7680   0.411E-04    0.385E-04
DAV:  21    -0.438676663182E+03   -0.11704E-04   -0.93490E-08  5888   0.231E-04    0.220E-04
DAV:  22    -0.438676667767E+03   -0.45856E-05   -0.43210E-08  6400   0.139E-04
   1 F= -.44042303E+03 E0= -.44041747E+03  d E =-.440423E+03  mag=     0.0002
       N       E                     dE             d eps       ncg     rms          rms(c)
DAV:   1    -0.438677233091E+03   -0.56991E-03   -0.39331E-02  7680   0.311E-01    0.407E-02
DAV:   2    -0.438677218373E+03    0.14718E-04   -0.34893E-04  5120   0.313E-02    0.216E-02
DAV:   3    -0.438677218064E+03    0.30896E-06   -0.33103E-05  8192   0.886E-03
   2 F= -.44042354E+03 E0= -.44041802E+03  d E =-.511153E-03  mag=     0.0001
       N       E                     dE             d eps       ncg     rms          rms(c)
DAV:   1    -0.438677475079E+03   -0.25671E-03   -0.12686E-02  6656   0.171E-01    0.237E-02
DAV:   2    -0.438677472567E+03    0.25122E-05   -0.13645E-04  5888   0.188E-02    0.129E-02
DAV:   3    -0.438677472732E+03   -0.16528E-06   -0.91549E-06  6912   0.467E-03
   3 F= -.44042372E+03 E0= -.44041820E+03  d E =-.186066E-03  mag=     0.0000
       N       E                     dE             d eps       ncg     rms          rms(c)
DAV:   1    -0.438677759184E+03   -0.28662E-03   -0.18166E-02  6144   0.195E-01    0.243E-02
DAV:   2    -0.438677763844E+03   -0.46594E-05   -0.15208E-04  5888   0.179E-02    0.132E-02
DAV:   3    -0.438677766181E+03   -0.23368E-05   -0.75259E-06  7680   0.404E-03
   4 F= -.44042393E+03 E0= -.44041840E+03  d E =-.202133E-03  mag=     0.0000
       N       E                     dE             d eps       ncg     rms          rms(c)
DAV:   1    -0.438677973791E+03   -0.20995E-03   -0.12775E-02  6144   0.154E-01    0.191E-02
DAV:   2    -0.438677979155E+03   -0.53637E-05   -0.10810E-04  6400   0.141E-02    0.107E-02
DAV:   3    -0.438677982393E+03   -0.32379E-05   -0.51836E-06  7168   0.329E-03
   5 F= -.44042406E+03 E0= -.44041854E+03  d E =-.130073E-03  mag=     0.0000
       N       E                     dE             d eps       ncg     rms          rms(c)
DAV:   1    -0.438678237327E+03   -0.25817E-03   -0.23086E-02  5120   0.199E-01    0.247E-02
DAV:   2    -0.438678251369E+03   -0.14042E-04   -0.24624E-04  5888   0.201E-02    0.134E-02
DAV:   3    -0.438678255806E+03   -0.44372E-05   -0.86408E-06  5632   0.433E-03
   6 F= -.44042419E+03 E0= -.44041867E+03  d E =-.138267E-03  mag=     0.0000
       N       E                     dE             d eps       ncg     rms          rms(c)
DAV:   1    -0.438678396905E+03   -0.14554E-03   -0.68481E-03  6400   0.104E-01    0.131E-02
DAV:   2    -0.438678401625E+03   -0.47199E-05   -0.57665E-05  6400   0.948E-03
   7 F= -.44042426E+03 E0= -.44041874E+03  d E =-.693341E-04  mag=     0.0000
