C  N  K                                 
   1.00000000000000     
    12.3000000000000007    0.0000000000000000    0.0000000000000000
    -6.1499999999999977   10.6521124665485960    0.0000000000000000
     0.0000000000000000    0.0000000000000000   20.0000000000000000
   C    N    K 
    44     4     1
Direct
  0.9995094640117118  0.0004905796923450  0.7415370570720200
  0.1321564723828319  0.0655846241282672  0.7421629450195716
  0.1988976491795432  0.9988690869016904  0.7421756429154761
  0.3318335315243197  0.0648758251761430  0.7454010630322718
  0.3988942043533897  0.9981135620855874  0.7456482928117005
  0.5315697093826099  0.0662501006801275  0.7478792805012363
  0.5993616191949267  0.0002595434652607  0.7467039284763890
  0.7322753106904015  0.0689647747726082  0.7467299924432044
  0.7996438466447310  0.0022640005071694  0.7447505146329795
  0.9323833695868116  0.0676166451323459  0.7433235338245279
  0.9977359877177926  0.2003561601038673  0.7447505192799921
  0.1315099162775565  0.2656056886560242  0.7456520564922908
  0.1981646049982099  0.1984721863393302  0.7454259990510129
  0.3308056987268186  0.2669588351090654  0.7518441877413616
  0.4003281078409212  0.1974633247464941  0.7518975494422531
  0.5928922601638557  0.2003854509897365  0.7533045327005253
  0.7290979136926599  0.2709020951093907  0.7532184638970019
  0.7964400522431554  0.2035599446031018  0.7487058414485211
  0.9310352142650924  0.2677246960034332  0.7467299940636561
  0.9997404286025743  0.4006383841311324  0.7467039237170379
  0.1336655859225739  0.4660960639879855  0.7466678158358704
  0.1996082950088275  0.3982643812591753  0.7477436866765214
  0.3337063556369675  0.4595762991525275  0.7533026757298587
  0.7996145414312619  0.4071077433240305  0.7533045303944793
  0.9337498802954013  0.4684302958466908  0.7478792826515268
  0.0018864275498307  0.6011058019319587  0.7456482772315693
  0.1356356364982298  0.6663112685426353  0.7446664287405522
  0.2023702815207393  0.5989768486914141  0.7466527826367843
  0.3368714148188667  0.6631285788725307  0.7487390034361683
  0.4041926101376931  0.5958073955655586  0.7532253105764583
  0.5404237020020428  0.6662936329226977  0.7533026736500585
  0.7330411525842040  0.6691942825184369  0.7518441810904667
  0.8025366628668296  0.5996718802096078  0.7518975466566704
  0.9351241757981362  0.6681664833689085  0.7454010539001121
  0.0011309504574964  0.8011023881936407  0.7421756293031119
  0.1337952641649965  0.8662047807605501  0.7416904134581896
  0.2009457133070009  0.7990543043776114  0.7434703837799587
  0.3336887416611662  0.8643643569259072  0.7446664440259044
  0.4010231545391096  0.7976297059162027  0.7466527877480588
  0.5339039356071618  0.8663343849312959  0.7466678160230216
  0.6017356183557021  0.8003916819881568  0.7477436830224762
  0.7343943119882604  0.8684900683853015  0.7456520533023545
  0.8015278225276284  0.8018353900484745  0.7454259812056925
  0.9344154108228800  0.8678435667866943  0.7421629403885798
  0.5257424538250510  0.2600666602015498  0.7584420171278706
  0.3933776034928408  0.3923861630853661  0.7584405962924556
  0.7399333129940303  0.4742575289429271  0.7584420119873282
  0.6076138184772651  0.6066223649671646  0.7584405860315594
  0.5666578042279131  0.4333421899618586  0.8501110885332935
 
  0.00000000E+00  0.00000000E+00  0.00000000E+00
  0.00000000E+00  0.00000000E+00  0.00000000E+00
  0.00000000E+00  0.00000000E+00  0.00000000E+00
  0.00000000E+00  0.00000000E+00  0.00000000E+00
  0.00000000E+00  0.00000000E+00  0.00000000E+00
  0.00000000E+00  0.00000000E+00  0.00000000E+00
  0.00000000E+00  0.00000000E+00  0.00000000E+00
  0.00000000E+00  0.00000000E+00  0.00000000E+00
  0.00000000E+00  0.00000000E+00  0.00000000E+00
  0.00000000E+00  0.00000000E+00  0.00000000E+00
  0.00000000E+00  0.00000000E+00  0.00000000E+00
  0.00000000E+00  0.00000000E+00  0.00000000E+00
  0.00000000E+00  0.00000000E+00  0.00000000E+00
  0.00000000E+00  0.00000000E+00  0.00000000E+00
  0.00000000E+00  0.00000000E+00  0.00000000E+00
  0.00000000E+00  0.00000000E+00  0.00000000E+00
  0.00000000E+00  0.00000000E+00  0.00000000E+00
  0.00000000E+00  0.00000000E+00  0.00000000E+00
  0.00000000E+00  0.00000000E+00  0.00000000E+00
  0.00000000E+00  0.00000000E+00  0.00000000E+00
  0.00000000E+00  0.00000000E+00  0.00000000E+00
  0.00000000E+00  0.00000000E+00  0.00000000E+00
  0.00000000E+00  0.00000000E+00  0.00000000E+00
  0.00000000E+00  0.00000000E+00  0.00000000E+00
  0.00000000E+00  0.00000000E+00  0.00000000E+00
  0.00000000E+00  0.00000000E+00  0.00000000E+00
  0.00000000E+00  0.00000000E+00  0.00000000E+00
  0.00000000E+00  0.00000000E+00  0.00000000E+00
  0.00000000E+00  0.00000000E+00  0.00000000E+00
  0.00000000E+00  0.00000000E+00  0.00000000E+00
  0.00000000E+00  0.00000000E+00  0.00000000E+00
  0.00000000E+00  0.00000000E+00  0.00000000E+00
  0.00000000E+00  0.00000000E+00  0.00000000E+00
  0.00000000E+00  0.00000000E+00  0.00000000E+00
  0.00000000E+00  0.00000000E+00  0.00000000E+00
  0.00000000E+00  0.00000000E+00  0.00000000E+00
  0.00000000E+00  0.00000000E+00  0.00000000E+00
  0.00000000E+00  0.00000000E+00  0.00000000E+00
  0.00000000E+00  0.00000000E+00  0.00000000E+00
  0.00000000E+00  0.00000000E+00  0.00000000E+00
  0.00000000E+00  0.00000000E+00  0.00000000E+00
  0.00000000E+00  0.00000000E+00  0.00000000E+00
  0.00000000E+00  0.00000000E+00  0.00000000E+00
  0.00000000E+00  0.00000000E+00  0.00000000E+00
  0.00000000E+00  0.00000000E+00  0.00000000E+00
  0.00000000E+00  0.00000000E+00  0.00000000E+00
  0.00000000E+00  0.00000000E+00  0.00000000E+00
  0.00000000E+00  0.00000000E+00  0.00000000E+00
  0.00000000E+00  0.00000000E+00  0.00000000E+00
