       N       E                     dE             d eps       ncg     rms          rms(c)
DAV:   1     0.120022578044E+04    0.12002E+04   -0.84623E+04  4096   0.587E+02
DAV:   2    -0.391873621279E+03   -0.15921E+04   -0.15897E+04  6144   0.113E+02
DAV:   3    -0.469957101401E+03   -0.78083E+02   -0.78068E+02  5376   0.379E+01
DAV:   4    -0.470652552198E+03   -0.69545E+00   -0.69537E+00  7680   0.381E+00
DAV:   5    -0.470652669371E+03   -0.11717E-03   -0.11717E-03  5120   0.592E-02    0.279E+01
DAV:   6    -0.447437752403E+03    0.23215E+02   -0.33805E+01  7680   0.704E+00    0.143E+01
DAV:   7    -0.439273267425E+03    0.81645E+01   -0.18473E+01  6656   0.523E+00    0.389E+00
DAV:   8    -0.438694209355E+03    0.57906E+00   -0.16781E+00  8192   0.162E+00    0.183E+00
DAV:   9    -0.438506730394E+03    0.18748E+00   -0.15182E-01  8192   0.531E-01    0.737E-01
DAV:  10    -0.438463317729E+03    0.43413E-01   -0.34471E-02  6656   0.226E-01    0.380E-01
DAV:  11    -0.438449394423E+03    0.13923E-01   -0.18762E-02  7680   0.150E-01    0.284E-01
DAV:  12    -0.438438018559E+03    0.11376E-01   -0.39410E-02  8192   0.200E-01    0.150E-01
DAV:  13    -0.438434464513E+03    0.35540E-02   -0.77809E-03  7680   0.875E-02    0.102E-01
DAV:  14    -0.438455953485E+03   -0.21489E-01   -0.30136E-03  7680   0.483E-02    0.635E-02
DAV:  15    -0.438472069820E+03   -0.16116E-01   -0.18293E-03  7680   0.377E-02    0.341E-02
DAV:  16    -0.438480536016E+03   -0.84662E-02   -0.75551E-04  7424   0.228E-02    0.218E-02
DAV:  17    -0.438484597788E+03   -0.40618E-02   -0.34031E-04  7936   0.145E-02    0.121E-02
DAV:  18    -0.438486334749E+03   -0.17370E-02   -0.12742E-04  6400   0.870E-03    0.685E-03
DAV:  19    -0.438487033117E+03   -0.69837E-03   -0.45306E-05  7424   0.503E-03    0.432E-03
DAV:  20    -0.438487411713E+03   -0.37860E-03   -0.28329E-05  6400   0.379E-03    0.268E-03
DAV:  21    -0.438487628380E+03   -0.21667E-03   -0.14370E-05  7680   0.251E-03    0.179E-03
DAV:  22    -0.438487734556E+03   -0.10618E-03   -0.51766E-06  6912   0.143E-03    0.121E-03
DAV:  23    -0.438487796267E+03   -0.61711E-04   -0.96607E-07  7680   0.714E-04    0.787E-04
DAV:  24    -0.438487839611E+03   -0.43344E-04   -0.71026E-07  7424   0.534E-04    0.449E-04
DAV:  25    -0.438487852810E+03   -0.13199E-04   -0.14358E-07  7680   0.286E-04    0.258E-04
DAV:  26    -0.438487858691E+03   -0.58811E-05   -0.49587E-08  5888   0.164E-04
   1 F= -.44029225E+03 E0= -.44028629E+03  d E =-.440292E+03  mag=     0.0002
