C  N  Cs
 1.0000000000000000
    12.3000000000000007    0.0000000000000000    0.0000000000000000
    -6.1499999999999977   10.6521124665485960    0.0000000000000000
     0.0000000000000000    0.0000000000000000   20.0000000000000000
 C   N   Cs 
  44   4   1
Direct
  0.9995540000000003  0.0004460000000000  0.7426220000000000
  0.1322020000000000  0.0655710000000000  0.7428320000000000
  0.1989050000000001  0.9988920000000001  0.7428560000000000
  0.3318230000000000  0.0648250000000000  0.7451610000000000
  0.3988500000000000  0.9980960000000000  0.7456750000000000
  0.5314960000000000  0.0661970000000000  0.7472950000000003
  0.5993220000000001  0.0002920000000000  0.7465590000000000
  0.7322380000000001  0.0689760000000000  0.7468040000000000
  0.7996480000000001  0.0023210000000000  0.7451130000000000
  0.9324090000000002  0.0675910000000000  0.7441210000000000
  0.9976790000000000  0.2003520000000000  0.7451130000000000
  0.1314270000000000  0.2655360000000000  0.7455620000000001
  0.1981630000000000  0.1985040000000000  0.7451520000000000
  0.3310240000000000  0.2672130000000000  0.7500570000000000
  0.4005310000000000  0.1976950000000000  0.7500360000000001
  0.5929250000000000  0.2004400000000000  0.7516480000000000
  0.7291380000000001  0.2708620000000000  0.7520030000000002
  0.7964630000000000  0.2035370000000000  0.7485880000000000
  0.9310240000000000  0.2677620000000000  0.7468040000000000
  0.9997080000000000  0.4006780000000000  0.7465590000000000
  0.1336470000000000  0.4660130000000001  0.7466270000000002
  0.1995550000000000  0.3981670000000000  0.7473010000000002
  0.3337730000000000  0.4595940000000000  0.7517270000000000
  0.7995600000000002  0.4070750000000000  0.7516480000000000
  0.9338030000000000  0.4685050000000000  0.7472950000000003
  0.0019040000000000  0.6011500000000000  0.7456750000000000
  0.1356690000000000  0.6663370000000000  0.7454260000000001
  0.2023240000000000  0.5989090000000000  0.7470970000000001
  0.3368670000000001  0.6631330000000000  0.7488939999999999
  0.4042040000000000  0.5957960000000000  0.7521690000000000
  0.5404060000000001  0.6662270000000000  0.7517270000000000
  0.7327870000000000  0.6689760000000000  0.7500570000000000
  0.8023050000000000  0.5994690000000000  0.7500360000000001
  0.9351750000000000  0.6681770000000000  0.7451610000000000
  0.0011080000000000  0.8010950000000000  0.7428560000000000
  0.1337770000000000  0.8662240000000000  0.7427160000000002
  0.2009120000000000  0.7990880000000000  0.7444170000000000
  0.3336630000000000  0.8643310000000000  0.7454260000000001
  0.4010910000000000  0.7976759999999999  0.7470970000000001
  0.5339870000000000  0.8663530000000000  0.7466270000000002
  0.6018330000000001  0.8004450000000001  0.7473010000000002
  0.7344640000000000  0.8685730000000000  0.7455620000000001
  0.8014960000000000  0.8018370000000000  0.7451520000000000
  0.9344290000000002  0.8677980000000000  0.7428320000000000
  0.5260080000000000  0.2604250000000000  0.7555450000000001
  0.3937470000000000  0.3926690000000000  0.7555820000000000
  0.7395750000000000  0.4739920000000001  0.7555450000000001
  0.6073310000000000  0.6062530000000000  0.7555820000000000
  0.5666630000000000  0.4333370000000000  0.8673590000000001
