C  N  Mn                                
   1.00000000000000     
    12.3000000000000007    0.0000000000000000    0.0000000000000000
    -6.1499999999999977   10.6521124665485960    0.0000000000000000
     0.0000000000000000    0.0000000000000000   20.0000000000000000
   C    N    Mn
    44     4     1
Direct
  0.9991780552423480  0.0008219470972137  0.7499974563959141
  0.1312047129699715  0.0644624483319294  0.7499832159953806
  0.1978086631281311  0.9978597244117220  0.7499834009022553
  0.3301512792874598  0.0627375163889755  0.7499763978502059
  0.3984906306397484  0.9974682035631380  0.7499884064018003
  0.5316827334432699  0.0669110291146310  0.7499833449779824
  0.5992939471405202  0.0005892783200445  0.7499786148846317
  0.7323418966086791  0.0693534931762382  0.7499970237779923
  0.7995112039190244  0.0023324057258933  0.7500007771668878
  0.9323459603153850  0.0676540389935299  0.7500044746221191
  0.9976675953298064  0.2004887968662195  0.7500007858138900
  0.1307291625310169  0.2651016157193763  0.7499876185869304
  0.1960380398581621  0.1968158919063073  0.7499744843549283
  0.3271578812670805  0.2609835485580848  0.7500207478869307
  0.3942603141990723  0.1939317696203366  0.7500213064398119
  0.5938407856662072  0.2011139632452261  0.7500443365342513
  0.7287622769139938  0.2712377231108485  0.7500274501467219
  0.7966666841744383  0.2033333165243193  0.7500026981643031
  0.9306465073336041  0.2676581038451600  0.7499970323070978
  0.9994107236393489  0.4007060538431152  0.7499786157024489
  0.1339418121639122  0.4658942924512190  0.7499796779183298
  0.2002408473400415  0.3982706056104678  0.7499840261924429
  0.3344497171627789  0.4605242980219632  0.7500497648061151
  0.7988860372551199  0.4061592146739034  0.7500443217745403
  0.9330889713170093  0.4683172667263891  0.7499833371911507
  0.0025317963348766  0.6015093697406365  0.7499883908855031
  0.1356183594626766  0.6661045415459553  0.7500018900450912
  0.2026360943798823  0.5989642284015723  0.7499976175803895
  0.3366471916797067  0.6633528069249272  0.7500030879426988
  0.4045275058558567  0.5954724941372298  0.7500356531387016
  0.5394757010418376  0.6655502839968473  0.7500497496596201
  0.7390164499449603  0.6728421187530164  0.7500207279390122
  0.8060682307521485  0.6057396873226654  0.7500212912469865
  0.9372624801068048  0.6698487188730660  0.7499763983627749
  0.0021402763526939  0.8021913382219141  0.7499834005078391
  0.1341972303900140  0.8658027672740087  0.7499993219941539
  0.2010270314438893  0.7989729676642087  0.7500072408808198
  0.3338954570215908  0.8643816386254091  0.7500019061763393
  0.4010357711437730  0.7973639046533588  0.7499976278712880
  0.5341057068053175  0.8660581888021659  0.7499796811526229
  0.6017293941386700  0.7997591542837127  0.7499840166678386
  0.7348983836016741  0.8692708374675879  0.7499876084951079
  0.8031841097057332  0.8039619631662935  0.7499744829679036
  0.9355375495112174  0.8687952856438130  0.7499832211157393
  0.5236651528410837  0.2601829162070768  0.7501553059533054
  0.3935297014008194  0.3904239407023549  0.7501563718959972
  0.7398170842216056  0.4763348474219551  0.7501552683681999
  0.6095760580934616  0.6064702990164023  0.7501563316178956
  0.5666708449236202  0.4333291553075343  0.7504040907390885
 
  0.00000000E+00  0.00000000E+00  0.00000000E+00
  0.00000000E+00  0.00000000E+00  0.00000000E+00
  0.00000000E+00  0.00000000E+00  0.00000000E+00
  0.00000000E+00  0.00000000E+00  0.00000000E+00
  0.00000000E+00  0.00000000E+00  0.00000000E+00
  0.00000000E+00  0.00000000E+00  0.00000000E+00
  0.00000000E+00  0.00000000E+00  0.00000000E+00
  0.00000000E+00  0.00000000E+00  0.00000000E+00
  0.00000000E+00  0.00000000E+00  0.00000000E+00
  0.00000000E+00  0.00000000E+00  0.00000000E+00
  0.00000000E+00  0.00000000E+00  0.00000000E+00
  0.00000000E+00  0.00000000E+00  0.00000000E+00
  0.00000000E+00  0.00000000E+00  0.00000000E+00
  0.00000000E+00  0.00000000E+00  0.00000000E+00
  0.00000000E+00  0.00000000E+00  0.00000000E+00
  0.00000000E+00  0.00000000E+00  0.00000000E+00
  0.00000000E+00  0.00000000E+00  0.00000000E+00
  0.00000000E+00  0.00000000E+00  0.00000000E+00
  0.00000000E+00  0.00000000E+00  0.00000000E+00
  0.00000000E+00  0.00000000E+00  0.00000000E+00
  0.00000000E+00  0.00000000E+00  0.00000000E+00
  0.00000000E+00  0.00000000E+00  0.00000000E+00
  0.00000000E+00  0.00000000E+00  0.00000000E+00
  0.00000000E+00  0.00000000E+00  0.00000000E+00
  0.00000000E+00  0.00000000E+00  0.00000000E+00
  0.00000000E+00  0.00000000E+00  0.00000000E+00
  0.00000000E+00  0.00000000E+00  0.00000000E+00
  0.00000000E+00  0.00000000E+00  0.00000000E+00
  0.00000000E+00  0.00000000E+00  0.00000000E+00
  0.00000000E+00  0.00000000E+00  0.00000000E+00
  0.00000000E+00  0.00000000E+00  0.00000000E+00
  0.00000000E+00  0.00000000E+00  0.00000000E+00
  0.00000000E+00  0.00000000E+00  0.00000000E+00
  0.00000000E+00  0.00000000E+00  0.00000000E+00
  0.00000000E+00  0.00000000E+00  0.00000000E+00
  0.00000000E+00  0.00000000E+00  0.00000000E+00
  0.00000000E+00  0.00000000E+00  0.00000000E+00
  0.00000000E+00  0.00000000E+00  0.00000000E+00
  0.00000000E+00  0.00000000E+00  0.00000000E+00
  0.00000000E+00  0.00000000E+00  0.00000000E+00
  0.00000000E+00  0.00000000E+00  0.00000000E+00
  0.00000000E+00  0.00000000E+00  0.00000000E+00
  0.00000000E+00  0.00000000E+00  0.00000000E+00
  0.00000000E+00  0.00000000E+00  0.00000000E+00
  0.00000000E+00  0.00000000E+00  0.00000000E+00
  0.00000000E+00  0.00000000E+00  0.00000000E+00
  0.00000000E+00  0.00000000E+00  0.00000000E+00
  0.00000000E+00  0.00000000E+00  0.00000000E+00
  0.00000000E+00  0.00000000E+00  0.00000000E+00
