       N       E                     dE             d eps       ncg     rms          rms(c)
DAV:   1    -0.480497813064E+03   -0.48050E+03   -0.17520E+02  8192   0.212E+01    0.436E+01
DAV:   2    -0.501937795786E+03   -0.21440E+02   -0.97615E+02  5376   0.284E+01    0.564E+01
DAV:   3    -0.442772293630E+03    0.59166E+02   -0.28637E+02  7680   0.603E+01    0.229E+01
DAV:   4    -0.445448893312E+03   -0.26766E+01   -0.19717E+01  6400   0.563E+00    0.104E+01
DAV:   5    -0.444153626695E+03    0.12953E+01   -0.80712E+00  7936   0.442E+00    0.554E+00
DAV:   6    -0.444595700852E+03   -0.44207E+00   -0.15472E+00  7424   0.191E+00    0.258E+00
DAV:   7    -0.444585969729E+03    0.97311E-02   -0.30764E-01  8192   0.134E+00    0.175E+00
DAV:   8    -0.444609903612E+03   -0.23934E-01   -0.26581E-01  5888   0.118E+00    0.895E-01
DAV:   9    -0.444654182461E+03   -0.44279E-01   -0.20625E-01  7936   0.477E-01    0.121E+00
DAV:  10    -0.444651935168E+03    0.22473E-02   -0.10120E-01  5632   0.856E-01    0.609E-01
DAV:  11    -0.444677083159E+03   -0.25148E-01   -0.72407E-02  7168   0.702E-01    0.309E-01
DAV:  12    -0.444686960702E+03   -0.98775E-02   -0.12749E-02  5632   0.154E-01    0.177E-01
DAV:  13    -0.444692112559E+03   -0.51519E-02   -0.81396E-03  5632   0.165E-01    0.169E-01
DAV:  14    -0.444700409325E+03   -0.82968E-02   -0.34543E-03  6144   0.733E-02    0.672E-02
DAV:  15    -0.444705482425E+03   -0.50731E-02   -0.13194E-03  6144   0.405E-02    0.798E-02
DAV:  16    -0.444711044313E+03   -0.55619E-02   -0.90021E-04  6656   0.608E-02    0.408E-02
DAV:  17    -0.444714824475E+03   -0.37802E-02   -0.61834E-04  6144   0.480E-02    0.128E-02
DAV:  18    -0.444717084366E+03   -0.22599E-02   -0.15801E-04  6144   0.137E-02    0.134E-02
DAV:  19    -0.444718149779E+03   -0.10654E-02   -0.74214E-05  4864   0.107E-02    0.106E-02
DAV:  20    -0.444718611192E+03   -0.46141E-03   -0.72618E-05  5120   0.160E-02    0.304E-03
DAV:  21    -0.444718718078E+03   -0.10689E-03   -0.64416E-06  5376   0.239E-03    0.158E-03
DAV:  22    -0.444718798141E+03   -0.80062E-04   -0.35568E-06  5888   0.169E-03    0.183E-03
DAV:  23    -0.444718837828E+03   -0.39687E-04   -0.95314E-07  6400   0.849E-04    0.995E-04
DAV:  24    -0.444718873515E+03   -0.35687E-04   -0.58052E-07  6400   0.826E-04    0.643E-04
DAV:  25    -0.444718885945E+03   -0.12431E-04   -0.13952E-07  6656   0.727E-04    0.335E-04
DAV:  26    -0.444718892070E+03   -0.61246E-05   -0.55898E-08  6912   0.382E-04
   1 F= -.44647950E+03 E0= -.44647936E+03  d E =-.446480E+03  mag=     3.0001
       N       E                     dE             d eps       ncg     rms          rms(c)
DAV:   1    -0.444719136762E+03   -0.25082E-03   -0.23742E-02  6912   0.303E-01    0.380E-02
DAV:   2    -0.444719127207E+03    0.95543E-05   -0.30908E-04  4352   0.320E-02    0.206E-02
DAV:   3    -0.444719123420E+03    0.37871E-05   -0.28280E-05  7424   0.101E-02
   2 F= -.44647973E+03 E0= -.44647959E+03  d E =-.222698E-03  mag=     3.0000
