C  N  Mn                                
   1.00000000000000     
    12.3000000000000007    0.0000000000000000    0.0000000000000000
    -6.1499999999999977   10.6521124665485960    0.0000000000000000
     0.0000000000000000    0.0000000000000000   20.0000000000000000
   C    N    Mn
    44     4     1
Direct
  0.9991760694302829  0.0008239298691801  0.7499994777871594
  0.1312293610760472  0.0644852945455387  0.7499845507185532
  0.1978425757485940  0.9978916041647425  0.7499841276710422
  0.3301684935165721  0.0628025248420108  0.7499765145101220
  0.3985262786454010  0.9975292341484939  0.7499876165736125
  0.5316883005578346  0.0669112294832603  0.7499816917683072
  0.5992973367094282  0.0005738457325617  0.7499793706144772
  0.7323547461023892  0.0693386875265326  0.7499977455640746
  0.7994948402416123  0.0023188650678065  0.7500027818696173
  0.9323648598149237  0.0676351396500262  0.7500035974064451
  0.9976811341181716  0.2005051587767129  0.7500027901509192
  0.1307472500495399  0.2651202270657113  0.7499872661459056
  0.1960148785918295  0.1968086611524369  0.7499746702411902
  0.3271965459034451  0.2610180379229043  0.7500179156520038
  0.3942193524860791  0.1939243726972351  0.7500179554198649
  0.5938432440523166  0.2011250095700951  0.7500422627569806
  0.7287469338810102  0.2712530655136580  0.7500259427099666
  0.7966394415735759  0.2033605586187571  0.7500019612342205
  0.9306613133003807  0.2676452558398724  0.7499977546770787
  0.9994261558862942  0.4007026643300129  0.7499793710842555
  0.1339732298348702  0.4658794217087769  0.7499795128531817
  0.2002631269410863  0.3982813878130033  0.7499826009505187
  0.3344695996096130  0.4605965404697080  0.7500475029161562
  0.7988749919014816  0.4061567552445504  0.7500422480850903
  0.9330887719788559  0.4683117000768896  0.7499816854718503
  0.0024707635842390  0.6014737212238621  0.7499875995435576
  0.1355631476314893  0.6660578483612851  0.7500028510540656
  0.2026635179220167  0.5989271990384908  0.7499987937101494
  0.3366440328594937  0.6633559653423401  0.7500012376011426
  0.4045465149742334  0.5954534834295447  0.7500324520744928
  0.5394034591456007  0.6655304021495629  0.7500474893808473
  0.7389819612891982  0.6728034563519764  0.7500178952994089
  0.8060756260939624  0.6057806484030471  0.7500179412475987
  0.9371974767339152  0.6698315084489275  0.7499765183601516
  0.0021083926151797  0.8021574215341954  0.7499841255770082
  0.1342049801206639  0.8657950179523244  0.7500016106530949
  0.2010230804775227  0.7989769179013976  0.7500068505360260
  0.3339421511300183  0.8644368508789030  0.7500028675879330
  0.4010727996213833  0.7973364804505748  0.7499988036145838
  0.5341205782922199  0.8660267720538278  0.7499795166219686
  0.6017186124073801  0.7997368755730735  0.7499825910473640
  0.7348797731850421  0.8692527519563934  0.7499872557257142
  0.8031913375794398  0.8039851214811565  0.7499746701015798
  0.9355147083097912  0.8687706414706170  0.7499845570921717
  0.5236686910587260  0.2601695550316269  0.7501554333846341
  0.3935262818326084  0.3904204524689303  0.7501563988570167
  0.7398304455480412  0.4763313102898896  0.7501553936641767
  0.6095795460430592  0.6064737184429523  0.7501563566339836
  0.5666732895931621  0.4333267079345941  0.7504218757987516
 
  0.00000000E+00  0.00000000E+00  0.00000000E+00
  0.00000000E+00  0.00000000E+00  0.00000000E+00
  0.00000000E+00  0.00000000E+00  0.00000000E+00
  0.00000000E+00  0.00000000E+00  0.00000000E+00
  0.00000000E+00  0.00000000E+00  0.00000000E+00
  0.00000000E+00  0.00000000E+00  0.00000000E+00
  0.00000000E+00  0.00000000E+00  0.00000000E+00
  0.00000000E+00  0.00000000E+00  0.00000000E+00
  0.00000000E+00  0.00000000E+00  0.00000000E+00
  0.00000000E+00  0.00000000E+00  0.00000000E+00
  0.00000000E+00  0.00000000E+00  0.00000000E+00
  0.00000000E+00  0.00000000E+00  0.00000000E+00
  0.00000000E+00  0.00000000E+00  0.00000000E+00
  0.00000000E+00  0.00000000E+00  0.00000000E+00
  0.00000000E+00  0.00000000E+00  0.00000000E+00
  0.00000000E+00  0.00000000E+00  0.00000000E+00
  0.00000000E+00  0.00000000E+00  0.00000000E+00
  0.00000000E+00  0.00000000E+00  0.00000000E+00
  0.00000000E+00  0.00000000E+00  0.00000000E+00
  0.00000000E+00  0.00000000E+00  0.00000000E+00
  0.00000000E+00  0.00000000E+00  0.00000000E+00
  0.00000000E+00  0.00000000E+00  0.00000000E+00
  0.00000000E+00  0.00000000E+00  0.00000000E+00
  0.00000000E+00  0.00000000E+00  0.00000000E+00
  0.00000000E+00  0.00000000E+00  0.00000000E+00
  0.00000000E+00  0.00000000E+00  0.00000000E+00
  0.00000000E+00  0.00000000E+00  0.00000000E+00
  0.00000000E+00  0.00000000E+00  0.00000000E+00
  0.00000000E+00  0.00000000E+00  0.00000000E+00
  0.00000000E+00  0.00000000E+00  0.00000000E+00
  0.00000000E+00  0.00000000E+00  0.00000000E+00
  0.00000000E+00  0.00000000E+00  0.00000000E+00
  0.00000000E+00  0.00000000E+00  0.00000000E+00
  0.00000000E+00  0.00000000E+00  0.00000000E+00
  0.00000000E+00  0.00000000E+00  0.00000000E+00
  0.00000000E+00  0.00000000E+00  0.00000000E+00
  0.00000000E+00  0.00000000E+00  0.00000000E+00
  0.00000000E+00  0.00000000E+00  0.00000000E+00
  0.00000000E+00  0.00000000E+00  0.00000000E+00
  0.00000000E+00  0.00000000E+00  0.00000000E+00
  0.00000000E+00  0.00000000E+00  0.00000000E+00
  0.00000000E+00  0.00000000E+00  0.00000000E+00
  0.00000000E+00  0.00000000E+00  0.00000000E+00
  0.00000000E+00  0.00000000E+00  0.00000000E+00
  0.00000000E+00  0.00000000E+00  0.00000000E+00
  0.00000000E+00  0.00000000E+00  0.00000000E+00
  0.00000000E+00  0.00000000E+00  0.00000000E+00
  0.00000000E+00  0.00000000E+00  0.00000000E+00
  0.00000000E+00  0.00000000E+00  0.00000000E+00
