       N       E                     dE             d eps       ncg     rms          ort
DAV:   1     0.558252507045E+02    0.55825E+02   -0.36888E+03   256   0.313E+01
DAV:   2     0.807940374611E+00   -0.55017E+02   -0.55017E+02   256   0.450E+00
DAV:   3    -0.294951581100E-01   -0.83744E+00   -0.83744E+00   256   0.917E-01
DAV:   4    -0.346938299390E-01   -0.51987E-02   -0.51987E-02   256   0.681E-02
DAV:   5    -0.346939491922E-01   -0.11925E-06   -0.11937E-06   256   0.324E-04
SDA:   6    -0.346946352728E-01   -0.68608E-06   -0.11937E-06   256   0.810E-05 0.000E+00
   1 F= -.34694635E-01 E0= -.34694635E-01  d E =-.420827E-22
