       N       E                     dE             d eps       ncg     rms          ort
DAV:   1     0.970177999735E+03    0.97018E+03   -0.87523E+04  3328   0.670E+02
DAV:   2    -0.362789240832E+03   -0.13330E+04   -0.13325E+04  3328   0.951E+01
DAV:   3    -0.439720315231E+03   -0.76931E+02   -0.76931E+02  3328   0.361E+01
DAV:   4    -0.440654055505E+03   -0.93374E+00   -0.93374E+00  3328   0.435E+00
DAV:   5    -0.440654274154E+03   -0.21865E-03   -0.21865E-03  3328   0.696E-02
SDA:   6    -0.440654274154E+03    0.00000E+00   -0.21865E-03  3328   0.564E-05 0.000E+00
   1 F= -.44238304E+03 E0= -.44238194E+03  d E =-.219204E-02  mag=    -0.0000
