       N       E                     dE             d eps       ncg     rms          ort
DAV:   1     0.228925723482E+02    0.22893E+02   -0.37873E+03   256   0.334E+01
DAV:   2     0.547252990411E-01   -0.22838E+02   -0.22837E+02   256   0.479E+00
DAV:   3     0.323017309179E-01   -0.22424E-01   -0.22422E-01   256   0.195E-01
DAV:   4     0.322640154873E-01   -0.37715E-04   -0.37715E-04   256   0.934E-03
DAV:   5     0.322640135080E-01   -0.19793E-08   -0.20819E-08   256   0.593E-05
SDA:   6    -0.182941644556E+00   -0.21521E+00   -0.20819E-08   256   0.329E+00 0.000E+00
CGA:   7    -0.212384172116E+00   -0.29443E-01   -0.42928E-01   256   0.736E-01 0.270E-01
CGA:   8    -0.228244596847E+00   -0.15860E-01   -0.15862E-01   256   0.246E-01-0.272E-03
CGA:   9    -0.235668585694E+00   -0.74240E-02   -0.73524E-02   256   0.107E-01 0.534E-03
CGA:  10    -0.240448352720E+00   -0.47798E-02   -0.48918E-02   256   0.848E-02-0.487E-03
CGA:  11    -0.242097662210E+00   -0.16493E-02   -0.16507E-02   256   0.775E-03 0.641E-04
CGA:  12    -0.242419133902E+00   -0.32147E-03   -0.32228E-03   256   0.236E-03-0.410E-05
CGA:  13    -0.242460698469E+00   -0.41565E-04   -0.41592E-04   256   0.395E-04 0.558E-06
CGA:  14    -0.242474359098E+00   -0.13661E-04   -0.13798E-04   256   0.342E-05-0.108E-05
CGA:  15    -0.242475169745E+00   -0.81065E-06   -0.80617E-06   256   0.171E-05 0.311E-06
   1 F= -.24247517E+00 E0= -.24247517E+00  d E =-.610662E-11  mag=     1.0000
