 vasp.5.4.4.18Apr17-6-g9f103f2a35 (build Nov 21 2023 15:34:30) complex          
  
 executed on             LinuxIFC date 2026.09.21  17:37:29
 running on  256 total cores
 distrk:  each k-point on  256 cores,    1 groups
 distr:  one band on NCORES_PER_BAND=   1 cores,  256 groups


--------------------------------------------------------------------------------------------------------


 INCAR:
 POTCAR:   PAW_PBE Cu 05Jan2001                   

 ----------------------------------------------------------------------------- 
|                                                                             |
|           W    W    AA    RRRRR   N    N  II  N    N   GGGG   !!!           |
|           W    W   A  A   R    R  NN   N  II  NN   N  G    G  !!!           |
|           W    W  A    A  R    R  N N  N  II  N N  N  G       !!!           |
|           W WW W  AAAAAA  RRRRR   N  N N  II  N  N N  G  GGG   !            |
|           WW  WW  A    A  R   R   N   NN  II  N   NN  G    G                |
|           W    W  A    A  R    R  N    N  II  N    N   GGGG   !!!           |
|                                                                             |
|      For optimal performance we recommend to set                            |
|        NCORE= 4 - approx SQRT( number of cores)                             |
|      NCORE specifies how many cores store one orbital (NPAR=cpu/NCORE).     |
|      This setting can  greatly improve the performance of VASP for DFT.     |
|      The default,   NCORE=1            might be grossly inefficient         |
|      on modern multi-core architectures or massively parallel machines.     |
|      Do your own testing !!!!                                               |
|      Unfortunately you need to use the default for GW and RPA calculations. |
|      (for HF NCORE is supported but not extensively tested yet)             |
|                                                                             |
 ----------------------------------------------------------------------------- 

 POTCAR:   PAW_PBE Cu 05Jan2001                   
   VRHFIN =Cu: d10 p1                                                           
   LEXCH  = PE                                                                  
   EATOM  =  1390.9800 eV,  102.2341 Ry                                         
                                                                                
   TITEL  = PAW_PBE Cu 05Jan2001                                                
   LULTRA =        F    use ultrasoft PP ?                                      
   IUNSCR =        1    unscreen: 0-lin 1-nonlin 2-no                           
   RPACOR =    2.000    partial core radius                                     
   POMASS =   63.546; ZVAL   =   11.000    mass and valenz                      
   RCORE  =    2.300    outmost cutoff radius                                   
   RWIGS  =    2.480; RWIGS  =    1.312    wigner-seitz radius (au A)           
   ENMAX  =  273.214; ENMIN  =  204.910 eV                                      
   RCLOC  =    1.712    cutoff for local pot                                    
   LCOR   =        T    correct aug charges                                     
   LPAW   =        T    paw PP                                                  
   EAUG   =  516.456                                                            
   DEXC   =    -.008                                                            
   RMAX   =    2.789    core radius for proj-oper                               
   RAUG   =    1.300    factor for augmentation sphere                          
   RDEP   =    2.302    radius for radial grids                                 
   QCUT   =   -4.481; QGAM   =    8.962    optimization parameters              
                                                                                
   Description                                                                  
     l     E      TYP  RCUT    TYP  RCUT                                        
     2   .000     23  2.300                                                     
     2   .000     23  2.300                                                     
     0   .000     23  2.300                                                     
     0   .000     23  2.300                                                     
     1  -.200     23  2.300                                                     
     1   .000     23  2.300                                                     
     3   .000      7   .000                                                     
  local pseudopotential read in
  partial core-charges read in
  atomic valenz-charges read in
  non local Contribution for L=           2  read in
    real space projection operators read in
  non local Contribution for L=           2  read in
    real space projection operators read in
  non local Contribution for L=           0  read in
    real space projection operators read in
  non local Contribution for L=           0  read in
    real space projection operators read in
  non local Contribution for L=           1  read in
    real space projection operators read in
  non local Contribution for L=           1  read in
    real space projection operators read in
    PAW grid and wavefunctions read in
 
   number of l-projection  operators is LMAX  =           6
   number of lm-projection operators is LMMAX =          18
 
 PAW_PBE Cu 05Jan2001                   :
 energy of atom  1       EATOM=-1390.9800
 kinetic energy error for atom=    0.0032 (will be added to EATOM!!)
 
 
 POSCAR: Cu                                      
  positions in direct lattice
  No initial velocities read in
 exchange correlation table for  LEXCH =        8
   RHO(1)=    0.500       N(1)  =     2000
   RHO(2)=  100.500       N(2)  =     4000

 VTST: version 3.2, (02/03/18)

 CHAIN: initializing optimizer
 
 OPT: Using VASP Dynamics algorithm
 CHAIN: Read ICHAIN            0
 
 POSCAR: Cu                                      
  positions in direct lattice
  No initial velocities read in
 


--------------------------------------------------------------------------------------------------------


 ion  position               nearest neighbor table
   1  0.010  0.010  0.751-
 

IMPORTANT INFORMATION: All symmetrisations will be switched off!
NOSYMM: (Re-)initialisation of all symmetry stuff for point group C_1.

 
 

Automatic generation of k-mesh.
 generate k-points for:    1    1    1
Space group operators:
 irot       det(A)        alpha          n_x          n_y          n_z        tau_x        tau_y        tau_z
    1     1.000000     0.000000     1.000000     0.000000     0.000000     0.000000     0.000000     0.000000
 
 Subroutine IBZKPT returns following result:
 ===========================================
 
 Found      1 irreducible k-points:
 
 Following reciprocal coordinates:
            Coordinates               Weight
  0.000000  0.000000  0.000000      1.000000
 
 Following cartesian coordinates:
            Coordinates               Weight
  0.000000  0.000000  0.000000      1.000000
 


--------------------------------------------------------------------------------------------------------




 Dimension of arrays:
   k-points           NKPTS =      1   k-points in BZ     NKDIM =      1   number of bands    NBANDS=    256
   number of dos      NEDOS =    301   number of ions     NIONS =      1
   non local maximal  LDIM  =      6   non local SUM 2l+1 LMDIM =     18
   total plane-waves  NPLWV = ******
   max r-space proj   IRMAX =      1   max aug-charges    IRDMAX=  14808
   dimension x,y,z NGX =   112 NGY =  112 NGZ =  112
   dimension x,y,z NGXF=   224 NGYF=  224 NGZF=  224
   support grid    NGXF=   224 NGYF=  224 NGZF=  224
   ions per type =               1
   NGX,Y,Z   is equivalent  to a cutoff of  12.41, 12.41, 12.41 a.u.
   NGXF,Y,Z  is equivalent  to a cutoff of  24.83, 24.83, 24.83 a.u.

 SYSTEM =  Cu                                      
 POSCAR =  Cu                                      

 Startparameter for this run:
   NWRITE =      2    write-flag & timer
   PREC   = accura    normal or accurate (medium, high low for compatibility)
   ISTART =      0    job   : 0-new  1-cont  2-samecut
   ICHARG =      2    charge: 1-file 2-atom 10-const
   ISPIN  =      2    spin polarized calculation?
   LNONCOLLINEAR =      F non collinear calculations
   LSORBIT =      F    spin-orbit coupling
   INIWAV =      1    electr: 0-lowe 1-rand  2-diag
   LASPH  =      T    aspherical Exc in radial PAW
   METAGGA=      F    non-selfconsistent MetaGGA calc.

 Electronic Relaxation 1
   ENCUT  =  520.0 eV  38.22 Ry    6.18 a.u.  27.89 27.89 27.89*2*pi/ulx,y,z
   ENINI  =  520.0     initial cutoff
   ENAUG  =  516.5 eV  augmentation charge cutoff
   NELM   =    200;   NELMIN=  2; NELMDL= -5     # of ELM steps 
   EDIFF  = 0.1E-04   stopping-criterion for ELM
   LREAL  =      F    real-space projection
   NLSPLINE    = F    spline interpolate recip. space projectors
   LCOMPAT=      F    compatible to vasp.4.4
   GGA_COMPAT  = T    GGA compatible to vasp.4.4-vasp.4.6
   LMAXPAW     = -100 max onsite density
   LMAXMIX     =    2 max onsite mixed and CHGCAR
   VOSKOWN=      0    Vosko Wilk Nusair interpolation
   ROPT   =    0.00000
 Ionic relaxation
   EDIFFG = 0.1E-03   stopping-criterion for IOM
   NSW    =      0    number of steps for IOM
   NBLOCK =      1;   KBLOCK =      1    inner block; outer block 
   IBRION =     -1    ionic relax: 0-MD 1-quasi-New 2-CG
   NFREE  =      0    steps in history (QN), initial steepest desc. (CG)
   ISIF   =      0    stress and relaxation
   IWAVPR =     10    prediction:  0-non 1-charg 2-wave 3-comb
   ISYM   =      0    0-nonsym 1-usesym 2-fastsym
   LCORR  =      T    Harris-Foulkes like correction to forces

   POTIM  = 0.5000    time-step for ionic-motion
   TEIN   =    0.0    initial temperature
   TEBEG  =    0.0;   TEEND  =   0.0 temperature during run
   SMASS  =  -3.00    Nose mass-parameter (am)
   estimated Nose-frequenzy (Omega)   =  0.10E-29 period in steps =****** mass=  -0.514E-26a.u.
   SCALEE = 1.0000    scale energy and forces
   NPACO  =    256;   APACO  = 16.0  distance and # of slots for P.C.
   PSTRESS=    0.0 pullay stress

  Mass of Ions in am
   POMASS =  63.55
  Ionic Valenz
   ZVAL   =  11.00
  Atomic Wigner-Seitz radii
   RWIGS  =  -1.00
  virtual crystal weights 
   VCA    =   1.00
   NELECT =      11.0000    total number of electrons
   NUPDOWN=       1.0000    fix difference up-down

 DOS related values:
   EMIN   =  10.00;   EMAX   =-10.00  energy-range for DOS
   EFERMI =   0.00
   ISMEAR =     0;   SIGMA  =   0.05  broadening in eV -4-tet -1-fermi 0-gaus

 Electronic relaxation 2 (details)
   IALGO  =     58    algorithm
   LDIAG  =      T    sub-space diagonalisation (order eigenvalues)
   LSUBROT=      F    optimize rotation matrix (better conditioning)
   TURBO    =      0    0=normal 1=particle mesh
   IRESTART =      0    0=no restart 2=restart with 2 vectors
   NREBOOT  =      0    no. of reboots
   NMIN     =      0    reboot dimension
   EREF     =   0.00    reference energy to select bands
   IMIX   =      4    mixing-type and parameters
     AMIX     =   0.40;   BMIX     =  1.00
     AMIX_MAG =   1.60;   BMIX_MAG =  1.00
     AMIN     =   0.10
     WC   =   100.;   INIMIX=   1;  MIXPRE=   1;  MAXMIX= -45

 Intra band minimization:
   WEIMIN = 0.0000     energy-eigenvalue tresh-hold
   EBREAK =  0.98E-08  absolut break condition
   DEPER  =   0.30     relativ break condition  

   TIME   =   0.40     timestep for ELM

  volume/ion in A,a.u.               =    3375.00     22775.62
  Fermi-wavevector in a.u.,A,eV,Ry     =   0.242725  0.458684  0.801593  0.058915
  Thomas-Fermi vector in A             =   1.050536
 
 Write flags
   LWAVE        =      F    write WAVECAR
   LDOWNSAMPLE  =      F    k-point downsampling of WAVECAR
   LCHARG       =      F    write CHGCAR
   LVTOT        =      F    write LOCPOT, total local potential
   LVHAR        =      F    write LOCPOT, Hartree potential only
   LELF         =      F    write electronic localiz. function (ELF)
   LORBIT       =      0    0 simple, 1 ext, 2 COOP (PROOUT), +10 PAW based schemes


 Dipole corrections
   LMONO  =      F    monopole corrections only (constant potential shift)
   LDIPOL =      F    correct potential (dipole corrections)
   IDIPOL =      0    1-x, 2-y, 3-z, 4-all directions 
   EPSILON=  1.0000000 bulk dielectric constant

 Exchange correlation treatment:
   GGA     =    --    GGA type
   LEXCH   =     8    internal setting for exchange type
   VOSKOWN=      0    Vosko Wilk Nusair interpolation
   LHFCALC =     F    Hartree Fock is set to
   LHFONE  =     F    Hartree Fock one center treatment
   AEXX    =    0.0000 exact exchange contribution

 Linear response parameters
   LEPSILON=     F    determine dielectric tensor
   LRPA    =     F    only Hartree local field effects (RPA)
   LNABLA  =     F    use nabla operator in PAW spheres
   LVEL    =     F    velocity operator in full k-point grid
   LINTERFAST=   F  fast interpolation
   KINTER  =     0    interpolate to denser k-point grid
   CSHIFT  =0.1000    complex shift for real part using Kramers Kronig
   OMEGAMAX=  -1.0    maximum frequency
   DEG_THRESHOLD= 0.2000000E-02 threshold for treating states as degnerate
   RTIME   =   -0.100 relaxation time in fs
  (WPLASMAI=    0.000 imaginary part of plasma frequency in eV, 0.658/RTIME)
   DFIELD  = 0.0000000 0.0000000 0.0000000 field for delta impulse in time
 
 Orbital magnetization related:
   ORBITALMAG=     F  switch on orbital magnetization
   LCHIMAG   =     F  perturbation theory with respect to B field
   DQ        =  0.001000  dq finite difference perturbation B field
   LLRAUG    =     F  two centre corrections for induced B field



--------------------------------------------------------------------------------------------------------


 Static calculation
 charge density and potential will be updated during run
 spin polarized calculation
 Conjugate gradient for all bands (Freysoldt, et al. PRB 79, 241103 (2009))
 preconditioned conjugated gradient                                        
 perform sub-space diagonalisation
    before iterative eigenvector-optimisation
 modified Broyden-mixing scheme, WC =      100.0
 initial mixing is a Kerker type mixing with AMIX =  0.4000 and BMIX =      1.0000
 Hartree-type preconditioning will be used
 using additional bands          250
 reciprocal scheme for non local part
 use partial core corrections
 no Harris-corrections to forces 
 use gradient corrections 
 use of overlap-Matrix (Vanderbilt PP)
 Gauss-broadening in eV      SIGMA  =   0.05


--------------------------------------------------------------------------------------------------------


  energy-cutoff  :      520.00
  volume of cell :     3375.00
      direct lattice vectors                 reciprocal lattice vectors
    15.000000000  0.000000000  0.000000000     0.066666667  0.000000000  0.000000000
     0.000000000 15.000000000  0.000000000     0.000000000  0.066666667  0.000000000
     0.000000000  0.000000000 15.000000000     0.000000000  0.000000000  0.066666667

  length of vectors
    15.000000000 15.000000000 15.000000000     0.066666667  0.066666667  0.066666667


 
 k-points in units of 2pi/SCALE and weight: read from INCAR                         
   0.00000000  0.00000000  0.00000000       1.000
 
 k-points in reciprocal lattice and weights: read from INCAR                         
   0.00000000  0.00000000  0.00000000       1.000
 
 position of ions in fractional coordinates (direct lattice) 
   0.01000000  0.01000000  0.75100000
 
 position of ions in cartesian coordinates  (Angst):
   0.15000000  0.15000000 11.26500000
 


--------------------------------------------------------------------------------------------------------


 k-point  1 :   0.0000 0.0000 0.0000  plane waves:   90879

 maximum and minimum number of plane-waves per node :     90879    90879

 maximum number of plane-waves:     90879
 maximum index in each direction: 
   IXMAX=   27   IYMAX=   27   IZMAX=   27
   IXMIN=  -27   IYMIN=  -27   IZMIN=  -27


 serial   3D FFT for wavefunctions
 parallel 3D FFT for charge:
    minimum data exchange during FFTs selected (reduces bandwidth)


 total amount of memory used by VASP MPI-rank0   177231. kBytes
=======================================================================

   base      :      30000. kBytes
   nonl-proj :      14540. kBytes
   fftplans  :       7479. kBytes
   grid      :     116433. kBytes
   one-center:         31. kBytes
   wavefun   :       8748. kBytes
 
     INWAV:  cpu time    0.0000: real time    0.0000
 Broyden mixing: mesh for mixing (old mesh)
   NGX = 55   NGY = 55   NGZ = 55
  (NGX  =224   NGY  =224   NGZ  =224)
  gives a total of 166375 points

 initial charge density was supplied:
 charge density of overlapping atoms calculated
 number of electron      11.0000000 magnetization       1.0000000
 keeping initial charge density in first step


--------------------------------------------------------------------------------------------------------


 Maximum index for augmentation-charges          691 (set IRDMAX)


--------------------------------------------------------------------------------------------------------


 First call to EWALD:  gamma=   0.118
 Maximum number of real-space cells 3x 3x 3
 Maximum number of reciprocal cells 3x 3x 3

    FEWALD:  cpu time    0.0115: real time    0.0116


--------------------------------------- Iteration      1(   1)  ---------------------------------------


    POTLOK:  cpu time    2.5346: real time    2.5561
    SETDIJ:  cpu time    0.4285: real time    0.4384
    TRIAL :  cpu time    8.6859: real time    8.7314
    CORREC:  cpu time    0.0817: real time    0.0818
    --------------------------------------------
      LOOP:  cpu time   11.7401: real time   11.8252

 eigenvalue-minimisations  :  1024
 total energy-change (2. order) : 0.2289257E+02  (-0.3787281E+03)
 number of electron      11.0000000 magnetization       1.0000000
 augmentation part       11.0000000 magnetization       1.0000000

 Free energy of the ion-electron system (eV)
  ---------------------------------------------------
  alpha Z        PSCENC =         0.37855556
  Ewald energy   TEWEN  =      -164.78780271
  -Hartree energ DENC   =     -1069.78575266
  -exchange      EXHF   =         0.00000000
  -V(xc)+E(xc)   XCENC  =        41.96298379
  PAW double counting   =      1081.94766257    -1225.95022437
  entropy T*S    EENTRO =        -0.00004654
  eigenvalues    EBANDS =       -31.84963815
  atomic energy  EATOM  =      1390.97683486
  ---------------------------------------------------
  free energy    TOTEN  =        22.89257235 eV

  energy without entropy =       22.89261889  energy(sigma->0) =       22.89259562


--------------------------------------------------------------------------------------------------------




--------------------------------------- Iteration      1(   2)  ---------------------------------------


    TRIAL :  cpu time   32.1668: real time   38.4815
    CORREC:  cpu time    0.3086: real time    0.3283
    --------------------------------------------
      LOOP:  cpu time   32.5094: real time   38.8478

 eigenvalue-minimisations  :  1536
 total energy-change (2. order) :-0.2283785E+02  (-0.2283721E+02)
 number of electron      11.0000000 magnetization       1.0000000
 augmentation part       11.0000000 magnetization       1.0000000

 Free energy of the ion-electron system (eV)
  ---------------------------------------------------
  alpha Z        PSCENC =         0.37855556
  Ewald energy   TEWEN  =      -164.78780271
  -Hartree energ DENC   =     -1069.78575266
  -exchange      EXHF   =         0.00000000
  -V(xc)+E(xc)   XCENC  =        41.96298379
  PAW double counting   =      1081.94766257    -1225.95022437
  entropy T*S    EENTRO =        -0.00484818
  eigenvalues    EBANDS =       -54.68268356
  atomic energy  EATOM  =      1390.97683486
  ---------------------------------------------------
  free energy    TOTEN  =         0.05472530 eV

  energy without entropy =        0.05957348  energy(sigma->0) =        0.05714939


--------------------------------------------------------------------------------------------------------




--------------------------------------- Iteration      1(   3)  ---------------------------------------


    TRIAL :  cpu time    9.3585: real time    9.3665
    CORREC:  cpu time    0.0846: real time    0.0846
    --------------------------------------------
      LOOP:  cpu time    9.5442: real time    9.5528

 eigenvalue-minimisations  :  1024
 total energy-change (2. order) :-0.2242357E-01  (-0.2242155E-01)
 number of electron      11.0000000 magnetization       1.0000000
 augmentation part       11.0000000 magnetization       1.0000000

 Free energy of the ion-electron system (eV)
  ---------------------------------------------------
  alpha Z        PSCENC =         0.37855556
  Ewald energy   TEWEN  =      -164.78780271
  -Hartree energ DENC   =     -1069.78575266
  -exchange      EXHF   =         0.00000000
  -V(xc)+E(xc)   XCENC  =        41.96298379
  PAW double counting   =      1081.94766257    -1225.95022437
  entropy T*S    EENTRO =        -0.00456878
  eigenvalues    EBANDS =       -54.70538653
  atomic energy  EATOM  =      1390.97683486
  ---------------------------------------------------
  free energy    TOTEN  =         0.03230173 eV

  energy without entropy =        0.03687051  energy(sigma->0) =        0.03458612


--------------------------------------------------------------------------------------------------------




--------------------------------------- Iteration      1(   4)  ---------------------------------------


    TRIAL :  cpu time   13.8576: real time   13.9359
    CORREC:  cpu time    0.1055: real time    0.1055
    --------------------------------------------
      LOOP:  cpu time   13.9703: real time   14.0486

 eigenvalue-minimisations  :  1536
 total energy-change (2. order) :-0.3771543E-04  (-0.3771530E-04)
 number of electron      11.0000000 magnetization       1.0000000
 augmentation part       11.0000000 magnetization       1.0000000

 Free energy of the ion-electron system (eV)
  ---------------------------------------------------
  alpha Z        PSCENC =         0.37855556
  Ewald energy   TEWEN  =      -164.78780271
  -Hartree energ DENC   =     -1069.78575266
  -exchange      EXHF   =         0.00000000
  -V(xc)+E(xc)   XCENC  =        41.96298379
  PAW double counting   =      1081.94766257    -1225.95022437
  entropy T*S    EENTRO =        -0.00456832
  eigenvalues    EBANDS =       -54.70542470
  atomic energy  EATOM  =      1390.97683486
  ---------------------------------------------------
  free energy    TOTEN  =         0.03226402 eV

  energy without entropy =        0.03683234  energy(sigma->0) =        0.03454818


--------------------------------------------------------------------------------------------------------




--------------------------------------- Iteration      1(   5)  ---------------------------------------


    TRIAL :  cpu time    8.8394: real time    8.8407
    CORREC:  cpu time    0.0858: real time    0.0858
    CHARGE:  cpu time    1.3274: real time    1.3698
    --------------------------------------------
      LOOP:  cpu time   10.2611: real time   10.3047

 eigenvalue-minimisations  :  1024
 total energy-change (2. order) :-0.1979288E-08  (-0.2081884E-08)
 number of electron      11.0000001 magnetization       1.0000000
 augmentation part        7.3720005 magnetization      -0.0318302

 Free energy of the ion-electron system (eV)
  ---------------------------------------------------
  alpha Z        PSCENC =         0.37855556
  Ewald energy   TEWEN  =      -164.78780271
  -Hartree energ DENC   =     -1069.78575266
  -exchange      EXHF   =         0.00000000
  -V(xc)+E(xc)   XCENC  =        41.96298379
  PAW double counting   =      1081.94766257    -1225.95022437
  entropy T*S    EENTRO =        -0.00456832
  eigenvalues    EBANDS =       -54.70542470
  atomic energy  EATOM  =      1390.97683486
  ---------------------------------------------------
  free energy    TOTEN  =         0.03226401 eV

  energy without entropy =        0.03683234  energy(sigma->0) =        0.03454818


--------------------------------------------------------------------------------------------------------




--------------------------------------- Iteration      1(   6)  ---------------------------------------


    POTLOK:  cpu time    2.5712: real time    2.5721
    SETDIJ:  cpu time    0.4407: real time    0.4408
    TRIAL :  cpu time    3.7903: real time    4.1269
    CORREC:  cpu time    6.2060: real time    6.3499
    CHARGE:  cpu time    1.3778: real time    1.3779
    --------------------------------------------
      LOOP:  cpu time   14.4020: real time   14.8841

 eigenvalue-minimisations  :     0
 total energy-change (2. order) :-0.2152057E+00  (-0.4292810E-01)
 number of electron      11.0000001 magnetization       1.0000000
 augmentation part        7.4081057 magnetization      -0.0808693

 Free energy of the ion-electron system (eV)
  ---------------------------------------------------
  alpha Z        PSCENC =         0.37855556
  Ewald energy   TEWEN  =      -164.78780271
  -Hartree energ DENC   =     -1067.21760670
  -exchange      EXHF   =         0.00000000
  -V(xc)+E(xc)   XCENC  =        41.85422945
  PAW double counting   =      1078.39729493    -1221.93772784
  entropy T*S    EENTRO =        -0.00016098
  eigenvalues    EBANDS =       -57.84215087
  atomic energy  EATOM  =      1390.97683486
  ---------------------------------------------------
  free energy    TOTEN  =        -0.18294164 eV

  energy without entropy =       -0.18278066  energy(sigma->0) =       -0.18286115


--------------------------------------------------------------------------------------------------------




--------------------------------------- Iteration      1(   7)  ---------------------------------------


    POTLOK:  cpu time    2.5261: real time    2.5264
    SETDIJ:  cpu time    0.4200: real time    0.4201
    TRIAL :  cpu time    3.9590: real time    4.0477
    CORREC:  cpu time    6.2945: real time    6.3953
    CHARGE:  cpu time    1.3112: real time    1.3118
    --------------------------------------------
      LOOP:  cpu time   14.5401: real time   14.7306

 eigenvalue-minimisations  :     0
 total energy-change (2. order) :-0.2944253E-01  (-0.1586151E-01)
 number of electron      11.0000001 magnetization       1.0000000
 augmentation part        7.3854292 magnetization      -0.1177553

 Free energy of the ion-electron system (eV)
  ---------------------------------------------------
  alpha Z        PSCENC =         0.37855556
  Ewald energy   TEWEN  =      -164.78780271
  -Hartree energ DENC   =     -1072.18643613
  -exchange      EXHF   =         0.00000000
  -V(xc)+E(xc)   XCENC  =        42.07220821
  PAW double counting   =      1084.52687195    -1229.49418356
  entropy T*S    EENTRO =        -0.00000307
  eigenvalues    EBANDS =       -51.69827137
  atomic energy  EATOM  =      1390.97683486
  ---------------------------------------------------
  free energy    TOTEN  =        -0.21238417 eV

  energy without entropy =       -0.21238110  energy(sigma->0) =       -0.21238263


--------------------------------------------------------------------------------------------------------




--------------------------------------- Iteration      1(   8)  ---------------------------------------


    POTLOK:  cpu time    2.5240: real time    2.5249
    SETDIJ:  cpu time    0.4296: real time    0.4296
    TRIAL :  cpu time    3.5458: real time    3.6470
    CORREC:  cpu time    6.1440: real time    6.2369
    CHARGE:  cpu time    1.4081: real time    1.4082
    --------------------------------------------
      LOOP:  cpu time   14.0737: real time   14.2690

 eigenvalue-minimisations  :     0
 total energy-change (2. order) :-0.1586042E-01  (-0.7352365E-02)
 number of electron      11.0000001 magnetization       1.0000000
 augmentation part        7.4007261 magnetization      -0.1494077

 Free energy of the ion-electron system (eV)
  ---------------------------------------------------
  alpha Z        PSCENC =         0.37855556
  Ewald energy   TEWEN  =      -164.78780271
  -Hartree energ DENC   =     -1069.11637400
  -exchange      EXHF   =         0.00000000
  -V(xc)+E(xc)   XCENC  =        41.94945076
  PAW double counting   =      1081.17442368    -1224.73229768
  entropy T*S    EENTRO =        -0.00000000
  eigenvalues    EBANDS =       -56.07103199
  atomic energy  EATOM  =      1390.97683486
  ---------------------------------------------------
  free energy    TOTEN  =        -0.22824460 eV

  energy without entropy =       -0.22824460  energy(sigma->0) =       -0.22824460


--------------------------------------------------------------------------------------------------------




--------------------------------------- Iteration      1(   9)  ---------------------------------------


    POTLOK:  cpu time    2.4853: real time    2.4857
    SETDIJ:  cpu time    0.4281: real time    0.4281
    TRIAL :  cpu time    3.8551: real time    4.0230
    CORREC:  cpu time    6.2022: real time    6.2908
    CHARGE:  cpu time    1.3236: real time    1.3238
    --------------------------------------------
      LOOP:  cpu time   14.3107: real time   14.5678

 eigenvalue-minimisations  :     0
 total energy-change (2. order) :-0.7423989E-02  (-0.4891792E-02)
 number of electron      11.0000001 magnetization       1.0000000
 augmentation part        7.3891972 magnetization      -0.1630808

 Free energy of the ion-electron system (eV)
  ---------------------------------------------------
  alpha Z        PSCENC =         0.37855556
  Ewald energy   TEWEN  =      -164.78780271
  -Hartree energ DENC   =     -1070.96352931
  -exchange      EXHF   =         0.00000000
  -V(xc)+E(xc)   XCENC  =        42.03990478
  PAW double counting   =      1083.07250858    -1227.45041476
  entropy T*S    EENTRO =        -0.00000000
  eigenvalues    EBANDS =       -53.50172559
  atomic energy  EATOM  =      1390.97683486
  ---------------------------------------------------
  free energy    TOTEN  =        -0.23566859 eV

  energy without entropy =       -0.23566859  energy(sigma->0) =       -0.23566859


--------------------------------------------------------------------------------------------------------




--------------------------------------- Iteration      1(  10)  ---------------------------------------


    POTLOK:  cpu time    2.4759: real time    2.4770
    SETDIJ:  cpu time    0.4199: real time    0.4199
    TRIAL :  cpu time    3.5407: real time    3.6388
    CORREC:  cpu time    6.0940: real time    6.1757
    CHARGE:  cpu time    1.3932: real time    1.3935
    --------------------------------------------
      LOOP:  cpu time   13.9406: real time   14.1217

 eigenvalue-minimisations  :     0
 total energy-change (2. order) :-0.4779767E-02  (-0.1650690E-02)
 number of electron      11.0000001 magnetization       1.0000000
 augmentation part        7.3964206 magnetization      -0.1654404

 Free energy of the ion-electron system (eV)
  ---------------------------------------------------
  alpha Z        PSCENC =         0.37855556
  Ewald energy   TEWEN  =      -164.78780271
  -Hartree energ DENC   =     -1069.44271385
  -exchange      EXHF   =         0.00000000
  -V(xc)+E(xc)   XCENC  =        41.97799607
  PAW double counting   =      1081.32583043    -1225.03351616
  entropy T*S    EENTRO =        -0.00000000
  eigenvalues    EBANDS =       -55.63563255
  atomic energy  EATOM  =      1390.97683486
  ---------------------------------------------------
  free energy    TOTEN  =        -0.24044835 eV

  energy without entropy =       -0.24044835  energy(sigma->0) =       -0.24044835


--------------------------------------------------------------------------------------------------------




--------------------------------------- Iteration      1(  11)  ---------------------------------------


    POTLOK:  cpu time    2.5252: real time    2.5258
    SETDIJ:  cpu time    0.4196: real time    0.4196
    TRIAL :  cpu time    3.4912: real time    3.5887
    CORREC:  cpu time    6.4126: real time    6.5108
    CHARGE:  cpu time    1.3201: real time    1.3202
    --------------------------------------------
      LOOP:  cpu time   14.1830: real time   14.3794

 eigenvalue-minimisations  :     0
 total energy-change (2. order) :-0.1649309E-02  (-0.3222838E-03)
 number of electron      11.0000001 magnetization       1.0000000
 augmentation part        7.3939481 magnetization      -0.1650177

 Free energy of the ion-electron system (eV)
  ---------------------------------------------------
  alpha Z        PSCENC =         0.37855556
  Ewald energy   TEWEN  =      -164.78780271
  -Hartree energ DENC   =     -1070.41547347
  -exchange      EXHF   =         0.00000000
  -V(xc)+E(xc)   XCENC  =        42.02042642
  PAW double counting   =      1082.35439677    -1226.49899861
  entropy T*S    EENTRO =        -0.00000000
  eigenvalues    EBANDS =       -54.27003648
  atomic energy  EATOM  =      1390.97683486
  ---------------------------------------------------
  free energy    TOTEN  =        -0.24209766 eV

  energy without entropy =       -0.24209766  energy(sigma->0) =       -0.24209766


--------------------------------------------------------------------------------------------------------




--------------------------------------- Iteration      1(  12)  ---------------------------------------


    POTLOK:  cpu time    2.4821: real time    2.4824
    SETDIJ:  cpu time    0.4203: real time    0.4204
    TRIAL :  cpu time    3.8006: real time    3.9058
    CORREC:  cpu time    5.9874: real time    6.0721
    CHARGE:  cpu time    1.4523: real time    1.4526
    --------------------------------------------
      LOOP:  cpu time   14.1611: real time   14.3518

 eigenvalue-minimisations  :     0
 total energy-change (2. order) :-0.3214717E-03  (-0.4159230E-04)
 number of electron      11.0000001 magnetization       1.0000000
 augmentation part        7.3952184 magnetization      -0.1652029

 Free energy of the ion-electron system (eV)
  ---------------------------------------------------
  alpha Z        PSCENC =         0.37855556
  Ewald energy   TEWEN  =      -164.78780271
  -Hartree energ DENC   =     -1070.18689645
  -exchange      EXHF   =         0.00000000
  -V(xc)+E(xc)   XCENC  =        42.00910333
  PAW double counting   =      1082.14905595    -1226.17782331
  entropy T*S    EENTRO =        -0.00000000
  eigenvalues    EBANDS =       -54.60344637
  atomic energy  EATOM  =      1390.97683486
  ---------------------------------------------------
  free energy    TOTEN  =        -0.24241913 eV

  energy without entropy =       -0.24241913  energy(sigma->0) =       -0.24241913


--------------------------------------------------------------------------------------------------------




--------------------------------------- Iteration      1(  13)  ---------------------------------------


    POTLOK:  cpu time    2.5458: real time    2.5462
    SETDIJ:  cpu time    0.4215: real time    0.4216
    TRIAL :  cpu time    3.4716: real time    3.5591
    CORREC:  cpu time    6.4600: real time    6.5667
    CHARGE:  cpu time    1.2950: real time    1.2954
    --------------------------------------------
      LOOP:  cpu time   14.2161: real time   14.4111

 eigenvalue-minimisations  :     0
 total energy-change (2. order) :-0.4156457E-04  (-0.1379815E-04)
 number of electron      11.0000001 magnetization       1.0000000
 augmentation part        7.3948109 magnetization      -0.1656344

 Free energy of the ion-electron system (eV)
  ---------------------------------------------------
  alpha Z        PSCENC =         0.37855556
  Ewald energy   TEWEN  =      -164.78780271
  -Hartree energ DENC   =     -1070.37440328
  -exchange      EXHF   =         0.00000000
  -V(xc)+E(xc)   XCENC  =        42.01699343
  PAW double counting   =      1082.36301205    -1226.46993647
  entropy T*S    EENTRO =        -0.00000000
  eigenvalues    EBANDS =       -54.34571414
  atomic energy  EATOM  =      1390.97683486
  ---------------------------------------------------
  free energy    TOTEN  =        -0.24246070 eV

  energy without entropy =       -0.24246070  energy(sigma->0) =       -0.24246070


--------------------------------------------------------------------------------------------------------




--------------------------------------- Iteration      1(  14)  ---------------------------------------


    POTLOK:  cpu time    2.5070: real time    2.5077
    SETDIJ:  cpu time    0.4183: real time    0.4183
    TRIAL :  cpu time    3.7151: real time    3.8111
    CORREC:  cpu time    6.0447: real time    6.1268
    CHARGE:  cpu time    1.2874: real time    1.2875
    --------------------------------------------
      LOOP:  cpu time   14.0009: real time   14.1801

 eigenvalue-minimisations  :     0
 total energy-change (2. order) :-0.1366063E-04  (-0.8061668E-06)
 number of electron      11.0000001 magnetization       1.0000000
 augmentation part        7.3950042 magnetization      -0.1655968

 Free energy of the ion-electron system (eV)
  ---------------------------------------------------
  alpha Z        PSCENC =         0.37855556
  Ewald energy   TEWEN  =      -164.78780271
  -Hartree energ DENC   =     -1070.33111486
  -exchange      EXHF   =         0.00000000
  -V(xc)+E(xc)   XCENC  =        42.01510830
  PAW double counting   =      1082.32098166    -1226.40536790
  entropy T*S    EENTRO =        -0.00000000
  eigenvalues    EBANDS =       -54.40966927
  atomic energy  EATOM  =      1390.97683486
  ---------------------------------------------------
  free energy    TOTEN  =        -0.24247436 eV

  energy without entropy =       -0.24247436  energy(sigma->0) =       -0.24247436


--------------------------------------------------------------------------------------------------------




--------------------------------------- Iteration      1(  15)  ---------------------------------------


    POTLOK:  cpu time    2.6165: real time    2.6169
    SETDIJ:  cpu time    0.4336: real time    0.4337
    TRIAL :  cpu time    3.5475: real time    3.6456
    CORREC:  cpu time    6.3097: real time    6.4193
    EDDIAG:  cpu time    1.7355: real time    1.7536
    CHARGE:  cpu time    1.2503: real time    1.2508
    --------------------------------------------
      LOOP:  cpu time   15.9100: real time   16.1379

 eigenvalue-minimisations  :     0
 total energy-change (2. order) :-0.8106472E-06  (-0.6637728E-06)
 number of electron      11.0000001 magnetization       1.0000000
 augmentation part        7.3949527 magnetization      -0.1654630

 Free energy of the ion-electron system (eV)
  ---------------------------------------------------
  alpha Z        PSCENC =         0.37855556
  Ewald energy   TEWEN  =      -164.78780271
  -Hartree energ DENC   =     -1070.35488328
  -exchange      EXHF   =         0.00000000
  -V(xc)+E(xc)   XCENC  =        42.01614257
  PAW double counting   =      1082.34635356    -1226.44088744
  entropy T*S    EENTRO =        -0.00000000
  eigenvalues    EBANDS =       -54.37678830
  atomic energy  EATOM  =      1390.97683486
  ---------------------------------------------------
  free energy    TOTEN  =        -0.24247517 eV

  energy without entropy =       -0.24247517  energy(sigma->0) =       -0.24247517


--------------------------------------------------------------------------------------------------------


  average scaling for gradient   1.2541


 average (electrostatic) potential at core
  the test charge radii are     1.0053
  (the norm of the test charge is              1.0000)
       1 -46.0040
 
 
 
 E-fermi :  -4.5827     XC(G=0):  -0.2552     alpha+bet : -0.0337


 spin component 1

 k-point     1 :       0.0000    0.0000    0.0000
  band No.  band energies     occupation 
      1      -5.0255      1.00000
      2      -5.0255      1.00000
      3      -5.0255      1.00000
      4      -5.0255      1.00000
      5      -5.0255      1.00000
      6      -4.9694      1.00000
      7      -0.9226      0.00000
      8      -0.9226      0.00000
      9      -0.9226      0.00000
     10      -0.1559      0.00000
     11       0.5296      0.00000
     12       0.5296      0.00000
     13       0.5668      0.00000
     14       0.6847      0.00000
     15       0.6847      0.00000
     16       0.6847      0.00000
     17       1.0090      0.00000
     18       1.0090      0.00000
     19       1.0090      0.00000
     20       1.2043      0.00000
     21       1.2043      0.00000
     22       1.2489      0.00000
     23       1.2489      0.00000
     24       1.2489      0.00000
     25       1.3861      0.00000
     26       1.4205      0.00000
     27       1.4205      0.00000
     28       1.4205      0.00000
     29       1.7669      0.00000
     30       1.7669      0.00000
     31       1.7669      0.00000
     32       1.8157      0.00000
     33       1.9891      0.00000
     34       1.9891      0.00000
     35       1.9891      0.00000
     36       2.0458      0.00000
     37       2.1229      0.00000
     38       2.1230      0.00000
     39       2.6086      0.00000
     40       2.6086      0.00000
     41       2.6086      0.00000
     42       2.6868      0.00000
     43       2.7932      0.00000
     44       2.7932      0.00000
     45       2.7932      0.00000
     46       2.9442      0.00000
     47       2.9442      0.00000
     48       2.9997      0.00000
     49       2.9997      0.00000
     50       2.9997      0.00000
     51       3.1233      0.00000
     52       3.1234      0.00000
     53       3.1234      0.00000
     54       3.1943      0.00000
     55       3.1943      0.00000
     56       3.1943      0.00000
     57       3.2420      0.00000
     58       3.2420      0.00000
     59       3.2853      0.00000
     60       3.2853      0.00000
     61       3.2853      0.00000
     62       3.3113      0.00000
     63       3.4954      0.00000
     64       3.4954      0.00000
     65       3.4954      0.00000
     66       3.5558      0.00000
     67       3.5779      0.00000
     68       3.6094      0.00000
     69       3.6094      0.00000
     70       3.6094      0.00000
     71       3.8495      0.00000
     72       3.8495      0.00000
     73       3.8546      0.00000
     74       3.8546      0.00000
     75       3.8546      0.00000
     76       3.8705      0.00000
     77       3.8705      0.00000
     78       3.8705      0.00000
     79       3.8862      0.00000
     80       3.8862      0.00000
     81       3.8862      0.00000
     82       3.8896      0.00000
     83       3.8896      0.00000
     84       3.8896      0.00000
     85       3.9055      0.00000
     86       3.9055      0.00000
     87       4.3589      0.00000
     88       4.3589      0.00000
     89       4.3589      0.00000
     90       4.5522      0.00000
     91       4.9248      0.00000
     92       4.9248      0.00000
     93       4.9248      0.00000
     94       4.9596      0.00000
     95       4.9596      0.00000
     96       5.0084      0.00000
     97       5.0084      0.00000
     98       5.0084      0.00000
     99       5.3088      0.00000
    100       5.3088      0.00000
    101       5.3088      0.00000
    102       5.3805      0.00000
    103       5.3805      0.00000
    104       5.3949      0.00000
    105       5.5159      0.00000
    106       5.5281      0.00000
    107       5.5281      0.00000
    108       5.5281      0.00000
    109       5.5726      0.00000
    110       5.5726      0.00000
    111       5.5726      0.00000
    112       5.6694      0.00000
    113       5.8431      0.00000
    114       5.8431      0.00000
    115       5.8431      0.00000
    116       5.8607      0.00000
    117       5.8607      0.00000
    118       5.8607      0.00000
    119       5.8677      0.00000
    120       5.8677      0.00000
    121       5.8854      0.00000
    122       5.8854      0.00000
    123       5.8854      0.00000
    124       5.8885      0.00000
    125       5.8885      0.00000
    126       5.8885      0.00000
    127       5.8925      0.00000
    128       5.8925      0.00000
    129       6.1900      0.00000
    130       6.1900      0.00000
    131       6.1900      0.00000
    132       6.2490      0.00000
    133       6.2510      0.00000
    134       6.2510      0.00000
    135       6.3676      0.00000
    136       6.3676      0.00000
    137       6.3676      0.00000
    138       6.3834      0.00000
    139       6.3834      0.00000
    140       6.3834      0.00000
    141       6.3843      0.00000
    142       6.3843      0.00000
    143       6.3843      0.00000
    144       6.3857      0.00000
    145       6.3857      0.00000
    146       6.3857      0.00000
    147       6.5909      0.00000
    148       6.5909      0.00000
    149       6.5927      0.00000
    150       6.5927      0.00000
    151       6.5927      0.00000
    152       6.5982      0.00000
    153       6.9165      0.00000
    154       6.9165      0.00000
    155       6.9165      0.00000
    156       7.0283      0.00000
    157       7.0723      0.00000
    158       7.0723      0.00000
    159       7.0723      0.00000
    160       7.1119      0.00000
    161       7.1125      0.00000
    162       7.1125      0.00000
    163       7.1291      0.00000
    164       7.1291      0.00000
    165       7.1291      0.00000
    166       7.1320      0.00000
    167       7.1320      0.00000
    168       7.1320      0.00000
    169       7.1409      0.00000
    170       7.1409      0.00000
    171       7.1409      0.00000
    172       7.1549      0.00000
    173       7.1549      0.00000
    174       7.1549      0.00000
    175       7.1608      0.00000
    176       7.1608      0.00000
    177       7.5604      0.00000
    178       7.5604      0.00000
    179       7.5604      0.00000
    180       7.6619      0.00000
    181       7.6932      0.00000
    182       7.6932      0.00000
    183       7.6932      0.00000
    184       7.7239      0.00000
    185       7.9894      0.00000
    186       7.9894      0.00000
    187       7.9894      0.00000
    188       8.1147      0.00000
    189       8.1285      0.00000
    190       8.1285      0.00000
    191       8.1286      0.00000
    192       8.1346      0.00000
    193       8.1346      0.00000
    194       8.1491      0.00000
    195       8.1491      0.00000
    196       8.1491      0.00000
    197       8.4806      0.00000
    198       8.4806      0.00000
    199       8.4806      0.00000
    200       8.4852      0.00000
    201       8.4852      0.00000
    202       8.5078      0.00000
    203       8.5078      0.00000
    204       8.5078      0.00000
    205       8.5199      0.00000
    206       8.5199      0.00000
    207       8.5199      0.00000
    208       8.5318      0.00000
    209       8.8230      0.00000
    210       8.8230      0.00000
    211       8.8230      0.00000
    212       8.8536      0.00000
    213       8.8754      0.00000
    214       8.8754      0.00000
    215       8.8754      0.00000
    216       8.9259      0.00000
    217       9.0272      0.00000
    218       9.0272      0.00000
    219       9.0273      0.00000
    220       9.0322      0.00000
    221       9.0322      0.00000
    222       9.0529      0.00000
    223       9.0529      0.00000
    224       9.0531      0.00000
    225       9.0531      0.00000
    226       9.0531      0.00000
    227       9.0536      0.00000
    228       9.0536      0.00000
    229       9.0536      0.00000
    230       9.0570      0.00000
    231       9.0570      0.00000
    232       9.0570      0.00000
    233       9.2192      0.00000
    234       9.2192      0.00000
    235       9.2242      0.00000
    236       9.2242      0.00000
    237       9.2242      0.00000
    238       9.2313      0.00000
    239       9.2313      0.00000
    240       9.2313      0.00000
    241       9.2357      0.00000
    242       9.2357      0.00000
    243       9.2357      0.00000
    244       9.2397      0.00000
    245       9.2397      0.00000
    246       9.2397      0.00000
    247       9.2464      0.00000
    248       9.2464      0.00000
    249       9.2847      0.00000
    250       9.2921      0.00000
    251       9.2921      0.00000
    252       9.2921      0.00000
    253       9.2984      0.00000
    254       9.2984      0.00000
    255       9.2984      0.00000
    256       9.3036      0.00000

 spin component 2

 k-point     1 :       0.0000    0.0000    0.0000
  band No.  band energies     occupation 
      1      -4.8579      1.00000
      2      -4.8579      1.00000
      3      -4.8579      1.00000
      4      -4.8579      1.00000
      5      -4.8579      1.00000
      6      -4.0276      0.00000
      7      -0.1416      0.00000
      8      -0.1416      0.00000
      9      -0.1416      0.00000
     10       0.0203      0.00000
     11       0.6549      0.00000
     12       0.6549      0.00000
     13       0.7657      0.00000
     14       0.8127      0.00000
     15       0.8127      0.00000
     16       0.8127      0.00000
     17       1.2583      0.00000
     18       1.2583      0.00000
     19       1.2583      0.00000
     20       1.3136      0.00000
     21       1.3136      0.00000
     22       1.3383      0.00000
     23       1.3383      0.00000
     24       1.3383      0.00000
     25       1.5750      0.00000
     26       1.6080      0.00000
     27       1.6080      0.00000
     28       1.6080      0.00000
     29       1.9178      0.00000
     30       1.9178      0.00000
     31       1.9178      0.00000
     32       1.9710      0.00000
     33       2.1827      0.00000
     34       2.1827      0.00000
     35       2.1827      0.00000
     36       2.1961      0.00000
     37       2.4746      0.00000
     38       2.4746      0.00000
     39       2.7708      0.00000
     40       2.7708      0.00000
     41       2.7708      0.00000
     42       2.7912      0.00000
     43       3.0907      0.00000
     44       3.0907      0.00000
     45       3.0907      0.00000
     46       3.0936      0.00000
     47       3.0936      0.00000
     48       3.2431      0.00000
     49       3.2431      0.00000
     50       3.2431      0.00000
     51       3.2855      0.00000
     52       3.2855      0.00000
     53       3.2855      0.00000
     54       3.3259      0.00000
     55       3.3259      0.00000
     56       3.3259      0.00000
     57       3.3358      0.00000
     58       3.3358      0.00000
     59       3.3540      0.00000
     60       3.3540      0.00000
     61       3.3540      0.00000
     62       3.3632      0.00000
     63       3.6349      0.00000
     64       3.6349      0.00000
     65       3.6349      0.00000
     66       3.6672      0.00000
     67       3.7739      0.00000
     68       3.7739      0.00000
     69       3.7739      0.00000
     70       3.8502      0.00000
     71       3.9236      0.00000
     72       3.9236      0.00000
     73       3.9614      0.00000
     74       3.9614      0.00000
     75       3.9614      0.00000
     76       3.9694      0.00000
     77       3.9694      0.00000
     78       3.9694      0.00000
     79       3.9896      0.00000
     80       3.9896      0.00000
     81       3.9896      0.00000
     82       3.9951      0.00000
     83       3.9951      0.00000
     84       3.9951      0.00000
     85       4.0069      0.00000
     86       4.0069      0.00000
     87       4.6412      0.00000
     88       4.6412      0.00000
     89       4.6412      0.00000
     90       4.7814      0.00000
     91       5.1321      0.00000
     92       5.1321      0.00000
     93       5.1321      0.00000
     94       5.1848      0.00000
     95       5.1848      0.00000
     96       5.2216      0.00000
     97       5.2216      0.00000
     98       5.2217      0.00000
     99       5.4908      0.00000
    100       5.4908      0.00000
    101       5.4908      0.00000
    102       5.5464      0.00000
    103       5.6809      0.00000
    104       5.6809      0.00000
    105       5.7113      0.00000
    106       5.7113      0.00000
    107       5.7113      0.00000
    108       5.7708      0.00000
    109       5.8296      0.00000
    110       5.8296      0.00000
    111       5.8296      0.00000
    112       5.9065      0.00000
    113       5.9417      0.00000
    114       5.9417      0.00000
    115       5.9417      0.00000
    116       5.9713      0.00000
    117       5.9713      0.00000
    118       5.9743      0.00000
    119       5.9744      0.00000
    120       5.9744      0.00000
    121       5.9964      0.00000
    122       5.9964      0.00000
    123       5.9964      0.00000
    124       6.0012      0.00000
    125       6.0012      0.00000
    126       6.0012      0.00000
    127       6.0032      0.00000
    128       6.0032      0.00000
    129       6.2977      0.00000
    130       6.2977      0.00000
    131       6.2977      0.00000
    132       6.3568      0.00000
    133       6.3598      0.00000
    134       6.3598      0.00000
    135       6.5635      0.00000
    136       6.5635      0.00000
    137       6.5635      0.00000
    138       6.5739      0.00000
    139       6.5739      0.00000
    140       6.5739      0.00000
    141       6.5815      0.00000
    142       6.5815      0.00000
    143       6.5815      0.00000
    144       6.6032      0.00000
    145       6.6032      0.00000
    146       6.6032      0.00000
    147       6.6771      0.00000
    148       6.6771      0.00000
    149       6.6803      0.00000
    150       6.6803      0.00000
    151       6.6803      0.00000
    152       6.6851      0.00000
    153       7.0368      0.00000
    154       7.0368      0.00000
    155       7.0368      0.00000
    156       7.1133      0.00000
    157       7.1874      0.00000
    158       7.1874      0.00000
    159       7.1874      0.00000
    160       7.1940      0.00000
    161       7.1940      0.00000
    162       7.2400      0.00000
    163       7.2400      0.00000
    164       7.2400      0.00000
    165       7.2520      0.00000
    166       7.2520      0.00000
    167       7.2520      0.00000
    168       7.2613      0.00000
    169       7.2701      0.00000
    170       7.2701      0.00000
    171       7.2701      0.00000
    172       7.3035      0.00000
    173       7.3035      0.00000
    174       7.3035      0.00000
    175       7.3127      0.00000
    176       7.3127      0.00000
    177       7.7383      0.00000
    178       7.7383      0.00000
    179       7.7383      0.00000
    180       7.8277      0.00000
    181       7.8529      0.00000
    182       7.8529      0.00000
    183       7.8529      0.00000
    184       7.8761      0.00000
    185       8.1831      0.00000
    186       8.1831      0.00000
    187       8.1831      0.00000
    188       8.3056      0.00000
    189       8.3628      0.00000
    190       8.3628      0.00000
    191       8.3628      0.00000
    192       8.3952      0.00000
    193       8.3952      0.00000
    194       8.4064      0.00000
    195       8.4064      0.00000
    196       8.4064      0.00000
    197       8.6198      0.00000
    198       8.6198      0.00000
    199       8.6198      0.00000
    200       8.6275      0.00000
    201       8.6275      0.00000
    202       8.6427      0.00000
    203       8.6427      0.00000
    204       8.6427      0.00000
    205       8.6562      0.00000
    206       8.6562      0.00000
    207       8.6562      0.00000
    208       8.6657      0.00000
    209       8.9424      0.00000
    210       8.9424      0.00000
    211       8.9424      0.00000
    212       9.0216      0.00000
    213       9.0311      0.00000
    214       9.0311      0.00000
    215       9.0311      0.00000
    216       9.0519      0.00000
    217       9.1449      0.00000
    218       9.1449      0.00000
    219       9.1702      0.00000
    220       9.1702      0.00000
    221       9.1702      0.00000
    222       9.1945      0.00000
    223       9.1945      0.00000
    224       9.1945      0.00000
    225       9.2202      0.00000
    226       9.2202      0.00000
    227       9.2202      0.00000
    228       9.2369      0.00000
    229       9.2369      0.00000
    230       9.2369      0.00000
    231       9.2565      0.00000
    232       9.2565      0.00000
    233       9.3103      0.00000
    234       9.3103      0.00000
    235       9.3261      0.00000
    236       9.3261      0.00000
    237       9.3261      0.00000
    238       9.3288      0.00000
    239       9.3288      0.00000
    240       9.3288      0.00000
    241       9.3376      0.00000
    242       9.3376      0.00000
    243       9.3376      0.00000
    244       9.3434      0.00000
    245       9.3434      0.00000
    246       9.3434      0.00000
    247       9.3501      0.00000
    248       9.3501      0.00000
    249       9.3560      0.00000
    250       9.3642      0.00000
    251       9.3642      0.00000
    252       9.3642      0.00000
    253       9.3689      0.00000
    254       9.3689      0.00000
    255       9.3689      0.00000
    256       9.3722      0.00000


--------------------------------------------------------------------------------------------------------


 soft charge-density along one line, spin component           1
         0         1         2         3         4         5         6         7         8         9
 total charge-density along one line
 
 soft charge-density along one line, spin component           2
         0         1         2         3         4         5         6         7         8         9
 total charge-density along one line
 
 pseudopotential strength for first ion, spin component:           1
-10.779   0.000  -0.000   0.000  -0.000   1.672  -0.000   0.000
  0.000 -10.779   0.000   0.000  -0.000  -0.000   1.672  -0.000
 -0.000   0.000 -10.779   0.000   0.000   0.000  -0.000   1.672
  0.000   0.000   0.000 -10.779   0.000  -0.000  -0.000  -0.000
 -0.000  -0.000   0.000   0.000 -10.779   0.000   0.000  -0.000
  1.672  -0.000   0.000  -0.000   0.000   0.827   0.000  -0.000
 -0.000   1.672  -0.000  -0.000   0.000   0.000   0.827   0.000
  0.000  -0.000   1.672  -0.000  -0.000  -0.000   0.000   0.827
 -0.000  -0.000  -0.000   1.672  -0.000   0.000   0.000   0.000
  0.000   0.000  -0.000  -0.000   1.672  -0.000  -0.000   0.000
 -0.000  -0.000   0.000  -0.000   0.000  -0.000  -0.000  -0.000
  0.000   0.000   0.000   0.000   0.000  -0.000  -0.000  -0.000
  0.000   0.000  -0.000  -0.000  -0.000  -0.000  -0.000  -0.000
 -0.000   0.000   0.000   0.000  -0.000  -0.000  -0.000   0.000
  0.000  -0.000  -0.000   0.000   0.000  -0.000  -0.000  -0.000
  0.000   0.000   0.000   0.000   0.000  -0.000  -0.000  -0.000
  0.000   0.000  -0.000   0.000  -0.000  -0.000  -0.000   0.000
  0.000   0.000   0.000   0.000  -0.000  -0.000  -0.000  -0.000
 pseudopotential strength for first ion, spin component:           2
-10.794  -0.000  -0.000  -0.000   0.000   1.687  -0.000   0.000
 -0.000 -10.794   0.000  -0.000  -0.000  -0.000   1.687  -0.000
 -0.000   0.000 -10.794   0.000  -0.000   0.000  -0.000   1.687
 -0.000  -0.000   0.000 -10.794   0.000  -0.000  -0.000  -0.000
  0.000  -0.000  -0.000   0.000 -10.794  -0.000   0.000   0.000
  1.687  -0.000   0.000  -0.000  -0.000   0.812   0.000  -0.000
 -0.000   1.687  -0.000  -0.000   0.000   0.000   0.812   0.000
  0.000  -0.000   1.687  -0.000   0.000  -0.000   0.000   0.812
 -0.000  -0.000  -0.000   1.687  -0.000   0.000   0.000   0.000
 -0.000   0.000   0.000  -0.000   1.687   0.000  -0.000  -0.000
  0.000   0.000  -0.000   0.000  -0.000  -0.000  -0.000  -0.000
  0.000   0.000   0.000   0.000   0.000  -0.000  -0.000  -0.000
  0.000   0.000  -0.000  -0.000  -0.000  -0.000  -0.000  -0.000
 -0.000   0.000   0.000   0.000  -0.000  -0.000  -0.000   0.000
  0.000  -0.000  -0.000   0.000   0.000  -0.000  -0.000  -0.000
  0.000   0.000   0.000   0.000   0.000  -0.000  -0.000  -0.000
  0.000   0.000  -0.000   0.000   0.000  -0.000  -0.000   0.000
  0.000   0.000   0.000   0.000  -0.000  -0.000  -0.000  -0.000
 total augmentation occupancy for first ion, spin component:           1
  1.999   0.000   0.000   0.000   0.000  -0.001   0.000   0.000   0.000  -0.000  -0.000   0.000  -0.000  -0.000  -0.000  -0.000
  0.000   1.999  -0.000   0.000   0.000   0.000  -0.001  -0.000   0.000   0.000  -0.000   0.000  -0.000  -0.000  -0.000  -0.000
  0.000  -0.000   1.999  -0.000  -0.000   0.000  -0.000  -0.001  -0.000  -0.000   0.000  -0.000  -0.000   0.000  -0.000   0.000
  0.000   0.000  -0.000   1.999  -0.000   0.000   0.000  -0.000  -0.001  -0.000  -0.000   0.000  -0.000  -0.000  -0.000  -0.000
  0.000   0.000  -0.000  -0.000   1.999  -0.000   0.000   0.000  -0.000  -0.001   0.000  -0.000  -0.000   0.000   0.000   0.000
 -0.001   0.000   0.000   0.000  -0.000   0.001   0.000  -0.000   0.000  -0.000   0.000   0.000  -0.000   0.000  -0.000  -0.000
  0.000  -0.001  -0.000   0.000   0.000   0.000   0.001   0.000   0.000  -0.000   0.000   0.000  -0.000  -0.000   0.000  -0.000
  0.000  -0.000  -0.001  -0.000   0.000  -0.000   0.000   0.001   0.000   0.000  -0.000   0.000   0.000  -0.000   0.000  -0.000
  0.000   0.000  -0.000  -0.001  -0.000   0.000   0.000   0.000   0.001   0.000   0.000   0.000   0.000  -0.000  -0.000   0.000
 -0.000   0.000  -0.000  -0.000  -0.001  -0.000  -0.000   0.000   0.000   0.001  -0.000   0.000   0.000   0.000  -0.000  -0.000
 -0.000  -0.000   0.000  -0.000   0.000   0.000   0.000  -0.000   0.000  -0.000   1.005  -0.029  -0.000  -0.000  -0.000  -0.000
  0.000   0.000  -0.000   0.000  -0.000   0.000   0.000   0.000   0.000   0.000  -0.029   0.001   0.000   0.000   0.000   0.000
 -0.000  -0.000  -0.000  -0.000  -0.000  -0.000  -0.000   0.000   0.000   0.000  -0.000   0.000   0.000   0.000   0.000   0.000
 -0.000  -0.000   0.000  -0.000   0.000   0.000  -0.000  -0.000  -0.000   0.000  -0.000   0.000   0.000   0.000   0.000   0.000
 -0.000  -0.000  -0.000  -0.000   0.000  -0.000   0.000   0.000  -0.000  -0.000  -0.000   0.000   0.000   0.000   0.000   0.000
 -0.000  -0.000   0.000  -0.000   0.000  -0.000  -0.000  -0.000   0.000  -0.000  -0.000   0.000   0.000   0.000   0.000   0.000
 -0.000  -0.000  -0.000  -0.000  -0.000   0.000  -0.000   0.000  -0.000   0.000  -0.000   0.000   0.000   0.000   0.000   0.000
 -0.000  -0.000   0.000  -0.000  -0.000  -0.000   0.000  -0.000  -0.000   0.000  -0.000   0.000   0.000   0.000   0.000   0.000
 total augmentation occupancy for first ion, spin component:           2
  0.016   0.000  -0.000   0.000   0.000   0.038   0.000  -0.000   0.000  -0.000   0.000   0.000  -0.000   0.000  -0.000  -0.000
  0.000   0.016   0.000   0.000  -0.000   0.000   0.038   0.000   0.000  -0.000   0.000   0.000  -0.000  -0.000   0.000  -0.000
 -0.000   0.000   0.016   0.000  -0.000  -0.000   0.000   0.038   0.000  -0.000  -0.000  -0.000   0.000  -0.000   0.000  -0.000
  0.000   0.000   0.000   0.016   0.000   0.000   0.000   0.000   0.038   0.000   0.000   0.000   0.000  -0.000  -0.000   0.000
  0.000  -0.000  -0.000   0.000   0.016  -0.000  -0.000   0.000   0.000   0.038  -0.000   0.000   0.000   0.000  -0.000  -0.000
  0.038   0.000  -0.000   0.000  -0.000  -0.000   0.000   0.000   0.000  -0.000   0.000   0.000  -0.000  -0.000  -0.000  -0.000
  0.000   0.038   0.000   0.000  -0.000   0.000  -0.000  -0.000   0.000   0.000   0.000   0.000  -0.000  -0.000  -0.000  -0.000
 -0.000   0.000   0.038   0.000   0.000   0.000  -0.000  -0.000  -0.000  -0.000  -0.000  -0.000  -0.000   0.000  -0.000   0.000
  0.000   0.000   0.000   0.038   0.000   0.000   0.000  -0.000  -0.000  -0.000   0.000   0.000  -0.000  -0.000  -0.000  -0.000
 -0.000  -0.000  -0.000   0.000   0.038  -0.000   0.000  -0.000  -0.000  -0.000   0.000  -0.000  -0.000   0.000   0.000   0.000
  0.000   0.000  -0.000   0.000  -0.000   0.000   0.000  -0.000   0.000   0.000   1.005  -0.029  -0.000  -0.000  -0.000  -0.000
  0.000   0.000  -0.000   0.000   0.000   0.000   0.000  -0.000   0.000  -0.000  -0.029   0.001   0.000   0.000   0.000   0.000
 -0.000  -0.000   0.000   0.000   0.000  -0.000  -0.000  -0.000  -0.000  -0.000  -0.000   0.000   0.000   0.000   0.000   0.000
  0.000  -0.000  -0.000  -0.000   0.000  -0.000  -0.000   0.000  -0.000   0.000  -0.000   0.000   0.000   0.000   0.000   0.000
 -0.000   0.000   0.000  -0.000  -0.000  -0.000  -0.000  -0.000  -0.000   0.000  -0.000   0.000   0.000   0.000   0.000   0.000
 -0.000  -0.000  -0.000   0.000  -0.000  -0.000  -0.000   0.000  -0.000   0.000  -0.000   0.000   0.000   0.000   0.000   0.000
  0.000  -0.000   0.000  -0.000   0.000  -0.000  -0.000  -0.000  -0.000  -0.000  -0.000   0.000   0.000   0.000   0.000   0.000
 -0.000   0.000  -0.000  -0.000   0.000  -0.000  -0.000   0.000  -0.000  -0.000  -0.000   0.000   0.000   0.000   0.000   0.000


------------------------ aborting loop because EDIFF is reached ----------------------------------------


    FORLOC:  cpu time    0.0032: real time    0.0056
    FORNL :  cpu time    0.0488: real time    0.0630
    FORCOR:  cpu time    2.3864: real time    2.3952
    OFIELD:  cpu time    0.0010: real time    0.0052

 VOLUME and BASIS-vectors are now :
 -----------------------------------------------------------------------------
  energy-cutoff  :      520.00
  volume of cell :     3375.00
      direct lattice vectors                 reciprocal lattice vectors
    15.000000000  0.000000000  0.000000000     0.066666667  0.000000000  0.000000000
     0.000000000 15.000000000  0.000000000     0.000000000  0.066666667  0.000000000
     0.000000000  0.000000000 15.000000000     0.000000000  0.000000000  0.066666667

  length of vectors
    15.000000000 15.000000000 15.000000000     0.066666667  0.066666667  0.066666667


 FORCES acting on ions:
    Electron-Ion                     Ewald-Force                    Non-Local-Force
 -----------------------------------------------------------------------------------------------
   0.142E-03 0.142E-03 0.134E-03   -.989E-17 -.648E-17 -.389E-16   0.667E-03 0.667E-03 0.695E-03
 -----------------------------------------------------------------------------------------------
   0.141E-03 0.141E-03 0.133E-03   -.989E-17 -.648E-17 -.389E-16   0.667E-03 0.667E-03 0.695E-03
 
 
 POSITION                                       TOTAL-FORCE (eV/Angst)
 -----------------------------------------------------------------------------------
      0.15000      0.15000     11.26500         0.000808      0.000808      0.000828
 -----------------------------------------------------------------------------------
    total drift:                                0.000808      0.000808      0.000828


--------------------------------------------------------------------------------------------------------



  FREE ENERGIE OF THE ION-ELECTRON SYSTEM (eV)
  ---------------------------------------------------
  free  energy   TOTEN  =        -0.24247517 eV

  energy  without entropy=       -0.24247517  energy(sigma->0) =       -0.24247517
 


--------------------------------------------------------------------------------------------------------


    POTLOK:  cpu time    2.9107: real time    2.9225


--------------------------------------------------------------------------------------------------------


 stress matrix after NEB project (eV)
      0.00000      0.00000      0.00000
      0.00000      0.00000      0.00000
      0.00000      0.00000      0.00000
  FORCES: max atom, RMS     0.001411    0.001411
  FORCE total and by dimension    0.001411    0.000828
  Stress total and by dimension    0.000000    0.000000
     LOOP+:  cpu time  227.1783: real time  236.1306
    4ORBIT:  cpu time    0.0000: real time    0.0000

 total amount of memory used by VASP MPI-rank0   177231. kBytes
=======================================================================

   base      :      30000. kBytes
   nonl-proj :      14540. kBytes
   fftplans  :       7479. kBytes
   grid      :     116433. kBytes
   one-center:         31. kBytes
   wavefun   :       8748. kBytes
 
  
  
 General timing and accounting informations for this job:
 ========================================================
  
                  Total CPU time used (sec):      246.095
                            User time (sec):      240.468
                          System time (sec):        5.628
                         Elapsed time (sec):      257.415
  
                   Maximum memory used (kb):      451184.
                   Average memory used (kb):           0.
  
                          Minor page faults:        56825
                          Major page faults:            0
                 Voluntary context switches:         2525
