       N       E                     dE             d eps       ncg     rms          ort
DAV:   1     0.601951778819E+02    0.60195E+02   -0.37791E+03   256   0.333E+01
DAV:   2    -0.111502484428E+00   -0.60307E+02   -0.59286E+02   256   0.632E+00
DAV:   3    -0.149972585971E+00   -0.38470E-01   -0.38470E-01   256   0.330E-01
DAV:   4    -0.150016028694E+00   -0.43443E-04   -0.43443E-04   256   0.910E-03
DAV:   5    -0.150016030394E+00   -0.17001E-08   -0.16693E-08   256   0.637E-05
SDA:   6    -0.268360879391E+00   -0.11834E+00   -0.16693E-08   256   0.365E-01 0.000E+00
CGA:   7    -0.282166530091E+00   -0.13806E-01   -0.13820E-01   256   0.827E-02-0.869E-04
CGA:   8    -0.285140353845E+00   -0.29738E-02   -0.29763E-02   256   0.438E-02-0.171E-04
CGA:   9    -0.286932991062E+00   -0.17926E-02   -0.17951E-02   256   0.135E-02-0.142E-04
CGA:  10    -0.287481722845E+00   -0.54873E-03   -0.54955E-03   256   0.213E-03-0.407E-05
CGA:  11    -0.287569388881E+00   -0.87666E-04   -0.87712E-04   256   0.193E-04-0.248E-06
CGA:  12    -0.287575538587E+00   -0.61497E-05   -0.60726E-05   256   0.237E-05 0.110E-05
   1 F= -.28757554E+00 E0= -.28757554E+00  d E =-.200023E-12  mag=     1.0000
