 vasp.5.4.4.18Apr17-6-g9f103f2a35 (build Nov 21 2023 15:34:30) complex          
  
 executed on             LinuxIFC date 2026.09.21  17:32:28
 running on  256 total cores
 distrk:  each k-point on  256 cores,    1 groups
 distr:  one band on NCORES_PER_BAND=   1 cores,  256 groups


--------------------------------------------------------------------------------------------------------


 INCAR:
 POTCAR:   PAW_PBE Au 06Sep2000                   

 ----------------------------------------------------------------------------- 
|                                                                             |
|           W    W    AA    RRRRR   N    N  II  N    N   GGGG   !!!           |
|           W    W   A  A   R    R  NN   N  II  NN   N  G    G  !!!           |
|           W    W  A    A  R    R  N N  N  II  N N  N  G       !!!           |
|           W WW W  AAAAAA  RRRRR   N  N N  II  N  N N  G  GGG   !            |
|           WW  WW  A    A  R   R   N   NN  II  N   NN  G    G                |
|           W    W  A    A  R    R  N    N  II  N    N   GGGG   !!!           |
|                                                                             |
|      For optimal performance we recommend to set                            |
|        NCORE= 4 - approx SQRT( number of cores)                             |
|      NCORE specifies how many cores store one orbital (NPAR=cpu/NCORE).     |
|      This setting can  greatly improve the performance of VASP for DFT.     |
|      The default,   NCORE=1            might be grossly inefficient         |
|      on modern multi-core architectures or massively parallel machines.     |
|      Do your own testing !!!!                                               |
|      Unfortunately you need to use the default for GW and RPA calculations. |
|      (for HF NCORE is supported but not extensively tested yet)             |
|                                                                             |
 ----------------------------------------------------------------------------- 

 POTCAR:   PAW_PBE Au 06Sep2000                   
   VRHFIN =Au: s1d10                                                            
   LEXCH  = PE                                                                  
   EATOM  =   926.0567 eV,   68.0632 Ry                                         
                                                                                
   TITEL  = PAW_PBE Au 06Sep2000                                                
   LULTRA =        F    use ultrasoft PP ?                                      
   IUNSCR =        1    unscreen: 0-lin 1-nonlin 2-no                           
   RPACOR =    2.330    partial core radius                                     
   POMASS =  196.966; ZVAL   =   11.000    mass and valenz                      
   RCORE  =    2.500    outmost cutoff radius                                   
   RWIGS  =    2.840; RWIGS  =    1.503    wigner-seitz radius (au A)           
   ENMAX  =  229.948; ENMIN  =  172.461 eV                                      
   RCLOC  =    1.964    cutoff for local pot                                    
   LCOR   =        T    correct aug charges                                     
   LPAW   =        T    paw PP                                                  
   EAUG   =  356.670                                                            
   DEXC   =    -.025                                                            
   RMAX   =    3.041    core radius for proj-oper                               
   RAUG   =    1.300    factor for augmentation sphere                          
   RDEP   =    2.598    radius for radial grids                                 
   QCUT   =   -4.111; QGAM   =    8.222    optimization parameters              
                                                                                
   Description                                                                  
     l     E      TYP  RCUT    TYP  RCUT                                        
     2   .000     23  2.500                                                     
     2   .000     23  2.500                                                     
     0   .000     23  2.500                                                     
     0   .000     23  2.500                                                     
     1  -.200     23  2.500                                                     
     1   .000     23  2.500                                                     
     3   .000      7   .000                                                     
  local pseudopotential read in
  partial core-charges read in
  atomic valenz-charges read in
  non local Contribution for L=           2  read in
    real space projection operators read in
  non local Contribution for L=           2  read in
    real space projection operators read in
  non local Contribution for L=           0  read in
    real space projection operators read in
  non local Contribution for L=           0  read in
    real space projection operators read in
  non local Contribution for L=           1  read in
    real space projection operators read in
  non local Contribution for L=           1  read in
    real space projection operators read in
    PAW grid and wavefunctions read in
 
   number of l-projection  operators is LMAX  =           6
   number of lm-projection operators is LMMAX =          18
 
 PAW_PBE Au 06Sep2000                   :
 energy of atom  1       EATOM= -926.0567
 kinetic energy error for atom=    0.0034 (will be added to EATOM!!)
 
 
 POSCAR: Au                                      
  positions in direct lattice
  No initial velocities read in
 exchange correlation table for  LEXCH =        8
   RHO(1)=    0.500       N(1)  =     2000
   RHO(2)=  100.500       N(2)  =     4000

 VTST: version 3.2, (02/03/18)

 CHAIN: initializing optimizer
 
 OPT: Using VASP Dynamics algorithm
 CHAIN: Read ICHAIN            0
 
 POSCAR: Au                                      
  positions in direct lattice
  No initial velocities read in
 


--------------------------------------------------------------------------------------------------------


 ion  position               nearest neighbor table
   1  0.010  0.010  0.751-
 

IMPORTANT INFORMATION: All symmetrisations will be switched off!
NOSYMM: (Re-)initialisation of all symmetry stuff for point group C_1.

 
 

Automatic generation of k-mesh.
 generate k-points for:    1    1    1
Space group operators:
 irot       det(A)        alpha          n_x          n_y          n_z        tau_x        tau_y        tau_z
    1     1.000000     0.000000     1.000000     0.000000     0.000000     0.000000     0.000000     0.000000
 
 Subroutine IBZKPT returns following result:
 ===========================================
 
 Found      1 irreducible k-points:
 
 Following reciprocal coordinates:
            Coordinates               Weight
  0.000000  0.000000  0.000000      1.000000
 
 Following cartesian coordinates:
            Coordinates               Weight
  0.000000  0.000000  0.000000      1.000000
 


--------------------------------------------------------------------------------------------------------




 Dimension of arrays:
   k-points           NKPTS =      1   k-points in BZ     NKDIM =      1   number of bands    NBANDS=    256
   number of dos      NEDOS =    301   number of ions     NIONS =      1
   non local maximal  LDIM  =      6   non local SUM 2l+1 LMDIM =     18
   total plane-waves  NPLWV = ******
   max r-space proj   IRMAX =      1   max aug-charges    IRDMAX=  25653
   dimension x,y,z NGX =   112 NGY =  112 NGZ =  112
   dimension x,y,z NGXF=   224 NGYF=  224 NGZF=  224
   support grid    NGXF=   224 NGYF=  224 NGZF=  224
   ions per type =               1
   NGX,Y,Z   is equivalent  to a cutoff of  12.41, 12.41, 12.41 a.u.
   NGXF,Y,Z  is equivalent  to a cutoff of  24.83, 24.83, 24.83 a.u.

 SYSTEM =  Au                                      
 POSCAR =  Au                                      

 Startparameter for this run:
   NWRITE =      2    write-flag & timer
   PREC   = accura    normal or accurate (medium, high low for compatibility)
   ISTART =      0    job   : 0-new  1-cont  2-samecut
   ICHARG =      2    charge: 1-file 2-atom 10-const
   ISPIN  =      2    spin polarized calculation?
   LNONCOLLINEAR =      F non collinear calculations
   LSORBIT =      F    spin-orbit coupling
   INIWAV =      1    electr: 0-lowe 1-rand  2-diag
   LASPH  =      T    aspherical Exc in radial PAW
   METAGGA=      F    non-selfconsistent MetaGGA calc.

 Electronic Relaxation 1
   ENCUT  =  520.0 eV  38.22 Ry    6.18 a.u.  27.89 27.89 27.89*2*pi/ulx,y,z
   ENINI  =  520.0     initial cutoff
   ENAUG  =  356.7 eV  augmentation charge cutoff
   NELM   =    200;   NELMIN=  2; NELMDL= -5     # of ELM steps 
   EDIFF  = 0.1E-04   stopping-criterion for ELM
   LREAL  =      F    real-space projection
   NLSPLINE    = F    spline interpolate recip. space projectors
   LCOMPAT=      F    compatible to vasp.4.4
   GGA_COMPAT  = T    GGA compatible to vasp.4.4-vasp.4.6
   LMAXPAW     = -100 max onsite density
   LMAXMIX     =    2 max onsite mixed and CHGCAR
   VOSKOWN=      0    Vosko Wilk Nusair interpolation
   ROPT   =    0.00000
 Ionic relaxation
   EDIFFG = 0.1E-03   stopping-criterion for IOM
   NSW    =      0    number of steps for IOM
   NBLOCK =      1;   KBLOCK =      1    inner block; outer block 
   IBRION =     -1    ionic relax: 0-MD 1-quasi-New 2-CG
   NFREE  =      0    steps in history (QN), initial steepest desc. (CG)
   ISIF   =      0    stress and relaxation
   IWAVPR =     10    prediction:  0-non 1-charg 2-wave 3-comb
   ISYM   =      0    0-nonsym 1-usesym 2-fastsym
   LCORR  =      T    Harris-Foulkes like correction to forces

   POTIM  = 0.5000    time-step for ionic-motion
   TEIN   =    0.0    initial temperature
   TEBEG  =    0.0;   TEEND  =   0.0 temperature during run
   SMASS  =  -3.00    Nose mass-parameter (am)
   estimated Nose-frequenzy (Omega)   =  0.10E-29 period in steps =****** mass=  -0.514E-26a.u.
   SCALEE = 1.0000    scale energy and forces
   NPACO  =    256;   APACO  = 16.0  distance and # of slots for P.C.
   PSTRESS=    0.0 pullay stress

  Mass of Ions in am
   POMASS = 196.97
  Ionic Valenz
   ZVAL   =  11.00
  Atomic Wigner-Seitz radii
   RWIGS  =  -1.00
  virtual crystal weights 
   VCA    =   1.00
   NELECT =      11.0000    total number of electrons
   NUPDOWN=       1.0000    fix difference up-down

 DOS related values:
   EMIN   =  10.00;   EMAX   =-10.00  energy-range for DOS
   EFERMI =   0.00
   ISMEAR =     0;   SIGMA  =   0.05  broadening in eV -4-tet -1-fermi 0-gaus

 Electronic relaxation 2 (details)
   IALGO  =     58    algorithm
   LDIAG  =      T    sub-space diagonalisation (order eigenvalues)
   LSUBROT=      F    optimize rotation matrix (better conditioning)
   TURBO    =      0    0=normal 1=particle mesh
   IRESTART =      0    0=no restart 2=restart with 2 vectors
   NREBOOT  =      0    no. of reboots
   NMIN     =      0    reboot dimension
   EREF     =   0.00    reference energy to select bands
   IMIX   =      4    mixing-type and parameters
     AMIX     =   0.40;   BMIX     =  1.00
     AMIX_MAG =   1.60;   BMIX_MAG =  1.00
     AMIN     =   0.10
     WC   =   100.;   INIMIX=   1;  MIXPRE=   1;  MAXMIX= -45

 Intra band minimization:
   WEIMIN = 0.0000     energy-eigenvalue tresh-hold
   EBREAK =  0.98E-08  absolut break condition
   DEPER  =   0.30     relativ break condition  

   TIME   =   0.40     timestep for ELM

  volume/ion in A,a.u.               =    3375.00     22775.62
  Fermi-wavevector in a.u.,A,eV,Ry     =   0.242725  0.458684  0.801593  0.058915
  Thomas-Fermi vector in A             =   1.050536
 
 Write flags
   LWAVE        =      F    write WAVECAR
   LDOWNSAMPLE  =      F    k-point downsampling of WAVECAR
   LCHARG       =      F    write CHGCAR
   LVTOT        =      F    write LOCPOT, total local potential
   LVHAR        =      F    write LOCPOT, Hartree potential only
   LELF         =      F    write electronic localiz. function (ELF)
   LORBIT       =      0    0 simple, 1 ext, 2 COOP (PROOUT), +10 PAW based schemes


 Dipole corrections
   LMONO  =      F    monopole corrections only (constant potential shift)
   LDIPOL =      F    correct potential (dipole corrections)
   IDIPOL =      0    1-x, 2-y, 3-z, 4-all directions 
   EPSILON=  1.0000000 bulk dielectric constant

 Exchange correlation treatment:
   GGA     =    --    GGA type
   LEXCH   =     8    internal setting for exchange type
   VOSKOWN=      0    Vosko Wilk Nusair interpolation
   LHFCALC =     F    Hartree Fock is set to
   LHFONE  =     F    Hartree Fock one center treatment
   AEXX    =    0.0000 exact exchange contribution

 Linear response parameters
   LEPSILON=     F    determine dielectric tensor
   LRPA    =     F    only Hartree local field effects (RPA)
   LNABLA  =     F    use nabla operator in PAW spheres
   LVEL    =     F    velocity operator in full k-point grid
   LINTERFAST=   F  fast interpolation
   KINTER  =     0    interpolate to denser k-point grid
   CSHIFT  =0.1000    complex shift for real part using Kramers Kronig
   OMEGAMAX=  -1.0    maximum frequency
   DEG_THRESHOLD= 0.2000000E-02 threshold for treating states as degnerate
   RTIME   =   -0.100 relaxation time in fs
  (WPLASMAI=    0.000 imaginary part of plasma frequency in eV, 0.658/RTIME)
   DFIELD  = 0.0000000 0.0000000 0.0000000 field for delta impulse in time
 
 Orbital magnetization related:
   ORBITALMAG=     F  switch on orbital magnetization
   LCHIMAG   =     F  perturbation theory with respect to B field
   DQ        =  0.001000  dq finite difference perturbation B field
   LLRAUG    =     F  two centre corrections for induced B field



--------------------------------------------------------------------------------------------------------


 Static calculation
 charge density and potential will be updated during run
 spin polarized calculation
 Conjugate gradient for all bands (Freysoldt, et al. PRB 79, 241103 (2009))
 preconditioned conjugated gradient                                        
 perform sub-space diagonalisation
    before iterative eigenvector-optimisation
 modified Broyden-mixing scheme, WC =      100.0
 initial mixing is a Kerker type mixing with AMIX =  0.4000 and BMIX =      1.0000
 Hartree-type preconditioning will be used
 using additional bands          250
 reciprocal scheme for non local part
 use partial core corrections
 no Harris-corrections to forces 
 use gradient corrections 
 use of overlap-Matrix (Vanderbilt PP)
 Gauss-broadening in eV      SIGMA  =   0.05


--------------------------------------------------------------------------------------------------------


  energy-cutoff  :      520.00
  volume of cell :     3375.00
      direct lattice vectors                 reciprocal lattice vectors
    15.000000000  0.000000000  0.000000000     0.066666667  0.000000000  0.000000000
     0.000000000 15.000000000  0.000000000     0.000000000  0.066666667  0.000000000
     0.000000000  0.000000000 15.000000000     0.000000000  0.000000000  0.066666667

  length of vectors
    15.000000000 15.000000000 15.000000000     0.066666667  0.066666667  0.066666667


 
 k-points in units of 2pi/SCALE and weight: read from INCAR                         
   0.00000000  0.00000000  0.00000000       1.000
 
 k-points in reciprocal lattice and weights: read from INCAR                         
   0.00000000  0.00000000  0.00000000       1.000
 
 position of ions in fractional coordinates (direct lattice) 
   0.01000000  0.01000000  0.75100000
 
 position of ions in cartesian coordinates  (Angst):
   0.15000000  0.15000000 11.26500000
 


--------------------------------------------------------------------------------------------------------


 k-point  1 :   0.0000 0.0000 0.0000  plane waves:   90879

 maximum and minimum number of plane-waves per node :     90879    90879

 maximum number of plane-waves:     90879
 maximum index in each direction: 
   IXMAX=   27   IYMAX=   27   IZMAX=   27
   IXMIN=  -27   IYMIN=  -27   IZMIN=  -27


 serial   3D FFT for wavefunctions
 parallel 3D FFT for charge:
    minimum data exchange during FFTs selected (reduces bandwidth)


 total amount of memory used by VASP MPI-rank0   177231. kBytes
=======================================================================

   base      :      30000. kBytes
   nonl-proj :      14540. kBytes
   fftplans  :       7479. kBytes
   grid      :     116433. kBytes
   one-center:         31. kBytes
   wavefun   :       8748. kBytes
 
     INWAV:  cpu time    0.0000: real time    0.0000
 Broyden mixing: mesh for mixing (old mesh)
   NGX = 55   NGY = 55   NGZ = 55
  (NGX  =224   NGY  =224   NGZ  =224)
  gives a total of 166375 points

 initial charge density was supplied:
 charge density of overlapping atoms calculated
 number of electron      11.0000000 magnetization       1.0000000
 keeping initial charge density in first step


--------------------------------------------------------------------------------------------------------


 Maximum index for augmentation-charges         1011 (set IRDMAX)


--------------------------------------------------------------------------------------------------------


 First call to EWALD:  gamma=   0.118
 Maximum number of real-space cells 3x 3x 3
 Maximum number of reciprocal cells 3x 3x 3

    FEWALD:  cpu time    0.0093: real time    0.0095


--------------------------------------- Iteration      1(   1)  ---------------------------------------


    POTLOK:  cpu time    2.2878: real time    2.3199
    SETDIJ:  cpu time    0.4112: real time    0.4285
    TRIAL :  cpu time    8.1190: real time    8.1624
    CORREC:  cpu time    0.0994: real time    0.1033
    --------------------------------------------
      LOOP:  cpu time   10.9266: real time   11.0313

 eigenvalue-minimisations  :  1024
 total energy-change (2. order) : 0.6019518E+02  (-0.3779052E+03)
 number of electron      11.0000000 magnetization       1.0000000
 augmentation part       11.0000000 magnetization       1.0000000

 Free energy of the ion-electron system (eV)
  ---------------------------------------------------
  alpha Z        PSCENC =         0.55490975
  Ewald energy   TEWEN  =      -164.78780271
  -Hartree energ DENC   =      -724.32341189
  -exchange      EXHF   =         0.00000000
  -V(xc)+E(xc)   XCENC  =        13.40330814
  PAW double counting   =       747.43743664     -724.05748183
  entropy T*S    EENTRO =        -0.03517927
  eigenvalues    EBANDS =       -14.04992306
  atomic energy  EATOM  =       926.05332211
  ---------------------------------------------------
  free energy    TOTEN  =        60.19517788 eV

  energy without entropy =       60.23035716  energy(sigma->0) =       60.21276752


--------------------------------------------------------------------------------------------------------




--------------------------------------- Iteration      1(   2)  ---------------------------------------


    TRIAL :  cpu time   28.1299: real time   31.5818
    CORREC:  cpu time    0.0953: real time    0.0960
    --------------------------------------------
      LOOP:  cpu time   28.2316: real time   31.6875

 eigenvalue-minimisations  :  1536
 total energy-change (2. order) :-0.6030668E+02  (-0.5928619E+02)
 number of electron      11.0000000 magnetization       1.0000000
 augmentation part       11.0000000 magnetization       1.0000000

 Free energy of the ion-electron system (eV)
  ---------------------------------------------------
  alpha Z        PSCENC =         0.55490975
  Ewald energy   TEWEN  =      -164.78780271
  -Hartree energ DENC   =      -724.32341189
  -exchange      EXHF   =         0.00000000
  -V(xc)+E(xc)   XCENC  =        13.40330814
  PAW double counting   =       747.43743664     -724.05748183
  entropy T*S    EENTRO =        -0.00000000
  eigenvalues    EBANDS =       -74.39178270
  atomic energy  EATOM  =       926.05332211
  ---------------------------------------------------
  free energy    TOTEN  =        -0.11150248 eV

  energy without entropy =       -0.11150248  energy(sigma->0) =       -0.11150248


--------------------------------------------------------------------------------------------------------




--------------------------------------- Iteration      1(   3)  ---------------------------------------


    TRIAL :  cpu time   13.9868: real time   14.6011
    CORREC:  cpu time    0.0338: real time    0.0338
    --------------------------------------------
      LOOP:  cpu time   14.0348: real time   14.6491

 eigenvalue-minimisations  :  1024
 total energy-change (2. order) :-0.3847010E-01  (-0.3847010E-01)
 number of electron      11.0000000 magnetization       1.0000000
 augmentation part       11.0000000 magnetization       1.0000000

 Free energy of the ion-electron system (eV)
  ---------------------------------------------------
  alpha Z        PSCENC =         0.55490975
  Ewald energy   TEWEN  =      -164.78780271
  -Hartree energ DENC   =      -724.32341189
  -exchange      EXHF   =         0.00000000
  -V(xc)+E(xc)   XCENC  =        13.40330814
  PAW double counting   =       747.43743664     -724.05748183
  entropy T*S    EENTRO =        -0.00000000
  eigenvalues    EBANDS =       -74.43025280
  atomic energy  EATOM  =       926.05332211
  ---------------------------------------------------
  free energy    TOTEN  =        -0.14997259 eV

  energy without entropy =       -0.14997259  energy(sigma->0) =       -0.14997259


--------------------------------------------------------------------------------------------------------




--------------------------------------- Iteration      1(   4)  ---------------------------------------


    TRIAL :  cpu time   13.1354: real time   13.2209
    CORREC:  cpu time    0.0336: real time    0.0336
    --------------------------------------------
      LOOP:  cpu time   13.1779: real time   13.2634

 eigenvalue-minimisations  :  1536
 total energy-change (2. order) :-0.4344272E-04  (-0.4344271E-04)
 number of electron      11.0000000 magnetization       1.0000000
 augmentation part       11.0000000 magnetization       1.0000000

 Free energy of the ion-electron system (eV)
  ---------------------------------------------------
  alpha Z        PSCENC =         0.55490975
  Ewald energy   TEWEN  =      -164.78780271
  -Hartree energ DENC   =      -724.32341189
  -exchange      EXHF   =         0.00000000
  -V(xc)+E(xc)   XCENC  =        13.40330814
  PAW double counting   =       747.43743664     -724.05748183
  entropy T*S    EENTRO =        -0.00000000
  eigenvalues    EBANDS =       -74.43029625
  atomic energy  EATOM  =       926.05332211
  ---------------------------------------------------
  free energy    TOTEN  =        -0.15001603 eV

  energy without entropy =       -0.15001603  energy(sigma->0) =       -0.15001603


--------------------------------------------------------------------------------------------------------




--------------------------------------- Iteration      1(   5)  ---------------------------------------


    TRIAL :  cpu time    8.3227: real time    8.3357
    CORREC:  cpu time    0.0319: real time    0.0319
    CHARGE:  cpu time    1.1973: real time    1.2190
    --------------------------------------------
      LOOP:  cpu time    9.5588: real time    9.5938

 eigenvalue-minimisations  :  1024
 total energy-change (2. order) :-0.1700073E-08  (-0.1669281E-08)
 number of electron      11.0000000 magnetization       1.0000000
 augmentation part        4.1624092 magnetization      -0.1563467

 Free energy of the ion-electron system (eV)
  ---------------------------------------------------
  alpha Z        PSCENC =         0.55490975
  Ewald energy   TEWEN  =      -164.78780271
  -Hartree energ DENC   =      -724.32341189
  -exchange      EXHF   =         0.00000000
  -V(xc)+E(xc)   XCENC  =        13.40330814
  PAW double counting   =       747.43743664     -724.05748183
  entropy T*S    EENTRO =        -0.00000000
  eigenvalues    EBANDS =       -74.43029625
  atomic energy  EATOM  =       926.05332211
  ---------------------------------------------------
  free energy    TOTEN  =        -0.15001603 eV

  energy without entropy =       -0.15001603  energy(sigma->0) =       -0.15001603


--------------------------------------------------------------------------------------------------------




--------------------------------------- Iteration      1(   6)  ---------------------------------------


    POTLOK:  cpu time    2.2700: real time    2.2705
    SETDIJ:  cpu time    0.4070: real time    0.4071
    TRIAL :  cpu time    3.5382: real time    3.8691
    CORREC:  cpu time    5.7046: real time    5.8018
    CHARGE:  cpu time    1.1812: real time    1.1817
    --------------------------------------------
      LOOP:  cpu time   13.1148: real time   13.5441

 eigenvalue-minimisations  :     0
 total energy-change (2. order) :-0.1183448E+00  (-0.1382034E-01)
 number of electron      11.0000000 magnetization       1.0000000
 augmentation part        4.1575832 magnetization      -0.1991225

 Free energy of the ion-electron system (eV)
  ---------------------------------------------------
  alpha Z        PSCENC =         0.55490975
  Ewald energy   TEWEN  =      -164.78780271
  -Hartree energ DENC   =      -725.22782502
  -exchange      EXHF   =         0.00000000
  -V(xc)+E(xc)   XCENC  =        13.44279253
  PAW double counting   =       748.38023024     -725.03023774
  entropy T*S    EENTRO =        -0.00000000
  eigenvalues    EBANDS =       -73.65375005
  atomic energy  EATOM  =       926.05332211
  ---------------------------------------------------
  free energy    TOTEN  =        -0.26836088 eV

  energy without entropy =       -0.26836088  energy(sigma->0) =       -0.26836088


--------------------------------------------------------------------------------------------------------




--------------------------------------- Iteration      1(   7)  ---------------------------------------


    POTLOK:  cpu time    2.2354: real time    2.2358
    SETDIJ:  cpu time    0.4075: real time    0.4075
    TRIAL :  cpu time    3.2736: real time    3.3440
    CORREC:  cpu time    5.5923: real time    5.6525
    CHARGE:  cpu time    1.1856: real time    1.1864
    --------------------------------------------
      LOOP:  cpu time   12.7163: real time   12.8480

 eigenvalue-minimisations  :     0
 total energy-change (2. order) :-0.1380565E-01  (-0.2976302E-02)
 number of electron      11.0000000 magnetization       1.0000000
 augmentation part        4.1683778 magnetization      -0.2083574

 Free energy of the ion-electron system (eV)
  ---------------------------------------------------
  alpha Z        PSCENC =         0.55490975
  Ewald energy   TEWEN  =      -164.78780271
  -Hartree energ DENC   =      -724.26352924
  -exchange      EXHF   =         0.00000000
  -V(xc)+E(xc)   XCENC  =        13.42034630
  PAW double counting   =       747.44836458     -724.07647971
  entropy T*S    EENTRO =        -0.00000000
  eigenvalues    EBANDS =       -74.63129762
  atomic energy  EATOM  =       926.05332211
  ---------------------------------------------------
  free energy    TOTEN  =        -0.28216653 eV

  energy without entropy =       -0.28216653  energy(sigma->0) =       -0.28216653


--------------------------------------------------------------------------------------------------------




--------------------------------------- Iteration      1(   8)  ---------------------------------------


    POTLOK:  cpu time    2.2543: real time    2.2556
    SETDIJ:  cpu time    0.4108: real time    0.4109
    TRIAL :  cpu time    3.3335: real time    3.4059
    CORREC:  cpu time    5.5162: real time    5.5960
    CHARGE:  cpu time    1.1784: real time    1.1803
    --------------------------------------------
      LOOP:  cpu time   12.7094: real time   12.8649

 eigenvalue-minimisations  :     0
 total energy-change (2. order) :-0.2973824E-02  (-0.1795069E-02)
 number of electron      11.0000000 magnetization       1.0000000
 augmentation part        4.1629591 magnetization      -0.2096802

 Free energy of the ion-electron system (eV)
  ---------------------------------------------------
  alpha Z        PSCENC =         0.55490975
  Ewald energy   TEWEN  =      -164.78780271
  -Hartree energ DENC   =      -725.26441554
  -exchange      EXHF   =         0.00000000
  -V(xc)+E(xc)   XCENC  =        13.45901956
  PAW double counting   =       748.26357456     -724.88768482
  entropy T*S    EENTRO =        -0.00000000
  eigenvalues    EBANDS =       -73.67606327
  atomic energy  EATOM  =       926.05332211
  ---------------------------------------------------
  free energy    TOTEN  =        -0.28514035 eV

  energy without entropy =       -0.28514035  energy(sigma->0) =       -0.28514035


--------------------------------------------------------------------------------------------------------




--------------------------------------- Iteration      1(   9)  ---------------------------------------


    POTLOK:  cpu time    2.2398: real time    2.2409
    SETDIJ:  cpu time    0.4084: real time    0.4084
    TRIAL :  cpu time    3.3468: real time    3.4071
    CORREC:  cpu time    5.4894: real time    5.5600
    CHARGE:  cpu time    1.2027: real time    1.2029
    --------------------------------------------
      LOOP:  cpu time   12.7004: real time   12.8340

 eigenvalue-minimisations  :     0
 total energy-change (2. order) :-0.1792637E-02  (-0.5495549E-03)
 number of electron      11.0000000 magnetization       1.0000000
 augmentation part        4.1639984 magnetization      -0.2115517

 Free energy of the ion-electron system (eV)
  ---------------------------------------------------
  alpha Z        PSCENC =         0.55490975
  Ewald energy   TEWEN  =      -164.78780271
  -Hartree energ DENC   =      -724.61288004
  -exchange      EXHF   =         0.00000000
  -V(xc)+E(xc)   XCENC  =        13.43660293
  PAW double counting   =       747.68429690     -724.30698438
  entropy T*S    EENTRO =        -0.00000000
  eigenvalues    EBANDS =       -74.30839755
  atomic energy  EATOM  =       926.05332211
  ---------------------------------------------------
  free energy    TOTEN  =        -0.28693299 eV

  energy without entropy =       -0.28693299  energy(sigma->0) =       -0.28693299


--------------------------------------------------------------------------------------------------------




--------------------------------------- Iteration      1(  10)  ---------------------------------------


    POTLOK:  cpu time    2.3053: real time    2.3063
    SETDIJ:  cpu time    0.4201: real time    0.4203
    TRIAL :  cpu time    3.4706: real time    3.5287
    CORREC:  cpu time    5.4624: real time    5.5429
    CHARGE:  cpu time    1.2162: real time    1.2178
    --------------------------------------------
      LOOP:  cpu time   12.8877: real time   13.0290

 eigenvalue-minimisations  :     0
 total energy-change (2. order) :-0.5487318E-03  (-0.8771197E-04)
 number of electron      11.0000000 magnetization       1.0000000
 augmentation part        4.1639657 magnetization      -0.2127175

 Free energy of the ion-electron system (eV)
  ---------------------------------------------------
  alpha Z        PSCENC =         0.55490975
  Ewald energy   TEWEN  =      -164.78780271
  -Hartree energ DENC   =      -724.76230451
  -exchange      EXHF   =         0.00000000
  -V(xc)+E(xc)   XCENC  =        13.44214650
  PAW double counting   =       747.84946442     -724.47310131
  entropy T*S    EENTRO =        -0.00000000
  eigenvalues    EBANDS =       -74.16411598
  atomic energy  EATOM  =       926.05332211
  ---------------------------------------------------
  free energy    TOTEN  =        -0.28748172 eV

  energy without entropy =       -0.28748172  energy(sigma->0) =       -0.28748172


--------------------------------------------------------------------------------------------------------




--------------------------------------- Iteration      1(  11)  ---------------------------------------


    POTLOK:  cpu time    2.3459: real time    2.3488
    SETDIJ:  cpu time    0.4055: real time    0.4058
    TRIAL :  cpu time    3.3201: real time    3.4051
    CORREC:  cpu time    5.4895: real time    5.5587
    CHARGE:  cpu time    1.1892: real time    1.1899
    --------------------------------------------
      LOOP:  cpu time   12.7613: real time   12.9199

 eigenvalue-minimisations  :     0
 total energy-change (2. order) :-0.8766604E-04  (-0.6072642E-05)
 number of electron      11.0000000 magnetization       1.0000000
 augmentation part        4.1636966 magnetization      -0.2128517

 Free energy of the ion-electron system (eV)
  ---------------------------------------------------
  alpha Z        PSCENC =         0.55490975
  Ewald energy   TEWEN  =      -164.78780271
  -Hartree energ DENC   =      -724.78025881
  -exchange      EXHF   =         0.00000000
  -V(xc)+E(xc)   XCENC  =        13.44277415
  PAW double counting   =       747.86638897     -724.49042971
  entropy T*S    EENTRO =        -0.00000000
  eigenvalues    EBANDS =       -74.14647313
  atomic energy  EATOM  =       926.05332211
  ---------------------------------------------------
  free energy    TOTEN  =        -0.28756939 eV

  energy without entropy =       -0.28756939  energy(sigma->0) =       -0.28756939


--------------------------------------------------------------------------------------------------------




--------------------------------------- Iteration      1(  12)  ---------------------------------------


    POTLOK:  cpu time    2.2429: real time    2.2442
    SETDIJ:  cpu time    0.4075: real time    0.4078
    TRIAL :  cpu time    3.3513: real time    3.4114
    CORREC:  cpu time    5.5218: real time    5.5874
    EDDIAG:  cpu time    1.5651: real time    1.5813
    CHARGE:  cpu time    1.2188: real time    1.2201
    --------------------------------------------
      LOOP:  cpu time   14.3187: real time   14.4639

 eigenvalue-minimisations  :     0
 total energy-change (2. order) :-0.6149706E-05  (-0.1001437E-05)
 number of electron      11.0000000 magnetization       1.0000000
 augmentation part        4.1638837 magnetization      -0.2128353

 Free energy of the ion-electron system (eV)
  ---------------------------------------------------
  alpha Z        PSCENC =         0.55490975
  Ewald energy   TEWEN  =      -164.78780271
  -Hartree energ DENC   =      -724.75542311
  -exchange      EXHF   =         0.00000000
  -V(xc)+E(xc)   XCENC  =        13.44188338
  PAW double counting   =       747.84430207     -724.46823658
  entropy T*S    EENTRO =        -0.00000000
  eigenvalues    EBANDS =       -74.17053045
  atomic energy  EATOM  =       926.05332211
  ---------------------------------------------------
  free energy    TOTEN  =        -0.28757554 eV

  energy without entropy =       -0.28757554  energy(sigma->0) =       -0.28757554


--------------------------------------------------------------------------------------------------------


  average scaling for gradient   1.1479


 average (electrostatic) potential at core
  the test charge radii are     1.2098
  (the norm of the test charge is              1.0000)
       1 -54.0175
 
 
 
 E-fermi :  -6.3943     XC(G=0):  -0.2620     alpha+bet : -0.0514


 spin component 1

 k-point     1 :       0.0000    0.0000    0.0000
  band No.  band energies     occupation 
      1      -6.9601      1.00000
      2      -6.9601      1.00000
      3      -6.9601      1.00000
      4      -6.9601      1.00000
      5      -6.9601      1.00000
      6      -5.9839      1.00000
      7      -0.9349      0.00000
      8      -0.9349      0.00000
      9      -0.9349      0.00000
     10      -0.1048      0.00000
     11       0.5908      0.00000
     12       0.5908      0.00000
     13       0.5943      0.00000
     14       0.7385      0.00000
     15       0.7385      0.00000
     16       0.7385      0.00000
     17       1.0982      0.00000
     18       1.0982      0.00000
     19       1.0982      0.00000
     20       1.2538      0.00000
     21       1.2538      0.00000
     22       1.3002      0.00000
     23       1.3002      0.00000
     24       1.3002      0.00000
     25       1.4094      0.00000
     26       1.4926      0.00000
     27       1.4926      0.00000
     28       1.4926      0.00000
     29       1.8219      0.00000
     30       1.8219      0.00000
     31       1.8219      0.00000
     32       1.8815      0.00000
     33       2.0589      0.00000
     34       2.0589      0.00000
     35       2.0589      0.00000
     36       2.0859      0.00000
     37       2.2239      0.00000
     38       2.2239      0.00000
     39       2.6776      0.00000
     40       2.6776      0.00000
     41       2.6776      0.00000
     42       2.7278      0.00000
     43       2.8883      0.00000
     44       2.8883      0.00000
     45       2.8883      0.00000
     46       2.9966      0.00000
     47       2.9966      0.00000
     48       3.0658      0.00000
     49       3.0658      0.00000
     50       3.0658      0.00000
     51       3.1767      0.00000
     52       3.1767      0.00000
     53       3.1767      0.00000
     54       3.2584      0.00000
     55       3.2584      0.00000
     56       3.2584      0.00000
     57       3.2928      0.00000
     58       3.2928      0.00000
     59       3.3321      0.00000
     60       3.3321      0.00000
     61       3.3321      0.00000
     62       3.3533      0.00000
     63       3.5590      0.00000
     64       3.5590      0.00000
     65       3.5590      0.00000
     66       3.5935      0.00000
     67       3.6339      0.00000
     68       3.6748      0.00000
     69       3.6748      0.00000
     70       3.6748      0.00000
     71       3.8928      0.00000
     72       3.8928      0.00000
     73       3.8960      0.00000
     74       3.8960      0.00000
     75       3.8960      0.00000
     76       3.9094      0.00000
     77       3.9094      0.00000
     78       3.9094      0.00000
     79       3.9355      0.00000
     80       3.9355      0.00000
     81       3.9355      0.00000
     82       3.9434      0.00000
     83       3.9434      0.00000
     84       3.9434      0.00000
     85       3.9622      0.00000
     86       3.9622      0.00000
     87       4.4926      0.00000
     88       4.4926      0.00000
     89       4.4926      0.00000
     90       4.6003      0.00000
     91       5.0315      0.00000
     92       5.0315      0.00000
     93       5.0315      0.00000
     94       5.0482      0.00000
     95       5.0482      0.00000
     96       5.0482      0.00000
     97       5.0625      0.00000
     98       5.0625      0.00000
     99       5.3771      0.00000
    100       5.3771      0.00000
    101       5.3771      0.00000
    102       5.4552      0.00000
    103       5.5243      0.00000
    104       5.5243      0.00000
    105       5.5348      0.00000
    106       5.6042      0.00000
    107       5.6042      0.00000
    108       5.6043      0.00000
    109       5.6140      0.00000
    110       5.6140      0.00000
    111       5.6140      0.00000
    112       5.7310      0.00000
    113       5.8700      0.00000
    114       5.8700      0.00000
    115       5.8700      0.00000
    116       5.9087      0.00000
    117       5.9087      0.00000
    118       5.9087      0.00000
    119       5.9115      0.00000
    120       5.9115      0.00000
    121       5.9396      0.00000
    122       5.9396      0.00000
    123       5.9396      0.00000
    124       5.9429      0.00000
    125       5.9429      0.00000
    126       5.9429      0.00000
    127       5.9490      0.00000
    128       5.9490      0.00000
    129       6.2456      0.00000
    130       6.2456      0.00000
    131       6.2456      0.00000
    132       6.2923      0.00000
    133       6.3195      0.00000
    134       6.3195      0.00000
    135       6.4301      0.00000
    136       6.4301      0.00000
    137       6.4301      0.00000
    138       6.4387      0.00000
    139       6.4387      0.00000
    140       6.4387      0.00000
    141       6.4509      0.00000
    142       6.4509      0.00000
    143       6.4509      0.00000
    144       6.4743      0.00000
    145       6.4743      0.00000
    146       6.4743      0.00000
    147       6.6381      0.00000
    148       6.6381      0.00000
    149       6.6413      0.00000
    150       6.6413      0.00000
    151       6.6413      0.00000
    152       6.6492      0.00000
    153       6.9947      0.00000
    154       6.9947      0.00000
    155       6.9947      0.00000
    156       7.0684      0.00000
    157       7.1453      0.00000
    158       7.1559      0.00000
    159       7.1559      0.00000
    160       7.1559      0.00000
    161       7.1585      0.00000
    162       7.1585      0.00000
    163       7.1585      0.00000
    164       7.1635      0.00000
    165       7.1635      0.00000
    166       7.1635      0.00000
    167       7.1737      0.00000
    168       7.1737      0.00000
    169       7.1821      0.00000
    170       7.1821      0.00000
    171       7.1821      0.00000
    172       7.2132      0.00000
    173       7.2132      0.00000
    174       7.2132      0.00000
    175       7.2248      0.00000
    176       7.2248      0.00000
    177       7.6449      0.00000
    178       7.6449      0.00000
    179       7.6449      0.00000
    180       7.7147      0.00000
    181       7.7483      0.00000
    182       7.7865      0.00000
    183       7.7865      0.00000
    184       7.7865      0.00000
    185       8.0872      0.00000
    186       8.0872      0.00000
    187       8.0872      0.00000
    188       8.1493      0.00000
    189       8.1493      0.00000
    190       8.1493      0.00000
    191       8.1893      0.00000
    192       8.2437      0.00000
    193       8.2437      0.00000
    194       8.2578      0.00000
    195       8.2578      0.00000
    196       8.2578      0.00000
    197       8.5199      0.00000
    198       8.5199      0.00000
    199       8.5199      0.00000
    200       8.5575      0.00000
    201       8.5575      0.00000
    202       8.5588      0.00000
    203       8.5588      0.00000
    204       8.5588      0.00000
    205       8.5774      0.00000
    206       8.5774      0.00000
    207       8.5774      0.00000
    208       8.5929      0.00000
    209       8.8503      0.00000
    210       8.8922      0.00000
    211       8.8922      0.00000
    212       8.8922      0.00000
    213       8.9700      0.00000
    214       8.9700      0.00000
    215       8.9700      0.00000
    216       8.9739      0.00000
    217       9.0644      0.00000
    218       9.0644      0.00000
    219       9.0644      0.00000
    220       9.0774      0.00000
    221       9.0774      0.00000
    222       9.0774      0.00000
    223       9.1049      0.00000
    224       9.1049      0.00000
    225       9.1049      0.00000
    226       9.1105      0.00000
    227       9.1105      0.00000
    228       9.1105      0.00000
    229       9.1123      0.00000
    230       9.1123      0.00000
    231       9.1140      0.00000
    232       9.1140      0.00000
    233       9.2589      0.00000
    234       9.2589      0.00000
    235       9.2680      0.00000
    236       9.2680      0.00000
    237       9.2680      0.00000
    238       9.2762      0.00000
    239       9.2762      0.00000
    240       9.2762      0.00000
    241       9.2847      0.00000
    242       9.2847      0.00000
    243       9.2847      0.00000
    244       9.2926      0.00000
    245       9.2926      0.00000
    246       9.2926      0.00000
    247       9.3024      0.00000
    248       9.3025      0.00000
    249       9.3274      0.00000
    250       9.3374      0.00000
    251       9.3374      0.00000
    252       9.3374      0.00000
    253       9.3456      0.00000
    254       9.3456      0.00000
    255       9.3456      0.00000
    256       9.3523      0.00000

 spin component 2

 k-point     1 :       0.0000    0.0000    0.0000
  band No.  band energies     occupation 
      1      -6.6746      1.00000
      2      -6.6746      1.00000
      3      -6.6746      1.00000
      4      -6.6746      1.00000
      5      -6.6746      1.00000
      6      -5.2731      0.00000
      7      -0.3597      0.00000
      8      -0.3597      0.00000
      9      -0.3597      0.00000
     10       0.0220      0.00000
     11       0.6709      0.00000
     12       0.6709      0.00000
     13       0.7447      0.00000
     14       0.8154      0.00000
     15       0.8154      0.00000
     16       0.8154      0.00000
     17       1.2679      0.00000
     18       1.2679      0.00000
     19       1.2679      0.00000
     20       1.3275      0.00000
     21       1.3275      0.00000
     22       1.3560      0.00000
     23       1.3560      0.00000
     24       1.3560      0.00000
     25       1.5438      0.00000
     26       1.6143      0.00000
     27       1.6143      0.00000
     28       1.6143      0.00000
     29       1.9267      0.00000
     30       1.9267      0.00000
     31       1.9267      0.00000
     32       1.9858      0.00000
     33       2.1831      0.00000
     34       2.1959      0.00000
     35       2.1959      0.00000
     36       2.1959      0.00000
     37       2.4700      0.00000
     38       2.4700      0.00000
     39       2.7856      0.00000
     40       2.7856      0.00000
     41       2.7856      0.00000
     42       2.7951      0.00000
     43       3.0918      0.00000
     44       3.0918      0.00000
     45       3.0918      0.00000
     46       3.0987      0.00000
     47       3.0987      0.00000
     48       3.2408      0.00000
     49       3.2408      0.00000
     50       3.2408      0.00000
     51       3.2918      0.00000
     52       3.2918      0.00000
     53       3.2919      0.00000
     54       3.3436      0.00000
     55       3.3436      0.00000
     56       3.3436      0.00000
     57       3.3533      0.00000
     58       3.3533      0.00000
     59       3.3732      0.00000
     60       3.3732      0.00000
     61       3.3732      0.00000
     62       3.3816      0.00000
     63       3.6529      0.00000
     64       3.6529      0.00000
     65       3.6529      0.00000
     66       3.6684      0.00000
     67       3.7862      0.00000
     68       3.7862      0.00000
     69       3.7862      0.00000
     70       3.8339      0.00000
     71       3.9393      0.00000
     72       3.9393      0.00000
     73       3.9693      0.00000
     74       3.9693      0.00000
     75       3.9693      0.00000
     76       3.9769      0.00000
     77       3.9769      0.00000
     78       3.9769      0.00000
     79       4.0052      0.00000
     80       4.0052      0.00000
     81       4.0052      0.00000
     82       4.0124      0.00000
     83       4.0124      0.00000
     84       4.0124      0.00000
     85       4.0267      0.00000
     86       4.0267      0.00000
     87       4.6953      0.00000
     88       4.6953      0.00000
     89       4.6953      0.00000
     90       4.7523      0.00000
     91       5.1619      0.00000
     92       5.1619      0.00000
     93       5.1619      0.00000
     94       5.2042      0.00000
     95       5.2042      0.00000
     96       5.2042      0.00000
     97       5.2059      0.00000
     98       5.2059      0.00000
     99       5.5137      0.00000
    100       5.5137      0.00000
    101       5.5137      0.00000
    102       5.5530      0.00000
    103       5.7226      0.00000
    104       5.7226      0.00000
    105       5.7235      0.00000
    106       5.7394      0.00000
    107       5.7394      0.00000
    108       5.7394      0.00000
    109       5.7890      0.00000
    110       5.7890      0.00000
    111       5.7890      0.00000
    112       5.9049      0.00000
    113       5.9375      0.00000
    114       5.9375      0.00000
    115       5.9375      0.00000
    116       5.9813      0.00000
    117       5.9813      0.00000
    118       5.9851      0.00000
    119       5.9851      0.00000
    120       5.9851      0.00000
    121       6.0132      0.00000
    122       6.0132      0.00000
    123       6.0132      0.00000
    124       6.0179      0.00000
    125       6.0179      0.00000
    126       6.0179      0.00000
    127       6.0212      0.00000
    128       6.0212      0.00000
    129       6.3142      0.00000
    130       6.3142      0.00000
    131       6.3142      0.00000
    132       6.3626      0.00000
    133       6.3938      0.00000
    134       6.3938      0.00000
    135       6.5730      0.00000
    136       6.5730      0.00000
    137       6.5730      0.00000
    138       6.5741      0.00000
    139       6.5741      0.00000
    140       6.5741      0.00000
    141       6.5904      0.00000
    142       6.5904      0.00000
    143       6.5904      0.00000
    144       6.6057      0.00000
    145       6.6057      0.00000
    146       6.6057      0.00000
    147       6.6927      0.00000
    148       6.6927      0.00000
    149       6.6971      0.00000
    150       6.6971      0.00000
    151       6.6971      0.00000
    152       6.7038      0.00000
    153       7.0736      0.00000
    154       7.0736      0.00000
    155       7.0736      0.00000
    156       7.1229      0.00000
    157       7.2256      0.00000
    158       7.2256      0.00000
    159       7.2277      0.00000
    160       7.2277      0.00000
    161       7.2277      0.00000
    162       7.2311      0.00000
    163       7.2311      0.00000
    164       7.2311      0.00000
    165       7.2447      0.00000
    166       7.2447      0.00000
    167       7.2447      0.00000
    168       7.2499      0.00000
    169       7.2724      0.00000
    170       7.2724      0.00000
    171       7.2724      0.00000
    172       7.3145      0.00000
    173       7.3145      0.00000
    174       7.3145      0.00000
    175       7.3274      0.00000
    176       7.3274      0.00000
    177       7.7674      0.00000
    178       7.7674      0.00000
    179       7.7674      0.00000
    180       7.8283      0.00000
    181       7.8535      0.00000
    182       7.8895      0.00000
    183       7.8895      0.00000
    184       7.8895      0.00000
    185       8.2295      0.00000
    186       8.2295      0.00000
    187       8.2295      0.00000
    188       8.3172      0.00000
    189       8.3331      0.00000
    190       8.3331      0.00000
    191       8.3331      0.00000
    192       8.4173      0.00000
    193       8.4173      0.00000
    194       8.4173      0.00000
    195       8.4261      0.00000
    196       8.4261      0.00000
    197       8.6154      0.00000
    198       8.6154      0.00000
    199       8.6154      0.00000
    200       8.6450      0.00000
    201       8.6450      0.00000
    202       8.6505      0.00000
    203       8.6505      0.00000
    204       8.6505      0.00000
    205       8.6693      0.00000
    206       8.6693      0.00000
    207       8.6693      0.00000
    208       8.6811      0.00000
    209       8.9743      0.00000
    210       8.9743      0.00000
    211       8.9743      0.00000
    212       8.9864      0.00000
    213       9.0348      0.00000
    214       9.0834      0.00000
    215       9.0834      0.00000
    216       9.0834      0.00000
    217       9.1518      0.00000
    218       9.1518      0.00000
    219       9.1518      0.00000
    220       9.1750      0.00000
    221       9.1750      0.00000
    222       9.1750      0.00000
    223       9.1886      0.00000
    224       9.1886      0.00000
    225       9.2161      0.00000
    226       9.2161      0.00000
    227       9.2161      0.00000
    228       9.2312      0.00000
    229       9.2312      0.00000
    230       9.2312      0.00000
    231       9.2593      0.00000
    232       9.2593      0.00000
    233       9.3198      0.00000
    234       9.3198      0.00000
    235       9.3389      0.00000
    236       9.3389      0.00000
    237       9.3389      0.00000
    238       9.3418      0.00000
    239       9.3418      0.00000
    240       9.3418      0.00000
    241       9.3538      0.00000
    242       9.3538      0.00000
    243       9.3538      0.00000
    244       9.3608      0.00000
    245       9.3608      0.00000
    246       9.3608      0.00000
    247       9.3692      0.00000
    248       9.3692      0.00000
    249       9.3731      0.00000
    250       9.3826      0.00000
    251       9.3826      0.00000
    252       9.3826      0.00000
    253       9.3884      0.00000
    254       9.3884      0.00000
    255       9.3884      0.00000
    256       9.3936      0.00000


--------------------------------------------------------------------------------------------------------


 soft charge-density along one line, spin component           1
         0         1         2         3         4         5         6         7         8         9
 total charge-density along one line
 
 soft charge-density along one line, spin component           2
         0         1         2         3         4         5         6         7         8         9
 total charge-density along one line
 
 pseudopotential strength for first ion, spin component:           1
-13.503  -0.000   0.000  -0.000  -0.000   0.428   0.000  -0.000
 -0.000 -13.503  -0.000   0.000   0.000   0.000   0.428   0.000
  0.000  -0.000 -13.503  -0.000  -0.000  -0.000   0.000   0.428
 -0.000   0.000  -0.000 -13.503  -0.000   0.000  -0.000   0.000
 -0.000   0.000  -0.000  -0.000 -13.503   0.000  -0.000   0.000
  0.428   0.000  -0.000   0.000   0.000   0.213  -0.000   0.000
  0.000   0.428   0.000  -0.000  -0.000  -0.000   0.213  -0.000
 -0.000   0.000   0.428   0.000   0.000   0.000  -0.000   0.213
  0.000  -0.000   0.000   0.428   0.000  -0.000  -0.000  -0.000
  0.000  -0.000   0.000   0.000   0.428   0.000   0.000   0.000
  0.000   0.000  -0.000   0.000   0.000   0.000   0.000   0.000
 -0.000  -0.000  -0.000  -0.000   0.000   0.000   0.000  -0.000
 -0.000  -0.000  -0.000   0.000  -0.000  -0.000  -0.000   0.000
  0.000  -0.000   0.000  -0.000  -0.000  -0.000  -0.000  -0.000
 -0.000   0.000  -0.000  -0.000   0.000  -0.000  -0.000   0.000
  0.000   0.000   0.000  -0.000   0.000   0.000   0.000  -0.000
 -0.000   0.000  -0.000   0.000   0.000   0.000   0.000   0.000
  0.000  -0.000   0.000   0.000  -0.000   0.000   0.000  -0.000
 pseudopotential strength for first ion, spin component:           2
-13.527  -0.000   0.000  -0.000  -0.000   0.428   0.000  -0.000
 -0.000 -13.527  -0.000   0.000   0.000   0.000   0.428   0.000
  0.000  -0.000 -13.527  -0.000  -0.000  -0.000   0.000   0.428
 -0.000   0.000  -0.000 -13.527  -0.000   0.000   0.000   0.000
 -0.000   0.000  -0.000  -0.000 -13.527   0.000  -0.000   0.000
  0.428   0.000  -0.000   0.000   0.000   0.212  -0.000   0.000
  0.000   0.428   0.000   0.000  -0.000  -0.000   0.212  -0.000
 -0.000   0.000   0.428   0.000   0.000   0.000  -0.000   0.212
  0.000   0.000   0.000   0.428   0.000  -0.000  -0.000  -0.000
  0.000  -0.000   0.000   0.000   0.428  -0.000   0.000  -0.000
  0.000   0.000  -0.000   0.000   0.000  -0.000  -0.000   0.000
 -0.000  -0.000   0.000  -0.000  -0.000   0.000   0.000  -0.000
 -0.000  -0.000  -0.000   0.000  -0.000  -0.000  -0.000   0.000
  0.000  -0.000   0.000  -0.000  -0.000  -0.000  -0.000  -0.000
 -0.000   0.000  -0.000  -0.000   0.000  -0.000  -0.000   0.000
  0.000   0.000   0.000  -0.000   0.000   0.000   0.000  -0.000
 -0.000   0.000  -0.000   0.000   0.000   0.000   0.000   0.000
  0.000  -0.000   0.000   0.000  -0.000   0.000   0.000  -0.000
 total augmentation occupancy for first ion, spin component:           1
  1.999  -0.000  -0.000  -0.000  -0.000  -0.006  -0.000   0.000  -0.000  -0.000  -0.000  -0.000  -0.000  -0.000  -0.000  -0.000
 -0.000   1.999  -0.000  -0.000  -0.000  -0.000  -0.006  -0.000  -0.000   0.000  -0.000  -0.000  -0.000  -0.000  -0.000  -0.000
 -0.000  -0.000   1.999  -0.000  -0.000   0.000  -0.000  -0.006  -0.000   0.000   0.000  -0.000   0.000  -0.000   0.000  -0.000
 -0.000  -0.000  -0.000   1.999   0.000  -0.000  -0.000  -0.000  -0.006  -0.000  -0.000  -0.000  -0.000  -0.000  -0.000   0.000
 -0.000  -0.000  -0.000   0.000   1.999   0.000   0.000  -0.000  -0.000  -0.006  -0.000  -0.000   0.000  -0.000  -0.000  -0.000
 -0.006  -0.000   0.000  -0.000   0.000   0.002   0.000  -0.000   0.000   0.000  -0.000   0.000  -0.000  -0.000  -0.000   0.000
 -0.000  -0.006  -0.000  -0.000   0.000   0.000   0.002  -0.000   0.000  -0.000  -0.000   0.000  -0.000  -0.000  -0.000   0.000
  0.000  -0.000  -0.006  -0.000  -0.000  -0.000  -0.000   0.002  -0.000   0.000  -0.000   0.000   0.000  -0.000   0.000   0.000
 -0.000  -0.000  -0.000  -0.006  -0.000   0.000   0.000  -0.000   0.002   0.000  -0.000   0.000  -0.000  -0.000  -0.000  -0.000
 -0.000   0.000   0.000  -0.000  -0.006   0.000  -0.000   0.000   0.000   0.002  -0.000   0.000   0.000   0.000  -0.000   0.000
 -0.000  -0.000   0.000  -0.000  -0.000  -0.000  -0.000  -0.000  -0.000  -0.000   0.998  -0.042  -0.000  -0.000  -0.000  -0.000
 -0.000  -0.000  -0.000  -0.000  -0.000   0.000   0.000   0.000   0.000   0.000  -0.042   0.002   0.000   0.000   0.000   0.000
 -0.000  -0.000   0.000  -0.000   0.000  -0.000  -0.000   0.000  -0.000   0.000  -0.000   0.000   0.000   0.000   0.000   0.000
 -0.000  -0.000  -0.000  -0.000  -0.000  -0.000  -0.000  -0.000  -0.000   0.000  -0.000   0.000   0.000   0.000   0.000   0.000
 -0.000  -0.000   0.000  -0.000  -0.000  -0.000  -0.000   0.000  -0.000  -0.000  -0.000   0.000   0.000   0.000   0.000   0.000
 -0.000  -0.000  -0.000   0.000  -0.000   0.000   0.000   0.000  -0.000   0.000  -0.000   0.000   0.000   0.000   0.000   0.000
  0.000  -0.000   0.000  -0.000  -0.000  -0.000   0.000  -0.000   0.000   0.000  -0.000   0.000   0.000   0.000   0.000   0.000
 -0.000   0.000  -0.000  -0.000   0.000   0.000  -0.000   0.000   0.000  -0.000  -0.000   0.000   0.000   0.000   0.000   0.000
 total augmentation occupancy for first ion, spin component:           2
 -0.004  -0.000   0.000  -0.000  -0.000   0.064   0.000   0.000   0.000   0.000   0.000   0.000  -0.000  -0.000  -0.000  -0.000
 -0.000  -0.004   0.000  -0.000   0.000   0.000   0.064  -0.000   0.000  -0.000   0.000   0.000  -0.000  -0.000  -0.000  -0.000
  0.000   0.000  -0.004   0.000  -0.000   0.000  -0.000   0.064  -0.000   0.000  -0.000  -0.000   0.000  -0.000   0.000   0.000
 -0.000  -0.000   0.000  -0.004  -0.000   0.000   0.000  -0.000   0.064   0.000   0.000   0.000  -0.000  -0.000  -0.000  -0.000
 -0.000   0.000  -0.000  -0.000  -0.004   0.000   0.000  -0.000  -0.000   0.064   0.000   0.000   0.000   0.000  -0.000   0.000
  0.064   0.000   0.000   0.000   0.000  -0.000  -0.000   0.000  -0.000   0.000  -0.000  -0.000  -0.000  -0.000  -0.000  -0.000
  0.000   0.064  -0.000   0.000   0.000  -0.000  -0.000  -0.000  -0.000   0.000  -0.000  -0.000  -0.000  -0.000  -0.000  -0.000
  0.000  -0.000   0.064  -0.000  -0.000   0.000  -0.000  -0.000  -0.000  -0.000  -0.000   0.000   0.000  -0.000   0.000  -0.000
  0.000   0.000  -0.000   0.064  -0.000  -0.000  -0.000  -0.000  -0.000  -0.000  -0.000  -0.000  -0.000  -0.000  -0.000   0.000
  0.000  -0.000   0.000   0.000   0.064   0.000   0.000  -0.000  -0.000  -0.000  -0.000  -0.000   0.000  -0.000  -0.000  -0.000
  0.000   0.000  -0.000   0.000   0.000  -0.000  -0.000  -0.000  -0.000  -0.000   0.998  -0.042  -0.000  -0.000  -0.000  -0.000
  0.000   0.000  -0.000   0.000   0.000  -0.000  -0.000   0.000  -0.000  -0.000  -0.042   0.002   0.000   0.000   0.000   0.000
 -0.000  -0.000   0.000  -0.000   0.000  -0.000  -0.000   0.000  -0.000   0.000  -0.000   0.000   0.000   0.000   0.000   0.000
 -0.000  -0.000  -0.000  -0.000   0.000  -0.000  -0.000  -0.000  -0.000  -0.000  -0.000   0.000   0.000   0.000   0.000   0.000
 -0.000  -0.000   0.000  -0.000  -0.000  -0.000  -0.000   0.000  -0.000  -0.000  -0.000   0.000   0.000   0.000   0.000   0.000
 -0.000  -0.000   0.000  -0.000   0.000  -0.000  -0.000  -0.000   0.000  -0.000  -0.000   0.000   0.000   0.000   0.000   0.000
 -0.000  -0.000  -0.000  -0.000   0.000   0.000  -0.000   0.000  -0.000  -0.000  -0.000   0.000   0.000   0.000   0.000   0.000
 -0.000  -0.000   0.000  -0.000  -0.000  -0.000   0.000  -0.000  -0.000   0.000  -0.000   0.000   0.000   0.000   0.000   0.000


------------------------ aborting loop because EDIFF is reached ----------------------------------------


    FORLOC:  cpu time    0.0006: real time    0.0033
    FORNL :  cpu time    0.0595: real time    0.0605
    FORCOR:  cpu time    2.1833: real time    2.1927
    OFIELD:  cpu time    0.0009: real time    0.0050

 VOLUME and BASIS-vectors are now :
 -----------------------------------------------------------------------------
  energy-cutoff  :      520.00
  volume of cell :     3375.00
      direct lattice vectors                 reciprocal lattice vectors
    15.000000000  0.000000000  0.000000000     0.066666667  0.000000000  0.000000000
     0.000000000 15.000000000  0.000000000     0.000000000  0.066666667  0.000000000
     0.000000000  0.000000000 15.000000000     0.000000000  0.000000000  0.066666667

  length of vectors
    15.000000000 15.000000000 15.000000000     0.066666667  0.066666667  0.066666667


 FORCES acting on ions:
    Electron-Ion                     Ewald-Force                    Non-Local-Force
 -----------------------------------------------------------------------------------------------
   0.541E-05 0.539E-05 0.618E-05   -.989E-17 -.648E-17 -.389E-16   -.190E-04 -.190E-04 -.215E-04
 -----------------------------------------------------------------------------------------------
   0.432E-05 0.430E-05 0.512E-05   -.989E-17 -.648E-17 -.389E-16   -.190E-04 -.190E-04 -.215E-04
 
 
 POSITION                                       TOTAL-FORCE (eV/Angst)
 -----------------------------------------------------------------------------------
      0.15000      0.15000     11.26500        -0.000015     -0.000015     -0.000016
 -----------------------------------------------------------------------------------
    total drift:                               -0.000015     -0.000015     -0.000016


--------------------------------------------------------------------------------------------------------



  FREE ENERGIE OF THE ION-ELECTRON SYSTEM (eV)
  ---------------------------------------------------
  free  energy   TOTEN  =        -0.28757554 eV

  energy  without entropy=       -0.28757554  energy(sigma->0) =       -0.28757554
 


--------------------------------------------------------------------------------------------------------


    POTLOK:  cpu time    2.6653: real time    2.6779


--------------------------------------------------------------------------------------------------------


 stress matrix after NEB project (eV)
      0.00000      0.00000      0.00000
      0.00000      0.00000      0.00000
      0.00000      0.00000      0.00000
  FORCES: max atom, RMS     0.000026    0.000026
  FORCE total and by dimension    0.000026    0.000016
  Stress total and by dimension    0.000000    0.000000
     LOOP+:  cpu time  172.0824: real time  177.7672
    4ORBIT:  cpu time    0.0000: real time    0.0000

 total amount of memory used by VASP MPI-rank0   177231. kBytes
=======================================================================

   base      :      30000. kBytes
   nonl-proj :      14540. kBytes
   fftplans  :       7479. kBytes
   grid      :     116433. kBytes
   one-center:         31. kBytes
   wavefun   :       8748. kBytes
 
  
  
 General timing and accounting informations for this job:
 ========================================================
  
                  Total CPU time used (sec):      190.391
                            User time (sec):      185.394
                          System time (sec):        4.997
                         Elapsed time (sec):      198.061
  
                   Maximum memory used (kb):      452164.
                   Average memory used (kb):           0.
  
                          Minor page faults:        56109
                          Major page faults:            1
                 Voluntary context switches:         2582
