C  N  Ta                                
   1.00000000000000     
    12.3000000000000007    0.0000000000000000    0.0000000000000000
    -6.1499999999999977   10.6521124665485960    0.0000000000000000
     0.0000000000000000    0.0000000000000000   20.0000000000000000
   C    N    Ta
    44     4     1
Direct
  0.9992012502851253  0.0007987584759093  0.7394933609568071
  0.1317073676963361  0.0650646674911641  0.7398410730646248
  0.1984037583176814  0.9983904949182261  0.7398342386164742
  0.3305068127179709  0.0633850630396537  0.7447968154852802
  0.3984296674861909  0.9976916686067057  0.7467029115876329
  0.5320623277687133  0.0674678592915541  0.7500163854371706
  0.5995786008438841  0.0007279345728222  0.7487320357602556
  0.7323046380473599  0.0689673572407656  0.7484338716035026
  0.7994894860237167  0.0016456980064206  0.7454054371738152
  0.9325502290032972  0.0674497428119238  0.7428711036728046
  0.9983542488921984  0.2005104669371320  0.7454054362156413
  0.1310138949617325  0.2650987944173764  0.7466228739512104
  0.1967055854539126  0.1971675292814723  0.7447525601287524
  0.3278434356984121  0.2612065693671326  0.7515841356250732
  0.3945412209097086  0.1945423089163469  0.7516273416110693
  0.5945281782669909  0.2005903293825213  0.7557056308661885
  0.7291952129835764  0.2708047938767706  0.7550866953456463
  0.7971003551128035  0.2028996087646320  0.7504182260518348
  0.9310326182141822  0.2676953688858177  0.7484338720933579
  0.9992719885748969  0.4004213919184423  0.7487320339956014
  0.1340721077249540  0.4662659639079223  0.7486042989247821
  0.2007967466264304  0.3987211868602287  0.7498563444759725
  0.3339337433671474  0.4611945634645807  0.7555314646864986
  0.7994096352251532  0.4054718176510761  0.7557056324582661
  0.9325321053399591  0.4679376846152792  0.7500163841574476
  0.0023083284642880  0.6015703500059573  0.7467029110937489
  0.1349743354990949  0.6661570583861192  0.7454079732078540
  0.2023197185833467  0.5989752403247266  0.7482245967532180
  0.3362424524910423  0.6637575148105057  0.7501398354289464
  0.4041470612162144  0.5958528580771514  0.7548706866829562
  0.5388053732606650  0.6660660827844112  0.7555314615745843
  0.7387934461056176  0.6721565348319771  0.7515841343124450
  0.8054577095754283  0.6054587781891456  0.7516273399804803
  0.9366149392129444  0.6694931805873523  0.7447968162579457
  0.0016095232108100  0.8015962494847031  0.7398342394148187
  0.1341414243915153  0.8658585810963118  0.7394693489854305
  0.2007829551854670  0.7992170856566503  0.7428654501644232
  0.3338429569060821  0.8650256486682721  0.7454079750440883
  0.4010248074618659  0.7976802829486402  0.7482245978953870
  0.5337340622559452  0.8659277859868268  0.7486042973352554
  0.6012787932308754  0.7992030710762279  0.7498563319000269
  0.7349011987653853  0.8689860177439996  0.7466228719115122
  0.8028324989194289  0.8032944113556368  0.7447525605774317
  0.9349353515760512  0.8682926260559540  0.7398410736228058
  0.5235869449794137  0.2601191186751990  0.7630334146805779
  0.3934451393670599  0.3902705115266016  0.7629303877351674
  0.7398808744516856  0.4764130641643831  0.7630334194462094
  0.6097295016969042  0.6065547680526535  0.7629303895447919
  0.5666373876505304  0.4333625568087101  0.8004987225041802
 
  0.00000000E+00  0.00000000E+00  0.00000000E+00
  0.00000000E+00  0.00000000E+00  0.00000000E+00
  0.00000000E+00  0.00000000E+00  0.00000000E+00
  0.00000000E+00  0.00000000E+00  0.00000000E+00
  0.00000000E+00  0.00000000E+00  0.00000000E+00
  0.00000000E+00  0.00000000E+00  0.00000000E+00
  0.00000000E+00  0.00000000E+00  0.00000000E+00
  0.00000000E+00  0.00000000E+00  0.00000000E+00
  0.00000000E+00  0.00000000E+00  0.00000000E+00
  0.00000000E+00  0.00000000E+00  0.00000000E+00
  0.00000000E+00  0.00000000E+00  0.00000000E+00
  0.00000000E+00  0.00000000E+00  0.00000000E+00
  0.00000000E+00  0.00000000E+00  0.00000000E+00
  0.00000000E+00  0.00000000E+00  0.00000000E+00
  0.00000000E+00  0.00000000E+00  0.00000000E+00
  0.00000000E+00  0.00000000E+00  0.00000000E+00
  0.00000000E+00  0.00000000E+00  0.00000000E+00
  0.00000000E+00  0.00000000E+00  0.00000000E+00
  0.00000000E+00  0.00000000E+00  0.00000000E+00
  0.00000000E+00  0.00000000E+00  0.00000000E+00
  0.00000000E+00  0.00000000E+00  0.00000000E+00
  0.00000000E+00  0.00000000E+00  0.00000000E+00
  0.00000000E+00  0.00000000E+00  0.00000000E+00
  0.00000000E+00  0.00000000E+00  0.00000000E+00
  0.00000000E+00  0.00000000E+00  0.00000000E+00
  0.00000000E+00  0.00000000E+00  0.00000000E+00
  0.00000000E+00  0.00000000E+00  0.00000000E+00
  0.00000000E+00  0.00000000E+00  0.00000000E+00
  0.00000000E+00  0.00000000E+00  0.00000000E+00
  0.00000000E+00  0.00000000E+00  0.00000000E+00
  0.00000000E+00  0.00000000E+00  0.00000000E+00
  0.00000000E+00  0.00000000E+00  0.00000000E+00
  0.00000000E+00  0.00000000E+00  0.00000000E+00
  0.00000000E+00  0.00000000E+00  0.00000000E+00
  0.00000000E+00  0.00000000E+00  0.00000000E+00
  0.00000000E+00  0.00000000E+00  0.00000000E+00
  0.00000000E+00  0.00000000E+00  0.00000000E+00
  0.00000000E+00  0.00000000E+00  0.00000000E+00
  0.00000000E+00  0.00000000E+00  0.00000000E+00
  0.00000000E+00  0.00000000E+00  0.00000000E+00
  0.00000000E+00  0.00000000E+00  0.00000000E+00
  0.00000000E+00  0.00000000E+00  0.00000000E+00
  0.00000000E+00  0.00000000E+00  0.00000000E+00
  0.00000000E+00  0.00000000E+00  0.00000000E+00
  0.00000000E+00  0.00000000E+00  0.00000000E+00
  0.00000000E+00  0.00000000E+00  0.00000000E+00
  0.00000000E+00  0.00000000E+00  0.00000000E+00
  0.00000000E+00  0.00000000E+00  0.00000000E+00
  0.00000000E+00  0.00000000E+00  0.00000000E+00
