       N       E                     dE             d eps       ncg     rms          ort
SDA:   1    -0.338968221112E+03   -0.33897E+03    0.00000E+00  3328   0.140E+03 0.000E+00
CGA:   2    -0.411796756808E+03   -0.72829E+02   -0.70478E+02  3328   0.859E+02 0.636E+01
CGA:   3    -0.431656343344E+03   -0.19860E+02   -0.19817E+02  3328   0.374E+02 0.340E+01
CGA:   4    -0.441009819485E+03   -0.93535E+01   -0.93461E+01  3328   0.177E+02-0.522E-01
CGA:   5    -0.445115927185E+03   -0.41061E+01   -0.41100E+01  3328   0.701E+01-0.208E+00
CGA:   6    -0.446674784726E+03   -0.15589E+01   -0.15583E+01  3328   0.223E+01 0.264E-01
CGA:   7    -0.447256151984E+03   -0.58137E+00   -0.58186E+00  3328   0.772E+00-0.104E-01
CGA:   8    -0.447451404380E+03   -0.19525E+00   -0.19566E+00  3328   0.279E+00-0.781E-02
CGA:   9    -0.447518108599E+03   -0.66704E-01   -0.66834E-01  3328   0.129E+00-0.369E-02
CGA:  10    -0.447542949816E+03   -0.24841E-01   -0.24574E-01  3328   0.596E-01-0.303E-02
CGA:  11    -0.447557332042E+03   -0.14382E-01   -0.14369E-01  3328   0.197E-01 0.311E-03
CGA:  12    -0.447563881076E+03   -0.65490E-02   -0.65690E-02  3328   0.799E-02-0.155E-03
CGA:  13    -0.447566045087E+03   -0.21640E-02   -0.21609E-02  3328   0.477E-02 0.368E-04
CGA:  14    -0.447566868828E+03   -0.82374E-03   -0.82343E-03  3328   0.161E-02 0.654E-05
CGA:  15    -0.447567334743E+03   -0.46591E-03   -0.46636E-03  3328   0.476E-03-0.749E-05
CGA:  16    -0.447567477485E+03   -0.14274E-03   -0.14255E-03  3328   0.284E-03 0.292E-05
CGA:  17    -0.447567530240E+03   -0.52755E-04   -0.52597E-04  3328   0.123E-03-0.392E-05
CGA:  18    -0.447567566397E+03   -0.36157E-04   -0.36074E-04  3328   0.440E-04 0.129E-05
CGA:  19    -0.447567580547E+03   -0.14150E-04   -0.14282E-04  3328   0.298E-04-0.153E-05
CGA:  20    -0.447567585383E+03   -0.48357E-05   -0.49011E-05  3328   0.106E-04 0.974E-06
   1 F= -.44933423E+03 E0= -.44931241E+03  d E =-.436330E-01  mag=     2.2764
