 vasp.5.4.4.18Apr17-6-g9f103f2a35 (build Nov 21 2023 15:34:30) complex          
  
 executed on             LinuxIFC date 2026.09.23  20:20:22
 running on  256 total cores
 distrk:  each k-point on  256 cores,    1 groups
 distr:  one band on NCORES_PER_BAND=   1 cores,  256 groups


--------------------------------------------------------------------------------------------------------


 INCAR:
 POTCAR:   PAW_PBE C 08Apr2002                    
 POTCAR:   PAW_PBE N 08Apr2002                    
 POTCAR:   PAW_PBE Ta_pv 07Sep2000                

 ----------------------------------------------------------------------------- 
|                                                                             |
|           W    W    AA    RRRRR   N    N  II  N    N   GGGG   !!!           |
|           W    W   A  A   R    R  NN   N  II  NN   N  G    G  !!!           |
|           W    W  A    A  R    R  N N  N  II  N N  N  G       !!!           |
|           W WW W  AAAAAA  RRRRR   N  N N  II  N  N N  G  GGG   !            |
|           WW  WW  A    A  R   R   N   NN  II  N   NN  G    G                |
|           W    W  A    A  R    R  N    N  II  N    N   GGGG   !!!           |
|                                                                             |
|      For optimal performance we recommend to set                            |
|        NCORE= 4 - approx SQRT( number of cores)                             |
|      NCORE specifies how many cores store one orbital (NPAR=cpu/NCORE).     |
|      This setting can  greatly improve the performance of VASP for DFT.     |
|      The default,   NCORE=1            might be grossly inefficient         |
|      on modern multi-core architectures or massively parallel machines.     |
|      Do your own testing !!!!                                               |
|      Unfortunately you need to use the default for GW and RPA calculations. |
|      (for HF NCORE is supported but not extensively tested yet)             |
|                                                                             |
 ----------------------------------------------------------------------------- 

 POTCAR:   PAW_PBE C 08Apr2002                    
   VRHFIN =C: s2p2                                                              
   LEXCH  = PE                                                                  
   EATOM  =   147.1560 eV,   10.8157 Ry                                         
                                                                                
   TITEL  = PAW_PBE C 08Apr2002                                                 
   LULTRA =        F    use ultrasoft PP ?                                      
   IUNSCR =        0    unscreen: 0-lin 1-nonlin 2-no                           
   RPACOR =     .000    partial core radius                                     
   POMASS =   12.011; ZVAL   =    4.000    mass and valenz                      
   RCORE  =    1.500    outmost cutoff radius                                   
   RWIGS  =    1.630; RWIGS  =     .863    wigner-seitz radius (au A)           
   ENMAX  =  400.000; ENMIN  =  300.000 eV                                      
   ICORE  =        2    local potential                                         
   LCOR   =        T    correct aug charges                                     
   LPAW   =        T    paw PP                                                  
   EAUG   =  644.873                                                            
   DEXC   =     .000                                                            
   RMAX   =    2.266    core radius for proj-oper                               
   RAUG   =    1.300    factor for augmentation sphere                          
   RDEP   =    1.501    radius for radial grids                                 
   RDEPT  =    1.300    core radius for aug-charge                              
   QCUT   =   -5.516; QGAM   =   11.032    optimization parameters              
                                                                                
   Description                                                                  
     l     E      TYP  RCUT    TYP  RCUT                                        
     0   .000     23  1.200                                                     
     0   .000     23  1.200                                                     
     1   .000     23  1.500                                                     
     1  2.500     23  1.500                                                     
     2   .000      7  1.500                                                     
  local pseudopotential read in
  atomic valenz-charges read in
  non local Contribution for L=           0  read in
    real space projection operators read in
  non local Contribution for L=           0  read in
    real space projection operators read in
  non local Contribution for L=           1  read in
    real space projection operators read in
  non local Contribution for L=           1  read in
    real space projection operators read in
    PAW grid and wavefunctions read in
 
   number of l-projection  operators is LMAX  =           4
   number of lm-projection operators is LMMAX =           8
 
 POTCAR:   PAW_PBE N 08Apr2002                    
   VRHFIN =N: s2p3                                                              
   LEXCH  = PE                                                                  
   EATOM  =   264.5486 eV,   19.4438 Ry                                         
                                                                                
   TITEL  = PAW_PBE N 08Apr2002                                                 
   LULTRA =        F    use ultrasoft PP ?                                      
   IUNSCR =        0    unscreen: 0-lin 1-nonlin 2-no                           
   RPACOR =     .000    partial core radius                                     
   POMASS =   14.001; ZVAL   =    5.000    mass and valenz                      
   RCORE  =    1.500    outmost cutoff radius                                   
   RWIGS  =    1.400; RWIGS  =     .741    wigner-seitz radius (au A)           
   ENMAX  =  400.000; ENMIN  =  300.000 eV                                      
   ICORE  =        2    local potential                                         
   LCOR   =        T    correct aug charges                                     
   LPAW   =        T    paw PP                                                  
   EAUG   =  627.112                                                            
   DEXC   =     .000                                                            
   RMAX   =    2.247    core radius for proj-oper                               
   RAUG   =    1.300    factor for augmentation sphere                          
   RDEP   =    1.514    radius for radial grids                                 
   QCUT   =   -5.562; QGAM   =   11.124    optimization parameters              
                                                                                
   Description                                                                  
     l     E      TYP  RCUT    TYP  RCUT                                        
     0   .000     23  1.200                                                     
     0   .000     23  1.200                                                     
     1   .000     23  1.500                                                     
     1   .700     23  1.500                                                     
     2   .000      7  1.500                                                     
  local pseudopotential read in
  atomic valenz-charges read in
  non local Contribution for L=           0  read in
    real space projection operators read in
  non local Contribution for L=           0  read in
    real space projection operators read in
  non local Contribution for L=           1  read in
    real space projection operators read in
  non local Contribution for L=           1  read in
    real space projection operators read in
    PAW grid and wavefunctions read in
 
   number of l-projection  operators is LMAX  =           4
   number of lm-projection operators is LMMAX =           8
 
 POTCAR:   PAW_PBE Ta_pv 07Sep2000                
   VRHFIN =Ta:  5p6s5d                                                          
   LEXCH  = PE                                                                  
   EATOM  =  1045.8051 eV,   76.8645 Ry                                         
                                                                                
   TITEL  = PAW_PBE Ta_pv 07Sep2000                                             
   LULTRA =        F    use ultrasoft PP ?                                      
   IUNSCR =        1    unscreen: 0-lin 1-nonlin 2-no                           
   RPACOR =    2.330    partial core radius                                     
   POMASS =  180.948; ZVAL   =   11.000    mass and valenz                      
   RCORE  =    2.500    outmost cutoff radius                                   
   RWIGS  =    2.840; RWIGS  =    1.503    wigner-seitz radius (au A)           
   ENMAX  =  223.675; ENMIN  =  167.756 eV                                      
   RCLOC  =    2.205    cutoff for local pot                                    
   LCOR   =        T    correct aug charges                                     
   LPAW   =        T    paw PP                                                  
   EAUG   =  377.421                                                            
   DEXC   =    -.043                                                            
   RMAX   =    3.083    core radius for proj-oper                               
   RAUG   =    1.300    factor for augmentation sphere                          
   RDEP   =    2.526    radius for radial grids                                 
   QCUT   =   -4.055; QGAM   =    8.109    optimization parameters              
                                                                                
   Description                                                                  
     l     E      TYP  RCUT    TYP  RCUT                                        
     1   .000     23  2.500                                                     
     1   .100     23  2.500                                                     
     2   .000     23  2.500                                                     
     2   .000     23  2.500                                                     
     0   .000     23  2.500                                                     
     0   .000     23  2.500                                                     
     3   .000      7   .000                                                     
  local pseudopotential read in
  partial core-charges read in
  atomic valenz-charges read in
  non local Contribution for L=           1  read in
    real space projection operators read in
  non local Contribution for L=           1  read in
    real space projection operators read in
  non local Contribution for L=           2  read in
    real space projection operators read in
  non local Contribution for L=           2  read in
    real space projection operators read in
  non local Contribution for L=           0  read in
    real space projection operators read in
  non local Contribution for L=           0  read in
    real space projection operators read in
    PAW grid and wavefunctions read in
 
   number of l-projection  operators is LMAX  =           6
   number of lm-projection operators is LMMAX =          18
 

 ----------------------------------------------------------------------------- 
|                                                                             |
|  ADVICE TO THIS USER RUNNING 'VASP/VAMP'   (HEAR YOUR MASTER'S VOICE ...):  |
|                                                                             |
|      You have a (more or less) 'large supercell' and for larger cells       |
|      it might be more efficient to use real space projection operators      |
|      So try LREAL= Auto  in the INCAR   file.                               |
|      Mind: If you want to do a very accurate calculations keep the          |
|      reciprocal projection scheme          (i.e. LREAL=.FALSE.)             |
|                                                                             |
 ----------------------------------------------------------------------------- 

 PAW_PBE C 08Apr2002                    :
 energy of atom  1       EATOM= -147.1560
 kinetic energy error for atom=    0.0071 (will be added to EATOM!!)
 PAW_PBE N 08Apr2002                    :
 energy of atom  2       EATOM= -264.5486
 kinetic energy error for atom=    0.0125 (will be added to EATOM!!)
 PAW_PBE Ta_pv 07Sep2000                :
 energy of atom  3       EATOM=-1045.8051
 kinetic energy error for atom=    0.0016 (will be added to EATOM!!)
 
 
 POSCAR: C  N  Ta                                
  positions in direct lattice
  velocities in cartesian coordinates
 exchange correlation table for  LEXCH =        8
   RHO(1)=    0.500       N(1)  =     2000
   RHO(2)=  100.500       N(2)  =     4000

 VTST: version 3.2, (02/03/18)

 CHAIN: initializing optimizer
 
 OPT: Using VASP Dynamics algorithm
 CHAIN: Read ICHAIN            0
 
 POSCAR: C  N  Ta                                
  positions in direct lattice
  velocities in cartesian coordinates
 


--------------------------------------------------------------------------------------------------------


 ion  position               nearest neighbor table
   1  0.999  0.001  0.739-   2 1.41  44 1.41  10 1.42
   2  0.132  0.065  0.740-  13 1.41   1 1.41   3 1.42
   3  0.198  0.998  0.740-   4 1.41  36 1.41   2 1.42
   4  0.331  0.063  0.745-  15 1.40   3 1.41   5 1.42
   5  0.398  0.998  0.747-  38 1.41   4 1.42   6 1.43
   6  0.532  0.067  0.750-  16 1.42   5 1.43   7 1.43
   7  0.600  0.001  0.749-   8 1.41   6 1.43  40 1.44
   8  0.732  0.069  0.748-   7 1.41  18 1.43   9 1.43
   9  0.799  0.002  0.745-  42 1.41  10 1.42   8 1.43
  10  0.933  0.067  0.743-  11 1.42   9 1.42   1 1.42
  11  0.998  0.201  0.745-  12 1.41  10 1.42  19 1.43
  12  0.131  0.265  0.747-  11 1.41  13 1.42  22 1.43
  13  0.197  0.197  0.745-  14 1.40   2 1.41  12 1.42
  14  0.328  0.261  0.752-  46 1.39  13 1.40  15 1.42  49 2.80
  15  0.395  0.195  0.752-  45 1.39   4 1.40  14 1.42  49 2.80
  16  0.595  0.201  0.756-  45 1.40   6 1.42  17 1.43
  17  0.729  0.271  0.755-  24 1.43  16 1.43  18 1.45
  18  0.797  0.203  0.750-   8 1.43  19 1.43  17 1.45
  19  0.931  0.268  0.748-  20 1.41  18 1.43  11 1.43
  20  0.999  0.400  0.749-  19 1.41  25 1.43  21 1.44
  21  0.134  0.466  0.749-  28 1.41  22 1.43  20 1.44
  22  0.201  0.399  0.750-  23 1.42  12 1.43  21 1.43
  23  0.334  0.461  0.756-  46 1.40  22 1.42  30 1.43
  24  0.799  0.405  0.756-  47 1.40  25 1.42  17 1.43
  25  0.933  0.468  0.750-  24 1.42  26 1.43  20 1.43
  26  0.002  0.602  0.747-  27 1.41  34 1.42  25 1.43
  27  0.135  0.666  0.745-  26 1.41  37 1.42  28 1.43
  28  0.202  0.599  0.748-  21 1.41  29 1.43  27 1.43
  29  0.336  0.664  0.750-  28 1.43  39 1.43  30 1.45
  30  0.404  0.596  0.755-  23 1.43  31 1.43  29 1.45
  31  0.539  0.666  0.756-  48 1.40  41 1.42  30 1.43
  32  0.739  0.672  0.752-  48 1.39  43 1.40  33 1.42  49 2.80
  33  0.805  0.605  0.752-  47 1.39  34 1.40  32 1.42  49 2.80
  34  0.937  0.669  0.745-  33 1.40  35 1.41  26 1.42
  35  0.002  0.802  0.740-  34 1.41  36 1.41  44 1.42
  36  0.134  0.866  0.739-  35 1.41   3 1.41  37 1.42
  37  0.201  0.799  0.743-  38 1.42  27 1.42  36 1.42
  38  0.334  0.865  0.745-   5 1.41  37 1.42  39 1.43
  39  0.401  0.798  0.748-  40 1.41  29 1.43  38 1.43
  40  0.534  0.866  0.749-  39 1.41  41 1.43   7 1.44
  41  0.601  0.799  0.750-  31 1.42  42 1.43  40 1.43
  42  0.735  0.869  0.747-   9 1.41  43 1.42  41 1.43
  43  0.803  0.803  0.745-  32 1.40  44 1.41  42 1.42
  44  0.935  0.868  0.740-  43 1.41   1 1.41  35 1.42
  45  0.524  0.260  0.763-  15 1.39  16 1.40  49 2.06
  46  0.393  0.390  0.763-  14 1.39  23 1.40  49 2.06
  47  0.740  0.476  0.763-  33 1.39  24 1.40  49 2.06
  48  0.610  0.607  0.763-  32 1.39  31 1.40  49 2.06
  49  0.567  0.433  0.800-  45 2.06  47 2.06  48 2.06  46 2.06  15 2.80  33 2.80  14 2.80  32 2.80

 

IMPORTANT INFORMATION: All symmetrisations will be switched off!
NOSYMM: (Re-)initialisation of all symmetry stuff for point group C_1.

 
 
 KPOINTS: K-POINTS                                

Automatic generation of k-mesh.
Space group operators:
 irot       det(A)        alpha          n_x          n_y          n_z        tau_x        tau_y        tau_z
    1     1.000000     0.000000     1.000000     0.000000     0.000000     0.000000     0.000000     0.000000
 
 Subroutine IBZKPT returns following result:
 ===========================================
 
 Found     13 irreducible k-points:
 
 Following reciprocal coordinates:
            Coordinates               Weight
  0.000000  0.000000  0.000000      1.000000
  0.200000  0.000000  0.000000      2.000000
  0.400000  0.000000  0.000000      2.000000
  0.000000  0.200000  0.000000      2.000000
  0.200000  0.200000  0.000000      2.000000
  0.400000  0.200000  0.000000      2.000000
 -0.400000  0.200000  0.000000      2.000000
 -0.200000  0.200000  0.000000      2.000000
  0.000000  0.400000  0.000000      2.000000
  0.200000  0.400000  0.000000      2.000000
  0.400000  0.400000  0.000000      2.000000
 -0.400000  0.400000  0.000000      2.000000
 -0.200000  0.400000  0.000000      2.000000
 
 Following cartesian coordinates:
            Coordinates               Weight
  0.000000  0.000000  0.000000      1.000000
  0.016260  0.009388  0.000000      2.000000
  0.032520  0.018776  0.000000      2.000000
  0.000000  0.018776  0.000000      2.000000
  0.016260  0.028163  0.000000      2.000000
  0.032520  0.037551  0.000000      2.000000
 -0.032520  0.000000  0.000000      2.000000
 -0.016260  0.009388  0.000000      2.000000
  0.000000  0.037551  0.000000      2.000000
  0.016260  0.046939  0.000000      2.000000
  0.032520  0.056327  0.000000      2.000000
 -0.032520  0.018776  0.000000      2.000000
 -0.016260  0.028163  0.000000      2.000000
 


--------------------------------------------------------------------------------------------------------




 Dimension of arrays:
   k-points           NKPTS =     13   k-points in BZ     NKDIM =     13   number of bands    NBANDS=    256
   number of dos      NEDOS =    301   number of ions     NIONS =     49
   non local maximal  LDIM  =      6   non local SUM 2l+1 LMDIM =     18
   total plane-waves  NPLWV = ******
   max r-space proj   IRMAX =      1   max aug-charges    IRDMAX=  29834
   dimension x,y,z NGX =    96 NGY =   96 NGZ =  150
   dimension x,y,z NGXF=   192 NGYF=  192 NGZF=  300
   support grid    NGXF=   192 NGYF=  192 NGZF=  300
   ions per type =              44   4   1
   NGX,Y,Z   is equivalent  to a cutoff of  12.98, 12.98, 12.47 a.u.
   NGXF,Y,Z  is equivalent  to a cutoff of  25.95, 25.95, 24.94 a.u.

 SYSTEM =  Ta-N-C                                  
 POSCAR =  C  N  Ta                                

 Startparameter for this run:
   NWRITE =      2    write-flag & timer
   PREC   = accura    normal or accurate (medium, high low for compatibility)
   ISTART =      1    job   : 0-new  1-cont  2-samecut
   ICHARG =      1    charge: 1-file 2-atom 10-const
   ISPIN  =      2    spin polarized calculation?
   LNONCOLLINEAR =      F non collinear calculations
   LSORBIT =      F    spin-orbit coupling
   INIWAV =      1    electr: 0-lowe 1-rand  2-diag
   LASPH  =      T    aspherical Exc in radial PAW
   METAGGA=      F    non-selfconsistent MetaGGA calc.

 Electronic Relaxation 1
   ENCUT  =  520.0 eV  38.22 Ry    6.18 a.u.  22.87 22.87 37.19*2*pi/ulx,y,z
   ENINI  =  520.0     initial cutoff
   ENAUG  =  644.9 eV  augmentation charge cutoff
   NELM   =    500;   NELMIN=  2; NELMDL=  0     # of ELM steps 
   EDIFF  = 0.1E-04   stopping-criterion for ELM
   LREAL  =      F    real-space projection
   NLSPLINE    = F    spline interpolate recip. space projectors
   LCOMPAT=      F    compatible to vasp.4.4
   GGA_COMPAT  = T    GGA compatible to vasp.4.4-vasp.4.6
   LMAXPAW     = -100 max onsite density
   LMAXMIX     =    2 max onsite mixed and CHGCAR
   VOSKOWN=      0    Vosko Wilk Nusair interpolation
   ROPT   =    0.00000   0.00000   0.00000
 Ionic relaxation
   EDIFFG = 0.1E-03   stopping-criterion for IOM
   NSW    =      0    number of steps for IOM
   NBLOCK =      1;   KBLOCK =      1    inner block; outer block 
   IBRION =     -1    ionic relax: 0-MD 1-quasi-New 2-CG
   NFREE  =      0    steps in history (QN), initial steepest desc. (CG)
   ISIF   =      2    stress and relaxation
   IWAVPR =     10    prediction:  0-non 1-charg 2-wave 3-comb
   ISYM   =      0    0-nonsym 1-usesym 2-fastsym
   LCORR  =      T    Harris-Foulkes like correction to forces

   POTIM  = 0.5000    time-step for ionic-motion
   TEIN   =    0.0    initial temperature
   TEBEG  =    0.0;   TEEND  =   0.0 temperature during run
   SMASS  =  -3.00    Nose mass-parameter (am)
   estimated Nose-frequenzy (Omega)   =  0.10E-29 period in steps =****** mass=  -0.346E-26a.u.
   SCALEE = 1.0000    scale energy and forces
   NPACO  =    256;   APACO  = 16.0  distance and # of slots for P.C.
   PSTRESS=    0.0 pullay stress

  Mass of Ions in am
   POMASS =  12.01 14.00180.95
  Ionic Valenz
   ZVAL   =   4.00  5.00 11.00
  Atomic Wigner-Seitz radii
   RWIGS  =  -1.00 -1.00 -1.00
  virtual crystal weights 
   VCA    =   1.00  1.00  1.00
   NELECT =     207.0000    total number of electrons
   NUPDOWN=      -1.0000    fix difference up-down

 DOS related values:
   EMIN   =  10.00;   EMAX   =-10.00  energy-range for DOS
   EFERMI =   0.00
   ISMEAR =     0;   SIGMA  =   0.10  broadening in eV -4-tet -1-fermi 0-gaus

 Electronic relaxation 2 (details)
   IALGO  =     58    algorithm
   LDIAG  =      T    sub-space diagonalisation (order eigenvalues)
   LSUBROT=      F    optimize rotation matrix (better conditioning)
   TURBO    =      0    0=normal 1=particle mesh
   IRESTART =      0    0=no restart 2=restart with 2 vectors
   NREBOOT  =      0    no. of reboots
   NMIN     =      0    reboot dimension
   EREF     =   0.00    reference energy to select bands
   IMIX   =      4    mixing-type and parameters
     AMIX     =   0.40;   BMIX     =  1.00
     AMIX_MAG =   1.60;   BMIX_MAG =  1.00
     AMIN     =   0.10
     WC   =   100.;   INIMIX=   1;  MIXPRE=   1;  MAXMIX= -45

 Intra band minimization:
   WEIMIN = 0.0000     energy-eigenvalue tresh-hold
   EBREAK =  0.98E-08  absolut break condition
   DEPER  =   0.30     relativ break condition  

   TIME   =   0.40     timestep for ELM

  volume/ion in A,a.u.               =      53.48       360.89
  Fermi-wavevector in a.u.,A,eV,Ry     =   0.702438  1.327415  6.713375  0.493419
  Thomas-Fermi vector in A             =   1.787137
 
 Write flags
   LWAVE        =      T    write WAVECAR
   LDOWNSAMPLE  =      F    k-point downsampling of WAVECAR
   LCHARG       =      T    write CHGCAR
   LVTOT        =      F    write LOCPOT, total local potential
   LVHAR        =      F    write LOCPOT, Hartree potential only
   LELF         =      F    write electronic localiz. function (ELF)
   LORBIT       =      0    0 simple, 1 ext, 2 COOP (PROOUT), +10 PAW based schemes


 Dipole corrections
   LMONO  =      F    monopole corrections only (constant potential shift)
   LDIPOL =      F    correct potential (dipole corrections)
   IDIPOL =      0    1-x, 2-y, 3-z, 4-all directions 
   EPSILON=  1.0000000 bulk dielectric constant

 Exchange correlation treatment:
   GGA     =    --    GGA type
   LEXCH   =     8    internal setting for exchange type
   VOSKOWN=      0    Vosko Wilk Nusair interpolation
   LHFCALC =     F    Hartree Fock is set to
   LHFONE  =     F    Hartree Fock one center treatment
   AEXX    =    0.0000 exact exchange contribution

 Linear response parameters
   LEPSILON=     F    determine dielectric tensor
   LRPA    =     F    only Hartree local field effects (RPA)
   LNABLA  =     F    use nabla operator in PAW spheres
   LVEL    =     F    velocity operator in full k-point grid
   LINTERFAST=   F  fast interpolation
   KINTER  =     0    interpolate to denser k-point grid
   CSHIFT  =0.1000    complex shift for real part using Kramers Kronig
   OMEGAMAX=  -1.0    maximum frequency
   DEG_THRESHOLD= 0.2000000E-02 threshold for treating states as degnerate
   RTIME   =   -0.100 relaxation time in fs
  (WPLASMAI=    0.000 imaginary part of plasma frequency in eV, 0.658/RTIME)
   DFIELD  = 0.0000000 0.0000000 0.0000000 field for delta impulse in time
 
 Orbital magnetization related:
   ORBITALMAG=     F  switch on orbital magnetization
   LCHIMAG   =     F  perturbation theory with respect to B field
   DQ        =  0.001000  dq finite difference perturbation B field
   LLRAUG    =     F  two centre corrections for induced B field



--------------------------------------------------------------------------------------------------------


 Static calculation
 charge density and potential will be updated during run
 spin polarized calculation
 Conjugate gradient for all bands (Freysoldt, et al. PRB 79, 241103 (2009))
 preconditioned conjugated gradient                                        
 perform sub-space diagonalisation
    before iterative eigenvector-optimisation
 modified Broyden-mixing scheme, WC =      100.0
 initial mixing is a Kerker type mixing with AMIX =  0.4000 and BMIX =      1.0000
 Hartree-type preconditioning will be used
 using additional bands          152
 reciprocal scheme for non local part
 use partial core corrections
 no Harris-corrections to forces 
 use gradient corrections 
 use of overlap-Matrix (Vanderbilt PP)
 Gauss-broadening in eV      SIGMA  =   0.10


--------------------------------------------------------------------------------------------------------


  energy-cutoff  :      520.00
  volume of cell :     2620.42
      direct lattice vectors                 reciprocal lattice vectors
    12.300000000  0.000000000  0.000000000     0.081300813  0.046939046  0.000000000
    -6.150000000 10.652112467  0.000000000     0.000000000  0.093878093  0.000000000
     0.000000000  0.000000000 20.000000000     0.000000000  0.000000000  0.050000000

  length of vectors
    12.300000000 12.300000000 20.000000000     0.093878093  0.093878093  0.050000000


 
 old parameters found on file WAVECAR:
  energy-cutoff  :      520.00
  volume of cell :     2620.42
      direct lattice vectors                 reciprocal lattice vectors
    12.300000000  0.000000000  0.000000000     0.081300813  0.046939046  0.000000000
    -6.150000000 10.652112467  0.000000000     0.000000000  0.093878093  0.000000000
     0.000000000  0.000000000 20.000000000     0.000000000  0.000000000  0.050000000

  length of vectors

 
 k-points in units of 2pi/SCALE and weight: K-POINTS                                
   0.00000000  0.00000000  0.00000000       0.040
   0.01626016  0.00938781  0.00000000       0.080
   0.03252033  0.01877562  0.00000000       0.080
   0.00000000  0.01877562  0.00000000       0.080
   0.01626016  0.02816343  0.00000000       0.080
   0.03252033  0.03755124  0.00000000       0.080
  -0.03252033  0.00000000  0.00000000       0.080
  -0.01626016  0.00938781  0.00000000       0.080
   0.00000000  0.03755124  0.00000000       0.080
   0.01626016  0.04693905  0.00000000       0.080
   0.03252033  0.05632686  0.00000000       0.080
  -0.03252033  0.01877562  0.00000000       0.080
  -0.01626016  0.02816343  0.00000000       0.080
 
 k-points in reciprocal lattice and weights: K-POINTS                                
   0.00000000  0.00000000  0.00000000       0.040
   0.20000000  0.00000000  0.00000000       0.080
   0.40000000  0.00000000  0.00000000       0.080
   0.00000000  0.20000000  0.00000000       0.080
   0.20000000  0.20000000  0.00000000       0.080
   0.40000000  0.20000000  0.00000000       0.080
  -0.40000000  0.20000000  0.00000000       0.080
  -0.20000000  0.20000000  0.00000000       0.080
   0.00000000  0.40000000  0.00000000       0.080
   0.20000000  0.40000000  0.00000000       0.080
   0.40000000  0.40000000  0.00000000       0.080
  -0.40000000  0.40000000  0.00000000       0.080
  -0.20000000  0.40000000  0.00000000       0.080
 
 position of ions in fractional coordinates (direct lattice) 
   0.99920125  0.00079876  0.73949336
   0.13170737  0.06506467  0.73984107
   0.19840376  0.99839049  0.73983424
   0.33050681  0.06338506  0.74479682
   0.39842967  0.99769167  0.74670291
   0.53206233  0.06746786  0.75001639
   0.59957860  0.00072793  0.74873204
   0.73230464  0.06896736  0.74843387
   0.79948949  0.00164570  0.74540544
   0.93255023  0.06744974  0.74287110
   0.99835425  0.20051047  0.74540544
   0.13101389  0.26509879  0.74662287
   0.19670559  0.19716753  0.74475256
   0.32784344  0.26120657  0.75158414
   0.39454122  0.19454231  0.75162734
   0.59452818  0.20059033  0.75570563
   0.72919521  0.27080479  0.75508670
   0.79710036  0.20289961  0.75041823
   0.93103262  0.26769537  0.74843387
   0.99927199  0.40042139  0.74873203
   0.13407211  0.46626596  0.74860430
   0.20079675  0.39872119  0.74985634
   0.33393374  0.46119456  0.75553146
   0.79940964  0.40547182  0.75570563
   0.93253211  0.46793768  0.75001638
   0.00230833  0.60157035  0.74670291
   0.13497434  0.66615706  0.74540797
   0.20231972  0.59897524  0.74822460
   0.33624245  0.66375751  0.75013984
   0.40414706  0.59585286  0.75487069
   0.53880537  0.66606608  0.75553146
   0.73879345  0.67215653  0.75158413
   0.80545771  0.60545878  0.75162734
   0.93661494  0.66949318  0.74479682
   0.00160952  0.80159625  0.73983424
   0.13414142  0.86585858  0.73946935
   0.20078296  0.79921709  0.74286545
   0.33384296  0.86502565  0.74540798
   0.40102481  0.79768028  0.74822460
   0.53373406  0.86592779  0.74860430
   0.60127879  0.79920307  0.74985633
   0.73490120  0.86898602  0.74662287
   0.80283250  0.80329441  0.74475256
   0.93493535  0.86829263  0.73984107
   0.52358694  0.26011912  0.76303341
   0.39344514  0.39027051  0.76293039
   0.73988087  0.47641306  0.76303342
   0.60972950  0.60655477  0.76293039
   0.56663739  0.43336256  0.80049872
 
 position of ions in cartesian coordinates  (Angst):
  12.28526301  0.00850847 14.78986722
   1.21985292  0.69307616 14.79682146
  -3.69973532 10.63496784 14.79668477
   3.67541566  0.67518482 14.89593631
  -1.23511885 10.62752386 14.93405823
   6.12943930  0.71867523 15.00032771
   7.37033999  0.00775404 14.97464072
   8.58319780  0.73464805 14.96867743
   9.82359964  0.01753016 14.90810874
  11.05555190  0.71848225 14.85742207
  11.04661789  2.13586004 14.90810872
  -0.01888668  2.82386217 14.93245748
   1.20689840  2.10025070 14.89505120
   2.42605386  2.78240175 15.03168271
   3.65642182  2.07228655 15.03254683
   6.07906607  2.13671075 15.11411262
   7.30365164  2.88464312 15.10173391
   8.55650177  2.16130945 15.00836452
   9.80537469  2.85152118 14.96867744
   9.82845390  4.26533370 14.97464068
  -1.21844875  4.96671749 14.97208598
   0.01766468  4.24722293 14.99712689
   1.27103848  4.91269636 15.11062929
   7.33908683  4.31913140 15.11411265
   8.59232814  4.98452484 15.00032768
  -3.67126521  6.40799502 14.93405822
  -2.43668158  7.09597991 14.90815946
  -1.19516519  6.38035162 14.96449194
   0.05367345  7.07041970 15.00279671
   1.30651378  6.34709166 15.09741373
   2.53099968  7.09501082 15.11062923
   4.95339670  7.15988700 15.03168269
   6.18355834  6.44941500 15.03254680
   7.40298069  7.13151666 14.89593633
  -4.91001980  8.53869340 14.79668479
  -3.67509075  9.22322299 14.78938698
  -2.44555473  8.51335028 14.85730900
  -1.21363937  9.21435050 14.90815950
   0.02687139  8.49698009 14.96449196
   1.23947308  9.22396016 14.97208595
   2.48063027  8.51320100 14.99712664
   3.69502074  9.25653679 14.93245744
   4.93457911  8.55678241 14.89505121
   6.15970517  9.24915071 14.79682147
   4.84038684  2.77081811 15.26066829
   2.43921157  4.15720538 15.25860775
   6.17059441  5.07480554 15.26066839
   3.76936105  6.46108961 15.25860779
   4.30446014  4.61622669 16.00997445
 


--------------------------------------------------------------------------------------------------------


 k-point  1 :   0.0000 0.0000 0.0000  plane waves:   70503
 k-point  2 :   0.2000 0.0000 0.0000  plane waves:   70568
 k-point  3 :   0.4000 0.0000 0.0000  plane waves:   70572
 k-point  4 :   0.0000 0.2000 0.0000  plane waves:   70568
 k-point  5 :   0.2000 0.2000 0.0000  plane waves:   70519
 k-point  6 :   0.4000 0.2000 0.0000  plane waves:   70609
 k-point  7 :  -0.4000 0.2000 0.0000  plane waves:   70519
 k-point  8 :  -0.2000 0.2000 0.0000  plane waves:   70568
 k-point  9 :   0.0000 0.4000 0.0000  plane waves:   70572
 k-point 10 :   0.2000 0.4000 0.0000  plane waves:   70609
 k-point 11 :   0.4000 0.4000 0.0000  plane waves:   70609
 k-point 12 :  -0.4000 0.4000 0.0000  plane waves:   70572
 k-point 13 :  -0.2000 0.4000 0.0000  plane waves:   70519

 maximum and minimum number of plane-waves per node :     70609    70503

 maximum number of plane-waves:     70609
 maximum index in each direction: 
   IXMAX=   23   IYMAX=   22   IZMAX=   37
   IXMIN=  -23   IYMIN=  -23   IZMIN=  -37


 serial   3D FFT for wavefunctions
 parallel 3D FFT for charge:
    minimum data exchange during FFTs selected (reduces bandwidth)


 total amount of memory used by VASP MPI-rank0   696067. kBytes
=======================================================================

   base      :      30000. kBytes
   nonl-proj :     452198. kBytes
   fftplans  :       7547. kBytes
   grid      :     115983. kBytes
   one-center:       1524. kBytes
   wavefun   :      88815. kBytes
 
     INWAV:  cpu time   62.0089: real time   62.1682
 Broyden mixing: mesh for mixing (old mesh)
   NGX = 45   NGY = 45   NGZ = 75
  (NGX  =192   NGY  =192   NGZ  =300)
  gives a total of 151875 points

 initial charge density was supplied:
 number of electron     206.9999995 magnetization       2.3660753
 charge density for first step will be calculated from the start-wavefunctions


--------------------------------------------------------------------------------------------------------


 Maximum index for augmentation-charges          361 (set IRDMAX)


--------------------------------------------------------------------------------------------------------


 initial charge from wavefunction
 First call to EWALD:  gamma=   0.129
 Maximum number of real-space cells 3x 3x 2
 Maximum number of reciprocal cells 3x 3x 4

    FEWALD:  cpu time    0.0194: real time    0.0195


--------------------------------------- Iteration      1(   1)  ---------------------------------------


    POTLOK:  cpu time    2.3661: real time    2.4382
    SETDIJ:  cpu time    0.4154: real time    0.4457
    TRIAL :  cpu time   60.9996: real time   63.8973
    CORREC:  cpu time   27.4149: real time   28.6743
    CHARGE:  cpu time    3.3624: real time    3.3748
    --------------------------------------------
      LOOP:  cpu time   94.6393: real time   98.9343

 eigenvalue-minimisations  :     0
 total energy-change (2. order) :-0.3389682E+03  (-0.7047830E+02)
 number of electron     206.9999995 magnetization       1.6153271
 augmentation part        8.3976375 magnetization       0.1401995

 Free energy of the ion-electron system (eV)
  ---------------------------------------------------
  alpha Z        PSCENC =        94.07109648
  Ewald energy   TEWEN  =     34019.34113524
  -Hartree energ DENC   =    -41216.81645490
  -exchange      EXHF   =         0.00000000
  -V(xc)+E(xc)   XCENC  =       738.77871260
  PAW double counting   =      4336.91755883    -4386.62416576
  entropy T*S    EENTRO =        -0.01620051
  eigenvalues    EBANDS =     -2503.07437055
  atomic energy  EATOM  =      8578.49904294
  ---------------------------------------------------
  free energy    TOTEN  =      -338.96822111 eV

  energy without entropy =     -338.95202060  energy(sigma->0) =     -338.96012086


--------------------------------------------------------------------------------------------------------




--------------------------------------- Iteration      1(   2)  ---------------------------------------


    POTLOK:  cpu time    2.3397: real time    2.3405
    SETDIJ:  cpu time    0.4365: real time    0.4367
    TRIAL :  cpu time   61.7445: real time   63.0441
    CORREC:  cpu time   27.8698: real time   29.0721
    CHARGE:  cpu time    3.2624: real time    3.2677
    --------------------------------------------
      LOOP:  cpu time   95.7639: real time   98.2863

 eigenvalue-minimisations  :     0
 total energy-change (2. order) :-0.7282854E+02  (-0.1981688E+02)
 number of electron     206.9999995 magnetization       1.8916279
 augmentation part        8.5330238 magnetization       0.1870653

 Free energy of the ion-electron system (eV)
  ---------------------------------------------------
  alpha Z        PSCENC =        94.07109648
  Ewald energy   TEWEN  =     34019.34113524
  -Hartree energ DENC   =    -41068.51191640
  -exchange      EXHF   =         0.00000000
  -V(xc)+E(xc)   XCENC  =       735.22887129
  PAW double counting   =      4261.82176292    -4311.66245832
  entropy T*S    EENTRO =        -0.01492136
  eigenvalues    EBANDS =     -2720.56809044
  atomic energy  EATOM  =      8578.49904294
  ---------------------------------------------------
  free energy    TOTEN  =      -411.79675681 eV

  energy without entropy =     -411.78183544  energy(sigma->0) =     -411.78929613


--------------------------------------------------------------------------------------------------------




--------------------------------------- Iteration      1(   3)  ---------------------------------------


    POTLOK:  cpu time    2.4050: real time    2.4057
    SETDIJ:  cpu time    0.4320: real time    0.4321
    TRIAL :  cpu time   61.7312: real time   63.1474
    CORREC:  cpu time   27.2279: real time   28.5521
    CHARGE:  cpu time    3.3064: real time    3.3089
    --------------------------------------------
      LOOP:  cpu time   95.1901: real time   97.9338

 eigenvalue-minimisations  :     0
 total energy-change (2. order) :-0.1985959E+02  (-0.9346127E+01)
 number of electron     206.9999995 magnetization       1.8698762
 augmentation part        8.4999388 magnetization       0.1786405

 Free energy of the ion-electron system (eV)
  ---------------------------------------------------
  alpha Z        PSCENC =        94.07109648
  Ewald energy   TEWEN  =     34019.34113524
  -Hartree energ DENC   =    -41180.95427985
  -exchange      EXHF   =         0.00000000
  -V(xc)+E(xc)   XCENC  =       737.69447578
  PAW double counting   =      4335.89045224    -4384.99685946
  entropy T*S    EENTRO =        -0.01755047
  eigenvalues    EBANDS =     -2631.18648535
  atomic energy  EATOM  =      8578.49904294
  ---------------------------------------------------
  free energy    TOTEN  =      -431.65634334 eV

  energy without entropy =     -431.63879288  energy(sigma->0) =     -431.64756811


--------------------------------------------------------------------------------------------------------




--------------------------------------- Iteration      1(   4)  ---------------------------------------


    POTLOK:  cpu time    2.4098: real time    2.4106
    SETDIJ:  cpu time    0.4464: real time    0.4553
    TRIAL :  cpu time   62.1144: real time   63.4033
    CORREC:  cpu time   27.5341: real time   28.7004
    CHARGE:  cpu time    3.2926: real time    3.2944
    --------------------------------------------
      LOOP:  cpu time   95.8197: real time   98.2879

 eigenvalue-minimisations  :     0
 total energy-change (2. order) :-0.9353476E+01  (-0.4109962E+01)
 number of electron     206.9999995 magnetization       1.8660092
 augmentation part        8.4972776 magnetization       0.1697826

 Free energy of the ion-electron system (eV)
  ---------------------------------------------------
  alpha Z        PSCENC =        94.07109648
  Ewald energy   TEWEN  =     34019.34113524
  -Hartree energ DENC   =    -41235.98505283
  -exchange      EXHF   =         0.00000000
  -V(xc)+E(xc)   XCENC  =       739.48707121
  PAW double counting   =      4361.82786569    -4411.20026586
  entropy T*S    EENTRO =        -0.02433504
  eigenvalues    EBANDS =     -2587.03316189
  atomic energy  EATOM  =      8578.49904294
  ---------------------------------------------------
  free energy    TOTEN  =      -441.00981949 eV

  energy without entropy =     -440.98548444  energy(sigma->0) =     -440.99765196


--------------------------------------------------------------------------------------------------------




--------------------------------------- Iteration      1(   5)  ---------------------------------------


    POTLOK:  cpu time    2.3974: real time    2.4007
    SETDIJ:  cpu time    0.4331: real time    0.4332
    TRIAL :  cpu time   61.6889: real time   63.0324
    CORREC:  cpu time   27.9734: real time   29.1599
    CHARGE:  cpu time    3.2968: real time    3.3007
    --------------------------------------------
      LOOP:  cpu time   95.8034: real time   98.3407

 eigenvalue-minimisations  :     0
 total energy-change (2. order) :-0.4106108E+01  (-0.1558304E+01)
 number of electron     206.9999995 magnetization       2.0201014
 augmentation part        8.5297691 magnetization       0.1891010

 Free energy of the ion-electron system (eV)
  ---------------------------------------------------
  alpha Z        PSCENC =        94.07109648
  Ewald energy   TEWEN  =     34019.34113524
  -Hartree energ DENC   =    -41227.83258760
  -exchange      EXHF   =         0.00000000
  -V(xc)+E(xc)   XCENC  =       739.34813990
  PAW double counting   =      4358.55150866    -4408.00176671
  entropy T*S    EENTRO =        -0.02683711
  eigenvalues    EBANDS =     -2599.06816105
  atomic energy  EATOM  =      8578.49904294
  ---------------------------------------------------
  free energy    TOTEN  =      -445.11592719 eV

  energy without entropy =     -445.08909007  energy(sigma->0) =     -445.10250863


--------------------------------------------------------------------------------------------------------




--------------------------------------- Iteration      1(   6)  ---------------------------------------


    POTLOK:  cpu time    2.4091: real time    2.4099
    SETDIJ:  cpu time    0.4335: real time    0.4336
    TRIAL :  cpu time   61.8053: real time   63.0440
    CORREC:  cpu time   27.2434: real time   28.4540
    CHARGE:  cpu time    3.3092: real time    3.3190
    --------------------------------------------
      LOOP:  cpu time   95.2150: real time   97.6758

 eigenvalue-minimisations  :     0
 total energy-change (2. order) :-0.1558858E+01  (-0.5818593E+00)
 number of electron     206.9999995 magnetization       2.0703574
 augmentation part        8.5288378 magnetization       0.1917319

 Free energy of the ion-electron system (eV)
  ---------------------------------------------------
  alpha Z        PSCENC =        94.07109648
  Ewald energy   TEWEN  =     34019.34113524
  -Hartree energ DENC   =    -41213.06299882
  -exchange      EXHF   =         0.00000000
  -V(xc)+E(xc)   XCENC  =       738.78118048
  PAW double counting   =      4363.61886463    -4412.89418484
  entropy T*S    EENTRO =        -0.03347950
  eigenvalues    EBANDS =     -2615.00208373
  atomic energy  EATOM  =      8578.49904294
  ---------------------------------------------------
  free energy    TOTEN  =      -446.67478473 eV

  energy without entropy =     -446.64130523  energy(sigma->0) =     -446.65804498


--------------------------------------------------------------------------------------------------------




--------------------------------------- Iteration      1(   7)  ---------------------------------------


    POTLOK:  cpu time    2.3334: real time    2.3567
    SETDIJ:  cpu time    0.4829: real time    0.4831
    TRIAL :  cpu time   62.0155: real time   63.4197
    CORREC:  cpu time   27.2126: real time   28.4243
    CHARGE:  cpu time    3.3058: real time    3.3075
    --------------------------------------------
      LOOP:  cpu time   95.3754: real time   98.0173

 eigenvalue-minimisations  :     0
 total energy-change (2. order) :-0.5813673E+00  (-0.1956638E+00)
 number of electron     206.9999995 magnetization       2.1026755
 augmentation part        8.5310916 magnetization       0.1931579

 Free energy of the ion-electron system (eV)
  ---------------------------------------------------
  alpha Z        PSCENC =        94.07109648
  Ewald energy   TEWEN  =     34019.34113524
  -Hartree energ DENC   =    -41212.12353237
  -exchange      EXHF   =         0.00000000
  -V(xc)+E(xc)   XCENC  =       738.71289675
  PAW double counting   =      4362.19214457    -4411.55004372
  entropy T*S    EENTRO =        -0.04063928
  eigenvalues    EBANDS =     -2616.36541237
  atomic energy  EATOM  =      8578.49904294
  ---------------------------------------------------
  free energy    TOTEN  =      -447.25615198 eV

  energy without entropy =     -447.21551270  energy(sigma->0) =     -447.23583234


--------------------------------------------------------------------------------------------------------




--------------------------------------- Iteration      1(   8)  ---------------------------------------


    POTLOK:  cpu time    2.3975: real time    2.3983
    SETDIJ:  cpu time    0.4298: real time    0.4299
    TRIAL :  cpu time   61.6244: real time   62.9939
    CORREC:  cpu time   27.4866: real time   28.7129
    CHARGE:  cpu time    3.2884: real time    3.2913
    --------------------------------------------
      LOOP:  cpu time   95.2448: real time   97.8443

 eigenvalue-minimisations  :     0
 total energy-change (2. order) :-0.1952524E+00  (-0.6683384E-01)
 number of electron     206.9999995 magnetization       2.2078667
 augmentation part        8.5409926 magnetization       0.2062526

 Free energy of the ion-electron system (eV)
  ---------------------------------------------------
  alpha Z        PSCENC =        94.07109648
  Ewald energy   TEWEN  =     34019.34113524
  -Hartree energ DENC   =    -41215.01478979
  -exchange      EXHF   =         0.00000000
  -V(xc)+E(xc)   XCENC  =       738.79048940
  PAW double counting   =      4362.24275590    -4411.67331568
  entropy T*S    EENTRO =        -0.04215003
  eigenvalues    EBANDS =     -2613.66717958
  atomic energy  EATOM  =      8578.49904294
  ---------------------------------------------------
  free energy    TOTEN  =      -447.45140438 eV

  energy without entropy =     -447.40925435  energy(sigma->0) =     -447.43032936


--------------------------------------------------------------------------------------------------------




--------------------------------------- Iteration      1(   9)  ---------------------------------------


    POTLOK:  cpu time    2.3725: real time    2.3736
    SETDIJ:  cpu time    0.4334: real time    0.4335
    TRIAL :  cpu time   62.5947: real time   63.9377
    CORREC:  cpu time   27.1938: real time   28.5202
    CHARGE:  cpu time    3.4185: real time    3.4198
    --------------------------------------------
      LOOP:  cpu time   96.0331: real time   98.7052

 eigenvalue-minimisations  :     0
 total energy-change (2. order) :-0.6670422E-01  (-0.2457407E-01)
 number of electron     206.9999995 magnetization       2.1765464
 augmentation part        8.5353892 magnetization       0.2007234

 Free energy of the ion-electron system (eV)
  ---------------------------------------------------
  alpha Z        PSCENC =        94.07109648
  Ewald energy   TEWEN  =     34019.34113524
  -Hartree energ DENC   =    -41216.66067908
  -exchange      EXHF   =         0.00000000
  -V(xc)+E(xc)   XCENC  =       738.80153430
  PAW double counting   =      4367.01415087    -4416.37632797
  entropy T*S    EENTRO =        -0.04612022
  eigenvalues    EBANDS =     -2612.16591135
  atomic energy  EATOM  =      8578.49904294
  ---------------------------------------------------
  free energy    TOTEN  =      -447.51810860 eV

  energy without entropy =     -447.47198837  energy(sigma->0) =     -447.49504849


--------------------------------------------------------------------------------------------------------




--------------------------------------- Iteration      1(  10)  ---------------------------------------


    POTLOK:  cpu time    2.4013: real time    2.4021
    SETDIJ:  cpu time    0.4323: real time    0.4324
    TRIAL :  cpu time   61.8191: real time   63.2485
    CORREC:  cpu time   30.5969: real time   31.8520
    CHARGE:  cpu time    3.3782: real time    3.3850
    --------------------------------------------
      LOOP:  cpu time   98.6492: real time  101.3415

 eigenvalue-minimisations  :     0
 total energy-change (2. order) :-0.2484122E-01  (-0.1436910E-01)
 number of electron     206.9999995 magnetization       2.2276454
 augmentation part        8.5384707 magnetization       0.2068037

 Free energy of the ion-electron system (eV)
  ---------------------------------------------------
  alpha Z        PSCENC =        94.07109648
  Ewald energy   TEWEN  =     34019.34113524
  -Hartree energ DENC   =    -41215.72063936
  -exchange      EXHF   =         0.00000000
  -V(xc)+E(xc)   XCENC  =       738.80790197
  PAW double counting   =      4363.48138642    -4412.90476643
  entropy T*S    EENTRO =        -0.04558536
  eigenvalues    EBANDS =     -2613.07198685
  atomic energy  EATOM  =      8578.49904294
  ---------------------------------------------------
  free energy    TOTEN  =      -447.54294982 eV

  energy without entropy =     -447.49736446  energy(sigma->0) =     -447.52015714


--------------------------------------------------------------------------------------------------------




--------------------------------------- Iteration      1(  11)  ---------------------------------------


    POTLOK:  cpu time    2.3612: real time    2.3635
    SETDIJ:  cpu time    0.4348: real time    0.4350
    TRIAL :  cpu time   61.7484: real time   63.1862
    CORREC:  cpu time   27.7049: real time   28.8811
    CHARGE:  cpu time    3.4407: real time    3.4422
    --------------------------------------------
      LOOP:  cpu time   95.7092: real time   98.3273

 eigenvalue-minimisations  :     0
 total energy-change (2. order) :-0.1438223E-01  (-0.6568968E-02)
 number of electron     206.9999995 magnetization       2.2357280
 augmentation part        8.5378421 magnetization       0.2070120

 Free energy of the ion-electron system (eV)
  ---------------------------------------------------
  alpha Z        PSCENC =        94.07109648
  Ewald energy   TEWEN  =     34019.34113524
  -Hartree energ DENC   =    -41216.02546094
  -exchange      EXHF   =         0.00000000
  -V(xc)+E(xc)   XCENC  =       738.80626131
  PAW double counting   =      4365.08362928    -4414.46601304
  entropy T*S    EENTRO =        -0.04547157
  eigenvalues    EBANDS =     -2612.82143796
  atomic energy  EATOM  =      8578.49904294
  ---------------------------------------------------
  free energy    TOTEN  =      -447.55733204 eV

  energy without entropy =     -447.51186047  energy(sigma->0) =     -447.53459626


--------------------------------------------------------------------------------------------------------




--------------------------------------- Iteration      1(  12)  ---------------------------------------


    POTLOK:  cpu time    2.3622: real time    2.3628
    SETDIJ:  cpu time    0.4317: real time    0.4318
    TRIAL :  cpu time   62.6458: real time   63.9568
    CORREC:  cpu time   27.4599: real time   28.6443
    CHARGE:  cpu time    3.2434: real time    3.2449
    --------------------------------------------
      LOOP:  cpu time   96.1672: real time   98.6648

 eigenvalue-minimisations  :     0
 total energy-change (2. order) :-0.6549035E-02  (-0.2160901E-02)
 number of electron     206.9999995 magnetization       2.2596225
 augmentation part        8.5390822 magnetization       0.2098357

 Free energy of the ion-electron system (eV)
  ---------------------------------------------------
  alpha Z        PSCENC =        94.07109648
  Ewald energy   TEWEN  =     34019.34113524
  -Hartree energ DENC   =    -41216.01910339
  -exchange      EXHF   =         0.00000000
  -V(xc)+E(xc)   XCENC  =       738.81450334
  PAW double counting   =      4364.35154427    -4413.73982691
  entropy T*S    EENTRO =        -0.04444385
  eigenvalues    EBANDS =     -2612.83680148
  atomic energy  EATOM  =      8578.49904294
  ---------------------------------------------------
  free energy    TOTEN  =      -447.56388108 eV

  energy without entropy =     -447.51943723  energy(sigma->0) =     -447.54165915


--------------------------------------------------------------------------------------------------------




--------------------------------------- Iteration      1(  13)  ---------------------------------------


    POTLOK:  cpu time    2.3824: real time    2.3835
    SETDIJ:  cpu time    0.4351: real time    0.4352
    TRIAL :  cpu time   61.7454: real time   63.0845
    CORREC:  cpu time   27.3564: real time   28.5815
    CHARGE:  cpu time    3.2619: real time    3.2667
    --------------------------------------------
      LOOP:  cpu time   95.1958: real time   97.7661

 eigenvalue-minimisations  :     0
 total energy-change (2. order) :-0.2164011E-02  (-0.8234330E-03)
 number of electron     206.9999995 magnetization       2.2554236
 augmentation part        8.5378521 magnetization       0.2088924

 Free energy of the ion-electron system (eV)
  ---------------------------------------------------
  alpha Z        PSCENC =        94.07109648
  Ewald energy   TEWEN  =     34019.34113524
  -Hartree energ DENC   =    -41216.23847474
  -exchange      EXHF   =         0.00000000
  -V(xc)+E(xc)   XCENC  =       738.81543889
  PAW double counting   =      4365.10248049    -4414.47356079
  entropy T*S    EENTRO =        -0.04455030
  eigenvalues    EBANDS =     -2612.63875975
  atomic energy  EATOM  =      8578.49904294
  ---------------------------------------------------
  free energy    TOTEN  =      -447.56604509 eV

  energy without entropy =     -447.52149479  energy(sigma->0) =     -447.54376994


--------------------------------------------------------------------------------------------------------




--------------------------------------- Iteration      1(  14)  ---------------------------------------


    POTLOK:  cpu time    2.3590: real time    2.3597
    SETDIJ:  cpu time    0.4371: real time    0.4380
    TRIAL :  cpu time   61.3689: real time   62.8161
    CORREC:  cpu time   27.4211: real time   28.6401
    CHARGE:  cpu time    3.3612: real time    3.3707
    --------------------------------------------
      LOOP:  cpu time   94.9693: real time   97.6465

 eigenvalue-minimisations  :     0
 total energy-change (2. order) :-0.8237410E-03  (-0.4663566E-03)
 number of electron     206.9999995 magnetization       2.2663340
 augmentation part        8.5381269 magnetization       0.2100743

 Free energy of the ion-electron system (eV)
  ---------------------------------------------------
  alpha Z        PSCENC =        94.07109648
  Ewald energy   TEWEN  =     34019.34113524
  -Hartree energ DENC   =    -41216.07770275
  -exchange      EXHF   =         0.00000000
  -V(xc)+E(xc)   XCENC  =       738.81731528
  PAW double counting   =      4364.38867302    -4413.77177679
  entropy T*S    EENTRO =        -0.04407642
  eigenvalues    EBANDS =     -2612.79010194
  atomic energy  EATOM  =      8578.49904294
  ---------------------------------------------------
  free energy    TOTEN  =      -447.56686883 eV

  energy without entropy =     -447.52279241  energy(sigma->0) =     -447.54483062


--------------------------------------------------------------------------------------------------------




--------------------------------------- Iteration      1(  15)  ---------------------------------------


    POTLOK:  cpu time    2.3363: real time    2.3706
    SETDIJ:  cpu time    0.4422: real time    0.4424
    TRIAL :  cpu time   61.9692: real time   63.2525
    CORREC:  cpu time   27.3712: real time   28.5783
    CHARGE:  cpu time    3.3078: real time    3.3204
    --------------------------------------------
      LOOP:  cpu time   95.4886: real time   98.0301

 eigenvalue-minimisations  :     0
 total energy-change (2. order) :-0.4659144E-03  (-0.1425473E-03)
 number of electron     206.9999995 magnetization       2.2671557
 augmentation part        8.5377784 magnetization       0.2099595

 Free energy of the ion-electron system (eV)
  ---------------------------------------------------
  alpha Z        PSCENC =        94.07109648
  Ewald energy   TEWEN  =     34019.34113524
  -Hartree energ DENC   =    -41216.16355474
  -exchange      EXHF   =         0.00000000
  -V(xc)+E(xc)   XCENC  =       738.81812029
  PAW double counting   =      4364.65486325    -4414.03239146
  entropy T*S    EENTRO =        -0.04402815
  eigenvalues    EBANDS =     -2612.71157032
  atomic energy  EATOM  =      8578.49904294
  ---------------------------------------------------
  free energy    TOTEN  =      -447.56733474 eV

  energy without entropy =     -447.52330659  energy(sigma->0) =     -447.54532067


--------------------------------------------------------------------------------------------------------




--------------------------------------- Iteration      1(  16)  ---------------------------------------


    POTLOK:  cpu time    2.4143: real time    2.4358
    SETDIJ:  cpu time    0.4398: real time    0.4402
    TRIAL :  cpu time   61.4945: real time   63.0343
    CORREC:  cpu time   27.5372: real time   28.8421
    CHARGE:  cpu time    3.3701: real time    3.3718
    --------------------------------------------
      LOOP:  cpu time   95.2769: real time   98.1452

 eigenvalue-minimisations  :     0
 total energy-change (2. order) :-0.1427418E-03  (-0.5259725E-04)
 number of electron     206.9999995 magnetization       2.2721682
 augmentation part        8.5380373 magnetization       0.2105399

 Free energy of the ion-electron system (eV)
  ---------------------------------------------------
  alpha Z        PSCENC =        94.07109648
  Ewald energy   TEWEN  =     34019.34113524
  -Hartree energ DENC   =    -41216.13818571
  -exchange      EXHF   =         0.00000000
  -V(xc)+E(xc)   XCENC  =       738.81939205
  PAW double counting   =      4364.46721990    -4413.84829012
  entropy T*S    EENTRO =        -0.04382104
  eigenvalues    EBANDS =     -2612.73486012
  atomic energy  EATOM  =      8578.49904294
  ---------------------------------------------------
  free energy    TOTEN  =      -447.56747748 eV

  energy without entropy =     -447.52365645  energy(sigma->0) =     -447.54556697


--------------------------------------------------------------------------------------------------------




--------------------------------------- Iteration      1(  17)  ---------------------------------------


    POTLOK:  cpu time    2.3521: real time    2.3530
    SETDIJ:  cpu time    0.4311: real time    0.4312
    TRIAL :  cpu time   61.2647: real time   62.9964
    CORREC:  cpu time   27.2149: real time   28.4999
    CHARGE:  cpu time    3.2235: real time    3.2288
    --------------------------------------------
      LOOP:  cpu time   94.5079: real time   97.5318

 eigenvalue-minimisations  :     0
 total energy-change (2. order) :-0.5275542E-04  (-0.3607393E-04)
 number of electron     206.9999995 magnetization       2.2731948
 augmentation part        8.5378727 magnetization       0.2105356

 Free energy of the ion-electron system (eV)
  ---------------------------------------------------
  alpha Z        PSCENC =        94.07109648
  Ewald energy   TEWEN  =     34019.34113524
  -Hartree energ DENC   =    -41216.18879643
  -exchange      EXHF   =         0.00000000
  -V(xc)+E(xc)   XCENC  =       738.81951384
  PAW double counting   =      4364.65459784    -4414.03227091
  entropy T*S    EENTRO =        -0.04377317
  eigenvalues    EBANDS =     -2612.68802820
  atomic energy  EATOM  =      8578.49904294
  ---------------------------------------------------
  free energy    TOTEN  =      -447.56753024 eV

  energy without entropy =     -447.52375707  energy(sigma->0) =     -447.54564366


--------------------------------------------------------------------------------------------------------




--------------------------------------- Iteration      1(  18)  ---------------------------------------


    POTLOK:  cpu time    2.4444: real time    2.4477
    SETDIJ:  cpu time    0.4358: real time    0.4361
    TRIAL :  cpu time   61.8961: real time   63.3432
    CORREC:  cpu time   27.3630: real time   28.5929
    CHARGE:  cpu time    3.3120: real time    3.3152
    --------------------------------------------
      LOOP:  cpu time   95.4737: real time   98.1574

 eigenvalue-minimisations  :     0
 total energy-change (2. order) :-0.3615663E-04  (-0.1428203E-04)
 number of electron     206.9999995 magnetization       2.2756805
 augmentation part        8.5379589 magnetization       0.2107934

 Free energy of the ion-electron system (eV)
  ---------------------------------------------------
  alpha Z        PSCENC =        94.07109648
  Ewald energy   TEWEN  =     34019.34113524
  -Hartree energ DENC   =    -41216.17017253
  -exchange      EXHF   =         0.00000000
  -V(xc)+E(xc)   XCENC  =       738.81987396
  PAW double counting   =      4364.57378241    -4413.95313051
  entropy T*S    EENTRO =        -0.04366816
  eigenvalues    EBANDS =     -2612.70542123
  atomic energy  EATOM  =      8578.49904294
  ---------------------------------------------------
  free energy    TOTEN  =      -447.56756640 eV

  energy without entropy =     -447.52389824  energy(sigma->0) =     -447.54573232


--------------------------------------------------------------------------------------------------------




--------------------------------------- Iteration      1(  19)  ---------------------------------------


    POTLOK:  cpu time    2.3553: real time    2.3572
    SETDIJ:  cpu time    0.4328: real time    0.4329
    TRIAL :  cpu time   61.1439: real time   62.8217
    CORREC:  cpu time   27.6235: real time   28.8515
    CHARGE:  cpu time    3.2969: real time    3.3050
    --------------------------------------------
      LOOP:  cpu time   94.8764: real time   97.7923

 eigenvalue-minimisations  :     0
 total energy-change (2. order) :-0.1415030E-04  (-0.4901059E-05)
 number of electron     206.9999995 magnetization       2.2755162
 augmentation part        8.5378651 magnetization       0.2107232

 Free energy of the ion-electron system (eV)
  ---------------------------------------------------
  alpha Z        PSCENC =        94.07109648
  Ewald energy   TEWEN  =     34019.34113524
  -Hartree energ DENC   =    -41216.19117735
  -exchange      EXHF   =         0.00000000
  -V(xc)+E(xc)   XCENC  =       738.81999081
  PAW double counting   =      4364.64485222    -4414.02301237
  entropy T*S    EENTRO =        -0.04367266
  eigenvalues    EBANDS =     -2612.68584034
  atomic energy  EATOM  =      8578.49904294
  ---------------------------------------------------
  free energy    TOTEN  =      -447.56758055 eV

  energy without entropy =     -447.52390789  energy(sigma->0) =     -447.54574422


--------------------------------------------------------------------------------------------------------




--------------------------------------- Iteration      1(  20)  ---------------------------------------


    POTLOK:  cpu time    2.3651: real time    2.3675
    SETDIJ:  cpu time    0.4310: real time    0.4312
    TRIAL :  cpu time   62.0281: real time   63.8000
    CORREC:  cpu time   26.8172: real time   28.4502
    EDDIAG:  cpu time   21.5033: real time   21.6027
    CHARGE:  cpu time    3.3113: real time    3.3162
    --------------------------------------------
      LOOP:  cpu time  116.4791: real time  119.9909

 eigenvalue-minimisations  :     0
 total energy-change (2. order) :-0.4835729E-05  (-0.3563873E-05)
 number of electron     206.9999995 magnetization       2.2764462
 augmentation part        8.5378816 magnetization       0.2108087

 Free energy of the ion-electron system (eV)
  ---------------------------------------------------
  alpha Z        PSCENC =        94.07109648
  Ewald energy   TEWEN  =     34019.34113524
  -Hartree energ DENC   =    -41216.18121751
  -exchange      EXHF   =         0.00000000
  -V(xc)+E(xc)   XCENC  =       738.82017645
  PAW double counting   =      4364.59342756    -4413.97261557
  entropy T*S    EENTRO =        -0.04363295
  eigenvalues    EBANDS =     -2612.69495832
  atomic energy  EATOM  =      8578.49904294
  ---------------------------------------------------
  free energy    TOTEN  =      -447.56758538 eV

  energy without entropy =     -447.52395243  energy(sigma->0) =     -447.54576891


--------------------------------------------------------------------------------------------------------


  average scaling for gradient   1.5207


 average (electrostatic) potential at core
  the test charge radii are     0.6991  0.7089  1.1760
  (the norm of the test charge is              1.0000)
       1 -58.0027       2 -57.9938       3 -57.9938       4 -58.1222       5 -58.1279
       6 -58.1894       7 -58.1167       8 -58.0644       9 -58.0170      10 -57.9460
      11 -58.0169      12 -58.1279      13 -58.1223      14 -58.8210      15 -58.8210
      16 -59.0646      17 -58.2223      18 -58.1667      19 -58.0643      20 -58.1167
      21 -58.1165      22 -58.1893      23 -59.0648      24 -59.0646      25 -58.1894
      26 -58.1278      27 -58.0169      28 -58.0638      29 -58.1664      30 -58.2218
      31 -59.0648      32 -58.8210      33 -58.8210      34 -58.1222      35 -57.9938
      36 -58.0027      37 -57.9457      38 -58.0169      39 -58.0638      40 -58.1165
      41 -58.1893      42 -58.1279      43 -58.1223      44 -57.9938      45 -73.1282
      46 -73.1282      47 -73.1282      48 -73.1282      49 -46.1613
 
 
 
 E-fermi :  -2.3010     XC(G=0):  -2.2253     alpha+bet : -1.9099


 spin component 1

 k-point     1 :       0.0000    0.0000    0.0000
  band No.  band energies     occupation 
      1     -38.1199      1.00000
      2     -38.0190      1.00000
      3     -38.0106      1.00000
      4     -23.3075      1.00000
      5     -22.9186      1.00000
      6     -22.6084      1.00000
      7     -22.3372      1.00000
      8     -21.7311      1.00000
      9     -21.3444      1.00000
     10     -21.2255      1.00000
     11     -20.8375      1.00000
     12     -20.3515      1.00000
     13     -20.1379      1.00000
     14     -19.6641      1.00000
     15     -19.5898      1.00000
     16     -19.1964      1.00000
     17     -19.1261      1.00000
     18     -18.9437      1.00000
     19     -18.7732      1.00000
     20     -18.7581      1.00000
     21     -18.5078      1.00000
     22     -18.0834      1.00000
     23     -17.3176      1.00000
     24     -17.2043      1.00000
     25     -16.7552      1.00000
     26     -16.5388      1.00000
     27     -16.3949      1.00000
     28     -16.0021      1.00000
     29     -15.7120      1.00000
     30     -15.6330      1.00000
     31     -15.5526      1.00000
     32     -15.5075      1.00000
     33     -15.1044      1.00000
     34     -14.6314      1.00000
     35     -14.4416      1.00000
     36     -14.4378      1.00000
     37     -14.4040      1.00000
     38     -14.1658      1.00000
     39     -13.3633      1.00000
     40     -12.6981      1.00000
     41     -12.5457      1.00000
     42     -12.4700      1.00000
     43     -12.1825      1.00000
     44     -11.8972      1.00000
     45     -11.7841      1.00000
     46     -11.6629      1.00000
     47     -11.6269      1.00000
     48     -11.6256      1.00000
     49     -11.5526      1.00000
     50     -11.1776      1.00000
     51     -10.8005      1.00000
     52     -10.7002      1.00000
     53     -10.6166      1.00000
     54     -10.5296      1.00000
     55     -10.3838      1.00000
     56     -10.2351      1.00000
     57     -10.0944      1.00000
     58      -9.8245      1.00000
     59      -9.7588      1.00000
     60      -9.7212      1.00000
     61      -9.5737      1.00000
     62      -9.5413      1.00000
     63      -9.4250      1.00000
     64      -9.3044      1.00000
     65      -9.3012      1.00000
     66      -9.2046      1.00000
     67      -9.1288      1.00000
     68      -9.1184      1.00000
     69      -9.0376      1.00000
     70      -8.9832      1.00000
     71      -8.9603      1.00000
     72      -8.8887      1.00000
     73      -8.8331      1.00000
     74      -8.6684      1.00000
     75      -7.9573      1.00000
     76      -7.8904      1.00000
     77      -7.8596      1.00000
     78      -7.6803      1.00000
     79      -7.6438      1.00000
     80      -7.5716      1.00000
     81      -7.3524      1.00000
     82      -7.3202      1.00000
     83      -7.3111      1.00000
     84      -7.2055      1.00000
     85      -7.1548      1.00000
     86      -7.1373      1.00000
     87      -6.7270      1.00000
     88      -6.6048      1.00000
     89      -6.4543      1.00000
     90      -6.4169      1.00000
     91      -6.3101      1.00000
     92      -6.2906      1.00000
     93      -6.1449      1.00000
     94      -6.0630      1.00000
     95      -5.8163      1.00000
     96      -5.5366      1.00000
     97      -4.6873      1.00000
     98      -4.5804      1.00000
     99      -4.3193      1.00000
    100      -4.2391      1.00000
    101      -4.1811      1.00000
    102      -3.5007      1.00000
    103      -2.7146      1.00000
    104      -2.4533      0.98437
    105      -2.3938      0.90529
    106      -1.8105      0.00000
    107      -1.5008      0.00000
    108      -1.4790      0.00000
    109      -1.3209      0.00000
    110      -1.0380      0.00000
    111      -0.7699      0.00000
    112      -0.7313      0.00000
    113       0.1253      0.00000
    114       0.1841      0.00000
    115       0.3016      0.00000
    116       0.3807      0.00000
    117       0.5009      0.00000
    118       0.7858      0.00000
    119       1.1478      0.00000
    120       1.3530      0.00000
    121       1.5522      0.00000
    122       1.6643      0.00000
    123       1.6821      0.00000
    124       1.7845      0.00000
    125       1.7963      0.00000
    126       1.8040      0.00000
    127       1.8210      0.00000
    128       1.8680      0.00000
    129       2.0081      0.00000
    130       2.0368      0.00000
    131       2.0964      0.00000
    132       2.1109      0.00000
    133       2.4341      0.00000
    134       2.4347      0.00000
    135       2.4403      0.00000
    136       2.5851      0.00000
    137       2.5930      0.00000
    138       2.6513      0.00000
    139       2.7812      0.00000
    140       2.9605      0.00000
    141       2.9888      0.00000
    142       3.0129      0.00000
    143       3.0178      0.00000
    144       3.0224      0.00000
    145       3.0345      0.00000
    146       3.3171      0.00000
    147       3.3559      0.00000
    148       3.5139      0.00000
    149       3.6173      0.00000
    150       3.7488      0.00000
    151       3.8302      0.00000
    152       3.8364      0.00000
    153       3.8942      0.00000
    154       3.8974      0.00000
    155       3.9325      0.00000
    156       4.0792      0.00000
    157       4.1389      0.00000
    158       4.1755      0.00000
    159       4.2011      0.00000
    160       4.2354      0.00000
    161       4.2409      0.00000
    162       4.2426      0.00000
    163       4.3010      0.00000
    164       4.3149      0.00000
    165       4.3296      0.00000
    166       4.3875      0.00000
    167       4.5284      0.00000
    168       4.5610      0.00000
    169       4.5620      0.00000
    170       4.6878      0.00000
    171       4.7719      0.00000
    172       4.9509      0.00000
    173       4.9621      0.00000
    174       4.9795      0.00000
    175       5.0229      0.00000
    176       5.0512      0.00000
    177       5.0648      0.00000
    178       5.1051      0.00000
    179       5.1218      0.00000
    180       5.2529      0.00000
    181       5.3360      0.00000
    182       5.3402      0.00000
    183       5.3722      0.00000
    184       5.4137      0.00000
    185       5.4543      0.00000
    186       5.4814      0.00000
    187       5.4978      0.00000
    188       5.5502      0.00000
    189       5.5709      0.00000
    190       5.5899      0.00000
    191       5.6294      0.00000
    192       5.6300      0.00000
    193       5.6332      0.00000
    194       5.6362      0.00000
    195       5.6379      0.00000
    196       5.6382      0.00000
    197       5.6398      0.00000
    198       5.6682      0.00000
    199       5.7208      0.00000
    200       5.7857      0.00000
    201       5.8278      0.00000
    202       5.9231      0.00000
    203       5.9440      0.00000
    204       6.0044      0.00000
    205       6.0148      0.00000
    206       6.0234      0.00000
    207       6.0347      0.00000
    208       6.0699      0.00000
    209       6.0920      0.00000
    210       6.2127      0.00000
    211       6.2855      0.00000
    212       6.2915      0.00000
    213       6.3338      0.00000
    214       6.3634      0.00000
    215       6.3802      0.00000
    216       6.3975      0.00000
    217       6.4111      0.00000
    218       6.4344      0.00000
    219       6.4376      0.00000
    220       6.4444      0.00000
    221       6.4485      0.00000
    222       6.4498      0.00000
    223       6.4692      0.00000
    224       6.6097      0.00000
    225       6.6407      0.00000
    226       6.6688      0.00000
    227       6.6942      0.00000
    228       6.7055      0.00000
    229       6.8665      0.00000
    230       6.8697      0.00000
    231       6.8916      0.00000
    232       6.9009      0.00000
    233       6.9112      0.00000
    234       6.9563      0.00000
    235       6.9671      0.00000
    236       6.9713      0.00000
    237       6.9765      0.00000
    238       6.9788      0.00000
    239       6.9857      0.00000
    240       6.9872      0.00000
    241       7.3184      0.00000
    242       7.3501      0.00000
    243       7.5598      0.00000
    244       7.5625      0.00000
    245       7.6240      0.00000
    246       7.6282      0.00000
    247       7.6304      0.00000
    248       7.7445      0.00000
    249       7.7456      0.00000
    250       7.7572      0.00000
    251       7.7709      0.00000
    252       7.7945      0.00000
    253       7.9448      0.00000
    254       8.0235      0.00000
    255       8.0501      0.00000
    256       8.0559      0.00000

 k-point     2 :       0.2000    0.0000    0.0000
  band No.  band energies     occupation 
      1     -38.1199      1.00000
      2     -38.0190      1.00000
      3     -38.0106      1.00000
      4     -23.2995      1.00000
      5     -22.9313      1.00000
      6     -22.6181      1.00000
      7     -22.3380      1.00000
      8     -21.6966      1.00000
      9     -21.3855      1.00000
     10     -21.1660      1.00000
     11     -20.7737      1.00000
     12     -20.4421      1.00000
     13     -20.1855      1.00000
     14     -19.7994      1.00000
     15     -19.4261      1.00000
     16     -19.2977      1.00000
     17     -19.1679      1.00000
     18     -19.1407      1.00000
     19     -18.6804      1.00000
     20     -18.4088      1.00000
     21     -18.3931      1.00000
     22     -17.9655      1.00000
     23     -17.4395      1.00000
     24     -17.1486      1.00000
     25     -17.0239      1.00000
     26     -16.7624      1.00000
     27     -16.5055      1.00000
     28     -16.1489      1.00000
     29     -15.6120      1.00000
     30     -15.5105      1.00000
     31     -15.3789      1.00000
     32     -15.2068      1.00000
     33     -15.1381      1.00000
     34     -14.9074      1.00000
     35     -14.8126      1.00000
     36     -14.3607      1.00000
     37     -14.0090      1.00000
     38     -13.6426      1.00000
     39     -13.3294      1.00000
     40     -12.9741      1.00000
     41     -12.6334      1.00000
     42     -12.5691      1.00000
     43     -12.2536      1.00000
     44     -12.1791      1.00000
     45     -12.1052      1.00000
     46     -11.8441      1.00000
     47     -11.5693      1.00000
     48     -11.3455      1.00000
     49     -11.3287      1.00000
     50     -11.2205      1.00000
     51     -10.7955      1.00000
     52     -10.6436      1.00000
     53     -10.5073      1.00000
     54     -10.4764      1.00000
     55     -10.3543      1.00000
     56     -10.0588      1.00000
     57      -9.9918      1.00000
     58      -9.9483      1.00000
     59      -9.8632      1.00000
     60      -9.7906      1.00000
     61      -9.6926      1.00000
     62      -9.5900      1.00000
     63      -9.4943      1.00000
     64      -9.4107      1.00000
     65      -9.2541      1.00000
     66      -9.1842      1.00000
     67      -9.0942      1.00000
     68      -9.0672      1.00000
     69      -8.9566      1.00000
     70      -8.9394      1.00000
     71      -8.8181      1.00000
     72      -8.7894      1.00000
     73      -8.6315      1.00000
     74      -8.5039      1.00000
     75      -8.1963      1.00000
     76      -8.1238      1.00000
     77      -7.9041      1.00000
     78      -7.8242      1.00000
     79      -7.7562      1.00000
     80      -7.5861      1.00000
     81      -7.4230      1.00000
     82      -7.3514      1.00000
     83      -7.2385      1.00000
     84      -7.1946      1.00000
     85      -7.0207      1.00000
     86      -6.9444      1.00000
     87      -6.7584      1.00000
     88      -6.6563      1.00000
     89      -6.6319      1.00000
     90      -6.5048      1.00000
     91      -6.1738      1.00000
     92      -6.1217      1.00000
     93      -6.0344      1.00000
     94      -5.9475      1.00000
     95      -5.8136      1.00000
     96      -5.4348      1.00000
     97      -4.8842      1.00000
     98      -4.6554      1.00000
     99      -4.5795      1.00000
    100      -4.3265      1.00000
    101      -4.0179      1.00000
    102      -3.5711      1.00000
    103      -2.7615      1.00000
    104      -2.4214      0.95571
    105      -2.3307      0.66237
    106      -1.6820      0.00000
    107      -1.5080      0.00000
    108      -1.4270      0.00000
    109      -1.1395      0.00000
    110      -0.9522      0.00000
    111      -0.8922      0.00000
    112      -0.6682      0.00000
    113      -0.3000      0.00000
    114       0.0606      0.00000
    115       0.2031      0.00000
    116       0.6229      0.00000
    117       0.7315      0.00000
    118       0.8383      0.00000
    119       1.0115      0.00000
    120       1.1993      0.00000
    121       1.3463      0.00000
    122       1.5062      0.00000
    123       1.5877      0.00000
    124       1.6923      0.00000
    125       1.7348      0.00000
    126       1.7550      0.00000
    127       1.8687      0.00000
    128       2.0490      0.00000
    129       2.0746      0.00000
    130       2.2497      0.00000
    131       2.2858      0.00000
    132       2.3069      0.00000
    133       2.3429      0.00000
    134       2.4080      0.00000
    135       2.5555      0.00000
    136       2.6884      0.00000
    137       2.7101      0.00000
    138       2.7648      0.00000
    139       2.7789      0.00000
    140       2.8431      0.00000
    141       2.9277      0.00000
    142       3.0609      0.00000
    143       3.1146      0.00000
    144       3.2026      0.00000
    145       3.2936      0.00000
    146       3.3209      0.00000
    147       3.4209      0.00000
    148       3.5209      0.00000
    149       3.5794      0.00000
    150       3.6022      0.00000
    151       3.6292      0.00000
    152       3.6602      0.00000
    153       3.7903      0.00000
    154       3.8447      0.00000
    155       3.9414      0.00000
    156       3.9953      0.00000
    157       4.0511      0.00000
    158       4.1436      0.00000
    159       4.1715      0.00000
    160       4.2361      0.00000
    161       4.3074      0.00000
    162       4.3187      0.00000
    163       4.3852      0.00000
    164       4.4214      0.00000
    165       4.4904      0.00000
    166       4.5170      0.00000
    167       4.5631      0.00000
    168       4.6326      0.00000
    169       4.6998      0.00000
    170       4.7247      0.00000
    171       4.7660      0.00000
    172       4.8512      0.00000
    173       4.8795      0.00000
    174       4.9005      0.00000
    175       4.9287      0.00000
    176       5.0104      0.00000
    177       5.0297      0.00000
    178       5.0342      0.00000
    179       5.0708      0.00000
    180       5.1150      0.00000
    181       5.1818      0.00000
    182       5.2080      0.00000
    183       5.2494      0.00000
    184       5.2769      0.00000
    185       5.3130      0.00000
    186       5.3567      0.00000
    187       5.3887      0.00000
    188       5.4025      0.00000
    189       5.4993      0.00000
    190       5.5910      0.00000
    191       5.6218      0.00000
    192       5.6368      0.00000
    193       5.6574      0.00000
    194       5.6781      0.00000
    195       5.6862      0.00000
    196       5.7090      0.00000
    197       5.7368      0.00000
    198       5.7589      0.00000
    199       5.7847      0.00000
    200       5.8138      0.00000
    201       5.8750      0.00000
    202       5.9043      0.00000
    203       5.9258      0.00000
    204       5.9590      0.00000
    205       6.0229      0.00000
    206       6.0347      0.00000
    207       6.0913      0.00000
    208       6.1521      0.00000
    209       6.1645      0.00000
    210       6.1919      0.00000
    211       6.2176      0.00000
    212       6.2393      0.00000
    213       6.3100      0.00000
    214       6.3334      0.00000
    215       6.3727      0.00000
    216       6.4050      0.00000
    217       6.4557      0.00000
    218       6.4691      0.00000
    219       6.4870      0.00000
    220       6.4998      0.00000
    221       6.5107      0.00000
    222       6.5240      0.00000
    223       6.5527      0.00000
    224       6.6567      0.00000
    225       6.6874      0.00000
    226       6.7473      0.00000
    227       6.7628      0.00000
    228       6.8058      0.00000
    229       6.8816      0.00000
    230       6.9200      0.00000
    231       6.9974      0.00000
    232       7.0237      0.00000
    233       7.1180      0.00000
    234       7.2041      0.00000
    235       7.2271      0.00000
    236       7.2342      0.00000
    237       7.2827      0.00000
    238       7.3114      0.00000
    239       7.4068      0.00000
    240       7.4896      0.00000
    241       7.5290      0.00000
    242       7.6100      0.00000
    243       7.6957      0.00000
    244       7.7151      0.00000
    245       7.7590      0.00000
    246       7.8149      0.00000
    247       7.8729      0.00000
    248       7.9195      0.00000
    249       8.0323      0.00000
    250       8.1211      0.00000
    251       8.1534      0.00000
    252       8.2380      0.00000
    253       8.3066      0.00000
    254       8.3118      0.00000
    255       8.3998      0.00000
    256       8.5725      0.00000

 k-point     3 :       0.4000    0.0000    0.0000
  band No.  band energies     occupation 
      1     -38.1199      1.00000
      2     -38.0190      1.00000
      3     -38.0106      1.00000
      4     -23.2853      1.00000
      5     -22.9531      1.00000
      6     -22.6324      1.00000
      7     -22.3405      1.00000
      8     -21.6254      1.00000
      9     -21.4376      1.00000
     10     -21.0908      1.00000
     11     -20.6428      1.00000
     12     -20.5910      1.00000
     13     -20.2428      1.00000
     14     -19.8252      1.00000
     15     -19.7109      1.00000
     16     -19.3185      1.00000
     17     -19.3073      1.00000
     18     -18.8488      1.00000
     19     -18.5286      1.00000
     20     -18.2131      1.00000
     21     -18.0199      1.00000
     22     -17.8853      1.00000
     23     -17.5512      1.00000
     24     -17.4275      1.00000
     25     -17.2788      1.00000
     26     -16.9604      1.00000
     27     -16.5154      1.00000
     28     -16.2169      1.00000
     29     -15.8739      1.00000
     30     -15.4040      1.00000
     31     -15.3955      1.00000
     32     -15.1969      1.00000
     33     -15.1106      1.00000
     34     -14.7416      1.00000
     35     -14.3805      1.00000
     36     -14.1804      1.00000
     37     -13.6527      1.00000
     38     -13.5252      1.00000
     39     -13.3821      1.00000
     40     -13.0632      1.00000
     41     -12.8897      1.00000
     42     -12.7813      1.00000
     43     -12.7116      1.00000
     44     -12.4093      1.00000
     45     -12.0076      1.00000
     46     -11.7770      1.00000
     47     -11.6214      1.00000
     48     -11.4643      1.00000
     49     -11.3745      1.00000
     50     -10.9842      1.00000
     51     -10.8151      1.00000
     52     -10.6466      1.00000
     53     -10.4945      1.00000
     54     -10.3532      1.00000
     55     -10.2220      1.00000
     56     -10.1360      1.00000
     57     -10.0604      1.00000
     58      -9.9085      1.00000
     59      -9.8015      1.00000
     60      -9.7168      1.00000
     61      -9.6642      1.00000
     62      -9.6174      1.00000
     63      -9.5429      1.00000
     64      -9.4765      1.00000
     65      -9.2320      1.00000
     66      -9.2168      1.00000
     67      -8.9889      1.00000
     68      -8.8904      1.00000
     69      -8.8661      1.00000
     70      -8.7923      1.00000
     71      -8.7588      1.00000
     72      -8.6397      1.00000
     73      -8.5384      1.00000
     74      -8.3755      1.00000
     75      -8.3213      1.00000
     76      -8.3074      1.00000
     77      -8.1804      1.00000
     78      -7.9482      1.00000
     79      -7.9286      1.00000
     80      -7.7551      1.00000
     81      -7.5785      1.00000
     82      -7.3948      1.00000
     83      -7.1852      1.00000
     84      -7.0044      1.00000
     85      -6.9418      1.00000
     86      -6.8675      1.00000
     87      -6.8591      1.00000
     88      -6.6922      1.00000
     89      -6.6883      1.00000
     90      -6.3169      1.00000
     91      -6.2346      1.00000
     92      -6.0565      1.00000
     93      -5.8405      1.00000
     94      -5.6079      1.00000
     95      -5.5691      1.00000
     96      -5.3478      1.00000
     97      -5.1578      1.00000
     98      -5.0524      1.00000
     99      -4.9849      1.00000
    100      -4.3848      1.00000
    101      -3.8290      1.00000
    102      -3.6592      1.00000
    103      -2.8033      1.00000
    104      -2.3956      0.90950
    105      -2.3327      0.67271
    106      -1.5960      0.00000
    107      -1.4449      0.00000
    108      -1.3220      0.00000
    109      -1.0260      0.00000
    110      -0.7537      0.00000
    111      -0.7095      0.00000
    112      -0.6208      0.00000
    113      -0.4705      0.00000
    114      -0.1789      0.00000
    115       0.0487      0.00000
    116       0.3294      0.00000
    117       0.5523      0.00000
    118       0.8227      0.00000
    119       1.0063      0.00000
    120       1.1344      0.00000
    121       1.4904      0.00000
    122       1.5015      0.00000
    123       1.5940      0.00000
    124       1.6494      0.00000
    125       1.6665      0.00000
    126       1.8079      0.00000
    127       1.8574      0.00000
    128       1.9852      0.00000
    129       2.1344      0.00000
    130       2.1966      0.00000
    131       2.3427      0.00000
    132       2.4578      0.00000
    133       2.5264      0.00000
    134       2.5688      0.00000
    135       2.6821      0.00000
    136       2.6961      0.00000
    137       2.8247      0.00000
    138       2.9027      0.00000
    139       2.9727      0.00000
    140       2.9883      0.00000
    141       3.0180      0.00000
    142       3.0491      0.00000
    143       3.1915      0.00000
    144       3.2291      0.00000
    145       3.3516      0.00000
    146       3.4161      0.00000
    147       3.4810      0.00000
    148       3.5490      0.00000
    149       3.5929      0.00000
    150       3.6732      0.00000
    151       3.6924      0.00000
    152       3.7299      0.00000
    153       3.7520      0.00000
    154       3.7717      0.00000
    155       3.8747      0.00000
    156       3.8856      0.00000
    157       3.9248      0.00000
    158       4.0301      0.00000
    159       4.1280      0.00000
    160       4.1713      0.00000
    161       4.2648      0.00000
    162       4.2734      0.00000
    163       4.2852      0.00000
    164       4.3056      0.00000
    165       4.3747      0.00000
    166       4.4748      0.00000
    167       4.5237      0.00000
    168       4.5449      0.00000
    169       4.6093      0.00000
    170       4.6870      0.00000
    171       4.7217      0.00000
    172       4.7632      0.00000
    173       4.8557      0.00000
    174       4.8886      0.00000
    175       4.9398      0.00000
    176       4.9824      0.00000
    177       5.0608      0.00000
    178       5.0716      0.00000
    179       5.0956      0.00000
    180       5.1035      0.00000
    181       5.1276      0.00000
    182       5.1929      0.00000
    183       5.2172      0.00000
    184       5.2453      0.00000
    185       5.3120      0.00000
    186       5.4405      0.00000
    187       5.4773      0.00000
    188       5.5136      0.00000
    189       5.5255      0.00000
    190       5.5387      0.00000
    191       5.5543      0.00000
    192       5.5742      0.00000
    193       5.6119      0.00000
    194       5.6152      0.00000
    195       5.6250      0.00000
    196       5.6583      0.00000
    197       5.6788      0.00000
    198       5.7410      0.00000
    199       5.8096      0.00000
    200       5.8422      0.00000
    201       5.8476      0.00000
    202       5.8610      0.00000
    203       5.9149      0.00000
    204       5.9376      0.00000
    205       5.9876      0.00000
    206       6.0368      0.00000
    207       6.0900      0.00000
    208       6.1178      0.00000
    209       6.1851      0.00000
    210       6.2103      0.00000
    211       6.2706      0.00000
    212       6.2989      0.00000
    213       6.3126      0.00000
    214       6.3485      0.00000
    215       6.4031      0.00000
    216       6.4704      0.00000
    217       6.5393      0.00000
    218       6.6112      0.00000
    219       6.6270      0.00000
    220       6.6585      0.00000
    221       6.6821      0.00000
    222       6.7021      0.00000
    223       6.7889      0.00000
    224       6.8461      0.00000
    225       6.8934      0.00000
    226       6.9560      0.00000
    227       7.0131      0.00000
    228       7.0676      0.00000
    229       7.1130      0.00000
    230       7.1948      0.00000
    231       7.2098      0.00000
    232       7.2737      0.00000
    233       7.3528      0.00000
    234       7.3931      0.00000
    235       7.4357      0.00000
    236       7.4479      0.00000
    237       7.5304      0.00000
    238       7.5695      0.00000
    239       7.6125      0.00000
    240       7.6690      0.00000
    241       7.7127      0.00000
    242       7.7721      0.00000
    243       7.7753      0.00000
    244       7.8730      0.00000
    245       7.9511      0.00000
    246       8.0745      0.00000
    247       8.1120      0.00000
    248       8.1611      0.00000
    249       8.2333      0.00000
    250       8.2536      0.00000
    251       8.4687      0.00000
    252       8.5837      0.00000
    253       8.6360      0.00000
    254       8.7052      0.00000
    255       8.8655      0.00000
    256       9.2355      0.00000

 k-point     4 :       0.0000    0.2000    0.0000
  band No.  band energies     occupation 
      1     -38.1199      1.00000
      2     -38.0190      1.00000
      3     -38.0106      1.00000
      4     -23.2995      1.00000
      5     -22.9313      1.00000
      6     -22.6181      1.00000
      7     -22.3380      1.00000
      8     -21.6966      1.00000
      9     -21.3855      1.00000
     10     -21.1660      1.00000
     11     -20.7737      1.00000
     12     -20.4421      1.00000
     13     -20.1855      1.00000
     14     -19.7994      1.00000
     15     -19.4261      1.00000
     16     -19.2977      1.00000
     17     -19.1680      1.00000
     18     -19.1407      1.00000
     19     -18.6804      1.00000
     20     -18.4087      1.00000
     21     -18.3931      1.00000
     22     -17.9655      1.00000
     23     -17.4395      1.00000
     24     -17.1486      1.00000
     25     -17.0239      1.00000
     26     -16.7624      1.00000
     27     -16.5055      1.00000
     28     -16.1489      1.00000
     29     -15.6120      1.00000
     30     -15.5105      1.00000
     31     -15.3789      1.00000
     32     -15.2068      1.00000
     33     -15.1381      1.00000
     34     -14.9074      1.00000
     35     -14.8126      1.00000
     36     -14.3607      1.00000
     37     -14.0090      1.00000
     38     -13.6426      1.00000
     39     -13.3294      1.00000
     40     -12.9741      1.00000
     41     -12.6334      1.00000
     42     -12.5691      1.00000
     43     -12.2536      1.00000
     44     -12.1791      1.00000
     45     -12.1052      1.00000
     46     -11.8441      1.00000
     47     -11.5693      1.00000
     48     -11.3455      1.00000
     49     -11.3287      1.00000
     50     -11.2205      1.00000
     51     -10.7955      1.00000
     52     -10.6436      1.00000
     53     -10.5073      1.00000
     54     -10.4764      1.00000
     55     -10.3543      1.00000
     56     -10.0588      1.00000
     57      -9.9918      1.00000
     58      -9.9483      1.00000
     59      -9.8632      1.00000
     60      -9.7906      1.00000
     61      -9.6926      1.00000
     62      -9.5900      1.00000
     63      -9.4943      1.00000
     64      -9.4107      1.00000
     65      -9.2541      1.00000
     66      -9.1842      1.00000
     67      -9.0942      1.00000
     68      -9.0672      1.00000
     69      -8.9566      1.00000
     70      -8.9394      1.00000
     71      -8.8181      1.00000
     72      -8.7894      1.00000
     73      -8.6315      1.00000
     74      -8.5039      1.00000
     75      -8.1963      1.00000
     76      -8.1238      1.00000
     77      -7.9041      1.00000
     78      -7.8242      1.00000
     79      -7.7562      1.00000
     80      -7.5861      1.00000
     81      -7.4230      1.00000
     82      -7.3514      1.00000
     83      -7.2385      1.00000
     84      -7.1946      1.00000
     85      -7.0207      1.00000
     86      -6.9444      1.00000
     87      -6.7584      1.00000
     88      -6.6563      1.00000
     89      -6.6319      1.00000
     90      -6.5048      1.00000
     91      -6.1738      1.00000
     92      -6.1217      1.00000
     93      -6.0344      1.00000
     94      -5.9475      1.00000
     95      -5.8136      1.00000
     96      -5.4348      1.00000
     97      -4.8842      1.00000
     98      -4.6554      1.00000
     99      -4.5795      1.00000
    100      -4.3265      1.00000
    101      -4.0179      1.00000
    102      -3.5711      1.00000
    103      -2.7615      1.00000
    104      -2.4214      0.95558
    105      -2.3307      0.66177
    106      -1.6820      0.00000
    107      -1.5080      0.00000
    108      -1.4270      0.00000
    109      -1.1395      0.00000
    110      -0.9522      0.00000
    111      -0.8922      0.00000
    112      -0.6682      0.00000
    113      -0.3000      0.00000
    114       0.0606      0.00000
    115       0.2031      0.00000
    116       0.6229      0.00000
    117       0.7315      0.00000
    118       0.8383      0.00000
    119       1.0115      0.00000
    120       1.1993      0.00000
    121       1.3463      0.00000
    122       1.5062      0.00000
    123       1.5877      0.00000
    124       1.6923      0.00000
    125       1.7348      0.00000
    126       1.7550      0.00000
    127       1.8687      0.00000
    128       2.0490      0.00000
    129       2.0746      0.00000
    130       2.2497      0.00000
    131       2.2858      0.00000
    132       2.3069      0.00000
    133       2.3429      0.00000
    134       2.4080      0.00000
    135       2.5555      0.00000
    136       2.6884      0.00000
    137       2.7101      0.00000
    138       2.7648      0.00000
    139       2.7789      0.00000
    140       2.8431      0.00000
    141       2.9277      0.00000
    142       3.0609      0.00000
    143       3.1146      0.00000
    144       3.2026      0.00000
    145       3.2936      0.00000
    146       3.3209      0.00000
    147       3.4209      0.00000
    148       3.5209      0.00000
    149       3.5794      0.00000
    150       3.6022      0.00000
    151       3.6292      0.00000
    152       3.6602      0.00000
    153       3.7903      0.00000
    154       3.8447      0.00000
    155       3.9415      0.00000
    156       3.9953      0.00000
    157       4.0511      0.00000
    158       4.1436      0.00000
    159       4.1715      0.00000
    160       4.2361      0.00000
    161       4.3075      0.00000
    162       4.3189      0.00000
    163       4.3852      0.00000
    164       4.4214      0.00000
    165       4.4905      0.00000
    166       4.5170      0.00000
    167       4.5638      0.00000
    168       4.6327      0.00000
    169       4.7008      0.00000
    170       4.7253      0.00000
    171       4.7680      0.00000
    172       4.8523      0.00000
    173       4.8798      0.00000
    174       4.9007      0.00000
    175       4.9288      0.00000
    176       5.0110      0.00000
    177       5.0323      0.00000
    178       5.0349      0.00000
    179       5.0716      0.00000
    180       5.1171      0.00000
    181       5.1899      0.00000
    182       5.2255      0.00000
    183       5.2519      0.00000
    184       5.3027      0.00000
    185       5.3332      0.00000
    186       5.3814      0.00000
    187       5.3931      0.00000
    188       5.4195      0.00000
    189       5.5933      0.00000
    190       5.6330      0.00000
    191       5.6383      0.00000
    192       5.6511      0.00000
    193       5.6759      0.00000
    194       5.6931      0.00000
    195       5.7307      0.00000
    196       5.7556      0.00000
    197       5.7841      0.00000
    198       5.7850      0.00000
    199       5.8383      0.00000
    200       5.8508      0.00000
    201       5.8865      0.00000
    202       5.9298      0.00000
    203       5.9590      0.00000
    204       5.9651      0.00000
    205       6.0601      0.00000
    206       6.0792      0.00000
    207       6.1809      0.00000
    208       6.1811      0.00000
    209       6.2565      0.00000
    210       6.2914      0.00000
    211       6.3269      0.00000
    212       6.3955      0.00000
    213       6.4321      0.00000
    214       6.4441      0.00000
    215       6.4557      0.00000
    216       6.4960      0.00000
    217       6.6040      0.00000
    218       6.6762      0.00000
    219       6.7268      0.00000
    220       6.7924      0.00000
    221       6.8066      0.00000
    222       6.8638      0.00000
    223       6.9619      0.00000
    224       6.9804      0.00000
    225       7.0463      0.00000
    226       7.1874      0.00000
    227       7.2220      0.00000
    228       7.2533      0.00000
    229       7.3359      0.00000
    230       7.3616      0.00000
    231       7.4246      0.00000
    232       7.5823      0.00000
    233       7.6550      0.00000
    234       7.6577      0.00000
    235       7.6901      0.00000
    236       7.7838      0.00000
    237       7.7860      0.00000
    238       7.8276      0.00000
    239       7.9062      0.00000
    240       8.0297      0.00000
    241       8.1085      0.00000
    242       8.1693      0.00000
    243       8.2312      0.00000
    244       8.3455      0.00000
    245       8.4268      0.00000
    246       8.4715      0.00000
    247       8.5979      0.00000
    248       8.6492      0.00000
    249       8.7005      0.00000
    250       9.0781      0.00000
    251       9.1234      0.00000
    252       9.2993      0.00000
    253       9.5600      0.00000
    254       9.7568      0.00000
    255       9.9834      0.00000
    256      10.5283      0.00000

 k-point     5 :       0.2000    0.2000    0.0000
  band No.  band energies     occupation 
      1     -38.1199      1.00000
      2     -38.0190      1.00000
      3     -38.0106      1.00000
      4     -23.2880      1.00000
      5     -22.9503      1.00000
      6     -22.6271      1.00000
      7     -22.3412      1.00000
      8     -21.6605      1.00000
      9     -21.3276      1.00000
     10     -21.2260      1.00000
     11     -20.6013      1.00000
     12     -20.5944      1.00000
     13     -20.1121      1.00000
     14     -19.9933      1.00000
     15     -19.6773      1.00000
     16     -19.4049      1.00000
     17     -18.9512      1.00000
     18     -18.8071      1.00000
     19     -18.7639      1.00000
     20     -18.4742      1.00000
     21     -18.1584      1.00000
     22     -17.7374      1.00000
     23     -17.4283      1.00000
     24     -17.2504      1.00000
     25     -17.2364      1.00000
     26     -17.0050      1.00000
     27     -16.5729      1.00000
     28     -16.2066      1.00000
     29     -15.8399      1.00000
     30     -15.5576      1.00000
     31     -15.4443      1.00000
     32     -15.1224      1.00000
     33     -14.8425      1.00000
     34     -14.8220      1.00000
     35     -14.4245      1.00000
     36     -14.3217      1.00000
     37     -13.9607      1.00000
     38     -13.5048      1.00000
     39     -13.2378      1.00000
     40     -13.0578      1.00000
     41     -12.9112      1.00000
     42     -12.6724      1.00000
     43     -12.5107      1.00000
     44     -12.2258      1.00000
     45     -12.0046      1.00000
     46     -11.8564      1.00000
     47     -11.7151      1.00000
     48     -11.7110      1.00000
     49     -11.1546      1.00000
     50     -11.0605      1.00000
     51     -10.7957      1.00000
     52     -10.6607      1.00000
     53     -10.4694      1.00000
     54     -10.4459      1.00000
     55     -10.3591      1.00000
     56     -10.1028      1.00000
     57      -9.9688      1.00000
     58      -9.8497      1.00000
     59      -9.8303      1.00000
     60      -9.7412      1.00000
     61      -9.6473      1.00000
     62      -9.4587      1.00000
     63      -9.4370      1.00000
     64      -9.3484      1.00000
     65      -9.3445      1.00000
     66      -9.2329      1.00000
     67      -9.1916      1.00000
     68      -8.9432      1.00000
     69      -8.9331      1.00000
     70      -8.8854      1.00000
     71      -8.7329      1.00000
     72      -8.6161      1.00000
     73      -8.5600      1.00000
     74      -8.5378      1.00000
     75      -8.2868      1.00000
     76      -8.2310      1.00000
     77      -8.0285      1.00000
     78      -7.9325      1.00000
     79      -7.7927      1.00000
     80      -7.7568      1.00000
     81      -7.5561      1.00000
     82      -7.4039      1.00000
     83      -7.2297      1.00000
     84      -7.2271      1.00000
     85      -6.9599      1.00000
     86      -6.9368      1.00000
     87      -6.6652      1.00000
     88      -6.6599      1.00000
     89      -6.3249      1.00000
     90      -6.2604      1.00000
     91      -6.2147      1.00000
     92      -6.1878      1.00000
     93      -6.1536      1.00000
     94      -5.9460      1.00000
     95      -5.5784      1.00000
     96      -5.3041      1.00000
     97      -4.9826      1.00000
     98      -4.9488      1.00000
     99      -4.7175      1.00000
    100      -4.5760      1.00000
    101      -3.8769      1.00000
    102      -3.5624      1.00000
    103      -2.8378      1.00000
    104      -2.4100      0.93832
    105      -2.3396      0.70716
    106      -1.7097      0.00000
    107      -1.3539      0.00000
    108      -1.2348      0.00000
    109      -0.9501      0.00000
    110      -0.9493      0.00000
    111      -0.7983      0.00000
    112      -0.6387      0.00000
    113      -0.5009      0.00000
    114      -0.1320      0.00000
    115       0.2663      0.00000
    116       0.3289      0.00000
    117       0.6516      0.00000
    118       0.7844      0.00000
    119       1.0214      0.00000
    120       1.2144      0.00000
    121       1.2248      0.00000
    122       1.2744      0.00000
    123       1.4998      0.00000
    124       1.7125      0.00000
    125       1.8235      0.00000
    126       1.9202      0.00000
    127       1.9495      0.00000
    128       1.9882      0.00000
    129       2.2131      0.00000
    130       2.3574      0.00000
    131       2.3625      0.00000
    132       2.3840      0.00000
    133       2.5152      0.00000
    134       2.6110      0.00000
    135       2.6296      0.00000
    136       2.6831      0.00000
    137       2.7078      0.00000
    138       2.8139      0.00000
    139       2.8242      0.00000
    140       2.9758      0.00000
    141       3.0448      0.00000
    142       3.0788      0.00000
    143       3.1578      0.00000
    144       3.1809      0.00000
    145       3.2741      0.00000
    146       3.3133      0.00000
    147       3.4290      0.00000
    148       3.5112      0.00000
    149       3.5234      0.00000
    150       3.6693      0.00000
    151       3.7144      0.00000
    152       3.7313      0.00000
    153       3.7620      0.00000
    154       3.9316      0.00000
    155       3.9580      0.00000
    156       3.9675      0.00000
    157       4.0152      0.00000
    158       4.0283      0.00000
    159       4.0828      0.00000
    160       4.1053      0.00000
    161       4.2152      0.00000
    162       4.2185      0.00000
    163       4.2236      0.00000
    164       4.3624      0.00000
    165       4.4061      0.00000
    166       4.4208      0.00000
    167       4.4873      0.00000
    168       4.5959      0.00000
    169       4.6697      0.00000
    170       4.7854      0.00000
    171       4.8112      0.00000
    172       4.8341      0.00000
    173       4.8950      0.00000
    174       4.9385      0.00000
    175       5.0016      0.00000
    176       5.0098      0.00000
    177       5.0263      0.00000
    178       5.0505      0.00000
    179       5.0785      0.00000
    180       5.0873      0.00000
    181       5.1851      0.00000
    182       5.1966      0.00000
    183       5.2268      0.00000
    184       5.2930      0.00000
    185       5.3281      0.00000
    186       5.3578      0.00000
    187       5.4151      0.00000
    188       5.4474      0.00000
    189       5.4606      0.00000
    190       5.4917      0.00000
    191       5.5348      0.00000
    192       5.5703      0.00000
    193       5.6073      0.00000
    194       5.6118      0.00000
    195       5.6516      0.00000
    196       5.6943      0.00000
    197       5.7392      0.00000
    198       5.7634      0.00000
    199       5.7695      0.00000
    200       5.8463      0.00000
    201       5.8530      0.00000
    202       5.9194      0.00000
    203       5.9280      0.00000
    204       6.0000      0.00000
    205       6.0302      0.00000
    206       6.0412      0.00000
    207       6.0823      0.00000
    208       6.2231      0.00000
    209       6.2381      0.00000
    210       6.2425      0.00000
    211       6.2633      0.00000
    212       6.2997      0.00000
    213       6.3454      0.00000
    214       6.4560      0.00000
    215       6.4630      0.00000
    216       6.5194      0.00000
    217       6.5458      0.00000
    218       6.5770      0.00000
    219       6.6459      0.00000
    220       6.6590      0.00000
    221       6.7356      0.00000
    222       6.7884      0.00000
    223       6.7975      0.00000
    224       6.8340      0.00000
    225       6.8964      0.00000
    226       6.9317      0.00000
    227       6.9417      0.00000
    228       7.0781      0.00000
    229       7.1124      0.00000
    230       7.2078      0.00000
    231       7.2081      0.00000
    232       7.2454      0.00000
    233       7.3877      0.00000
    234       7.3903      0.00000
    235       7.4859      0.00000
    236       7.4990      0.00000
    237       7.6951      0.00000
    238       7.6962      0.00000
    239       7.7972      0.00000
    240       7.8194      0.00000
    241       7.8209      0.00000
    242       7.8751      0.00000
    243       7.9202      0.00000
    244       7.9388      0.00000
    245       7.9732      0.00000
    246       8.1808      0.00000
    247       8.2687      0.00000
    248       8.3260      0.00000
    249       8.5637      0.00000
    250       8.5817      0.00000
    251       8.6362      0.00000
    252       8.6951      0.00000
    253       8.9632      0.00000
    254       8.9952      0.00000
    255       9.0161      0.00000
    256       9.4538      0.00000

 k-point     6 :       0.4000    0.2000    0.0000
  band No.  band energies     occupation 
      1     -38.1199      1.00000
      2     -38.0190      1.00000
      3     -38.0106      1.00000
      4     -23.2812      1.00000
      5     -22.9555      1.00000
      6     -22.6490      1.00000
      7     -22.3286      1.00000
      8     -21.6257      1.00000
      9     -21.4203      1.00000
     10     -21.1061      1.00000
     11     -20.6486      1.00000
     12     -20.4938      1.00000
     13     -20.1814      1.00000
     14     -20.0088      1.00000
     15     -19.8799      1.00000
     16     -19.4777      1.00000
     17     -18.8645      1.00000
     18     -18.7809      1.00000
     19     -18.5073      1.00000
     20     -18.2719      1.00000
     21     -18.0595      1.00000
     22     -17.9541      1.00000
     23     -17.4937      1.00000
     24     -17.3751      1.00000
     25     -17.2552      1.00000
     26     -17.0616      1.00000
     27     -16.5955      1.00000
     28     -16.1244      1.00000
     29     -16.0700      1.00000
     30     -15.7284      1.00000
     31     -15.5327      1.00000
     32     -14.8538      1.00000
     33     -14.7028      1.00000
     34     -14.5597      1.00000
     35     -14.1751      1.00000
     36     -14.0812      1.00000
     37     -13.9293      1.00000
     38     -13.7961      1.00000
     39     -13.5837      1.00000
     40     -13.2593      1.00000
     41     -12.9489      1.00000
     42     -12.5901      1.00000
     43     -12.3272      1.00000
     44     -12.2495      1.00000
     45     -12.0768      1.00000
     46     -11.9874      1.00000
     47     -11.9138      1.00000
     48     -11.4331      1.00000
     49     -11.2849      1.00000
     50     -11.0916      1.00000
     51     -10.9044      1.00000
     52     -10.5593      1.00000
     53     -10.4102      1.00000
     54     -10.2593      1.00000
     55     -10.1936      1.00000
     56     -10.0929      1.00000
     57     -10.0256      1.00000
     58      -9.9220      1.00000
     59      -9.8586      1.00000
     60      -9.8251      1.00000
     61      -9.7372      1.00000
     62      -9.5580      1.00000
     63      -9.4117      1.00000
     64      -9.3418      1.00000
     65      -9.2850      1.00000
     66      -9.0903      1.00000
     67      -9.0200      1.00000
     68      -8.9774      1.00000
     69      -8.8972      1.00000
     70      -8.8380      1.00000
     71      -8.7786      1.00000
     72      -8.6552      1.00000
     73      -8.4808      1.00000
     74      -8.4269      1.00000
     75      -8.3407      1.00000
     76      -8.1522      1.00000
     77      -8.0876      1.00000
     78      -7.9877      1.00000
     79      -7.8824      1.00000
     80      -7.8376      1.00000
     81      -7.6014      1.00000
     82      -7.4770      1.00000
     83      -7.4546      1.00000
     84      -7.2308      1.00000
     85      -7.0425      1.00000
     86      -6.8690      1.00000
     87      -6.5931      1.00000
     88      -6.4878      1.00000
     89      -6.3674      1.00000
     90      -6.3192      1.00000
     91      -6.2826      1.00000
     92      -6.0436      1.00000
     93      -5.8374      1.00000
     94      -5.6913      1.00000
     95      -5.6001      1.00000
     96      -5.3424      1.00000
     97      -5.1307      1.00000
     98      -5.0615      1.00000
     99      -4.9845      1.00000
    100      -4.5996      1.00000
    101      -4.0539      1.00000
    102      -3.2469      1.00000
    103      -2.8759      1.00000
    104      -2.4641      0.98945
    105      -2.3467      0.74080
    106      -1.8417      0.00000
    107      -1.3885      0.00000
    108      -0.9973      0.00000
    109      -0.9255      0.00000
    110      -0.7925      0.00000
    111      -0.7079      0.00000
    112      -0.6656      0.00000
    113      -0.3508      0.00000
    114      -0.0919      0.00000
    115       0.0400      0.00000
    116       0.1485      0.00000
    117       0.4484      0.00000
    118       0.8011      0.00000
    119       0.9100      0.00000
    120       1.0222      0.00000
    121       1.2071      0.00000
    122       1.2519      0.00000
    123       1.6489      0.00000
    124       1.7294      0.00000
    125       1.8444      0.00000
    126       1.9345      0.00000
    127       2.0571      0.00000
    128       2.0655      0.00000
    129       2.2048      0.00000
    130       2.3028      0.00000
    131       2.3330      0.00000
    132       2.3603      0.00000
    133       2.4697      0.00000
    134       2.5744      0.00000
    135       2.6608      0.00000
    136       2.9394      0.00000
    137       2.9545      0.00000
    138       3.0342      0.00000
    139       3.0384      0.00000
    140       3.0959      0.00000
    141       3.1045      0.00000
    142       3.1442      0.00000
    143       3.1802      0.00000
    144       3.2394      0.00000
    145       3.3114      0.00000
    146       3.3711      0.00000
    147       3.3747      0.00000
    148       3.3945      0.00000
    149       3.4691      0.00000
    150       3.5765      0.00000
    151       3.6249      0.00000
    152       3.6453      0.00000
    153       3.6867      0.00000
    154       3.8029      0.00000
    155       3.8812      0.00000
    156       3.9316      0.00000
    157       3.9575      0.00000
    158       4.0709      0.00000
    159       4.1056      0.00000
    160       4.1494      0.00000
    161       4.1630      0.00000
    162       4.2244      0.00000
    163       4.3318      0.00000
    164       4.4204      0.00000
    165       4.4383      0.00000
    166       4.4441      0.00000
    167       4.4759      0.00000
    168       4.5585      0.00000
    169       4.5679      0.00000
    170       4.6758      0.00000
    171       4.6997      0.00000
    172       4.7125      0.00000
    173       4.7448      0.00000
    174       4.8273      0.00000
    175       4.9156      0.00000
    176       4.9381      0.00000
    177       5.0083      0.00000
    178       5.0614      0.00000
    179       5.1266      0.00000
    180       5.1638      0.00000
    181       5.1967      0.00000
    182       5.2320      0.00000
    183       5.2488      0.00000
    184       5.2669      0.00000
    185       5.2921      0.00000
    186       5.3501      0.00000
    187       5.4064      0.00000
    188       5.4377      0.00000
    189       5.4671      0.00000
    190       5.4976      0.00000
    191       5.5165      0.00000
    192       5.5555      0.00000
    193       5.6259      0.00000
    194       5.6609      0.00000
    195       5.7036      0.00000
    196       5.7253      0.00000
    197       5.7810      0.00000
    198       5.8097      0.00000
    199       5.8215      0.00000
    200       5.8814      0.00000
    201       5.9181      0.00000
    202       5.9426      0.00000
    203       5.9785      0.00000
    204       5.9949      0.00000
    205       6.0160      0.00000
    206       6.0476      0.00000
    207       6.0700      0.00000
    208       6.1027      0.00000
    209       6.1609      0.00000
    210       6.2088      0.00000
    211       6.2527      0.00000
    212       6.2949      0.00000
    213       6.3602      0.00000
    214       6.3727      0.00000
    215       6.4044      0.00000
    216       6.4464      0.00000
    217       6.4579      0.00000
    218       6.4823      0.00000
    219       6.5122      0.00000
    220       6.5232      0.00000
    221       6.5795      0.00000
    222       6.6317      0.00000
    223       6.6716      0.00000
    224       6.7467      0.00000
    225       6.8075      0.00000
    226       6.8265      0.00000
    227       6.8731      0.00000
    228       6.9434      0.00000
    229       6.9564      0.00000
    230       7.0437      0.00000
    231       7.0897      0.00000
    232       7.1460      0.00000
    233       7.1627      0.00000
    234       7.2230      0.00000
    235       7.2663      0.00000
    236       7.3139      0.00000
    237       7.3561      0.00000
    238       7.4486      0.00000
    239       7.5082      0.00000
    240       7.5434      0.00000
    241       7.5820      0.00000
    242       7.6167      0.00000
    243       7.7556      0.00000
    244       7.8298      0.00000
    245       7.8483      0.00000
    246       7.8623      0.00000
    247       7.8991      0.00000
    248       8.0323      0.00000
    249       8.0902      0.00000
    250       8.2153      0.00000
    251       8.3084      0.00000
    252       8.3563      0.00000
    253       8.4826      0.00000
    254       8.6381      0.00000
    255       8.7316      0.00000
    256       9.0066      0.00000

 k-point     7 :      -0.4000    0.2000    0.0000
  band No.  band energies     occupation 
      1     -38.1199      1.00000
      2     -38.0190      1.00000
      3     -38.0106      1.00000
      4     -23.2893      1.00000
      5     -22.9387      1.00000
      6     -22.6538      1.00000
      7     -22.3174      1.00000
      8     -21.6476      1.00000
      9     -21.4776      1.00000
     10     -21.0077      1.00000
     11     -20.7135      1.00000
     12     -20.5108      1.00000
     13     -20.2544      1.00000
     14     -19.8918      1.00000
     15     -19.7402      1.00000
     16     -19.4164      1.00000
     17     -19.0376      1.00000
     18     -18.8755      1.00000
     19     -18.5203      1.00000
     20     -18.3302      1.00000
     21     -18.0546      1.00000
     22     -17.8234      1.00000
     23     -17.6462      1.00000
     24     -17.4252      1.00000
     25     -17.1672      1.00000
     26     -16.9408      1.00000
     27     -16.7140      1.00000
     28     -16.0591      1.00000
     29     -15.7351      1.00000
     30     -15.5432      1.00000
     31     -15.4994      1.00000
     32     -15.0180      1.00000
     33     -14.8870      1.00000
     34     -14.7118      1.00000
     35     -14.5142      1.00000
     36     -14.3763      1.00000
     37     -13.8065      1.00000
     38     -13.5397      1.00000
     39     -13.2857      1.00000
     40     -13.1906      1.00000
     41     -12.9551      1.00000
     42     -12.8737      1.00000
     43     -12.5073      1.00000
     44     -12.1478      1.00000
     45     -12.0763      1.00000
     46     -11.8586      1.00000
     47     -11.6426      1.00000
     48     -11.4133      1.00000
     49     -11.3284      1.00000
     50     -10.7627      1.00000
     51     -10.6721      1.00000
     52     -10.6282      1.00000
     53     -10.5326      1.00000
     54     -10.4974      1.00000
     55     -10.3510      1.00000
     56     -10.1129      1.00000
     57     -10.0334      1.00000
     58      -9.9669      1.00000
     59      -9.9051      1.00000
     60      -9.8364      1.00000
     61      -9.6988      1.00000
     62      -9.4768      1.00000
     63      -9.4406      1.00000
     64      -9.3909      1.00000
     65      -9.3596      1.00000
     66      -9.2316      1.00000
     67      -9.1416      1.00000
     68      -9.0562      1.00000
     69      -8.9170      1.00000
     70      -8.7826      1.00000
     71      -8.7059      1.00000
     72      -8.5210      1.00000
     73      -8.4976      1.00000
     74      -8.4185      1.00000
     75      -8.2408      1.00000
     76      -8.1886      1.00000
     77      -8.1043      1.00000
     78      -7.9758      1.00000
     79      -7.7964      1.00000
     80      -7.6499      1.00000
     81      -7.5619      1.00000
     82      -7.5048      1.00000
     83      -7.3219      1.00000
     84      -7.2913      1.00000
     85      -7.0933      1.00000
     86      -6.9753      1.00000
     87      -6.7205      1.00000
     88      -6.5070      1.00000
     89      -6.3887      1.00000
     90      -6.3480      1.00000
     91      -6.2824      1.00000
     92      -6.0783      1.00000
     93      -5.9630      1.00000
     94      -5.7328      1.00000
     95      -5.4436      1.00000
     96      -5.3471      1.00000
     97      -5.2166      1.00000
     98      -5.0466      1.00000
     99      -4.6235      1.00000
    100      -4.5560      1.00000
    101      -4.1679      1.00000
    102      -3.3239      1.00000
    103      -2.7019      1.00000
    104      -2.4273      0.96270
    105      -2.3391      0.70323
    106      -1.8884      0.00000
    107      -1.4290      0.00000
    108      -1.2086      0.00000
    109      -1.0364      0.00000
    110      -0.8973      0.00000
    111      -0.6847      0.00000
    112      -0.5668      0.00000
    113      -0.3841      0.00000
    114      -0.2257      0.00000
    115       0.2532      0.00000
    116       0.3842      0.00000
    117       0.6990      0.00000
    118       0.7789      0.00000
    119       0.9485      0.00000
    120       1.0377      0.00000
    121       1.2064      0.00000
    122       1.2874      0.00000
    123       1.5931      0.00000
    124       1.7222      0.00000
    125       1.8036      0.00000
    126       1.8842      0.00000
    127       1.9251      0.00000
    128       1.9820      0.00000
    129       2.1267      0.00000
    130       2.2809      0.00000
    131       2.3786      0.00000
    132       2.3819      0.00000
    133       2.4886      0.00000
    134       2.6267      0.00000
    135       2.6484      0.00000
    136       2.6864      0.00000
    137       2.7525      0.00000
    138       2.8481      0.00000
    139       2.9352      0.00000
    140       3.0240      0.00000
    141       3.1023      0.00000
    142       3.1459      0.00000
    143       3.1768      0.00000
    144       3.2709      0.00000
    145       3.3149      0.00000
    146       3.4250      0.00000
    147       3.4540      0.00000
    148       3.4738      0.00000
    149       3.5252      0.00000
    150       3.5751      0.00000
    151       3.6497      0.00000
    152       3.6856      0.00000
    153       3.7349      0.00000
    154       3.8556      0.00000
    155       3.9422      0.00000
    156       3.9564      0.00000
    157       4.0071      0.00000
    158       4.0446      0.00000
    159       4.1115      0.00000
    160       4.1663      0.00000
    161       4.2048      0.00000
    162       4.2066      0.00000
    163       4.2233      0.00000
    164       4.3640      0.00000
    165       4.3952      0.00000
    166       4.4404      0.00000
    167       4.5203      0.00000
    168       4.6031      0.00000
    169       4.6749      0.00000
    170       4.7803      0.00000
    171       4.8069      0.00000
    172       4.8239      0.00000
    173       4.8888      0.00000
    174       4.9398      0.00000
    175       5.0005      0.00000
    176       5.0113      0.00000
    177       5.0207      0.00000
    178       5.1068      0.00000
    179       5.1080      0.00000
    180       5.1740      0.00000
    181       5.2414      0.00000
    182       5.2789      0.00000
    183       5.3105      0.00000
    184       5.3463      0.00000
    185       5.3688      0.00000
    186       5.3870      0.00000
    187       5.4603      0.00000
    188       5.5385      0.00000
    189       5.6022      0.00000
    190       5.6550      0.00000
    191       5.7010      0.00000
    192       5.7514      0.00000
    193       5.7546      0.00000
    194       5.7728      0.00000
    195       5.8177      0.00000
    196       5.8431      0.00000
    197       5.8597      0.00000
    198       6.0204      0.00000
    199       6.0484      0.00000
    200       6.0651      0.00000
    201       6.1227      0.00000
    202       6.1342      0.00000
    203       6.2102      0.00000
    204       6.2484      0.00000
    205       6.3121      0.00000
    206       6.4577      0.00000
    207       6.4878      0.00000
    208       6.5156      0.00000
    209       6.5634      0.00000
    210       6.5916      0.00000
    211       6.6319      0.00000
    212       6.7620      0.00000
    213       6.8267      0.00000
    214       6.8346      0.00000
    215       6.9498      0.00000
    216       6.9669      0.00000
    217       6.9772      0.00000
    218       7.0604      0.00000
    219       7.1713      0.00000
    220       7.2180      0.00000
    221       7.2818      0.00000
    222       7.3609      0.00000
    223       7.3886      0.00000
    224       7.3915      0.00000
    225       7.4190      0.00000
    226       7.4404      0.00000
    227       7.6192      0.00000
    228       7.6448      0.00000
    229       7.7467      0.00000
    230       7.7533      0.00000
    231       7.8787      0.00000
    232       7.8888      0.00000
    233       7.9177      0.00000
    234       7.9401      0.00000
    235       7.9755      0.00000
    236       8.1357      0.00000
    237       8.2495      0.00000
    238       8.2714      0.00000
    239       8.2824      0.00000
    240       8.4646      0.00000
    241       8.4831      0.00000
    242       8.5271      0.00000
    243       8.6158      0.00000
    244       8.7655      0.00000
    245       9.0214      0.00000
    246       9.0601      0.00000
    247       9.0816      0.00000
    248       9.4048      0.00000
    249       9.4798      0.00000
    250       9.5534      0.00000
    251       9.6357      0.00000
    252       9.6951      0.00000
    253       9.7268      0.00000
    254       9.9146      0.00000
    255      11.0924      0.00000
    256      11.2711      0.00000

 k-point     8 :      -0.2000    0.2000    0.0000
  band No.  band energies     occupation 
      1     -38.1199      1.00000
      2     -38.0190      1.00000
      3     -38.0106      1.00000
      4     -23.3002      1.00000
      5     -22.9239      1.00000
      6     -22.6363      1.00000
      7     -22.3216      1.00000
      8     -21.6909      1.00000
      9     -21.4670      1.00000
     10     -20.9917      1.00000
     11     -20.8842      1.00000
     12     -20.3275      1.00000
     13     -20.3096      1.00000
     14     -19.7464      1.00000
     15     -19.5632      1.00000
     16     -19.3906      1.00000
     17     -19.0686      1.00000
     18     -19.0072      1.00000
     19     -18.6341      1.00000
     20     -18.5877      1.00000
     21     -18.2140      1.00000
     22     -17.8953      1.00000
     23     -17.6374      1.00000
     24     -17.0910      1.00000
     25     -16.9729      1.00000
     26     -16.9022      1.00000
     27     -16.6590      1.00000
     28     -15.8030      1.00000
     29     -15.6834      1.00000
     30     -15.4917      1.00000
     31     -15.4061      1.00000
     32     -15.1769      1.00000
     33     -15.0937      1.00000
     34     -15.0078      1.00000
     35     -14.7629      1.00000
     36     -14.4570      1.00000
     37     -13.7875      1.00000
     38     -13.6846      1.00000
     39     -13.4113      1.00000
     40     -13.1313      1.00000
     41     -12.7213      1.00000
     42     -12.4175      1.00000
     43     -12.3610      1.00000
     44     -12.2427      1.00000
     45     -12.1110      1.00000
     46     -11.8250      1.00000
     47     -11.4868      1.00000
     48     -11.3363      1.00000
     49     -11.0838      1.00000
     50     -11.0177      1.00000
     51     -11.0034      1.00000
     52     -10.5665      1.00000
     53     -10.5413      1.00000
     54     -10.4549      1.00000
     55     -10.4225      1.00000
     56     -10.2497      1.00000
     57     -10.0408      1.00000
     58      -9.9221      1.00000
     59      -9.8403      1.00000
     60      -9.7997      1.00000
     61      -9.6248      1.00000
     62      -9.6160      1.00000
     63      -9.4268      1.00000
     64      -9.3341      1.00000
     65      -9.3166      1.00000
     66      -9.2293      1.00000
     67      -9.1466      1.00000
     68      -9.1249      1.00000
     69      -9.0975      1.00000
     70      -8.8450      1.00000
     71      -8.8423      1.00000
     72      -8.8014      1.00000
     73      -8.6245      1.00000
     74      -8.2208      1.00000
     75      -8.2130      1.00000
     76      -7.9691      1.00000
     77      -7.9080      1.00000
     78      -7.8097      1.00000
     79      -7.7519      1.00000
     80      -7.6729      1.00000
     81      -7.5901      1.00000
     82      -7.4078      1.00000
     83      -7.2951      1.00000
     84      -7.2473      1.00000
     85      -7.0426      1.00000
     86      -6.8683      1.00000
     87      -6.8615      1.00000
     88      -6.6153      1.00000
     89      -6.5560      1.00000
     90      -6.4127      1.00000
     91      -6.2350      1.00000
     92      -6.1263      1.00000
     93      -6.0913      1.00000
     94      -5.8252      1.00000
     95      -5.7321      1.00000
     96      -5.4323      1.00000
     97      -4.9764      1.00000
     98      -4.5838      1.00000
     99      -4.5683      1.00000
    100      -4.3234      1.00000
    101      -4.2739      1.00000
    102      -3.4106      1.00000
    103      -2.6463      1.00000
    104      -2.3809      0.87050
    105      -2.3787      0.86343
    106      -1.8917      0.00000
    107      -1.5672      0.00000
    108      -1.2694      0.00000
    109      -1.2169      0.00000
    110      -0.9379      0.00000
    111      -0.8606      0.00000
    112      -0.5145      0.00000
    113      -0.2236      0.00000
    114      -0.2009      0.00000
    115       0.3714      0.00000
    116       0.4776      0.00000
    117       0.6946      0.00000
    118       0.9932      0.00000
    119       1.1455      0.00000
    120       1.1887      0.00000
    121       1.3603      0.00000
    122       1.5043      0.00000
    123       1.5471      0.00000
    124       1.5509      0.00000
    125       1.5745      0.00000
    126       1.7057      0.00000
    127       1.7993      0.00000
    128       2.0417      0.00000
    129       2.0620      0.00000
    130       2.2587      0.00000
    131       2.2955      0.00000
    132       2.3241      0.00000
    133       2.3942      0.00000
    134       2.4995      0.00000
    135       2.5632      0.00000
    136       2.7019      0.00000
    137       2.7621      0.00000
    138       2.7761      0.00000
    139       2.8162      0.00000
    140       2.8936      0.00000
    141       2.9308      0.00000
    142       3.0981      0.00000
    143       3.2069      0.00000
    144       3.2629      0.00000
    145       3.3223      0.00000
    146       3.3343      0.00000
    147       3.4092      0.00000
    148       3.4961      0.00000
    149       3.5465      0.00000
    150       3.5854      0.00000
    151       3.6167      0.00000
    152       3.6486      0.00000
    153       3.6701      0.00000
    154       3.7708      0.00000
    155       3.9342      0.00000
    156       3.9720      0.00000
    157       4.0475      0.00000
    158       4.1191      0.00000
    159       4.1727      0.00000
    160       4.2459      0.00000
    161       4.3153      0.00000
    162       4.3678      0.00000
    163       4.4037      0.00000
    164       4.4563      0.00000
    165       4.4567      0.00000
    166       4.5839      0.00000
    167       4.6033      0.00000
    168       4.6151      0.00000
    169       4.6520      0.00000
    170       4.6836      0.00000
    171       4.8077      0.00000
    172       4.8472      0.00000
    173       4.9016      0.00000
    174       4.9095      0.00000
    175       4.9244      0.00000
    176       5.0262      0.00000
    177       5.0292      0.00000
    178       5.0629      0.00000
    179       5.0643      0.00000
    180       5.1109      0.00000
    181       5.2011      0.00000
    182       5.2344      0.00000
    183       5.2349      0.00000
    184       5.2709      0.00000
    185       5.3331      0.00000
    186       5.3804      0.00000
    187       5.4092      0.00000
    188       5.4714      0.00000
    189       5.6044      0.00000
    190       5.6224      0.00000
    191       5.6528      0.00000
    192       5.6919      0.00000
    193       5.7318      0.00000
    194       5.7539      0.00000
    195       5.7854      0.00000
    196       5.8155      0.00000
    197       5.8429      0.00000
    198       5.8472      0.00000
    199       5.8551      0.00000
    200       5.8783      0.00000
    201       5.9799      0.00000
    202       6.0350      0.00000
    203       6.0643      0.00000
    204       6.1653      0.00000
    205       6.1769      0.00000
    206       6.2373      0.00000
    207       6.2480      0.00000
    208       6.2759      0.00000
    209       6.3274      0.00000
    210       6.4528      0.00000
    211       6.4657      0.00000
    212       6.5056      0.00000
    213       6.5153      0.00000
    214       6.5658      0.00000
    215       6.6693      0.00000
    216       6.6974      0.00000
    217       6.7210      0.00000
    218       6.8050      0.00000
    219       6.8969      0.00000
    220       6.9187      0.00000
    221       6.9328      0.00000
    222       7.0051      0.00000
    223       7.0679      0.00000
    224       7.1373      0.00000
    225       7.2255      0.00000
    226       7.2424      0.00000
    227       7.3976      0.00000
    228       7.5147      0.00000
    229       7.5625      0.00000
    230       7.6303      0.00000
    231       7.7055      0.00000
    232       7.7307      0.00000
    233       7.7397      0.00000
    234       7.7572      0.00000
    235       7.8536      0.00000
    236       8.0337      0.00000
    237       8.0550      0.00000
    238       8.1515      0.00000
    239       8.2239      0.00000
    240       8.3362      0.00000
    241       8.4122      0.00000
    242       8.5481      0.00000
    243       8.6452      0.00000
    244       8.6683      0.00000
    245       8.7211      0.00000
    246       8.7706      0.00000
    247       8.9603      0.00000
    248       9.0624      0.00000
    249       9.1971      0.00000
    250       9.2112      0.00000
    251       9.5962      0.00000
    252       9.6262      0.00000
    253      10.1387      0.00000
    254      10.5642      0.00000
    255      10.6909      0.00000
    256      11.0157      0.00000

 k-point     9 :       0.0000    0.4000    0.0000
  band No.  band energies     occupation 
      1     -38.1199      1.00000
      2     -38.0190      1.00000
      3     -38.0106      1.00000
      4     -23.2853      1.00000
      5     -22.9531      1.00000
      6     -22.6324      1.00000
      7     -22.3405      1.00000
      8     -21.6254      1.00000
      9     -21.4376      1.00000
     10     -21.0908      1.00000
     11     -20.6428      1.00000
     12     -20.5910      1.00000
     13     -20.2428      1.00000
     14     -19.8252      1.00000
     15     -19.7109      1.00000
     16     -19.3185      1.00000
     17     -19.3073      1.00000
     18     -18.8488      1.00000
     19     -18.5286      1.00000
     20     -18.2131      1.00000
     21     -18.0199      1.00000
     22     -17.8853      1.00000
     23     -17.5512      1.00000
     24     -17.4275      1.00000
     25     -17.2788      1.00000
     26     -16.9604      1.00000
     27     -16.5154      1.00000
     28     -16.2169      1.00000
     29     -15.8739      1.00000
     30     -15.4040      1.00000
     31     -15.3955      1.00000
     32     -15.1969      1.00000
     33     -15.1106      1.00000
     34     -14.7416      1.00000
     35     -14.3805      1.00000
     36     -14.1804      1.00000
     37     -13.6527      1.00000
     38     -13.5252      1.00000
     39     -13.3821      1.00000
     40     -13.0632      1.00000
     41     -12.8897      1.00000
     42     -12.7813      1.00000
     43     -12.7116      1.00000
     44     -12.4093      1.00000
     45     -12.0076      1.00000
     46     -11.7770      1.00000
     47     -11.6214      1.00000
     48     -11.4643      1.00000
     49     -11.3745      1.00000
     50     -10.9842      1.00000
     51     -10.8151      1.00000
     52     -10.6466      1.00000
     53     -10.4945      1.00000
     54     -10.3532      1.00000
     55     -10.2220      1.00000
     56     -10.1360      1.00000
     57     -10.0604      1.00000
     58      -9.9085      1.00000
     59      -9.8015      1.00000
     60      -9.7168      1.00000
     61      -9.6642      1.00000
     62      -9.6174      1.00000
     63      -9.5429      1.00000
     64      -9.4765      1.00000
     65      -9.2320      1.00000
     66      -9.2168      1.00000
     67      -8.9889      1.00000
     68      -8.8904      1.00000
     69      -8.8661      1.00000
     70      -8.7923      1.00000
     71      -8.7588      1.00000
     72      -8.6396      1.00000
     73      -8.5384      1.00000
     74      -8.3755      1.00000
     75      -8.3213      1.00000
     76      -8.3074      1.00000
     77      -8.1804      1.00000
     78      -7.9482      1.00000
     79      -7.9286      1.00000
     80      -7.7551      1.00000
     81      -7.5785      1.00000
     82      -7.3948      1.00000
     83      -7.1852      1.00000
     84      -7.0044      1.00000
     85      -6.9418      1.00000
     86      -6.8675      1.00000
     87      -6.8591      1.00000
     88      -6.6922      1.00000
     89      -6.6883      1.00000
     90      -6.3169      1.00000
     91      -6.2346      1.00000
     92      -6.0565      1.00000
     93      -5.8405      1.00000
     94      -5.6079      1.00000
     95      -5.5691      1.00000
     96      -5.3478      1.00000
     97      -5.1578      1.00000
     98      -5.0524      1.00000
     99      -4.9849      1.00000
    100      -4.3848      1.00000
    101      -3.8290      1.00000
    102      -3.6592      1.00000
    103      -2.8033      1.00000
    104      -2.3956      0.90947
    105      -2.3327      0.67250
    106      -1.5960      0.00000
    107      -1.4449      0.00000
    108      -1.3220      0.00000
    109      -1.0260      0.00000
    110      -0.7537      0.00000
    111      -0.7095      0.00000
    112      -0.6208      0.00000
    113      -0.4705      0.00000
    114      -0.1789      0.00000
    115       0.0487      0.00000
    116       0.3294      0.00000
    117       0.5523      0.00000
    118       0.8227      0.00000
    119       1.0063      0.00000
    120       1.1344      0.00000
    121       1.4904      0.00000
    122       1.5015      0.00000
    123       1.5940      0.00000
    124       1.6494      0.00000
    125       1.6665      0.00000
    126       1.8079      0.00000
    127       1.8574      0.00000
    128       1.9852      0.00000
    129       2.1344      0.00000
    130       2.1966      0.00000
    131       2.3427      0.00000
    132       2.4578      0.00000
    133       2.5264      0.00000
    134       2.5688      0.00000
    135       2.6821      0.00000
    136       2.6961      0.00000
    137       2.8247      0.00000
    138       2.9027      0.00000
    139       2.9727      0.00000
    140       2.9883      0.00000
    141       3.0180      0.00000
    142       3.0491      0.00000
    143       3.1915      0.00000
    144       3.2291      0.00000
    145       3.3516      0.00000
    146       3.4161      0.00000
    147       3.4810      0.00000
    148       3.5490      0.00000
    149       3.5929      0.00000
    150       3.6732      0.00000
    151       3.6924      0.00000
    152       3.7299      0.00000
    153       3.7520      0.00000
    154       3.7717      0.00000
    155       3.8747      0.00000
    156       3.8856      0.00000
    157       3.9248      0.00000
    158       4.0301      0.00000
    159       4.1281      0.00000
    160       4.1713      0.00000
    161       4.2648      0.00000
    162       4.2734      0.00000
    163       4.2852      0.00000
    164       4.3056      0.00000
    165       4.3747      0.00000
    166       4.4748      0.00000
    167       4.5238      0.00000
    168       4.5449      0.00000
    169       4.6093      0.00000
    170       4.6870      0.00000
    171       4.7217      0.00000
    172       4.7632      0.00000
    173       4.8558      0.00000
    174       4.8892      0.00000
    175       4.9399      0.00000
    176       4.9824      0.00000
    177       5.0610      0.00000
    178       5.0720      0.00000
    179       5.0957      0.00000
    180       5.1036      0.00000
    181       5.1277      0.00000
    182       5.1934      0.00000
    183       5.2192      0.00000
    184       5.2457      0.00000
    185       5.3132      0.00000
    186       5.4419      0.00000
    187       5.4819      0.00000
    188       5.5145      0.00000
    189       5.5276      0.00000
    190       5.5389      0.00000
    191       5.5564      0.00000
    192       5.5809      0.00000
    193       5.6145      0.00000
    194       5.6158      0.00000
    195       5.6349      0.00000
    196       5.6609      0.00000
    197       5.7050      0.00000
    198       5.7436      0.00000
    199       5.8141      0.00000
    200       5.8462      0.00000
    201       5.9092      0.00000
    202       5.9278      0.00000
    203       5.9918      0.00000
    204       6.0100      0.00000
    205       6.0448      0.00000
    206       6.0988      0.00000
    207       6.1242      0.00000
    208       6.1856      0.00000
    209       6.2014      0.00000
    210       6.3042      0.00000
    211       6.3152      0.00000
    212       6.3160      0.00000
    213       6.4023      0.00000
    214       6.4395      0.00000
    215       6.4578      0.00000
    216       6.5152      0.00000
    217       6.5961      0.00000
    218       6.6600      0.00000
    219       6.6612      0.00000
    220       6.7470      0.00000
    221       6.7994      0.00000
    222       6.8293      0.00000
    223       6.8810      0.00000
    224       6.8958      0.00000
    225       6.9378      0.00000
    226       7.0423      0.00000
    227       7.0679      0.00000
    228       7.1455      0.00000
    229       7.1468      0.00000
    230       7.2467      0.00000
    231       7.2984      0.00000
    232       7.3637      0.00000
    233       7.4011      0.00000
    234       7.4698      0.00000
    235       7.5454      0.00000
    236       7.5974      0.00000
    237       7.6498      0.00000
    238       7.6705      0.00000
    239       7.7505      0.00000
    240       7.7620      0.00000
    241       7.8839      0.00000
    242       7.9028      0.00000
    243       7.9858      0.00000
    244       8.0477      0.00000
    245       8.1977      0.00000
    246       8.2800      0.00000
    247       8.4113      0.00000
    248       8.4208      0.00000
    249       8.5381      0.00000
    250       8.5734      0.00000
    251       8.7724      0.00000
    252       8.8928      0.00000
    253       8.9997      0.00000
    254       9.4295      0.00000
    255       9.4527      0.00000
    256       9.6299      0.00000

 k-point    10 :       0.2000    0.4000    0.0000
  band No.  band energies     occupation 
      1     -38.1199      1.00000
      2     -38.0190      1.00000
      3     -38.0106      1.00000
      4     -23.2812      1.00000
      5     -22.9555      1.00000
      6     -22.6490      1.00000
      7     -22.3286      1.00000
      8     -21.6257      1.00000
      9     -21.4203      1.00000
     10     -21.1061      1.00000
     11     -20.6486      1.00000
     12     -20.4938      1.00000
     13     -20.1814      1.00000
     14     -20.0088      1.00000
     15     -19.8799      1.00000
     16     -19.4777      1.00000
     17     -18.8645      1.00000
     18     -18.7809      1.00000
     19     -18.5073      1.00000
     20     -18.2719      1.00000
     21     -18.0595      1.00000
     22     -17.9541      1.00000
     23     -17.4937      1.00000
     24     -17.3751      1.00000
     25     -17.2552      1.00000
     26     -17.0616      1.00000
     27     -16.5955      1.00000
     28     -16.1244      1.00000
     29     -16.0700      1.00000
     30     -15.7285      1.00000
     31     -15.5327      1.00000
     32     -14.8538      1.00000
     33     -14.7028      1.00000
     34     -14.5597      1.00000
     35     -14.1751      1.00000
     36     -14.0812      1.00000
     37     -13.9293      1.00000
     38     -13.7961      1.00000
     39     -13.5837      1.00000
     40     -13.2593      1.00000
     41     -12.9489      1.00000
     42     -12.5901      1.00000
     43     -12.3272      1.00000
     44     -12.2495      1.00000
     45     -12.0768      1.00000
     46     -11.9874      1.00000
     47     -11.9138      1.00000
     48     -11.4331      1.00000
     49     -11.2849      1.00000
     50     -11.0916      1.00000
     51     -10.9044      1.00000
     52     -10.5594      1.00000
     53     -10.4102      1.00000
     54     -10.2593      1.00000
     55     -10.1936      1.00000
     56     -10.0929      1.00000
     57     -10.0256      1.00000
     58      -9.9220      1.00000
     59      -9.8586      1.00000
     60      -9.8251      1.00000
     61      -9.7372      1.00000
     62      -9.5580      1.00000
     63      -9.4117      1.00000
     64      -9.3418      1.00000
     65      -9.2850      1.00000
     66      -9.0903      1.00000
     67      -9.0200      1.00000
     68      -8.9774      1.00000
     69      -8.8972      1.00000
     70      -8.8380      1.00000
     71      -8.7786      1.00000
     72      -8.6552      1.00000
     73      -8.4808      1.00000
     74      -8.4269      1.00000
     75      -8.3407      1.00000
     76      -8.1522      1.00000
     77      -8.0876      1.00000
     78      -7.9877      1.00000
     79      -7.8824      1.00000
     80      -7.8376      1.00000
     81      -7.6014      1.00000
     82      -7.4770      1.00000
     83      -7.4546      1.00000
     84      -7.2308      1.00000
     85      -7.0425      1.00000
     86      -6.8690      1.00000
     87      -6.5931      1.00000
     88      -6.4878      1.00000
     89      -6.3674      1.00000
     90      -6.3192      1.00000
     91      -6.2826      1.00000
     92      -6.0436      1.00000
     93      -5.8374      1.00000
     94      -5.6913      1.00000
     95      -5.6001      1.00000
     96      -5.3424      1.00000
     97      -5.1307      1.00000
     98      -5.0615      1.00000
     99      -4.9845      1.00000
    100      -4.5996      1.00000
    101      -4.0539      1.00000
    102      -3.2469      1.00000
    103      -2.8759      1.00000
    104      -2.4641      0.98945
    105      -2.3467      0.74080
    106      -1.8417      0.00000
    107      -1.3885      0.00000
    108      -0.9973      0.00000
    109      -0.9255      0.00000
    110      -0.7925      0.00000
    111      -0.7079      0.00000
    112      -0.6656      0.00000
    113      -0.3508      0.00000
    114      -0.0919      0.00000
    115       0.0400      0.00000
    116       0.1485      0.00000
    117       0.4484      0.00000
    118       0.8011      0.00000
    119       0.9100      0.00000
    120       1.0222      0.00000
    121       1.2071      0.00000
    122       1.2519      0.00000
    123       1.6489      0.00000
    124       1.7294      0.00000
    125       1.8444      0.00000
    126       1.9345      0.00000
    127       2.0571      0.00000
    128       2.0655      0.00000
    129       2.2048      0.00000
    130       2.3028      0.00000
    131       2.3330      0.00000
    132       2.3603      0.00000
    133       2.4697      0.00000
    134       2.5744      0.00000
    135       2.6608      0.00000
    136       2.9394      0.00000
    137       2.9545      0.00000
    138       3.0342      0.00000
    139       3.0384      0.00000
    140       3.0959      0.00000
    141       3.1045      0.00000
    142       3.1442      0.00000
    143       3.1802      0.00000
    144       3.2394      0.00000
    145       3.3114      0.00000
    146       3.3711      0.00000
    147       3.3747      0.00000
    148       3.3945      0.00000
    149       3.4691      0.00000
    150       3.5765      0.00000
    151       3.6249      0.00000
    152       3.6453      0.00000
    153       3.6867      0.00000
    154       3.8029      0.00000
    155       3.8812      0.00000
    156       3.9316      0.00000
    157       3.9575      0.00000
    158       4.0709      0.00000
    159       4.1056      0.00000
    160       4.1494      0.00000
    161       4.1630      0.00000
    162       4.2244      0.00000
    163       4.3318      0.00000
    164       4.4204      0.00000
    165       4.4383      0.00000
    166       4.4441      0.00000
    167       4.4759      0.00000
    168       4.5585      0.00000
    169       4.5679      0.00000
    170       4.6758      0.00000
    171       4.6997      0.00000
    172       4.7125      0.00000
    173       4.7448      0.00000
    174       4.8273      0.00000
    175       4.9156      0.00000
    176       4.9381      0.00000
    177       5.0083      0.00000
    178       5.0614      0.00000
    179       5.1266      0.00000
    180       5.1638      0.00000
    181       5.1967      0.00000
    182       5.2320      0.00000
    183       5.2488      0.00000
    184       5.2669      0.00000
    185       5.2921      0.00000
    186       5.3501      0.00000
    187       5.4064      0.00000
    188       5.4377      0.00000
    189       5.4671      0.00000
    190       5.4976      0.00000
    191       5.5165      0.00000
    192       5.5555      0.00000
    193       5.6259      0.00000
    194       5.6609      0.00000
    195       5.7036      0.00000
    196       5.7253      0.00000
    197       5.7810      0.00000
    198       5.8097      0.00000
    199       5.8215      0.00000
    200       5.8814      0.00000
    201       5.9181      0.00000
    202       5.9426      0.00000
    203       5.9785      0.00000
    204       5.9949      0.00000
    205       6.0160      0.00000
    206       6.0476      0.00000
    207       6.0700      0.00000
    208       6.1027      0.00000
    209       6.1609      0.00000
    210       6.2088      0.00000
    211       6.2527      0.00000
    212       6.2948      0.00000
    213       6.3600      0.00000
    214       6.3727      0.00000
    215       6.4035      0.00000
    216       6.4465      0.00000
    217       6.4581      0.00000
    218       6.4824      0.00000
    219       6.5123      0.00000
    220       6.5232      0.00000
    221       6.5796      0.00000
    222       6.6318      0.00000
    223       6.6739      0.00000
    224       6.7468      0.00000
    225       6.8116      0.00000
    226       6.8255      0.00000
    227       6.8738      0.00000
    228       6.9444      0.00000
    229       6.9557      0.00000
    230       7.0428      0.00000
    231       7.0928      0.00000
    232       7.1454      0.00000
    233       7.1619      0.00000
    234       7.2212      0.00000
    235       7.2662      0.00000
    236       7.3137      0.00000
    237       7.3562      0.00000
    238       7.4492      0.00000
    239       7.5089      0.00000
    240       7.5426      0.00000
    241       7.5819      0.00000
    242       7.6165      0.00000
    243       7.7558      0.00000
    244       7.8299      0.00000
    245       7.8480      0.00000
    246       7.8631      0.00000
    247       7.8965      0.00000
    248       8.0321      0.00000
    249       8.0902      0.00000
    250       8.2157      0.00000
    251       8.3070      0.00000
    252       8.3513      0.00000
    253       8.4823      0.00000
    254       8.6382      0.00000
    255       8.7306      0.00000
    256       9.0020      0.00000

 k-point    11 :       0.4000    0.4000    0.0000
  band No.  band energies     occupation 
      1     -38.1199      1.00000
      2     -38.0190      1.00000
      3     -38.0106      1.00000
      4     -23.2828      1.00000
      5     -22.9425      1.00000
      6     -22.6765      1.00000
      7     -22.3024      1.00000
      8     -21.6514      1.00000
      9     -21.4509      1.00000
     10     -21.0324      1.00000
     11     -20.6314      1.00000
     12     -20.3859      1.00000
     13     -20.2368      1.00000
     14     -20.1646      1.00000
     15     -19.9654      1.00000
     16     -19.3372      1.00000
     17     -18.9644      1.00000
     18     -18.5729      1.00000
     19     -18.4777      1.00000
     20     -18.3267      1.00000
     21     -18.0779      1.00000
     22     -17.9101      1.00000
     23     -17.5788      1.00000
     24     -17.3500      1.00000
     25     -17.2377      1.00000
     26     -17.1033      1.00000
     27     -16.8318      1.00000
     28     -16.1347      1.00000
     29     -15.9283      1.00000
     30     -15.7229      1.00000
     31     -15.3680      1.00000
     32     -14.9011      1.00000
     33     -14.5843      1.00000
     34     -14.3375      1.00000
     35     -14.3010      1.00000
     36     -14.1413      1.00000
     37     -14.0469      1.00000
     38     -13.8255      1.00000
     39     -13.6511      1.00000
     40     -13.2816      1.00000
     41     -12.9506      1.00000
     42     -12.8008      1.00000
     43     -12.4294      1.00000
     44     -12.2279      1.00000
     45     -11.9220      1.00000
     46     -11.9201      1.00000
     47     -11.6700      1.00000
     48     -11.4999      1.00000
     49     -11.3794      1.00000
     50     -11.1136      1.00000
     51     -10.5964      1.00000
     52     -10.5953      1.00000
     53     -10.3526      1.00000
     54     -10.2334      1.00000
     55     -10.1502      1.00000
     56     -10.1003      1.00000
     57     -10.0713      1.00000
     58     -10.0269      1.00000
     59      -9.9702      1.00000
     60      -9.8205      1.00000
     61      -9.8133      1.00000
     62      -9.7746      1.00000
     63      -9.4027      1.00000
     64      -9.3297      1.00000
     65      -9.2807      1.00000
     66      -9.1266      1.00000
     67      -9.0132      1.00000
     68      -8.9261      1.00000
     69      -8.8862      1.00000
     70      -8.7699      1.00000
     71      -8.6918      1.00000
     72      -8.6241      1.00000
     73      -8.4335      1.00000
     74      -8.3077      1.00000
     75      -8.2598      1.00000
     76      -8.1808      1.00000
     77      -8.0765      1.00000
     78      -8.0657      1.00000
     79      -7.9859      1.00000
     80      -7.9003      1.00000
     81      -7.5566      1.00000
     82      -7.5393      1.00000
     83      -7.4741      1.00000
     84      -7.1981      1.00000
     85      -7.1604      1.00000
     86      -6.8198      1.00000
     87      -6.6591      1.00000
     88      -6.6538      1.00000
     89      -6.3512      1.00000
     90      -6.2493      1.00000
     91      -6.0572      1.00000
     92      -6.0386      1.00000
     93      -5.7570      1.00000
     94      -5.7201      1.00000
     95      -5.5102      1.00000
     96      -5.3623      1.00000
     97      -5.1665      1.00000
     98      -5.0618      1.00000
     99      -5.0340      1.00000
    100      -4.6778      1.00000
    101      -4.1663      1.00000
    102      -3.1763      1.00000
    103      -2.6026      0.99999
    104      -2.5462      0.99974
    105      -2.3649      0.81683
    106      -1.9890      0.00001
    107      -1.4137      0.00000
    108      -1.2215      0.00000
    109      -0.8242      0.00000
    110      -0.7829      0.00000
    111      -0.6499      0.00000
    112      -0.4590      0.00000
    113      -0.3307      0.00000
    114       0.0190      0.00000
    115       0.0831      0.00000
    116       0.1905      0.00000
    117       0.2270      0.00000
    118       0.7498      0.00000
    119       0.9017      0.00000
    120       1.0030      0.00000
    121       1.0323      0.00000
    122       1.2507      0.00000
    123       1.6546      0.00000
    124       1.7086      0.00000
    125       1.8354      0.00000
    126       1.9365      0.00000
    127       2.0687      0.00000
    128       2.1035      0.00000
    129       2.2920      0.00000
    130       2.3124      0.00000
    131       2.3703      0.00000
    132       2.4175      0.00000
    133       2.4884      0.00000
    134       2.5099      0.00000
    135       2.6782      0.00000
    136       2.9615      0.00000
    137       2.9665      0.00000
    138       3.0453      0.00000
    139       3.0631      0.00000
    140       3.0696      0.00000
    141       3.1191      0.00000
    142       3.1514      0.00000
    143       3.1653      0.00000
    144       3.2235      0.00000
    145       3.3713      0.00000
    146       3.3766      0.00000
    147       3.3840      0.00000
    148       3.4239      0.00000
    149       3.4592      0.00000
    150       3.5541      0.00000
    151       3.6335      0.00000
    152       3.6387      0.00000
    153       3.6652      0.00000
    154       3.7650      0.00000
    155       3.9100      0.00000
    156       3.9114      0.00000
    157       3.9780      0.00000
    158       4.0569      0.00000
    159       4.0919      0.00000
    160       4.1318      0.00000
    161       4.2748      0.00000
    162       4.3042      0.00000
    163       4.3193      0.00000
    164       4.4164      0.00000
    165       4.4317      0.00000
    166       4.4442      0.00000
    167       4.4641      0.00000
    168       4.4739      0.00000
    169       4.5995      0.00000
    170       4.6724      0.00000
    171       4.6849      0.00000
    172       4.7288      0.00000
    173       4.7392      0.00000
    174       4.7820      0.00000
    175       4.8679      0.00000
    176       4.9679      0.00000
    177       5.0029      0.00000
    178       5.0651      0.00000
    179       5.0972      0.00000
    180       5.1585      0.00000
    181       5.1773      0.00000
    182       5.2235      0.00000
    183       5.2385      0.00000
    184       5.2449      0.00000
    185       5.2731      0.00000
    186       5.3023      0.00000
    187       5.4060      0.00000
    188       5.4701      0.00000
    189       5.4758      0.00000
    190       5.5181      0.00000
    191       5.5415      0.00000
    192       5.5541      0.00000
    193       5.5619      0.00000
    194       5.6720      0.00000
    195       5.7047      0.00000
    196       5.7075      0.00000
    197       5.7252      0.00000
    198       5.7908      0.00000
    199       5.8147      0.00000
    200       5.9000      0.00000
    201       5.9125      0.00000
    202       5.9539      0.00000
    203       5.9581      0.00000
    204       5.9769      0.00000
    205       5.9914      0.00000
    206       6.0271      0.00000
    207       6.0712      0.00000
    208       6.0781      0.00000
    209       6.1131      0.00000
    210       6.1296      0.00000
    211       6.2639      0.00000
    212       6.2878      0.00000
    213       6.3598      0.00000
    214       6.3608      0.00000
    215       6.3929      0.00000
    216       6.4298      0.00000
    217       6.4744      0.00000
    218       6.4805      0.00000
    219       6.5102      0.00000
    220       6.5701      0.00000
    221       6.6198      0.00000
    222       6.6278      0.00000
    223       6.6547      0.00000
    224       6.7201      0.00000
    225       6.7368      0.00000
    226       6.7469      0.00000
    227       6.7856      0.00000
    228       6.8189      0.00000
    229       6.8264      0.00000
    230       6.8466      0.00000
    231       6.9151      0.00000
    232       7.0496      0.00000
    233       7.0521      0.00000
    234       7.0797      0.00000
    235       7.1266      0.00000
    236       7.1951      0.00000
    237       7.2647      0.00000
    238       7.2819      0.00000
    239       7.3455      0.00000
    240       7.3533      0.00000
    241       7.3842      0.00000
    242       7.3878      0.00000
    243       7.5172      0.00000
    244       7.5267      0.00000
    245       7.5761      0.00000
    246       7.6100      0.00000
    247       7.6543      0.00000
    248       7.6719      0.00000
    249       7.6835      0.00000
    250       7.8603      0.00000
    251       7.8858      0.00000
    252       7.9046      0.00000
    253       7.9311      0.00000
    254       8.0123      0.00000
    255       8.1146      0.00000
    256       8.2179      0.00000

 k-point    12 :      -0.4000    0.4000    0.0000
  band No.  band energies     occupation 
      1     -38.1199      1.00000
      2     -38.0190      1.00000
      3     -38.0106      1.00000
      4     -23.2877      1.00000
      5     -22.9321      1.00000
      6     -22.6790      1.00000
      7     -22.2960      1.00000
      8     -21.6670      1.00000
      9     -21.4815      1.00000
     10     -20.9520      1.00000
     11     -20.6793      1.00000
     12     -20.4910      1.00000
     13     -20.2301      1.00000
     14     -20.0836      1.00000
     15     -19.8836      1.00000
     16     -19.1855      1.00000
     17     -19.0095      1.00000
     18     -18.9168      1.00000
     19     -18.5308      1.00000
     20     -18.2622      1.00000
     21     -17.8906      1.00000
     22     -17.8129      1.00000
     23     -17.6191      1.00000
     24     -17.4473      1.00000
     25     -17.3335      1.00000
     26     -17.0809      1.00000
     27     -16.8465      1.00000
     28     -16.1401      1.00000
     29     -15.5170      1.00000
     30     -15.4775      1.00000
     31     -15.3159      1.00000
     32     -15.1383      1.00000
     33     -15.0285      1.00000
     34     -14.6381      1.00000
     35     -14.3885      1.00000
     36     -14.2537      1.00000
     37     -13.7890      1.00000
     38     -13.6903      1.00000
     39     -13.2692      1.00000
     40     -13.1784      1.00000
     41     -13.0210      1.00000
     42     -12.8676      1.00000
     43     -12.6288      1.00000
     44     -12.6137      1.00000
     45     -11.9317      1.00000
     46     -11.6642      1.00000
     47     -11.3965      1.00000
     48     -11.3072      1.00000
     49     -11.1855      1.00000
     50     -11.0504      1.00000
     51     -10.9652      1.00000
     52     -10.5726      1.00000
     53     -10.4220      1.00000
     54     -10.2226      1.00000
     55     -10.2117      1.00000
     56     -10.1757      1.00000
     57     -10.1155      1.00000
     58     -10.0222      1.00000
     59      -9.9463      1.00000
     60      -9.8970      1.00000
     61      -9.7382      1.00000
     62      -9.6859      1.00000
     63      -9.5017      1.00000
     64      -9.4149      1.00000
     65      -9.3117      1.00000
     66      -9.1249      1.00000
     67      -9.0394      1.00000
     68      -8.9706      1.00000
     69      -8.8950      1.00000
     70      -8.7018      1.00000
     71      -8.6626      1.00000
     72      -8.5782      1.00000
     73      -8.3908      1.00000
     74      -8.3505      1.00000
     75      -8.2426      1.00000
     76      -8.2174      1.00000
     77      -8.1183      1.00000
     78      -8.1077      1.00000
     79      -7.8747      1.00000
     80      -7.6926      1.00000
     81      -7.6601      1.00000
     82      -7.4904      1.00000
     83      -7.4802      1.00000
     84      -7.1081      1.00000
     85      -7.1037      1.00000
     86      -6.8798      1.00000
     87      -6.7608      1.00000
     88      -6.5945      1.00000
     89      -6.4794      1.00000
     90      -6.4769      1.00000
     91      -6.1301      1.00000
     92      -5.9088      1.00000
     93      -5.8109      1.00000
     94      -5.6543      1.00000
     95      -5.3383      1.00000
     96      -5.3262      1.00000
     97      -5.2650      1.00000
     98      -5.0593      1.00000
     99      -5.0348      1.00000
    100      -4.5427      1.00000
    101      -4.1669      1.00000
    102      -3.3318      1.00000
    103      -2.5656      0.99991
    104      -2.3671      0.82431
    105      -2.2680      0.31975
    106      -2.0017      0.00001
    107      -1.6723      0.00000
    108      -1.2611      0.00000
    109      -0.8445      0.00000
    110      -0.7646      0.00000
    111      -0.5747      0.00000
    112      -0.5503      0.00000
    113      -0.4308      0.00000
    114      -0.0725      0.00000
    115       0.0812      0.00000
    116       0.3298      0.00000
    117       0.4929      0.00000
    118       0.6940      0.00000
    119       0.8571      0.00000
    120       1.0862      0.00000
    121       1.4427      0.00000
    122       1.4549      0.00000
    123       1.5306      0.00000
    124       1.5323      0.00000
    125       1.6631      0.00000
    126       1.8145      0.00000
    127       1.9379      0.00000
    128       2.1099      0.00000
    129       2.1491      0.00000
    130       2.1847      0.00000
    131       2.3796      0.00000
    132       2.4429      0.00000
    133       2.5756      0.00000
    134       2.6777      0.00000
    135       2.7075      0.00000
    136       2.7496      0.00000
    137       2.8644      0.00000
    138       2.9201      0.00000
    139       2.9653      0.00000
    140       3.0251      0.00000
    141       3.0453      0.00000
    142       3.1736      0.00000
    143       3.1904      0.00000
    144       3.2604      0.00000
    145       3.2843      0.00000
    146       3.3795      0.00000
    147       3.4495      0.00000
    148       3.5278      0.00000
    149       3.6396      0.00000
    150       3.6659      0.00000
    151       3.7178      0.00000
    152       3.7280      0.00000
    153       3.7498      0.00000
    154       3.7581      0.00000
    155       3.7954      0.00000
    156       3.8710      0.00000
    157       3.8824      0.00000
    158       4.0899      0.00000
    159       4.1039      0.00000
    160       4.1903      0.00000
    161       4.2507      0.00000
    162       4.2539      0.00000
    163       4.2662      0.00000
    164       4.2844      0.00000
    165       4.4018      0.00000
    166       4.5088      0.00000
    167       4.5499      0.00000
    168       4.5946      0.00000
    169       4.6610      0.00000
    170       4.6618      0.00000
    171       4.7046      0.00000
    172       4.7131      0.00000
    173       4.8127      0.00000
    174       4.9439      0.00000
    175       4.9980      0.00000
    176       5.0317      0.00000
    177       5.0464      0.00000
    178       5.0665      0.00000
    179       5.1132      0.00000
    180       5.1249      0.00000
    181       5.1587      0.00000
    182       5.1888      0.00000
    183       5.2588      0.00000
    184       5.2667      0.00000
    185       5.3504      0.00000
    186       5.4193      0.00000
    187       5.4598      0.00000
    188       5.4869      0.00000
    189       5.5284      0.00000
    190       5.5527      0.00000
    191       5.6008      0.00000
    192       5.6452      0.00000
    193       5.6489      0.00000
    194       5.6632      0.00000
    195       5.7185      0.00000
    196       5.7992      0.00000
    197       5.8244      0.00000
    198       5.8468      0.00000
    199       5.9493      0.00000
    200       5.9575      0.00000
    201       5.9987      0.00000
    202       6.0482      0.00000
    203       6.0670      0.00000
    204       6.0888      0.00000
    205       6.1885      0.00000
    206       6.2412      0.00000
    207       6.2954      0.00000
    208       6.3056      0.00000
    209       6.3177      0.00000
    210       6.5535      0.00000
    211       6.5856      0.00000
    212       6.6228      0.00000
    213       6.7045      0.00000
    214       6.7259      0.00000
    215       6.8088      0.00000
    216       6.8929      0.00000
    217       6.9048      0.00000
    218       6.9792      0.00000
    219       7.0843      0.00000
    220       7.1203      0.00000
    221       7.1652      0.00000
    222       7.2552      0.00000
    223       7.2556      0.00000
    224       7.2905      0.00000
    225       7.3720      0.00000
    226       7.4160      0.00000
    227       7.4511      0.00000
    228       7.4656      0.00000
    229       7.5648      0.00000
    230       7.6021      0.00000
    231       7.6202      0.00000
    232       7.6210      0.00000
    233       7.8510      0.00000
    234       8.0020      0.00000
    235       8.0114      0.00000
    236       8.1203      0.00000
    237       8.1529      0.00000
    238       8.2137      0.00000
    239       8.2926      0.00000
    240       8.3850      0.00000
    241       8.4587      0.00000
    242       8.5710      0.00000
    243       8.6612      0.00000
    244       8.6806      0.00000
    245       8.7246      0.00000
    246       8.7717      0.00000
    247       8.9125      0.00000
    248       9.0026      0.00000
    249       9.1460      0.00000
    250       9.3587      0.00000
    251       9.3739      0.00000
    252       9.4714      0.00000
    253       9.8098      0.00000
    254      10.3383      0.00000
    255      10.5868      0.00000
    256      10.8806      0.00000

 k-point    13 :      -0.2000    0.4000    0.0000
  band No.  band energies     occupation 
      1     -38.1199      1.00000
      2     -38.0190      1.00000
      3     -38.0106      1.00000
      4     -23.2893      1.00000
      5     -22.9387      1.00000
      6     -22.6538      1.00000
      7     -22.3174      1.00000
      8     -21.6476      1.00000
      9     -21.4776      1.00000
     10     -21.0077      1.00000
     11     -20.7135      1.00000
     12     -20.5108      1.00000
     13     -20.2544      1.00000
     14     -19.8918      1.00000
     15     -19.7402      1.00000
     16     -19.4164      1.00000
     17     -19.0376      1.00000
     18     -18.8755      1.00000
     19     -18.5203      1.00000
     20     -18.3302      1.00000
     21     -18.0546      1.00000
     22     -17.8234      1.00000
     23     -17.6462      1.00000
     24     -17.4252      1.00000
     25     -17.1672      1.00000
     26     -16.9408      1.00000
     27     -16.7140      1.00000
     28     -16.0591      1.00000
     29     -15.7351      1.00000
     30     -15.5432      1.00000
     31     -15.4994      1.00000
     32     -15.0180      1.00000
     33     -14.8870      1.00000
     34     -14.7118      1.00000
     35     -14.5142      1.00000
     36     -14.3763      1.00000
     37     -13.8065      1.00000
     38     -13.5397      1.00000
     39     -13.2857      1.00000
     40     -13.1906      1.00000
     41     -12.9551      1.00000
     42     -12.8737      1.00000
     43     -12.5073      1.00000
     44     -12.1478      1.00000
     45     -12.0763      1.00000
     46     -11.8586      1.00000
     47     -11.6426      1.00000
     48     -11.4133      1.00000
     49     -11.3284      1.00000
     50     -10.7627      1.00000
     51     -10.6721      1.00000
     52     -10.6282      1.00000
     53     -10.5326      1.00000
     54     -10.4974      1.00000
     55     -10.3510      1.00000
     56     -10.1129      1.00000
     57     -10.0334      1.00000
     58      -9.9669      1.00000
     59      -9.9051      1.00000
     60      -9.8364      1.00000
     61      -9.6988      1.00000
     62      -9.4768      1.00000
     63      -9.4406      1.00000
     64      -9.3909      1.00000
     65      -9.3596      1.00000
     66      -9.2316      1.00000
     67      -9.1416      1.00000
     68      -9.0562      1.00000
     69      -8.9170      1.00000
     70      -8.7826      1.00000
     71      -8.7059      1.00000
     72      -8.5210      1.00000
     73      -8.4976      1.00000
     74      -8.4185      1.00000
     75      -8.2408      1.00000
     76      -8.1886      1.00000
     77      -8.1043      1.00000
     78      -7.9758      1.00000
     79      -7.7964      1.00000
     80      -7.6499      1.00000
     81      -7.5619      1.00000
     82      -7.5048      1.00000
     83      -7.3219      1.00000
     84      -7.2913      1.00000
     85      -7.0933      1.00000
     86      -6.9753      1.00000
     87      -6.7204      1.00000
     88      -6.5070      1.00000
     89      -6.3887      1.00000
     90      -6.3480      1.00000
     91      -6.2824      1.00000
     92      -6.0783      1.00000
     93      -5.9630      1.00000
     94      -5.7328      1.00000
     95      -5.4436      1.00000
     96      -5.3472      1.00000
     97      -5.2166      1.00000
     98      -5.0466      1.00000
     99      -4.6235      1.00000
    100      -4.5560      1.00000
    101      -4.1679      1.00000
    102      -3.3239      1.00000
    103      -2.7019      1.00000
    104      -2.4273      0.96290
    105      -2.3391      0.70408
    106      -1.8884      0.00000
    107      -1.4290      0.00000
    108      -1.2086      0.00000
    109      -1.0364      0.00000
    110      -0.8973      0.00000
    111      -0.6847      0.00000
    112      -0.5668      0.00000
    113      -0.3841      0.00000
    114      -0.2257      0.00000
    115       0.2532      0.00000
    116       0.3842      0.00000
    117       0.6990      0.00000
    118       0.7789      0.00000
    119       0.9485      0.00000
    120       1.0377      0.00000
    121       1.2064      0.00000
    122       1.2874      0.00000
    123       1.5931      0.00000
    124       1.7222      0.00000
    125       1.8036      0.00000
    126       1.8842      0.00000
    127       1.9251      0.00000
    128       1.9820      0.00000
    129       2.1267      0.00000
    130       2.2809      0.00000
    131       2.3786      0.00000
    132       2.3819      0.00000
    133       2.4886      0.00000
    134       2.6267      0.00000
    135       2.6484      0.00000
    136       2.6864      0.00000
    137       2.7525      0.00000
    138       2.8481      0.00000
    139       2.9352      0.00000
    140       3.0240      0.00000
    141       3.1023      0.00000
    142       3.1459      0.00000
    143       3.1768      0.00000
    144       3.2709      0.00000
    145       3.3149      0.00000
    146       3.4250      0.00000
    147       3.4540      0.00000
    148       3.4738      0.00000
    149       3.5252      0.00000
    150       3.5751      0.00000
    151       3.6497      0.00000
    152       3.6856      0.00000
    153       3.7349      0.00000
    154       3.8556      0.00000
    155       3.9422      0.00000
    156       3.9564      0.00000
    157       4.0070      0.00000
    158       4.0444      0.00000
    159       4.1106      0.00000
    160       4.1619      0.00000
    161       4.1974      0.00000
    162       4.2160      0.00000
    163       4.2236      0.00000
    164       4.3638      0.00000
    165       4.3952      0.00000
    166       4.4401      0.00000
    167       4.5202      0.00000
    168       4.6029      0.00000
    169       4.6748      0.00000
    170       4.7789      0.00000
    171       4.8048      0.00000
    172       4.8221      0.00000
    173       4.8858      0.00000
    174       4.9387      0.00000
    175       4.9695      0.00000
    176       5.0151      0.00000
    177       5.0248      0.00000
    178       5.0468      0.00000
    179       5.0526      0.00000
    180       5.1163      0.00000
    181       5.1598      0.00000
    182       5.1820      0.00000
    183       5.2420      0.00000
    184       5.2986      0.00000
    185       5.3531      0.00000
    186       5.3556      0.00000
    187       5.3878      0.00000
    188       5.4367      0.00000
    189       5.4544      0.00000
    190       5.5081      0.00000
    191       5.5352      0.00000
    192       5.5526      0.00000
    193       5.6095      0.00000
    194       5.6529      0.00000
    195       5.7016      0.00000
    196       5.7741      0.00000
    197       5.7840      0.00000
    198       5.8444      0.00000
    199       5.9076      0.00000
    200       5.9548      0.00000
    201       5.9697      0.00000
    202       5.9830      0.00000
    203       6.0419      0.00000
    204       6.0687      0.00000
    205       6.0957      0.00000
    206       6.1041      0.00000
    207       6.1655      0.00000
    208       6.2720      0.00000
    209       6.2843      0.00000
    210       6.3591      0.00000
    211       6.4329      0.00000
    212       6.4688      0.00000
    213       6.4738      0.00000
    214       6.5398      0.00000
    215       6.5859      0.00000
    216       6.7107      0.00000
    217       6.7339      0.00000
    218       6.7675      0.00000
    219       6.8165      0.00000
    220       6.9268      0.00000
    221       6.9981      0.00000
    222       7.0598      0.00000
    223       7.0807      0.00000
    224       7.0931      0.00000
    225       7.1291      0.00000
    226       7.2281      0.00000
    227       7.2646      0.00000
    228       7.2862      0.00000
    229       7.3805      0.00000
    230       7.4314      0.00000
    231       7.5972      0.00000
    232       7.6347      0.00000
    233       7.7137      0.00000
    234       7.7582      0.00000
    235       7.8170      0.00000
    236       7.8964      0.00000
    237       7.9401      0.00000
    238       7.9498      0.00000
    239       8.0450      0.00000
    240       8.2411      0.00000
    241       8.2418      0.00000
    242       8.2567      0.00000
    243       8.2899      0.00000
    244       8.4260      0.00000
    245       8.4565      0.00000
    246       8.5520      0.00000
    247       8.6310      0.00000
    248       8.7134      0.00000
    249       8.9966      0.00000
    250       9.3143      0.00000
    251       9.3678      0.00000
    252       9.4893      0.00000
    253       9.5329      0.00000
    254      10.0264      0.00000
    255      10.1831      0.00000
    256      10.2987      0.00000

 spin component 2

 k-point     1 :       0.0000    0.0000    0.0000
  band No.  band energies     occupation 
      1     -37.3970      1.00000
      2     -37.3749      1.00000
      3     -37.3188      1.00000
      4     -23.2772      1.00000
      5     -22.8924      1.00000
      6     -22.5883      1.00000
      7     -22.3185      1.00000
      8     -21.7192      1.00000
      9     -21.3338      1.00000
     10     -21.2163      1.00000
     11     -20.8272      1.00000
     12     -20.3389      1.00000
     13     -20.1267      1.00000
     14     -19.6441      1.00000
     15     -19.5714      1.00000
     16     -19.1862      1.00000
     17     -19.1143      1.00000
     18     -18.9323      1.00000
     19     -18.7616      1.00000
     20     -18.7402      1.00000
     21     -18.4969      1.00000
     22     -18.0689      1.00000
     23     -17.2987      1.00000
     24     -17.1846      1.00000
     25     -16.7436      1.00000
     26     -16.5264      1.00000
     27     -16.3864      1.00000
     28     -15.9859      1.00000
     29     -15.6955      1.00000
     30     -15.6205      1.00000
     31     -15.5367      1.00000
     32     -15.4929      1.00000
     33     -15.0922      1.00000
     34     -14.6099      1.00000
     35     -14.4283      1.00000
     36     -14.4264      1.00000
     37     -14.3883      1.00000
     38     -14.1508      1.00000
     39     -13.3499      1.00000
     40     -12.6696      1.00000
     41     -12.5278      1.00000
     42     -12.4522      1.00000
     43     -12.1704      1.00000
     44     -11.8795      1.00000
     45     -11.7627      1.00000
     46     -11.6516      1.00000
     47     -11.6191      1.00000
     48     -11.6171      1.00000
     49     -11.5354      1.00000
     50     -11.1662      1.00000
     51     -10.7654      1.00000
     52     -10.6887      1.00000
     53     -10.6056      1.00000
     54     -10.4812      1.00000
     55     -10.3610      1.00000
     56     -10.2136      1.00000
     57     -10.0765      1.00000
     58      -9.7746      1.00000
     59      -9.7497      1.00000
     60      -9.7036      1.00000
     61      -9.5363      1.00000
     62      -9.4897      1.00000
     63      -9.3858      1.00000
     64      -9.2896      1.00000
     65      -9.2719      1.00000
     66      -9.1828      1.00000
     67      -9.1099      1.00000
     68      -9.1080      1.00000
     69      -9.0204      1.00000
     70      -8.9772      1.00000
     71      -8.9201      1.00000
     72      -8.8836      1.00000
     73      -8.8234      1.00000
     74      -8.6356      1.00000
     75      -7.9283      1.00000
     76      -7.8655      1.00000
     77      -7.8108      1.00000
     78      -7.6562      1.00000
     79      -7.5871      1.00000
     80      -7.5418      1.00000
     81      -7.3152      1.00000
     82      -7.3073      1.00000
     83      -7.2875      1.00000
     84      -7.1663      1.00000
     85      -7.1295      1.00000
     86      -7.1028      1.00000
     87      -6.6970      1.00000
     88      -6.5793      1.00000
     89      -6.3885      1.00000
     90      -6.3730      1.00000
     91      -6.2792      1.00000
     92      -6.2518      1.00000
     93      -6.1175      1.00000
     94      -6.0506      1.00000
     95      -5.7947      1.00000
     96      -5.4647      1.00000
     97      -4.6574      1.00000
     98      -4.5337      1.00000
     99      -4.2800      1.00000
    100      -4.2179      1.00000
    101      -4.1631      1.00000
    102      -3.1796      1.00000
    103      -2.2415      0.20045
    104      -1.7616      0.00000
    105      -1.5674      0.00000
    106      -1.4051      0.00000
    107      -1.3491      0.00000
    108      -1.1890      0.00000
    109      -0.9022      0.00000
    110      -0.5082      0.00000
    111      -0.4601      0.00000
    112      -0.3553      0.00000
    113       0.1654      0.00000
    114       0.3673      0.00000
    115       0.4232      0.00000
    116       0.4545      0.00000
    117       0.6396      0.00000
    118       1.0775      0.00000
    119       1.2056      0.00000
    120       1.4622      0.00000
    121       1.6228      0.00000
    122       1.7205      0.00000
    123       1.8404      0.00000
    124       1.8427      0.00000
    125       1.8437      0.00000
    126       1.8830      0.00000
    127       1.9154      0.00000
    128       2.0455      0.00000
    129       2.0477      0.00000
    130       2.0690      0.00000
    131       2.1478      0.00000
    132       2.2064      0.00000
    133       2.6312      0.00000
    134       2.6316      0.00000
    135       2.6322      0.00000
    136       2.6459      0.00000
    137       2.6510      0.00000
    138       2.6762      0.00000
    139       2.9855      0.00000
    140       3.0296      0.00000
    141       3.0436      0.00000
    142       3.0440      0.00000
    143       3.0446      0.00000
    144       3.0485      0.00000
    145       3.0768      0.00000
    146       3.5508      0.00000
    147       3.6092      0.00000
    148       3.6255      0.00000
    149       3.6693      0.00000
    150       3.8549      0.00000
    151       3.9252      0.00000
    152       3.9277      0.00000
    153       3.9346      0.00000
    154       3.9365      0.00000
    155       3.9545      0.00000
    156       4.2886      0.00000
    157       4.2923      0.00000
    158       4.2990      0.00000
    159       4.3446      0.00000
    160       4.3531      0.00000
    161       4.3652      0.00000
    162       4.3694      0.00000
    163       4.3828      0.00000
    164       4.3953      0.00000
    165       4.4027      0.00000
    166       4.4256      0.00000
    167       4.5858      0.00000
    168       4.6037      0.00000
    169       4.6659      0.00000
    170       4.7229      0.00000
    171       4.8551      0.00000
    172       4.9985      0.00000
    173       5.0706      0.00000
    174       5.0781      0.00000
    175       5.1597      0.00000
    176       5.1640      0.00000
    177       5.1688      0.00000
    178       5.1933      0.00000
    179       5.1947      0.00000
    180       5.3453      0.00000
    181       5.3485      0.00000
    182       5.3647      0.00000
    183       5.4399      0.00000
    184       5.4482      0.00000
    185       5.5131      0.00000
    186       5.5608      0.00000
    187       5.6318      0.00000
    188       5.6404      0.00000
    189       5.6589      0.00000
    190       5.6594      0.00000
    191       5.6830      0.00000
    192       5.6847      0.00000
    193       5.6868      0.00000
    194       5.6909      0.00000
    195       5.6911      0.00000
    196       5.6916      0.00000
    197       5.7144      0.00000
    198       5.7759      0.00000
    199       5.7896      0.00000
    200       5.8671      0.00000
    201       5.9462      0.00000
    202       5.9861      0.00000
    203       6.0414      0.00000
    204       6.0597      0.00000
    205       6.0641      0.00000
    206       6.0767      0.00000
    207       6.1293      0.00000
    208       6.1496      0.00000
    209       6.2007      0.00000
    210       6.2615      0.00000
    211       6.3557      0.00000
    212       6.4588      0.00000
    213       6.4589      0.00000
    214       6.4784      0.00000
    215       6.5036      0.00000
    216       6.5056      0.00000
    217       6.5100      0.00000
    218       6.5148      0.00000
    219       6.5204      0.00000
    220       6.5375      0.00000
    221       6.5428      0.00000
    222       6.5538      0.00000
    223       6.5906      0.00000
    224       6.6903      0.00000
    225       6.7034      0.00000
    226       6.7106      0.00000
    227       6.7318      0.00000
    228       6.7507      0.00000
    229       6.9677      0.00000
    230       6.9740      0.00000
    231       6.9811      0.00000
    232       6.9928      0.00000
    233       7.0003      0.00000
    234       7.0057      0.00000
    235       7.0112      0.00000
    236       7.0125      0.00000
    237       7.0135      0.00000
    238       7.0142      0.00000
    239       7.0205      0.00000
    240       7.0639      0.00000
    241       7.4533      0.00000
    242       7.5469      0.00000
    243       7.5941      0.00000
    244       7.6028      0.00000
    245       7.6843      0.00000
    246       7.6960      0.00000
    247       7.7282      0.00000
    248       7.8216      0.00000
    249       7.8287      0.00000
    250       7.8336      0.00000
    251       7.8414      0.00000
    252       7.8543      0.00000
    253       8.0069      0.00000
    254       8.0888      0.00000
    255       8.1516      0.00000
    256       8.1695      0.00000

 k-point     2 :       0.2000    0.0000    0.0000
  band No.  band energies     occupation 
      1     -37.3970      1.00000
      2     -37.3749      1.00000
      3     -37.3188      1.00000
      4     -23.2689      1.00000
      5     -22.9054      1.00000
      6     -22.5982      1.00000
      7     -22.3195      1.00000
      8     -21.6850      1.00000
      9     -21.3751      1.00000
     10     -21.1561      1.00000
     11     -20.7635      1.00000
     12     -20.4287      1.00000
     13     -20.1731      1.00000
     14     -19.7818      1.00000
     15     -19.4149      1.00000
     16     -19.2835      1.00000
     17     -19.1504      1.00000
     18     -19.1288      1.00000
     19     -18.6676      1.00000
     20     -18.3962      1.00000
     21     -18.3773      1.00000
     22     -17.9546      1.00000
     23     -17.4191      1.00000
     24     -17.1331      1.00000
     25     -17.0104      1.00000
     26     -16.7523      1.00000
     27     -16.4926      1.00000
     28     -16.1328      1.00000
     29     -15.5980      1.00000
     30     -15.4967      1.00000
     31     -15.3588      1.00000
     32     -15.1938      1.00000
     33     -15.1256      1.00000
     34     -14.8920      1.00000
     35     -14.7991      1.00000
     36     -14.3464      1.00000
     37     -13.9948      1.00000
     38     -13.6225      1.00000
     39     -13.3142      1.00000
     40     -12.9572      1.00000
     41     -12.6184      1.00000
     42     -12.5529      1.00000
     43     -12.2366      1.00000
     44     -12.1637      1.00000
     45     -12.0948      1.00000
     46     -11.8223      1.00000
     47     -11.5536      1.00000
     48     -11.3300      1.00000
     49     -11.3197      1.00000
     50     -11.1956      1.00000
     51     -10.7775      1.00000
     52     -10.6256      1.00000
     53     -10.4839      1.00000
     54     -10.4371      1.00000
     55     -10.3330      1.00000
     56     -10.0343      1.00000
     57      -9.9647      1.00000
     58      -9.9074      1.00000
     59      -9.8526      1.00000
     60      -9.7688      1.00000
     61      -9.6676      1.00000
     62      -9.5658      1.00000
     63      -9.4652      1.00000
     64      -9.3974      1.00000
     65      -9.2029      1.00000
     66      -9.1649      1.00000
     67      -9.0700      1.00000
     68      -9.0521      1.00000
     69      -8.9499      1.00000
     70      -8.9099      1.00000
     71      -8.8067      1.00000
     72      -8.7683      1.00000
     73      -8.5963      1.00000
     74      -8.4817      1.00000
     75      -8.1582      1.00000
     76      -8.0872      1.00000
     77      -7.8808      1.00000
     78      -7.7940      1.00000
     79      -7.7245      1.00000
     80      -7.5579      1.00000
     81      -7.3920      1.00000
     82      -7.3228      1.00000
     83      -7.1988      1.00000
     84      -7.1638      1.00000
     85      -6.9911      1.00000
     86      -6.9163      1.00000
     87      -6.7324      1.00000
     88      -6.6235      1.00000
     89      -6.5949      1.00000
     90      -6.4271      1.00000
     91      -6.1446      1.00000
     92      -6.0969      1.00000
     93      -6.0099      1.00000
     94      -5.9103      1.00000
     95      -5.7853      1.00000
     96      -5.3891      1.00000
     97      -4.8448      1.00000
     98      -4.6205      1.00000
     99      -4.5534      1.00000
    100      -4.2869      1.00000
    101      -3.9785      1.00000
    102      -3.2953      1.00000
    103      -2.1843      0.04956
    104      -1.6531      0.00000
    105      -1.4191      0.00000
    106      -1.3966      0.00000
    107      -1.2754      0.00000
    108      -1.1039      0.00000
    109      -0.8488      0.00000
    110      -0.7033      0.00000
    111      -0.5019      0.00000
    112      -0.4081      0.00000
    113      -0.0150      0.00000
    114       0.3049      0.00000
    115       0.3174      0.00000
    116       0.7251      0.00000
    117       0.7901      0.00000
    118       1.0047      0.00000
    119       1.0896      0.00000
    120       1.3524      0.00000
    121       1.4289      0.00000
    122       1.6086      0.00000
    123       1.6768      0.00000
    124       1.7676      0.00000
    125       1.7803      0.00000
    126       1.8249      0.00000
    127       2.0160      0.00000
    128       2.1572      0.00000
    129       2.2006      0.00000
    130       2.3114      0.00000
    131       2.3535      0.00000
    132       2.4180      0.00000
    133       2.4536      0.00000
    134       2.5615      0.00000
    135       2.6300      0.00000
    136       2.7656      0.00000
    137       2.8234      0.00000
    138       2.8299      0.00000
    139       2.8452      0.00000
    140       2.9474      0.00000
    141       3.0913      0.00000
    142       3.1363      0.00000
    143       3.2530      0.00000
    144       3.3459      0.00000
    145       3.3528      0.00000
    146       3.3764      0.00000
    147       3.5046      0.00000
    148       3.6054      0.00000
    149       3.6424      0.00000
    150       3.6726      0.00000
    151       3.7246      0.00000
    152       3.8363      0.00000
    153       3.8942      0.00000
    154       3.9673      0.00000
    155       4.0534      0.00000
    156       4.0750      0.00000
    157       4.1618      0.00000
    158       4.2338      0.00000
    159       4.2531      0.00000
    160       4.3390      0.00000
    161       4.4131      0.00000
    162       4.4211      0.00000
    163       4.4787      0.00000
    164       4.5013      0.00000
    165       4.5549      0.00000
    166       4.6461      0.00000
    167       4.6728      0.00000
    168       4.7341      0.00000
    169       4.7545      0.00000
    170       4.7888      0.00000
    171       4.8211      0.00000
    172       4.9404      0.00000
    173       4.9464      0.00000
    174       4.9588      0.00000
    175       4.9944      0.00000
    176       5.0732      0.00000
    177       5.1085      0.00000
    178       5.1471      0.00000
    179       5.1890      0.00000
    180       5.2161      0.00000
    181       5.2492      0.00000
    182       5.2669      0.00000
    183       5.3182      0.00000
    184       5.3708      0.00000
    185       5.3952      0.00000
    186       5.4253      0.00000
    187       5.4422      0.00000
    188       5.5231      0.00000
    189       5.5413      0.00000
    190       5.6605      0.00000
    191       5.6800      0.00000
    192       5.6977      0.00000
    193       5.7336      0.00000
    194       5.7379      0.00000
    195       5.7395      0.00000
    196       5.7867      0.00000
    197       5.8138      0.00000
    198       5.8195      0.00000
    199       5.8431      0.00000
    200       5.9130      0.00000
    201       5.9839      0.00000
    202       6.0004      0.00000
    203       6.0121      0.00000
    204       6.0295      0.00000
    205       6.0916      0.00000
    206       6.1598      0.00000
    207       6.2072      0.00000
    208       6.2315      0.00000
    209       6.2501      0.00000
    210       6.2897      0.00000
    211       6.2966      0.00000
    212       6.3301      0.00000
    213       6.3835      0.00000
    214       6.4145      0.00000
    215       6.4651      0.00000
    216       6.4918      0.00000
    217       6.5283      0.00000
    218       6.5294      0.00000
    219       6.5335      0.00000
    220       6.5352      0.00000
    221       6.5467      0.00000
    222       6.5889      0.00000
    223       6.6195      0.00000
    224       6.7152      0.00000
    225       6.8033      0.00000
    226       6.8075      0.00000
    227       6.8568      0.00000
    228       6.8913      0.00000
    229       6.9498      0.00000
    230       7.0004      0.00000
    231       7.0876      0.00000
    232       7.0954      0.00000
    233       7.1392      0.00000
    234       7.2196      0.00000
    235       7.3121      0.00000
    236       7.3144      0.00000
    237       7.3375      0.00000
    238       7.3604      0.00000
    239       7.5298      0.00000
    240       7.5597      0.00000
    241       7.5951      0.00000
    242       7.7566      0.00000
    243       7.8165      0.00000
    244       7.8407      0.00000
    245       7.8491      0.00000
    246       7.9190      0.00000
    247       7.9623      0.00000
    248       8.0086      0.00000
    249       8.0980      0.00000
    250       8.1294      0.00000
    251       8.1975      0.00000
    252       8.2362      0.00000
    253       8.3324      0.00000
    254       8.3433      0.00000
    255       8.4668      0.00000
    256       8.7165      0.00000

 k-point     3 :       0.4000    0.0000    0.0000
  band No.  band energies     occupation 
      1     -37.3970      1.00000
      2     -37.3749      1.00000
      3     -37.3188      1.00000
      4     -23.2543      1.00000
      5     -22.9279      1.00000
      6     -22.6126      1.00000
      7     -22.3221      1.00000
      8     -21.6147      1.00000
      9     -21.4261      1.00000
     10     -21.0815      1.00000
     11     -20.6311      1.00000
     12     -20.5759      1.00000
     13     -20.2313      1.00000
     14     -19.8101      1.00000
     15     -19.6996      1.00000
     16     -19.3066      1.00000
     17     -19.2919      1.00000
     18     -18.8309      1.00000
     19     -18.5142      1.00000
     20     -18.1981      1.00000
     21     -18.0057      1.00000
     22     -17.8717      1.00000
     23     -17.5380      1.00000
     24     -17.4175      1.00000
     25     -17.2676      1.00000
     26     -16.9425      1.00000
     27     -16.5018      1.00000
     28     -16.1996      1.00000
     29     -15.8588      1.00000
     30     -15.3897      1.00000
     31     -15.3821      1.00000
     32     -15.1813      1.00000
     33     -15.0946      1.00000
     34     -14.7277      1.00000
     35     -14.3650      1.00000
     36     -14.1630      1.00000
     37     -13.6366      1.00000
     38     -13.5113      1.00000
     39     -13.3683      1.00000
     40     -13.0452      1.00000
     41     -12.8732      1.00000
     42     -12.7705      1.00000
     43     -12.7010      1.00000
     44     -12.3973      1.00000
     45     -11.9863      1.00000
     46     -11.7497      1.00000
     47     -11.6045      1.00000
     48     -11.4475      1.00000
     49     -11.3592      1.00000
     50     -10.9717      1.00000
     51     -10.8009      1.00000
     52     -10.6129      1.00000
     53     -10.4569      1.00000
     54     -10.3226      1.00000
     55     -10.2013      1.00000
     56     -10.1100      1.00000
     57     -10.0373      1.00000
     58      -9.8968      1.00000
     59      -9.7884      1.00000
     60      -9.6809      1.00000
     61      -9.6428      1.00000
     62      -9.5838      1.00000
     63      -9.5251      1.00000
     64      -9.4595      1.00000
     65      -9.2198      1.00000
     66      -9.1996      1.00000
     67      -8.9468      1.00000
     68      -8.8717      1.00000
     69      -8.8337      1.00000
     70      -8.7572      1.00000
     71      -8.7286      1.00000
     72      -8.6293      1.00000
     73      -8.5031      1.00000
     74      -8.3614      1.00000
     75      -8.2904      1.00000
     76      -8.2778      1.00000
     77      -8.1716      1.00000
     78      -7.9110      1.00000
     79      -7.8945      1.00000
     80      -7.7243      1.00000
     81      -7.5509      1.00000
     82      -7.3509      1.00000
     83      -7.1422      1.00000
     84      -6.9869      1.00000
     85      -6.9065      1.00000
     86      -6.8412      1.00000
     87      -6.8292      1.00000
     88      -6.6574      1.00000
     89      -6.6338      1.00000
     90      -6.2729      1.00000
     91      -6.2160      1.00000
     92      -6.0111      1.00000
     93      -5.8021      1.00000
     94      -5.5743      1.00000
     95      -5.5377      1.00000
     96      -5.3174      1.00000
     97      -5.1241      1.00000
     98      -5.0287      1.00000
     99      -4.9669      1.00000
    100      -4.2982      1.00000
    101      -3.7860      1.00000
    102      -3.4384      1.00000
    103      -2.1981      0.07289
    104      -1.5754      0.00000
    105      -1.3797      0.00000
    106      -1.2235      0.00000
    107      -1.1087      0.00000
    108      -0.9465      0.00000
    109      -0.8618      0.00000
    110      -0.6371      0.00000
    111      -0.5337      0.00000
    112      -0.3923      0.00000
    113      -0.1263      0.00000
    114       0.0376      0.00000
    115       0.2019      0.00000
    116       0.5136      0.00000
    117       0.6507      0.00000
    118       0.8974      0.00000
    119       1.1271      0.00000
    120       1.3682      0.00000
    121       1.5692      0.00000
    122       1.5795      0.00000
    123       1.6555      0.00000
    124       1.6996      0.00000
    125       1.7662      0.00000
    126       1.8838      0.00000
    127       1.9319      0.00000
    128       2.1285      0.00000
    129       2.1945      0.00000
    130       2.3402      0.00000
    131       2.4967      0.00000
    132       2.5532      0.00000
    133       2.6711      0.00000
    134       2.7211      0.00000
    135       2.7260      0.00000
    136       2.7369      0.00000
    137       2.9156      0.00000
    138       3.0054      0.00000
    139       3.0727      0.00000
    140       3.0901      0.00000
    141       3.1206      0.00000
    142       3.2059      0.00000
    143       3.2816      0.00000
    144       3.3508      0.00000
    145       3.4993      0.00000
    146       3.5076      0.00000
    147       3.5547      0.00000
    148       3.6228      0.00000
    149       3.6898      0.00000
    150       3.7500      0.00000
    151       3.7767      0.00000
    152       3.7884      0.00000
    153       3.8326      0.00000
    154       3.8795      0.00000
    155       3.9617      0.00000
    156       3.9856      0.00000
    157       4.0144      0.00000
    158       4.1093      0.00000
    159       4.1904      0.00000
    160       4.2871      0.00000
    161       4.3091      0.00000
    162       4.3229      0.00000
    163       4.3502      0.00000
    164       4.4117      0.00000
    165       4.4819      0.00000
    166       4.5835      0.00000
    167       4.6354      0.00000
    168       4.6691      0.00000
    169       4.6811      0.00000
    170       4.7795      0.00000
    171       4.8120      0.00000
    172       4.8600      0.00000
    173       4.9368      0.00000
    174       4.9762      0.00000
    175       5.0565      0.00000
    176       5.0934      0.00000
    177       5.1047      0.00000
    178       5.1440      0.00000
    179       5.1634      0.00000
    180       5.1842      0.00000
    181       5.2071      0.00000
    182       5.2312      0.00000
    183       5.2968      0.00000
    184       5.3799      0.00000
    185       5.4119      0.00000
    186       5.5111      0.00000
    187       5.5600      0.00000
    188       5.5915      0.00000
    189       5.6055      0.00000
    190       5.6204      0.00000
    191       5.6264      0.00000
    192       5.6524      0.00000
    193       5.6646      0.00000
    194       5.6882      0.00000
    195       5.6920      0.00000
    196       5.7241      0.00000
    197       5.7403      0.00000
    198       5.8010      0.00000
    199       5.8675      0.00000
    200       5.8894      0.00000
    201       5.8964      0.00000
    202       5.8993      0.00000
    203       5.9798      0.00000
    204       6.0380      0.00000
    205       6.0688      0.00000
    206       6.1105      0.00000
    207       6.1320      0.00000
    208       6.1650      0.00000
    209       6.2371      0.00000
    210       6.3009      0.00000
    211       6.3179      0.00000
    212       6.3711      0.00000
    213       6.4090      0.00000
    214       6.4313      0.00000
    215       6.4747      0.00000
    216       6.4905      0.00000
    217       6.6124      0.00000
    218       6.6930      0.00000
    219       6.7410      0.00000
    220       6.7503      0.00000
    221       6.7753      0.00000
    222       6.8079      0.00000
    223       6.8546      0.00000
    224       6.9728      0.00000
    225       6.9747      0.00000
    226       7.0296      0.00000
    227       7.0990      0.00000
    228       7.1845      0.00000
    229       7.2227      0.00000
    230       7.2502      0.00000
    231       7.3596      0.00000
    232       7.3827      0.00000
    233       7.4591      0.00000
    234       7.4737      0.00000
    235       7.5125      0.00000
    236       7.5385      0.00000
    237       7.5829      0.00000
    238       7.6702      0.00000
    239       7.6975      0.00000
    240       7.7616      0.00000
    241       7.8008      0.00000
    242       7.8822      0.00000
    243       7.8985      0.00000
    244       7.9495      0.00000
    245       7.9908      0.00000
    246       8.1514      0.00000
    247       8.2483      0.00000
    248       8.2643      0.00000
    249       8.2800      0.00000
    250       8.3193      0.00000
    251       8.5934      0.00000
    252       8.7070      0.00000
    253       8.7082      0.00000
    254       8.8080      0.00000
    255       8.9676      0.00000
    256       9.3895      0.00000

 k-point     4 :       0.0000    0.2000    0.0000
  band No.  band energies     occupation 
      1     -37.3970      1.00000
      2     -37.3749      1.00000
      3     -37.3188      1.00000
      4     -23.2689      1.00000
      5     -22.9054      1.00000
      6     -22.5982      1.00000
      7     -22.3195      1.00000
      8     -21.6850      1.00000
      9     -21.3751      1.00000
     10     -21.1561      1.00000
     11     -20.7635      1.00000
     12     -20.4287      1.00000
     13     -20.1731      1.00000
     14     -19.7818      1.00000
     15     -19.4149      1.00000
     16     -19.2835      1.00000
     17     -19.1504      1.00000
     18     -19.1288      1.00000
     19     -18.6676      1.00000
     20     -18.3962      1.00000
     21     -18.3773      1.00000
     22     -17.9546      1.00000
     23     -17.4191      1.00000
     24     -17.1331      1.00000
     25     -17.0104      1.00000
     26     -16.7523      1.00000
     27     -16.4926      1.00000
     28     -16.1328      1.00000
     29     -15.5980      1.00000
     30     -15.4967      1.00000
     31     -15.3588      1.00000
     32     -15.1938      1.00000
     33     -15.1256      1.00000
     34     -14.8920      1.00000
     35     -14.7991      1.00000
     36     -14.3464      1.00000
     37     -13.9948      1.00000
     38     -13.6225      1.00000
     39     -13.3142      1.00000
     40     -12.9572      1.00000
     41     -12.6184      1.00000
     42     -12.5530      1.00000
     43     -12.2366      1.00000
     44     -12.1637      1.00000
     45     -12.0948      1.00000
     46     -11.8223      1.00000
     47     -11.5536      1.00000
     48     -11.3300      1.00000
     49     -11.3197      1.00000
     50     -11.1956      1.00000
     51     -10.7775      1.00000
     52     -10.6256      1.00000
     53     -10.4839      1.00000
     54     -10.4371      1.00000
     55     -10.3330      1.00000
     56     -10.0343      1.00000
     57      -9.9647      1.00000
     58      -9.9074      1.00000
     59      -9.8526      1.00000
     60      -9.7688      1.00000
     61      -9.6676      1.00000
     62      -9.5658      1.00000
     63      -9.4652      1.00000
     64      -9.3974      1.00000
     65      -9.2029      1.00000
     66      -9.1649      1.00000
     67      -9.0700      1.00000
     68      -9.0521      1.00000
     69      -8.9499      1.00000
     70      -8.9099      1.00000
     71      -8.8067      1.00000
     72      -8.7683      1.00000
     73      -8.5963      1.00000
     74      -8.4817      1.00000
     75      -8.1582      1.00000
     76      -8.0872      1.00000
     77      -7.8808      1.00000
     78      -7.7940      1.00000
     79      -7.7245      1.00000
     80      -7.5579      1.00000
     81      -7.3920      1.00000
     82      -7.3228      1.00000
     83      -7.1988      1.00000
     84      -7.1638      1.00000
     85      -6.9911      1.00000
     86      -6.9163      1.00000
     87      -6.7324      1.00000
     88      -6.6235      1.00000
     89      -6.5949      1.00000
     90      -6.4271      1.00000
     91      -6.1446      1.00000
     92      -6.0969      1.00000
     93      -6.0099      1.00000
     94      -5.9103      1.00000
     95      -5.7853      1.00000
     96      -5.3891      1.00000
     97      -4.8448      1.00000
     98      -4.6205      1.00000
     99      -4.5534      1.00000
    100      -4.2869      1.00000
    101      -3.9785      1.00000
    102      -3.2953      1.00000
    103      -2.1843      0.04942
    104      -1.6531      0.00000
    105      -1.4191      0.00000
    106      -1.3966      0.00000
    107      -1.2754      0.00000
    108      -1.1039      0.00000
    109      -0.8488      0.00000
    110      -0.7033      0.00000
    111      -0.5019      0.00000
    112      -0.4081      0.00000
    113      -0.0150      0.00000
    114       0.3049      0.00000
    115       0.3174      0.00000
    116       0.7251      0.00000
    117       0.7901      0.00000
    118       1.0047      0.00000
    119       1.0896      0.00000
    120       1.3524      0.00000
    121       1.4289      0.00000
    122       1.6086      0.00000
    123       1.6768      0.00000
    124       1.7676      0.00000
    125       1.7803      0.00000
    126       1.8249      0.00000
    127       2.0160      0.00000
    128       2.1572      0.00000
    129       2.2006      0.00000
    130       2.3114      0.00000
    131       2.3535      0.00000
    132       2.4180      0.00000
    133       2.4536      0.00000
    134       2.5615      0.00000
    135       2.6300      0.00000
    136       2.7656      0.00000
    137       2.8234      0.00000
    138       2.8299      0.00000
    139       2.8452      0.00000
    140       2.9474      0.00000
    141       3.0913      0.00000
    142       3.1363      0.00000
    143       3.2530      0.00000
    144       3.3459      0.00000
    145       3.3528      0.00000
    146       3.3764      0.00000
    147       3.5046      0.00000
    148       3.6054      0.00000
    149       3.6424      0.00000
    150       3.6726      0.00000
    151       3.7246      0.00000
    152       3.8363      0.00000
    153       3.8942      0.00000
    154       3.9673      0.00000
    155       4.0535      0.00000
    156       4.0750      0.00000
    157       4.1618      0.00000
    158       4.2338      0.00000
    159       4.2531      0.00000
    160       4.3390      0.00000
    161       4.4131      0.00000
    162       4.4214      0.00000
    163       4.4787      0.00000
    164       4.5013      0.00000
    165       4.5549      0.00000
    166       4.6470      0.00000
    167       4.6730      0.00000
    168       4.7341      0.00000
    169       4.7557      0.00000
    170       4.7888      0.00000
    171       4.8226      0.00000
    172       4.9405      0.00000
    173       4.9465      0.00000
    174       4.9601      0.00000
    175       4.9945      0.00000
    176       5.0756      0.00000
    177       5.1116      0.00000
    178       5.1475      0.00000
    179       5.1937      0.00000
    180       5.2287      0.00000
    181       5.2505      0.00000
    182       5.2884      0.00000
    183       5.3416      0.00000
    184       5.3864      0.00000
    185       5.4033      0.00000
    186       5.4279      0.00000
    187       5.4634      0.00000
    188       5.5413      0.00000
    189       5.6568      0.00000
    190       5.6795      0.00000
    191       5.6887      0.00000
    192       5.6962      0.00000
    193       5.7327      0.00000
    194       5.7373      0.00000
    195       5.7881      0.00000
    196       5.8183      0.00000
    197       5.8422      0.00000
    198       5.8726      0.00000
    199       5.8878      0.00000
    200       5.9827      0.00000
    201       5.9852      0.00000
    202       6.0053      0.00000
    203       6.0368      0.00000
    204       6.1034      0.00000
    205       6.1077      0.00000
    206       6.2211      0.00000
    207       6.2459      0.00000
    208       6.2502      0.00000
    209       6.2839      0.00000
    210       6.3368      0.00000
    211       6.3825      0.00000
    212       6.4669      0.00000
    213       6.4696      0.00000
    214       6.5140      0.00000
    215       6.5269      0.00000
    216       6.5365      0.00000
    217       6.6101      0.00000
    218       6.6951      0.00000
    219       6.7486      0.00000
    220       6.8326      0.00000
    221       6.8429      0.00000
    222       6.9489      0.00000
    223       6.9736      0.00000
    224       7.0893      0.00000
    225       7.1247      0.00000
    226       7.2783      0.00000
    227       7.3083      0.00000
    228       7.3372      0.00000
    229       7.3806      0.00000
    230       7.5027      0.00000
    231       7.5680      0.00000
    232       7.6673      0.00000
    233       7.7126      0.00000
    234       7.7515      0.00000
    235       7.7596      0.00000
    236       7.8131      0.00000
    237       7.8525      0.00000
    238       8.0048      0.00000
    239       8.0591      0.00000
    240       8.1159      0.00000
    241       8.1375      0.00000
    242       8.3788      0.00000
    243       8.3869      0.00000
    244       8.3938      0.00000
    245       8.4322      0.00000
    246       8.4885      0.00000
    247       8.6498      0.00000
    248       8.6691      0.00000
    249       8.6778      0.00000
    250       8.7820      0.00000
    251       9.1475      0.00000
    252       9.3381      0.00000
    253       9.4105      0.00000
    254       9.7388      0.00000
    255       9.9427      0.00000
    256      10.2629      0.00000

 k-point     5 :       0.2000    0.2000    0.0000
  band No.  band energies     occupation 
      1     -37.3970      1.00000
      2     -37.3749      1.00000
      3     -37.3188      1.00000
      4     -23.2570      1.00000
      5     -22.9249      1.00000
      6     -22.6073      1.00000
      7     -22.3227      1.00000
      8     -21.6492      1.00000
      9     -21.3173      1.00000
     10     -21.2154      1.00000
     11     -20.5871      1.00000
     12     -20.5845      1.00000
     13     -20.1011      1.00000
     14     -19.9744      1.00000
     15     -19.6669      1.00000
     16     -19.3931      1.00000
     17     -18.9296      1.00000
     18     -18.7953      1.00000
     19     -18.7517      1.00000
     20     -18.4548      1.00000
     21     -18.1472      1.00000
     22     -17.7274      1.00000
     23     -17.4155      1.00000
     24     -17.2333      1.00000
     25     -17.2225      1.00000
     26     -16.9939      1.00000
     27     -16.5550      1.00000
     28     -16.1934      1.00000
     29     -15.8237      1.00000
     30     -15.5405      1.00000
     31     -15.4337      1.00000
     32     -15.1022      1.00000
     33     -14.8280      1.00000
     34     -14.8089      1.00000
     35     -14.4098      1.00000
     36     -14.3093      1.00000
     37     -13.9484      1.00000
     38     -13.4776      1.00000
     39     -13.2260      1.00000
     40     -13.0445      1.00000
     41     -12.9004      1.00000
     42     -12.6543      1.00000
     43     -12.4987      1.00000
     44     -12.2050      1.00000
     45     -11.9916      1.00000
     46     -11.8393      1.00000
     47     -11.7020      1.00000
     48     -11.6983      1.00000
     49     -11.1178      1.00000
     50     -11.0415      1.00000
     51     -10.7757      1.00000
     52     -10.6498      1.00000
     53     -10.4346      1.00000
     54     -10.4285      1.00000
     55     -10.3264      1.00000
     56     -10.0551      1.00000
     57      -9.9565      1.00000
     58      -9.8325      1.00000
     59      -9.8054      1.00000
     60      -9.7194      1.00000
     61      -9.6206      1.00000
     62      -9.4431      1.00000
     63      -9.4222      1.00000
     64      -9.3355      1.00000
     65      -9.3112      1.00000
     66      -9.2243      1.00000
     67      -9.1507      1.00000
     68      -8.9336      1.00000
     69      -8.9044      1.00000
     70      -8.8556      1.00000
     71      -8.7155      1.00000
     72      -8.5825      1.00000
     73      -8.5387      1.00000
     74      -8.5074      1.00000
     75      -8.2472      1.00000
     76      -8.1934      1.00000
     77      -7.9889      1.00000
     78      -7.9172      1.00000
     79      -7.7747      1.00000
     80      -7.7281      1.00000
     81      -7.5198      1.00000
     82      -7.3807      1.00000
     83      -7.1966      1.00000
     84      -7.1954      1.00000
     85      -6.9296      1.00000
     86      -6.8954      1.00000
     87      -6.6330      1.00000
     88      -6.5991      1.00000
     89      -6.2788      1.00000
     90      -6.2335      1.00000
     91      -6.1924      1.00000
     92      -6.1656      1.00000
     93      -6.1169      1.00000
     94      -5.8883      1.00000
     95      -5.5547      1.00000
     96      -5.2819      1.00000
     97      -4.9647      1.00000
     98      -4.9090      1.00000
     99      -4.6670      1.00000
    100      -4.5534      1.00000
    101      -3.6422      1.00000
    102      -3.5225      1.00000
    103      -2.2427      0.20525
    104      -1.5715      0.00000
    105      -1.2886      0.00000
    106      -1.2606      0.00000
    107      -1.2196      0.00000
    108      -0.9217      0.00000
    109      -0.7489      0.00000
    110      -0.7455      0.00000
    111      -0.6498      0.00000
    112      -0.3657      0.00000
    113      -0.1002      0.00000
    114       0.0239      0.00000
    115       0.3110      0.00000
    116       0.6835      0.00000
    117       0.6970      0.00000
    118       0.8681      0.00000
    119       1.1922      0.00000
    120       1.2579      0.00000
    121       1.2771      0.00000
    122       1.3715      0.00000
    123       1.6281      0.00000
    124       1.8693      0.00000
    125       1.8999      0.00000
    126       2.0307      0.00000
    127       2.0481      0.00000
    128       2.0498      0.00000
    129       2.3932      0.00000
    130       2.4118      0.00000
    131       2.4265      0.00000
    132       2.4559      0.00000
    133       2.5943      0.00000
    134       2.7338      0.00000
    135       2.7766      0.00000
    136       2.7944      0.00000
    137       2.8052      0.00000
    138       2.9259      0.00000
    139       2.9516      0.00000
    140       3.1066      0.00000
    141       3.1548      0.00000
    142       3.1739      0.00000
    143       3.2030      0.00000
    144       3.2300      0.00000
    145       3.3154      0.00000
    146       3.4174      0.00000
    147       3.5737      0.00000
    148       3.6076      0.00000
    149       3.6869      0.00000
    150       3.7648      0.00000
    151       3.8089      0.00000
    152       3.8156      0.00000
    153       3.8953      0.00000
    154       3.9934      0.00000
    155       4.0159      0.00000
    156       4.0200      0.00000
    157       4.0750      0.00000
    158       4.0844      0.00000
    159       4.1692      0.00000
    160       4.1941      0.00000
    161       4.2707      0.00000
    162       4.3485      0.00000
    163       4.3493      0.00000
    164       4.4941      0.00000
    165       4.5000      0.00000
    166       4.5578      0.00000
    167       4.5754      0.00000
    168       4.7012      0.00000
    169       4.7370      0.00000
    170       4.8374      0.00000
    171       4.8794      0.00000
    172       4.8911      0.00000
    173       4.9761      0.00000
    174       5.0429      0.00000
    175       5.0518      0.00000
    176       5.1021      0.00000
    177       5.1051      0.00000
    178       5.1277      0.00000
    179       5.1432      0.00000
    180       5.2455      0.00000
    181       5.2551      0.00000
    182       5.3134      0.00000
    183       5.3261      0.00000
    184       5.3772      0.00000
    185       5.3894      0.00000
    186       5.4246      0.00000
    187       5.4388      0.00000
    188       5.5390      0.00000
    189       5.5438      0.00000
    190       5.5459      0.00000
    191       5.5880      0.00000
    192       5.6412      0.00000
    193       5.6569      0.00000
    194       5.6820      0.00000
    195       5.7150      0.00000
    196       5.7639      0.00000
    197       5.7827      0.00000
    198       5.8383      0.00000
    199       5.8411      0.00000
    200       5.8949      0.00000
    201       5.9630      0.00000
    202       6.0043      0.00000
    203       6.0570      0.00000
    204       6.0781      0.00000
    205       6.0851      0.00000
    206       6.1571      0.00000
    207       6.1784      0.00000
    208       6.1849      0.00000
    209       6.3064      0.00000
    210       6.3176      0.00000
    211       6.3413      0.00000
    212       6.3907      0.00000
    213       6.4179      0.00000
    214       6.5035      0.00000
    215       6.5107      0.00000
    216       6.5762      0.00000
    217       6.6069      0.00000
    218       6.6184      0.00000
    219       6.7056      0.00000
    220       6.7585      0.00000
    221       6.8257      0.00000
    222       6.8541      0.00000
    223       6.8980      0.00000
    224       6.9138      0.00000
    225       6.9438      0.00000
    226       7.0051      0.00000
    227       7.0663      0.00000
    228       7.0943      0.00000
    229       7.1627      0.00000
    230       7.1906      0.00000
    231       7.1917      0.00000
    232       7.2707      0.00000
    233       7.3349      0.00000
    234       7.3917      0.00000
    235       7.3987      0.00000
    236       7.4968      0.00000
    237       7.5648      0.00000
    238       7.7448      0.00000
    239       7.8378      0.00000
    240       7.8618      0.00000
    241       7.9116      0.00000
    242       7.9968      0.00000
    243       8.0118      0.00000
    244       8.0343      0.00000
    245       8.0766      0.00000
    246       8.3507      0.00000
    247       8.4295      0.00000
    248       8.5126      0.00000
    249       8.6970      0.00000
    250       8.7145      0.00000
    251       8.7306      0.00000
    252       8.8052      0.00000
    253       8.8708      0.00000
    254       9.0972      0.00000
    255       9.1309      0.00000
    256       9.3408      0.00000

 k-point     6 :       0.4000    0.2000    0.0000
  band No.  band energies     occupation 
      1     -37.3970      1.00000
      2     -37.3749      1.00000
      3     -37.3188      1.00000
      4     -23.2500      1.00000
      5     -22.9303      1.00000
      6     -22.6295      1.00000
      7     -22.3100      1.00000
      8     -21.6153      1.00000
      9     -21.4092      1.00000
     10     -21.0958      1.00000
     11     -20.6344      1.00000
     12     -20.4819      1.00000
     13     -20.1704      1.00000
     14     -19.9915      1.00000
     15     -19.8692      1.00000
     16     -19.4652      1.00000
     17     -18.8509      1.00000
     18     -18.7651      1.00000
     19     -18.4876      1.00000
     20     -18.2571      1.00000
     21     -18.0473      1.00000
     22     -17.9415      1.00000
     23     -17.4816      1.00000
     24     -17.3619      1.00000
     25     -17.2435      1.00000
     26     -17.0483      1.00000
     27     -16.5788      1.00000
     28     -16.1096      1.00000
     29     -16.0538      1.00000
     30     -15.7130      1.00000
     31     -15.5188      1.00000
     32     -14.8394      1.00000
     33     -14.6830      1.00000
     34     -14.5460      1.00000
     35     -14.1583      1.00000
     36     -14.0665      1.00000
     37     -13.9153      1.00000
     38     -13.7842      1.00000
     39     -13.5675      1.00000
     40     -13.2470      1.00000
     41     -12.9336      1.00000
     42     -12.5757      1.00000
     43     -12.3086      1.00000
     44     -12.2351      1.00000
     45     -12.0639      1.00000
     46     -11.9647      1.00000
     47     -11.8979      1.00000
     48     -11.4171      1.00000
     49     -11.2739      1.00000
     50     -11.0664      1.00000
     51     -10.8799      1.00000
     52     -10.5372      1.00000
     53     -10.3635      1.00000
     54     -10.2278      1.00000
     55     -10.1624      1.00000
     56     -10.0788      1.00000
     57     -10.0153      1.00000
     58      -9.8914      1.00000
     59      -9.8482      1.00000
     60      -9.8075      1.00000
     61      -9.7115      1.00000
     62      -9.5386      1.00000
     63      -9.3987      1.00000
     64      -9.3069      1.00000
     65      -9.2665      1.00000
     66      -9.0516      1.00000
     67      -8.9927      1.00000
     68      -8.9644      1.00000
     69      -8.8647      1.00000
     70      -8.8143      1.00000
     71      -8.7486      1.00000
     72      -8.6314      1.00000
     73      -8.4746      1.00000
     74      -8.4052      1.00000
     75      -8.3071      1.00000
     76      -8.1199      1.00000
     77      -8.0580      1.00000
     78      -7.9576      1.00000
     79      -7.8535      1.00000
     80      -7.8090      1.00000
     81      -7.5693      1.00000
     82      -7.4489      1.00000
     83      -7.4122      1.00000
     84      -7.1757      1.00000
     85      -7.0077      1.00000
     86      -6.8469      1.00000
     87      -6.5706      1.00000
     88      -6.4552      1.00000
     89      -6.3489      1.00000
     90      -6.2718      1.00000
     91      -6.2484      1.00000
     92      -5.9936      1.00000
     93      -5.7929      1.00000
     94      -5.6570      1.00000
     95      -5.5710      1.00000
     96      -5.3125      1.00000
     97      -5.0998      1.00000
     98      -5.0353      1.00000
     99      -4.9658      1.00000
    100      -4.5596      1.00000
    101      -3.8655      1.00000
    102      -3.1433      1.00000
    103      -2.3942      0.90655
    104      -1.6972      0.00000
    105      -1.2803      0.00000
    106      -1.2052      0.00000
    107      -1.0468      0.00000
    108      -0.8843      0.00000
    109      -0.7547      0.00000
    110      -0.5680      0.00000
    111      -0.4138      0.00000
    112      -0.4045      0.00000
    113      -0.1793      0.00000
    114       0.0568      0.00000
    115       0.1694      0.00000
    116       0.2308      0.00000
    117       0.8048      0.00000
    118       0.8749      0.00000
    119       0.9730      0.00000
    120       1.0895      0.00000
    121       1.3259      0.00000
    122       1.4001      0.00000
    123       1.7323      0.00000
    124       1.8670      0.00000
    125       1.9665      0.00000
    126       2.0631      0.00000
    127       2.0939      0.00000
    128       2.1230      0.00000
    129       2.3232      0.00000
    130       2.3578      0.00000
    131       2.4438      0.00000
    132       2.4598      0.00000
    133       2.5668      0.00000
    134       2.6908      0.00000
    135       2.8345      0.00000
    136       3.0008      0.00000
    137       3.0559      0.00000
    138       3.1432      0.00000
    139       3.1703      0.00000
    140       3.1932      0.00000
    141       3.2387      0.00000
    142       3.2530      0.00000
    143       3.2748      0.00000
    144       3.3651      0.00000
    145       3.3878      0.00000
    146       3.4284      0.00000
    147       3.4420      0.00000
    148       3.4707      0.00000
    149       3.5953      0.00000
    150       3.6512      0.00000
    151       3.6736      0.00000
    152       3.6954      0.00000
    153       3.8039      0.00000
    154       3.9318      0.00000
    155       3.9924      0.00000
    156       4.0103      0.00000
    157       4.0477      0.00000
    158       4.1719      0.00000
    159       4.1785      0.00000
    160       4.2486      0.00000
    161       4.2701      0.00000
    162       4.3449      0.00000
    163       4.4688      0.00000
    164       4.4782      0.00000
    165       4.4872      0.00000
    166       4.5183      0.00000
    167       4.5525      0.00000
    168       4.6332      0.00000
    169       4.7101      0.00000
    170       4.7298      0.00000
    171       4.7472      0.00000
    172       4.8257      0.00000
    173       4.8592      0.00000
    174       4.9377      0.00000
    175       4.9703      0.00000
    176       5.0195      0.00000
    177       5.0610      0.00000
    178       5.1186      0.00000
    179       5.2055      0.00000
    180       5.2494      0.00000
    181       5.2610      0.00000
    182       5.2708      0.00000
    183       5.3102      0.00000
    184       5.3387      0.00000
    185       5.3502      0.00000
    186       5.4944      0.00000
    187       5.4985      0.00000
    188       5.5155      0.00000
    189       5.5265      0.00000
    190       5.5552      0.00000
    191       5.5848      0.00000
    192       5.6292      0.00000
    193       5.6917      0.00000
    194       5.7115      0.00000
    195       5.7601      0.00000
    196       5.8070      0.00000
    197       5.8278      0.00000
    198       5.8496      0.00000
    199       5.8937      0.00000
    200       5.9550      0.00000
    201       5.9608      0.00000
    202       6.0328      0.00000
    203       6.0730      0.00000
    204       6.0913      0.00000
    205       6.1091      0.00000
    206       6.1379      0.00000
    207       6.1623      0.00000
    208       6.2177      0.00000
    209       6.2515      0.00000
    210       6.2961      0.00000
    211       6.3226      0.00000
    212       6.3508      0.00000
    213       6.4172      0.00000
    214       6.4812      0.00000
    215       6.4832      0.00000
    216       6.5192      0.00000
    217       6.5383      0.00000
    218       6.5564      0.00000
    219       6.5995      0.00000
    220       6.6053      0.00000
    221       6.6398      0.00000
    222       6.6840      0.00000
    223       6.7495      0.00000
    224       6.8201      0.00000
    225       6.8476      0.00000
    226       6.8851      0.00000
    227       6.9122      0.00000
    228       6.9741      0.00000
    229       7.0346      0.00000
    230       7.1113      0.00000
    231       7.1229      0.00000
    232       7.2118      0.00000
    233       7.2384      0.00000
    234       7.3217      0.00000
    235       7.3429      0.00000
    236       7.3805      0.00000
    237       7.4655      0.00000
    238       7.5262      0.00000
    239       7.5810      0.00000
    240       7.6140      0.00000
    241       7.6486      0.00000
    242       7.6761      0.00000
    243       7.8382      0.00000
    244       7.8773      0.00000
    245       7.9004      0.00000
    246       7.9159      0.00000
    247       8.0392      0.00000
    248       8.1384      0.00000
    249       8.1747      0.00000
    250       8.2828      0.00000
    251       8.3974      0.00000
    252       8.5559      0.00000
    253       8.6261      0.00000
    254       8.7515      0.00000
    255       8.8116      0.00000
    256       9.0368      0.00000

 k-point     7 :      -0.4000    0.2000    0.0000
  band No.  band energies     occupation 
      1     -37.3970      1.00000
      2     -37.3749      1.00000
      3     -37.3188      1.00000
      4     -23.2584      1.00000
      5     -22.9130      1.00000
      6     -22.6344      1.00000
      7     -22.2986      1.00000
      8     -21.6374      1.00000
      9     -21.4665      1.00000
     10     -20.9975      1.00000
     11     -20.7033      1.00000
     12     -20.4950      1.00000
     13     -20.2415      1.00000
     14     -19.8776      1.00000
     15     -19.7276      1.00000
     16     -19.4045      1.00000
     17     -19.0206      1.00000
     18     -18.8616      1.00000
     19     -18.5084      1.00000
     20     -18.3169      1.00000
     21     -18.0362      1.00000
     22     -17.8083      1.00000
     23     -17.6308      1.00000
     24     -17.4140      1.00000
     25     -17.1541      1.00000
     26     -16.9295      1.00000
     27     -16.6989      1.00000
     28     -16.0442      1.00000
     29     -15.7180      1.00000
     30     -15.5314      1.00000
     31     -15.4810      1.00000
     32     -15.0052      1.00000
     33     -14.8749      1.00000
     34     -14.6940      1.00000
     35     -14.4995      1.00000
     36     -14.3611      1.00000
     37     -13.7911      1.00000
     38     -13.5204      1.00000
     39     -13.2718      1.00000
     40     -13.1714      1.00000
     41     -12.9443      1.00000
     42     -12.8615      1.00000
     43     -12.4927      1.00000
     44     -12.1252      1.00000
     45     -12.0642      1.00000
     46     -11.8437      1.00000
     47     -11.6244      1.00000
     48     -11.3905      1.00000
     49     -11.3114      1.00000
     50     -10.7462      1.00000
     51     -10.6615      1.00000
     52     -10.6154      1.00000
     53     -10.5194      1.00000
     54     -10.4431      1.00000
     55     -10.3252      1.00000
     56     -10.0967      1.00000
     57      -9.9950      1.00000
     58      -9.9419      1.00000
     59      -9.8733      1.00000
     60      -9.8136      1.00000
     61      -9.6789      1.00000
     62      -9.4681      1.00000
     63      -9.4248      1.00000
     64      -9.3524      1.00000
     65      -9.3323      1.00000
     66      -9.2173      1.00000
     67      -9.1065      1.00000
     68      -9.0300      1.00000
     69      -8.9013      1.00000
     70      -8.7696      1.00000
     71      -8.6728      1.00000
     72      -8.4975      1.00000
     73      -8.4737      1.00000
     74      -8.3884      1.00000
     75      -8.1948      1.00000
     76      -8.1593      1.00000
     77      -8.0951      1.00000
     78      -7.9418      1.00000
     79      -7.7716      1.00000
     80      -7.6161      1.00000
     81      -7.5297      1.00000
     82      -7.4647      1.00000
     83      -7.2879      1.00000
     84      -7.2600      1.00000
     85      -7.0506      1.00000
     86      -6.9507      1.00000
     87      -6.6933      1.00000
     88      -6.4663      1.00000
     89      -6.3680      1.00000
     90      -6.3121      1.00000
     91      -6.2386      1.00000
     92      -6.0521      1.00000
     93      -5.9280      1.00000
     94      -5.6893      1.00000
     95      -5.4078      1.00000
     96      -5.3092      1.00000
     97      -5.1795      1.00000
     98      -5.0223      1.00000
     99      -4.5967      1.00000
    100      -4.5213      1.00000
    101      -4.0561      1.00000
    102      -3.0177      1.00000
    103      -2.3027      0.50896
    104      -1.7457      0.00000
    105      -1.3109      0.00000
    106      -1.2641      0.00000
    107      -1.1505      0.00000
    108      -0.9944      0.00000
    109      -0.8818      0.00000
    110      -0.6277      0.00000
    111      -0.4622      0.00000
    112      -0.3598      0.00000
    113      -0.0404      0.00000
    114       0.0141      0.00000
    115       0.3242      0.00000
    116       0.6410      0.00000
    117       0.7602      0.00000
    118       0.8471      0.00000
    119       0.9946      0.00000
    120       1.2588      0.00000
    121       1.3065      0.00000
    122       1.3821      0.00000
    123       1.6940      0.00000
    124       1.8302      0.00000
    125       1.8772      0.00000
    126       2.0132      0.00000
    127       2.0223      0.00000
    128       2.0411      0.00000
    129       2.2505      0.00000
    130       2.3920      0.00000
    131       2.4103      0.00000
    132       2.4517      0.00000
    133       2.5933      0.00000
    134       2.7664      0.00000
    135       2.7797      0.00000
    136       2.7929      0.00000
    137       2.7969      0.00000
    138       3.0025      0.00000
    139       3.0567      0.00000
    140       3.1772      0.00000
    141       3.1880      0.00000
    142       3.1976      0.00000
    143       3.2217      0.00000
    144       3.3163      0.00000
    145       3.4328      0.00000
    146       3.5349      0.00000
    147       3.5447      0.00000
    148       3.6337      0.00000
    149       3.6625      0.00000
    150       3.7190      0.00000
    151       3.7642      0.00000
    152       3.7724      0.00000
    153       3.8316      0.00000
    154       3.9672      0.00000
    155       3.9941      0.00000
    156       4.0103      0.00000
    157       4.0685      0.00000
    158       4.1093      0.00000
    159       4.1766      0.00000
    160       4.2457      0.00000
    161       4.2471      0.00000
    162       4.3034      0.00000
    163       4.3441      0.00000
    164       4.4609      0.00000
    165       4.5242      0.00000
    166       4.5753      0.00000
    167       4.6023      0.00000
    168       4.7244      0.00000
    169       4.7435      0.00000
    170       4.8531      0.00000
    171       4.8644      0.00000
    172       4.8939      0.00000
    173       4.9360      0.00000
    174       5.0174      0.00000
    175       5.0571      0.00000
    176       5.1149      0.00000
    177       5.1180      0.00000
    178       5.2398      0.00000
    179       5.2533      0.00000
    180       5.2938      0.00000
    181       5.3006      0.00000
    182       5.3331      0.00000
    183       5.3910      0.00000
    184       5.4036      0.00000
    185       5.4237      0.00000
    186       5.4591      0.00000
    187       5.5027      0.00000
    188       5.5578      0.00000
    189       5.6585      0.00000
    190       5.6633      0.00000
    191       5.6848      0.00000
    192       5.8440      0.00000
    193       5.8774      0.00000
    194       5.8824      0.00000
    195       5.9363      0.00000
    196       5.9369      0.00000
    197       5.9477      0.00000
    198       6.0579      0.00000
    199       6.0682      0.00000
    200       6.1119      0.00000
    201       6.1225      0.00000
    202       6.1899      0.00000
    203       6.2568      0.00000
    204       6.2933      0.00000
    205       6.4227      0.00000
    206       6.4616      0.00000
    207       6.5677      0.00000
    208       6.6228      0.00000
    209       6.6521      0.00000
    210       6.7439      0.00000
    211       6.7647      0.00000
    212       6.8094      0.00000
    213       6.9021      0.00000
    214       6.9396      0.00000
    215       6.9861      0.00000
    216       7.1167      0.00000
    217       7.1516      0.00000
    218       7.1704      0.00000
    219       7.2433      0.00000
    220       7.2528      0.00000
    221       7.3637      0.00000
    222       7.3974      0.00000
    223       7.4337      0.00000
    224       7.4592      0.00000
    225       7.5318      0.00000
    226       7.7117      0.00000
    227       7.7757      0.00000
    228       7.7786      0.00000
    229       7.8963      0.00000
    230       7.8991      0.00000
    231       7.9584      0.00000
    232       8.0376      0.00000
    233       8.0828      0.00000
    234       8.1025      0.00000
    235       8.1121      0.00000
    236       8.3333      0.00000
    237       8.3398      0.00000
    238       8.4272      0.00000
    239       8.4795      0.00000
    240       8.5506      0.00000
    241       8.5674      0.00000
    242       8.6139      0.00000
    243       8.8205      0.00000
    244       8.8456      0.00000
    245       9.0267      0.00000
    246       9.1945      0.00000
    247       9.3294      0.00000
    248       9.4197      0.00000
    249       9.5184      0.00000
    250       9.6477      0.00000
    251       9.7765      0.00000
    252       9.8348      0.00000
    253       9.8394      0.00000
    254      10.2575      0.00000
    255      10.7886      0.00000
    256      11.4186      0.00000

 k-point     8 :      -0.2000    0.2000    0.0000
  band No.  band energies     occupation 
      1     -37.3970      1.00000
      2     -37.3749      1.00000
      3     -37.3188      1.00000
      4     -23.2697      1.00000
      5     -22.8978      1.00000
      6     -22.6166      1.00000
      7     -22.3027      1.00000
      8     -21.6799      1.00000
      9     -21.4565      1.00000
     10     -20.9822      1.00000
     11     -20.8734      1.00000
     12     -20.3128      1.00000
     13     -20.2971      1.00000
     14     -19.7300      1.00000
     15     -19.5518      1.00000
     16     -19.3751      1.00000
     17     -19.0535      1.00000
     18     -18.9942      1.00000
     19     -18.6216      1.00000
     20     -18.5767      1.00000
     21     -18.1990      1.00000
     22     -17.8832      1.00000
     23     -17.6145      1.00000
     24     -17.0765      1.00000
     25     -16.9574      1.00000
     26     -16.8909      1.00000
     27     -16.6495      1.00000
     28     -15.7885      1.00000
     29     -15.6694      1.00000
     30     -15.4726      1.00000
     31     -15.3877      1.00000
     32     -15.1651      1.00000
     33     -15.0819      1.00000
     34     -14.9970      1.00000
     35     -14.7496      1.00000
     36     -14.4363      1.00000
     37     -13.7738      1.00000
     38     -13.6653      1.00000
     39     -13.3980      1.00000
     40     -13.1127      1.00000
     41     -12.7091      1.00000
     42     -12.4036      1.00000
     43     -12.3462      1.00000
     44     -12.2126      1.00000
     45     -12.0992      1.00000
     46     -11.8105      1.00000
     47     -11.4710      1.00000
     48     -11.3247      1.00000
     49     -11.0700      1.00000
     50     -10.9990      1.00000
     51     -10.9892      1.00000
     52     -10.5318      1.00000
     53     -10.5115      1.00000
     54     -10.4361      1.00000
     55     -10.3972      1.00000
     56     -10.2322      1.00000
     57     -10.0208      1.00000
     58      -9.9037      1.00000
     59      -9.8023      1.00000
     60      -9.7623      1.00000
     61      -9.6020      1.00000
     62      -9.5861      1.00000
     63      -9.3978      1.00000
     64      -9.3166      1.00000
     65      -9.2897      1.00000
     66      -9.2065      1.00000
     67      -9.1318      1.00000
     68      -9.0910      1.00000
     69      -9.0868      1.00000
     70      -8.8244      1.00000
     71      -8.8118      1.00000
     72      -8.7801      1.00000
     73      -8.6001      1.00000
     74      -8.2023      1.00000
     75      -8.1915      1.00000
     76      -7.9429      1.00000
     77      -7.8475      1.00000
     78      -7.7965      1.00000
     79      -7.7156      1.00000
     80      -7.6323      1.00000
     81      -7.5590      1.00000
     82      -7.3889      1.00000
     83      -7.2522      1.00000
     84      -7.2140      1.00000
     85      -7.0127      1.00000
     86      -6.8440      1.00000
     87      -6.8340      1.00000
     88      -6.5807      1.00000
     89      -6.5207      1.00000
     90      -6.3463      1.00000
     91      -6.2154      1.00000
     92      -6.0961      1.00000
     93      -6.0595      1.00000
     94      -5.8007      1.00000
     95      -5.6988      1.00000
     96      -5.3738      1.00000
     97      -4.9400      1.00000
     98      -4.5508      1.00000
     99      -4.5332      1.00000
    100      -4.2790      1.00000
    101      -4.2386      1.00000
    102      -3.0426      1.00000
    103      -2.1983      0.07309
    104      -1.7833      0.00000
    105      -1.5759      0.00000
    106      -1.2934      0.00000
    107      -1.2013      0.00000
    108      -1.1066      0.00000
    109      -0.9027      0.00000
    110      -0.6156      0.00000
    111      -0.5138      0.00000
    112      -0.3050      0.00000
    113       0.0247      0.00000
    114       0.0714      0.00000
    115       0.5351      0.00000
    116       0.5607      0.00000
    117       0.7725      0.00000
    118       1.1917      0.00000
    119       1.2250      0.00000
    120       1.2925      0.00000
    121       1.4378      0.00000
    122       1.5818      0.00000
    123       1.6129      0.00000
    124       1.6549      0.00000
    125       1.6673      0.00000
    126       1.7718      0.00000
    127       1.9114      0.00000
    128       2.1368      0.00000
    129       2.2043      0.00000
    130       2.3120      0.00000
    131       2.4309      0.00000
    132       2.4343      0.00000
    133       2.5443      0.00000
    134       2.5704      0.00000
    135       2.6331      0.00000
    136       2.8107      0.00000
    137       2.8271      0.00000
    138       2.8348      0.00000
    139       2.9031      0.00000
    140       2.9610      0.00000
    141       3.0906      0.00000
    142       3.1673      0.00000
    143       3.3428      0.00000
    144       3.3496      0.00000
    145       3.4029      0.00000
    146       3.4770      0.00000
    147       3.5268      0.00000
    148       3.6001      0.00000
    149       3.6154      0.00000
    150       3.6390      0.00000
    151       3.7217      0.00000
    152       3.7285      0.00000
    153       3.8337      0.00000
    154       3.8639      0.00000
    155       4.0170      0.00000
    156       4.0878      0.00000
    157       4.1851      0.00000
    158       4.2312      0.00000
    159       4.2388      0.00000
    160       4.3603      0.00000
    161       4.4305      0.00000
    162       4.4698      0.00000
    163       4.4715      0.00000
    164       4.5540      0.00000
    165       4.5791      0.00000
    166       4.6159      0.00000
    167       4.6663      0.00000
    168       4.7300      0.00000
    169       4.7447      0.00000
    170       4.7506      0.00000
    171       4.8725      0.00000
    172       4.9389      0.00000
    173       4.9479      0.00000
    174       4.9638      0.00000
    175       4.9970      0.00000
    176       5.0891      0.00000
    177       5.0925      0.00000
    178       5.1479      0.00000
    179       5.1875      0.00000
    180       5.2257      0.00000
    181       5.2618      0.00000
    182       5.2846      0.00000
    183       5.2855      0.00000
    184       5.4057      0.00000
    185       5.4117      0.00000
    186       5.4550      0.00000
    187       5.4939      0.00000
    188       5.5340      0.00000
    189       5.6527      0.00000
    190       5.6854      0.00000
    191       5.6909      0.00000
    192       5.7217      0.00000
    193       5.7866      0.00000
    194       5.8087      0.00000
    195       5.8110      0.00000
    196       5.8145      0.00000
    197       5.8456      0.00000
    198       5.9496      0.00000
    199       5.9697      0.00000
    200       5.9972      0.00000
    201       6.0193      0.00000
    202       6.1264      0.00000
    203       6.1859      0.00000
    204       6.2577      0.00000
    205       6.2875      0.00000
    206       6.2979      0.00000
    207       6.3528      0.00000
    208       6.4253      0.00000
    209       6.4542      0.00000
    210       6.5284      0.00000
    211       6.5290      0.00000
    212       6.5427      0.00000
    213       6.5792      0.00000
    214       6.5864      0.00000
    215       6.6871      0.00000
    216       6.7674      0.00000
    217       6.8258      0.00000
    218       6.8416      0.00000
    219       6.9761      0.00000
    220       7.0276      0.00000
    221       7.0393      0.00000
    222       7.0688      0.00000
    223       7.1366      0.00000
    224       7.2767      0.00000
    225       7.3168      0.00000
    226       7.3292      0.00000
    227       7.5142      0.00000
    228       7.5581      0.00000
    229       7.5764      0.00000
    230       7.7483      0.00000
    231       7.8038      0.00000
    232       7.8203      0.00000
    233       7.8974      0.00000
    234       7.9446      0.00000
    235       7.9503      0.00000
    236       8.1448      0.00000
    237       8.1679      0.00000
    238       8.2545      0.00000
    239       8.3008      0.00000
    240       8.3860      0.00000
    241       8.4577      0.00000
    242       8.5500      0.00000
    243       8.7550      0.00000
    244       8.7770      0.00000
    245       8.7788      0.00000
    246       8.7949      0.00000
    247       9.0496      0.00000
    248       9.0638      0.00000
    249       9.1324      0.00000
    250       9.3934      0.00000
    251       9.6069      0.00000
    252       9.9238      0.00000
    253      10.0631      0.00000
    254      10.5097      0.00000
    255      10.5343      0.00000
    256      11.0851      0.00000

 k-point     9 :       0.0000    0.4000    0.0000
  band No.  band energies     occupation 
      1     -37.3970      1.00000
      2     -37.3749      1.00000
      3     -37.3188      1.00000
      4     -23.2543      1.00000
      5     -22.9279      1.00000
      6     -22.6126      1.00000
      7     -22.3221      1.00000
      8     -21.6147      1.00000
      9     -21.4261      1.00000
     10     -21.0815      1.00000
     11     -20.6311      1.00000
     12     -20.5759      1.00000
     13     -20.2313      1.00000
     14     -19.8100      1.00000
     15     -19.6996      1.00000
     16     -19.3066      1.00000
     17     -19.2919      1.00000
     18     -18.8309      1.00000
     19     -18.5142      1.00000
     20     -18.1981      1.00000
     21     -18.0057      1.00000
     22     -17.8717      1.00000
     23     -17.5380      1.00000
     24     -17.4175      1.00000
     25     -17.2676      1.00000
     26     -16.9425      1.00000
     27     -16.5018      1.00000
     28     -16.1996      1.00000
     29     -15.8588      1.00000
     30     -15.3897      1.00000
     31     -15.3821      1.00000
     32     -15.1813      1.00000
     33     -15.0946      1.00000
     34     -14.7277      1.00000
     35     -14.3650      1.00000
     36     -14.1630      1.00000
     37     -13.6366      1.00000
     38     -13.5113      1.00000
     39     -13.3683      1.00000
     40     -13.0452      1.00000
     41     -12.8732      1.00000
     42     -12.7705      1.00000
     43     -12.7010      1.00000
     44     -12.3973      1.00000
     45     -11.9863      1.00000
     46     -11.7497      1.00000
     47     -11.6045      1.00000
     48     -11.4475      1.00000
     49     -11.3592      1.00000
     50     -10.9717      1.00000
     51     -10.8009      1.00000
     52     -10.6129      1.00000
     53     -10.4569      1.00000
     54     -10.3226      1.00000
     55     -10.2013      1.00000
     56     -10.1100      1.00000
     57     -10.0373      1.00000
     58      -9.8968      1.00000
     59      -9.7884      1.00000
     60      -9.6809      1.00000
     61      -9.6428      1.00000
     62      -9.5838      1.00000
     63      -9.5251      1.00000
     64      -9.4595      1.00000
     65      -9.2198      1.00000
     66      -9.1996      1.00000
     67      -8.9468      1.00000
     68      -8.8717      1.00000
     69      -8.8337      1.00000
     70      -8.7572      1.00000
     71      -8.7286      1.00000
     72      -8.6293      1.00000
     73      -8.5031      1.00000
     74      -8.3614      1.00000
     75      -8.2904      1.00000
     76      -8.2778      1.00000
     77      -8.1716      1.00000
     78      -7.9110      1.00000
     79      -7.8945      1.00000
     80      -7.7243      1.00000
     81      -7.5509      1.00000
     82      -7.3509      1.00000
     83      -7.1422      1.00000
     84      -6.9869      1.00000
     85      -6.9066      1.00000
     86      -6.8412      1.00000
     87      -6.8292      1.00000
     88      -6.6574      1.00000
     89      -6.6338      1.00000
     90      -6.2729      1.00000
     91      -6.2160      1.00000
     92      -6.0111      1.00000
     93      -5.8021      1.00000
     94      -5.5743      1.00000
     95      -5.5377      1.00000
     96      -5.3174      1.00000
     97      -5.1241      1.00000
     98      -5.0287      1.00000
     99      -4.9669      1.00000
    100      -4.2982      1.00000
    101      -3.7860      1.00000
    102      -3.4384      1.00000
    103      -2.1981      0.07284
    104      -1.5754      0.00000
    105      -1.3797      0.00000
    106      -1.2235      0.00000
    107      -1.1087      0.00000
    108      -0.9465      0.00000
    109      -0.8618      0.00000
    110      -0.6371      0.00000
    111      -0.5337      0.00000
    112      -0.3923      0.00000
    113      -0.1263      0.00000
    114       0.0376      0.00000
    115       0.2019      0.00000
    116       0.5136      0.00000
    117       0.6507      0.00000
    118       0.8974      0.00000
    119       1.1271      0.00000
    120       1.3682      0.00000
    121       1.5692      0.00000
    122       1.5795      0.00000
    123       1.6555      0.00000
    124       1.6996      0.00000
    125       1.7662      0.00000
    126       1.8838      0.00000
    127       1.9319      0.00000
    128       2.1285      0.00000
    129       2.1945      0.00000
    130       2.3402      0.00000
    131       2.4967      0.00000
    132       2.5532      0.00000
    133       2.6711      0.00000
    134       2.7211      0.00000
    135       2.7260      0.00000
    136       2.7370      0.00000
    137       2.9156      0.00000
    138       3.0054      0.00000
    139       3.0727      0.00000
    140       3.0901      0.00000
    141       3.1206      0.00000
    142       3.2059      0.00000
    143       3.2816      0.00000
    144       3.3508      0.00000
    145       3.4993      0.00000
    146       3.5076      0.00000
    147       3.5547      0.00000
    148       3.6228      0.00000
    149       3.6898      0.00000
    150       3.7500      0.00000
    151       3.7767      0.00000
    152       3.7884      0.00000
    153       3.8326      0.00000
    154       3.8795      0.00000
    155       3.9617      0.00000
    156       3.9856      0.00000
    157       4.0144      0.00000
    158       4.1093      0.00000
    159       4.1904      0.00000
    160       4.2871      0.00000
    161       4.3091      0.00000
    162       4.3229      0.00000
    163       4.3502      0.00000
    164       4.4117      0.00000
    165       4.4820      0.00000
    166       4.5836      0.00000
    167       4.6354      0.00000
    168       4.6691      0.00000
    169       4.6811      0.00000
    170       4.7796      0.00000
    171       4.8120      0.00000
    172       4.8601      0.00000
    173       4.9369      0.00000
    174       4.9768      0.00000
    175       5.0565      0.00000
    176       5.0935      0.00000
    177       5.1047      0.00000
    178       5.1442      0.00000
    179       5.1640      0.00000
    180       5.1845      0.00000
    181       5.2071      0.00000
    182       5.2323      0.00000
    183       5.2986      0.00000
    184       5.3811      0.00000
    185       5.4142      0.00000
    186       5.5115      0.00000
    187       5.5648      0.00000
    188       5.5935      0.00000
    189       5.6097      0.00000
    190       5.6217      0.00000
    191       5.6263      0.00000
    192       5.6600      0.00000
    193       5.6708      0.00000
    194       5.6904      0.00000
    195       5.7062      0.00000
    196       5.7399      0.00000
    197       5.7450      0.00000
    198       5.8027      0.00000
    199       5.8700      0.00000
    200       5.8971      0.00000
    201       5.9756      0.00000
    202       6.0282      0.00000
    203       6.0685      0.00000
    204       6.1005      0.00000
    205       6.1126      0.00000
    206       6.1327      0.00000
    207       6.1655      0.00000
    208       6.2041      0.00000
    209       6.2478      0.00000
    210       6.3160      0.00000
    211       6.3749      0.00000
    212       6.3984      0.00000
    213       6.4523      0.00000
    214       6.4576      0.00000
    215       6.5408      0.00000
    216       6.5612      0.00000
    217       6.6743      0.00000
    218       6.7320      0.00000
    219       6.7759      0.00000
    220       6.7806      0.00000
    221       6.8410      0.00000
    222       6.8890      0.00000
    223       6.9657      0.00000
    224       6.9968      0.00000
    225       7.0427      0.00000
    226       7.1291      0.00000
    227       7.1939      0.00000
    228       7.2425      0.00000
    229       7.2654      0.00000
    230       7.2735      0.00000
    231       7.3553      0.00000
    232       7.4592      0.00000
    233       7.4623      0.00000
    234       7.4632      0.00000
    235       7.6026      0.00000
    236       7.6148      0.00000
    237       7.6914      0.00000
    238       7.8472      0.00000
    239       7.8595      0.00000
    240       7.9667      0.00000
    241       7.9798      0.00000
    242       8.0100      0.00000
    243       8.0191      0.00000
    244       8.1544      0.00000
    245       8.2968      0.00000
    246       8.4480      0.00000
    247       8.4686      0.00000
    248       8.5201      0.00000
    249       8.5791      0.00000
    250       8.8251      0.00000
    251       8.9337      0.00000
    252       9.0338      0.00000
    253       9.0401      0.00000
    254       9.2441      0.00000
    255       9.4743      0.00000
    256       9.5765      0.00000

 k-point    10 :       0.2000    0.4000    0.0000
  band No.  band energies     occupation 
      1     -37.3970      1.00000
      2     -37.3749      1.00000
      3     -37.3188      1.00000
      4     -23.2500      1.00000
      5     -22.9303      1.00000
      6     -22.6295      1.00000
      7     -22.3100      1.00000
      8     -21.6153      1.00000
      9     -21.4092      1.00000
     10     -21.0958      1.00000
     11     -20.6344      1.00000
     12     -20.4819      1.00000
     13     -20.1704      1.00000
     14     -19.9915      1.00000
     15     -19.8692      1.00000
     16     -19.4652      1.00000
     17     -18.8509      1.00000
     18     -18.7651      1.00000
     19     -18.4876      1.00000
     20     -18.2571      1.00000
     21     -18.0473      1.00000
     22     -17.9415      1.00000
     23     -17.4816      1.00000
     24     -17.3619      1.00000
     25     -17.2435      1.00000
     26     -17.0483      1.00000
     27     -16.5788      1.00000
     28     -16.1096      1.00000
     29     -16.0538      1.00000
     30     -15.7130      1.00000
     31     -15.5188      1.00000
     32     -14.8394      1.00000
     33     -14.6830      1.00000
     34     -14.5460      1.00000
     35     -14.1583      1.00000
     36     -14.0665      1.00000
     37     -13.9153      1.00000
     38     -13.7842      1.00000
     39     -13.5675      1.00000
     40     -13.2470      1.00000
     41     -12.9336      1.00000
     42     -12.5757      1.00000
     43     -12.3086      1.00000
     44     -12.2351      1.00000
     45     -12.0639      1.00000
     46     -11.9647      1.00000
     47     -11.8979      1.00000
     48     -11.4171      1.00000
     49     -11.2739      1.00000
     50     -11.0664      1.00000
     51     -10.8799      1.00000
     52     -10.5372      1.00000
     53     -10.3635      1.00000
     54     -10.2278      1.00000
     55     -10.1624      1.00000
     56     -10.0788      1.00000
     57     -10.0153      1.00000
     58      -9.8914      1.00000
     59      -9.8482      1.00000
     60      -9.8075      1.00000
     61      -9.7115      1.00000
     62      -9.5386      1.00000
     63      -9.3987      1.00000
     64      -9.3069      1.00000
     65      -9.2665      1.00000
     66      -9.0516      1.00000
     67      -8.9927      1.00000
     68      -8.9644      1.00000
     69      -8.8647      1.00000
     70      -8.8143      1.00000
     71      -8.7486      1.00000
     72      -8.6314      1.00000
     73      -8.4746      1.00000
     74      -8.4052      1.00000
     75      -8.3071      1.00000
     76      -8.1199      1.00000
     77      -8.0580      1.00000
     78      -7.9576      1.00000
     79      -7.8535      1.00000
     80      -7.8090      1.00000
     81      -7.5693      1.00000
     82      -7.4489      1.00000
     83      -7.4122      1.00000
     84      -7.1757      1.00000
     85      -7.0077      1.00000
     86      -6.8469      1.00000
     87      -6.5706      1.00000
     88      -6.4552      1.00000
     89      -6.3489      1.00000
     90      -6.2718      1.00000
     91      -6.2484      1.00000
     92      -5.9936      1.00000
     93      -5.7929      1.00000
     94      -5.6570      1.00000
     95      -5.5710      1.00000
     96      -5.3125      1.00000
     97      -5.0998      1.00000
     98      -5.0353      1.00000
     99      -4.9658      1.00000
    100      -4.5596      1.00000
    101      -3.8655      1.00000
    102      -3.1433      1.00000
    103      -2.3942      0.90654
    104      -1.6972      0.00000
    105      -1.2803      0.00000
    106      -1.2052      0.00000
    107      -1.0468      0.00000
    108      -0.8843      0.00000
    109      -0.7547      0.00000
    110      -0.5680      0.00000
    111      -0.4138      0.00000
    112      -0.4045      0.00000
    113      -0.1793      0.00000
    114       0.0568      0.00000
    115       0.1694      0.00000
    116       0.2308      0.00000
    117       0.8048      0.00000
    118       0.8749      0.00000
    119       0.9730      0.00000
    120       1.0895      0.00000
    121       1.3259      0.00000
    122       1.4001      0.00000
    123       1.7323      0.00000
    124       1.8670      0.00000
    125       1.9665      0.00000
    126       2.0631      0.00000
    127       2.0939      0.00000
    128       2.1230      0.00000
    129       2.3232      0.00000
    130       2.3578      0.00000
    131       2.4438      0.00000
    132       2.4598      0.00000
    133       2.5668      0.00000
    134       2.6908      0.00000
    135       2.8345      0.00000
    136       3.0008      0.00000
    137       3.0559      0.00000
    138       3.1432      0.00000
    139       3.1703      0.00000
    140       3.1932      0.00000
    141       3.2387      0.00000
    142       3.2530      0.00000
    143       3.2748      0.00000
    144       3.3651      0.00000
    145       3.3878      0.00000
    146       3.4284      0.00000
    147       3.4420      0.00000
    148       3.4707      0.00000
    149       3.5953      0.00000
    150       3.6512      0.00000
    151       3.6736      0.00000
    152       3.6954      0.00000
    153       3.8039      0.00000
    154       3.9318      0.00000
    155       3.9924      0.00000
    156       4.0103      0.00000
    157       4.0477      0.00000
    158       4.1719      0.00000
    159       4.1785      0.00000
    160       4.2486      0.00000
    161       4.2701      0.00000
    162       4.3449      0.00000
    163       4.4688      0.00000
    164       4.4782      0.00000
    165       4.4872      0.00000
    166       4.5183      0.00000
    167       4.5525      0.00000
    168       4.6332      0.00000
    169       4.7101      0.00000
    170       4.7298      0.00000
    171       4.7472      0.00000
    172       4.8257      0.00000
    173       4.8592      0.00000
    174       4.9377      0.00000
    175       4.9703      0.00000
    176       5.0195      0.00000
    177       5.0610      0.00000
    178       5.1186      0.00000
    179       5.2055      0.00000
    180       5.2494      0.00000
    181       5.2610      0.00000
    182       5.2708      0.00000
    183       5.3102      0.00000
    184       5.3387      0.00000
    185       5.3502      0.00000
    186       5.4944      0.00000
    187       5.4985      0.00000
    188       5.5154      0.00000
    189       5.5265      0.00000
    190       5.5552      0.00000
    191       5.5848      0.00000
    192       5.6292      0.00000
    193       5.6917      0.00000
    194       5.7115      0.00000
    195       5.7601      0.00000
    196       5.8070      0.00000
    197       5.8278      0.00000
    198       5.8496      0.00000
    199       5.8937      0.00000
    200       5.9550      0.00000
    201       5.9608      0.00000
    202       6.0328      0.00000
    203       6.0730      0.00000
    204       6.0913      0.00000
    205       6.1091      0.00000
    206       6.1379      0.00000
    207       6.1623      0.00000
    208       6.2177      0.00000
    209       6.2515      0.00000
    210       6.2961      0.00000
    211       6.3226      0.00000
    212       6.3508      0.00000
    213       6.4172      0.00000
    214       6.4811      0.00000
    215       6.4831      0.00000
    216       6.5192      0.00000
    217       6.5382      0.00000
    218       6.5563      0.00000
    219       6.5994      0.00000
    220       6.6053      0.00000
    221       6.6398      0.00000
    222       6.6840      0.00000
    223       6.7492      0.00000
    224       6.8194      0.00000
    225       6.8474      0.00000
    226       6.8850      0.00000
    227       6.9120      0.00000
    228       6.9736      0.00000
    229       7.0342      0.00000
    230       7.1083      0.00000
    231       7.1206      0.00000
    232       7.2113      0.00000
    233       7.2376      0.00000
    234       7.3168      0.00000
    235       7.3399      0.00000
    236       7.3803      0.00000
    237       7.4652      0.00000
    238       7.5253      0.00000
    239       7.5808      0.00000
    240       7.6141      0.00000
    241       7.6489      0.00000
    242       7.6769      0.00000
    243       7.8392      0.00000
    244       7.8786      0.00000
    245       7.9008      0.00000
    246       7.9157      0.00000
    247       8.0388      0.00000
    248       8.1415      0.00000
    249       8.1731      0.00000
    250       8.2825      0.00000
    251       8.3978      0.00000
    252       8.5549      0.00000
    253       8.6255      0.00000
    254       8.7528      0.00000
    255       8.8102      0.00000
    256       9.0333      0.00000

 k-point    11 :       0.4000    0.4000    0.0000
  band No.  band energies     occupation 
      1     -37.3970      1.00000
      2     -37.3749      1.00000
      3     -37.3188      1.00000
      4     -23.2516      1.00000
      5     -22.9170      1.00000
      6     -22.6575      1.00000
      7     -22.2834      1.00000
      8     -21.6418      1.00000
      9     -21.4402      1.00000
     10     -21.0210      1.00000
     11     -20.6181      1.00000
     12     -20.3762      1.00000
     13     -20.2221      1.00000
     14     -20.1484      1.00000
     15     -19.9532      1.00000
     16     -19.3268      1.00000
     17     -18.9489      1.00000
     18     -18.5612      1.00000
     19     -18.4656      1.00000
     20     -18.3027      1.00000
     21     -18.0621      1.00000
     22     -17.8986      1.00000
     23     -17.5626      1.00000
     24     -17.3367      1.00000
     25     -17.2283      1.00000
     26     -17.0937      1.00000
     27     -16.8154      1.00000
     28     -16.1183      1.00000
     29     -15.9123      1.00000
     30     -15.7087      1.00000
     31     -15.3531      1.00000
     32     -14.8830      1.00000
     33     -14.5715      1.00000
     34     -14.3250      1.00000
     35     -14.2862      1.00000
     36     -14.1230      1.00000
     37     -14.0316      1.00000
     38     -13.8138      1.00000
     39     -13.6318      1.00000
     40     -13.2694      1.00000
     41     -12.9368      1.00000
     42     -12.7823      1.00000
     43     -12.4066      1.00000
     44     -12.2157      1.00000
     45     -11.9111      1.00000
     46     -11.9090      1.00000
     47     -11.6470      1.00000
     48     -11.4892      1.00000
     49     -11.3564      1.00000
     50     -11.0945      1.00000
     51     -10.5818      1.00000
     52     -10.5723      1.00000
     53     -10.2883      1.00000
     54     -10.2148      1.00000
     55     -10.1351      1.00000
     56     -10.0777      1.00000
     57     -10.0420      1.00000
     58     -10.0098      1.00000
     59      -9.9456      1.00000
     60      -9.8001      1.00000
     61      -9.7995      1.00000
     62      -9.7441      1.00000
     63      -9.3878      1.00000
     64      -9.3012      1.00000
     65      -9.2650      1.00000
     66      -9.0824      1.00000
     67      -9.0008      1.00000
     68      -8.9100      1.00000
     69      -8.8715      1.00000
     70      -8.7312      1.00000
     71      -8.6626      1.00000
     72      -8.5966      1.00000
     73      -8.4180      1.00000
     74      -8.2892      1.00000
     75      -8.2376      1.00000
     76      -8.1535      1.00000
     77      -8.0338      1.00000
     78      -8.0266      1.00000
     79      -7.9632      1.00000
     80      -7.8670      1.00000
     81      -7.5145      1.00000
     82      -7.5041      1.00000
     83      -7.4290      1.00000
     84      -7.1639      1.00000
     85      -7.1305      1.00000
     86      -6.8003      1.00000
     87      -6.6366      1.00000
     88      -6.6309      1.00000
     89      -6.3075      1.00000
     90      -6.2275      1.00000
     91      -6.0108      1.00000
     92      -5.9989      1.00000
     93      -5.7307      1.00000
     94      -5.6764      1.00000
     95      -5.4687      1.00000
     96      -5.3234      1.00000
     97      -5.1398      1.00000
     98      -5.0253      1.00000
     99      -5.0128      1.00000
    100      -4.6443      1.00000
    101      -4.0271      1.00000
    102      -2.7441      1.00000
    103      -2.5579      0.99986
    104      -1.7478      0.00000
    105      -1.2955      0.00000
    106      -1.2355      0.00000
    107      -1.2339      0.00000
    108      -0.9610      0.00000
    109      -0.5847      0.00000
    110      -0.4594      0.00000
    111      -0.3754      0.00000
    112      -0.2890      0.00000
    113      -0.1604      0.00000
    114       0.0894      0.00000
    115       0.1811      0.00000
    116       0.2272      0.00000
    117       0.6220      0.00000
    118       0.9230      0.00000
    119       0.9485      0.00000
    120       1.0972      0.00000
    121       1.1482      0.00000
    122       1.3722      0.00000
    123       1.7325      0.00000
    124       1.8527      0.00000
    125       1.9659      0.00000
    126       2.0721      0.00000
    127       2.0956      0.00000
    128       2.1873      0.00000
    129       2.3569      0.00000
    130       2.3843      0.00000
    131       2.4242      0.00000
    132       2.5005      0.00000
    133       2.6065      0.00000
    134       2.6460      0.00000
    135       2.8609      0.00000
    136       3.0033      0.00000
    137       3.1090      0.00000
    138       3.1388      0.00000
    139       3.1406      0.00000
    140       3.2284      0.00000
    141       3.2394      0.00000
    142       3.2580      0.00000
    143       3.2630      0.00000
    144       3.3432      0.00000
    145       3.4290      0.00000
    146       3.4578      0.00000
    147       3.4595      0.00000
    148       3.5259      0.00000
    149       3.5855      0.00000
    150       3.6437      0.00000
    151       3.6782      0.00000
    152       3.6919      0.00000
    153       3.7895      0.00000
    154       3.9032      0.00000
    155       4.0067      0.00000
    156       4.0472      0.00000
    157       4.0484      0.00000
    158       4.1469      0.00000
    159       4.1613      0.00000
    160       4.2201      0.00000
    161       4.3675      0.00000
    162       4.3767      0.00000
    163       4.4649      0.00000
    164       4.4670      0.00000
    165       4.4881      0.00000
    166       4.5499      0.00000
    167       4.5549      0.00000
    168       4.5787      0.00000
    169       4.6898      0.00000
    170       4.7314      0.00000
    171       4.7316      0.00000
    172       4.8146      0.00000
    173       4.8323      0.00000
    174       4.9052      0.00000
    175       4.9474      0.00000
    176       5.0404      0.00000
    177       5.0584      0.00000
    178       5.1234      0.00000
    179       5.1776      0.00000
    180       5.2321      0.00000
    181       5.2658      0.00000
    182       5.2668      0.00000
    183       5.3173      0.00000
    184       5.3226      0.00000
    185       5.3480      0.00000
    186       5.3584      0.00000
    187       5.5009      0.00000
    188       5.5263      0.00000
    189       5.5510      0.00000
    190       5.5568      0.00000
    191       5.6081      0.00000
    192       5.6095      0.00000
    193       5.6428      0.00000
    194       5.7436      0.00000
    195       5.7651      0.00000
    196       5.7775      0.00000
    197       5.8004      0.00000
    198       5.8599      0.00000
    199       5.9210      0.00000
    200       5.9543      0.00000
    201       5.9753      0.00000
    202       6.0031      0.00000
    203       6.0466      0.00000
    204       6.0613      0.00000
    205       6.0628      0.00000
    206       6.1271      0.00000
    207       6.1443      0.00000
    208       6.1967      0.00000
    209       6.2061      0.00000
    210       6.2302      0.00000
    211       6.3229      0.00000
    212       6.3315      0.00000
    213       6.4005      0.00000
    214       6.4087      0.00000
    215       6.4989      0.00000
    216       6.5593      0.00000
    217       6.5642      0.00000
    218       6.5741      0.00000
    219       6.6035      0.00000
    220       6.6186      0.00000
    221       6.6697      0.00000
    222       6.6729      0.00000
    223       6.7250      0.00000
    224       6.7753      0.00000
    225       6.8202      0.00000
    226       6.8508      0.00000
    227       6.8546      0.00000
    228       6.8716      0.00000
    229       6.9157      0.00000
    230       6.9761      0.00000
    231       6.9885      0.00000
    232       7.1286      0.00000
    233       7.1496      0.00000
    234       7.1942      0.00000
    235       7.2701      0.00000
    236       7.3048      0.00000
    237       7.3348      0.00000
    238       7.3766      0.00000
    239       7.3914      0.00000
    240       7.4367      0.00000
    241       7.4820      0.00000
    242       7.5302      0.00000
    243       7.6147      0.00000
    244       7.6429      0.00000
    245       7.6498      0.00000
    246       7.6579      0.00000
    247       7.6583      0.00000
    248       7.6871      0.00000
    249       7.6915      0.00000
    250       7.7850      0.00000
    251       7.9814      0.00000
    252       7.9815      0.00000
    253       7.9997      0.00000
    254       8.0205      0.00000
    255       8.1310      0.00000
    256       8.1695      0.00000

 k-point    12 :      -0.4000    0.4000    0.0000
  band No.  band energies     occupation 
      1     -37.3970      1.00000
      2     -37.3749      1.00000
      3     -37.3188      1.00000
      4     -23.2567      1.00000
      5     -22.9062      1.00000
      6     -22.6600      1.00000
      7     -22.2768      1.00000
      8     -21.6575      1.00000
      9     -21.4706      1.00000
     10     -20.9407      1.00000
     11     -20.6699      1.00000
     12     -20.4745      1.00000
     13     -20.2173      1.00000
     14     -20.0694      1.00000
     15     -19.8703      1.00000
     16     -19.1744      1.00000
     17     -18.9968      1.00000
     18     -18.9023      1.00000
     19     -18.5170      1.00000
     20     -18.2445      1.00000
     21     -17.8715      1.00000
     22     -17.7974      1.00000
     23     -17.6056      1.00000
     24     -17.4347      1.00000
     25     -17.3225      1.00000
     26     -17.0691      1.00000
     27     -16.8341      1.00000
     28     -16.1233      1.00000
     29     -15.5004      1.00000
     30     -15.4638      1.00000
     31     -15.2967      1.00000
     32     -15.1245      1.00000
     33     -15.0179      1.00000
     34     -14.6257      1.00000
     35     -14.3732      1.00000
     36     -14.2382      1.00000
     37     -13.7695      1.00000
     38     -13.6736      1.00000
     39     -13.2561      1.00000
     40     -13.1569      1.00000
     41     -13.0072      1.00000
     42     -12.8529      1.00000
     43     -12.6180      1.00000
     44     -12.6010      1.00000
     45     -11.9026      1.00000
     46     -11.6505      1.00000
     47     -11.3846      1.00000
     48     -11.2967      1.00000
     49     -11.1707      1.00000
     50     -11.0347      1.00000
     51     -10.9477      1.00000
     52     -10.5495      1.00000
     53     -10.3589      1.00000
     54     -10.2088      1.00000
     55     -10.1879      1.00000
     56     -10.1584      1.00000
     57     -10.0915      1.00000
     58     -10.0037      1.00000
     59      -9.9231      1.00000
     60      -9.8553      1.00000
     61      -9.7174      1.00000
     62      -9.6624      1.00000
     63      -9.4807      1.00000
     64      -9.3938      1.00000
     65      -9.3011      1.00000
     66      -9.0940      1.00000
     67      -9.0288      1.00000
     68      -8.9510      1.00000
     69      -8.8618      1.00000
     70      -8.6665      1.00000
     71      -8.6486      1.00000
     72      -8.5430      1.00000
     73      -8.3772      1.00000
     74      -8.3227      1.00000
     75      -8.2036      1.00000
     76      -8.1845      1.00000
     77      -8.0881      1.00000
     78      -8.0854      1.00000
     79      -7.8319      1.00000
     80      -7.6741      1.00000
     81      -7.6254      1.00000
     82      -7.4538      1.00000
     83      -7.4333      1.00000
     84      -7.0827      1.00000
     85      -7.0791      1.00000
     86      -6.8376      1.00000
     87      -6.7409      1.00000
     88      -6.5808      1.00000
     89      -6.4434      1.00000
     90      -6.4376      1.00000
     91      -6.0926      1.00000
     92      -5.8682      1.00000
     93      -5.7684      1.00000
     94      -5.6281      1.00000
     95      -5.2948      1.00000
     96      -5.2852      1.00000
     97      -5.2357      1.00000
     98      -5.0309      1.00000
     99      -5.0097      1.00000
    100      -4.4639      1.00000
    101      -4.1184      1.00000
    102      -2.9004      1.00000
    103      -2.1952      0.06722
    104      -1.7134      0.00000
    105      -1.6134      0.00000
    106      -1.2914      0.00000
    107      -1.2799      0.00000
    108      -0.7744      0.00000
    109      -0.6239      0.00000
    110      -0.5961      0.00000
    111      -0.4601      0.00000
    112      -0.3843      0.00000
    113      -0.0596      0.00000
    114       0.0659      0.00000
    115       0.3304      0.00000
    116       0.3627      0.00000
    117       0.7629      0.00000
    118       0.7771      0.00000
    119       0.9947      0.00000
    120       1.1737      0.00000
    121       1.5446      0.00000
    122       1.5466      0.00000
    123       1.5926      0.00000
    124       1.6085      0.00000
    125       1.7427      0.00000
    126       1.9273      0.00000
    127       2.0387      0.00000
    128       2.1892      0.00000
    129       2.2278      0.00000
    130       2.3365      0.00000
    131       2.5281      0.00000
    132       2.5350      0.00000
    133       2.7118      0.00000
    134       2.7235      0.00000
    135       2.7450      0.00000
    136       2.8145      0.00000
    137       2.9470      0.00000
    138       3.0219      0.00000
    139       3.1003      0.00000
    140       3.1264      0.00000
    141       3.1883      0.00000
    142       3.2890      0.00000
    143       3.3307      0.00000
    144       3.3659      0.00000
    145       3.4517      0.00000
    146       3.4984      0.00000
    147       3.5539      0.00000
    148       3.6105      0.00000
    149       3.7304      0.00000
    150       3.7362      0.00000
    151       3.7774      0.00000
    152       3.7778      0.00000
    153       3.8502      0.00000
    154       3.8649      0.00000
    155       3.8904      0.00000
    156       3.9568      0.00000
    157       3.9819      0.00000
    158       4.1679      0.00000
    159       4.2071      0.00000
    160       4.2672      0.00000
    161       4.3069      0.00000
    162       4.3112      0.00000
    163       4.3244      0.00000
    164       4.4426      0.00000
    165       4.4478      0.00000
    166       4.6247      0.00000
    167       4.6584      0.00000
    168       4.6624      0.00000
    169       4.7115      0.00000
    170       4.7258      0.00000
    171       4.8329      0.00000
    172       4.8526      0.00000
    173       4.9009      0.00000
    174       5.0499      0.00000
    175       5.0935      0.00000
    176       5.1066      0.00000
    177       5.1313      0.00000
    178       5.1394      0.00000
    179       5.1759      0.00000
    180       5.1940      0.00000
    181       5.2027      0.00000
    182       5.2463      0.00000
    183       5.3131      0.00000
    184       5.3960      0.00000
    185       5.4377      0.00000
    186       5.4928      0.00000
    187       5.5343      0.00000
    188       5.5642      0.00000
    189       5.6214      0.00000
    190       5.6315      0.00000
    191       5.6564      0.00000
    192       5.7279      0.00000
    193       5.7305      0.00000
    194       5.7494      0.00000
    195       5.7867      0.00000
    196       5.8333      0.00000
    197       5.8643      0.00000
    198       5.8792      0.00000
    199       5.9500      0.00000
    200       5.9982      0.00000
    201       6.0441      0.00000
    202       6.1119      0.00000
    203       6.1450      0.00000
    204       6.1653      0.00000
    205       6.1807      0.00000
    206       6.3397      0.00000
    207       6.3736      0.00000
    208       6.3889      0.00000
    209       6.4156      0.00000
    210       6.5345      0.00000
    211       6.7225      0.00000
    212       6.7430      0.00000
    213       6.8206      0.00000
    214       6.8215      0.00000
    215       6.8427      0.00000
    216       6.9586      0.00000
    217       7.0183      0.00000
    218       7.1677      0.00000
    219       7.1893      0.00000
    220       7.2018      0.00000
    221       7.2612      0.00000
    222       7.3376      0.00000
    223       7.3518      0.00000
    224       7.4637      0.00000
    225       7.4735      0.00000
    226       7.5213      0.00000
    227       7.5816      0.00000
    228       7.6750      0.00000
    229       7.6919      0.00000
    230       7.7071      0.00000
    231       7.7420      0.00000
    232       7.9037      0.00000
    233       7.9273      0.00000
    234       8.0104      0.00000
    235       8.1425      0.00000
    236       8.2142      0.00000
    237       8.2187      0.00000
    238       8.3278      0.00000
    239       8.5021      0.00000
    240       8.6235      0.00000
    241       8.6703      0.00000
    242       8.6721      0.00000
    243       8.6840      0.00000
    244       8.8001      0.00000
    245       8.8887      0.00000
    246       8.9484      0.00000
    247       9.0398      0.00000
    248       9.0845      0.00000
    249       9.3735      0.00000
    250       9.4024      0.00000
    251       9.4725      0.00000
    252       9.8452      0.00000
    253       9.9069      0.00000
    254      10.3082      0.00000
    255      10.4425      0.00000
    256      11.4372      0.00000

 k-point    13 :      -0.2000    0.4000    0.0000
  band No.  band energies     occupation 
      1     -37.3970      1.00000
      2     -37.3749      1.00000
      3     -37.3188      1.00000
      4     -23.2584      1.00000
      5     -22.9130      1.00000
      6     -22.6344      1.00000
      7     -22.2986      1.00000
      8     -21.6374      1.00000
      9     -21.4665      1.00000
     10     -20.9975      1.00000
     11     -20.7033      1.00000
     12     -20.4950      1.00000
     13     -20.2415      1.00000
     14     -19.8775      1.00000
     15     -19.7276      1.00000
     16     -19.4045      1.00000
     17     -19.0206      1.00000
     18     -18.8616      1.00000
     19     -18.5084      1.00000
     20     -18.3169      1.00000
     21     -18.0362      1.00000
     22     -17.8083      1.00000
     23     -17.6308      1.00000
     24     -17.4140      1.00000
     25     -17.1541      1.00000
     26     -16.9295      1.00000
     27     -16.6989      1.00000
     28     -16.0442      1.00000
     29     -15.7180      1.00000
     30     -15.5314      1.00000
     31     -15.4810      1.00000
     32     -15.0052      1.00000
     33     -14.8749      1.00000
     34     -14.6940      1.00000
     35     -14.4995      1.00000
     36     -14.3611      1.00000
     37     -13.7911      1.00000
     38     -13.5204      1.00000
     39     -13.2718      1.00000
     40     -13.1714      1.00000
     41     -12.9443      1.00000
     42     -12.8615      1.00000
     43     -12.4927      1.00000
     44     -12.1252      1.00000
     45     -12.0642      1.00000
     46     -11.8437      1.00000
     47     -11.6244      1.00000
     48     -11.3905      1.00000
     49     -11.3114      1.00000
     50     -10.7462      1.00000
     51     -10.6615      1.00000
     52     -10.6154      1.00000
     53     -10.5194      1.00000
     54     -10.4431      1.00000
     55     -10.3252      1.00000
     56     -10.0967      1.00000
     57      -9.9950      1.00000
     58      -9.9419      1.00000
     59      -9.8733      1.00000
     60      -9.8137      1.00000
     61      -9.6789      1.00000
     62      -9.4681      1.00000
     63      -9.4248      1.00000
     64      -9.3524      1.00000
     65      -9.3323      1.00000
     66      -9.2173      1.00000
     67      -9.1065      1.00000
     68      -9.0300      1.00000
     69      -8.9013      1.00000
     70      -8.7696      1.00000
     71      -8.6728      1.00000
     72      -8.4975      1.00000
     73      -8.4737      1.00000
     74      -8.3884      1.00000
     75      -8.1948      1.00000
     76      -8.1593      1.00000
     77      -8.0951      1.00000
     78      -7.9418      1.00000
     79      -7.7716      1.00000
     80      -7.6161      1.00000
     81      -7.5297      1.00000
     82      -7.4647      1.00000
     83      -7.2879      1.00000
     84      -7.2600      1.00000
     85      -7.0506      1.00000
     86      -6.9507      1.00000
     87      -6.6933      1.00000
     88      -6.4663      1.00000
     89      -6.3680      1.00000
     90      -6.3121      1.00000
     91      -6.2386      1.00000
     92      -6.0521      1.00000
     93      -5.9280      1.00000
     94      -5.6893      1.00000
     95      -5.4078      1.00000
     96      -5.3092      1.00000
     97      -5.1795      1.00000
     98      -5.0223      1.00000
     99      -4.5967      1.00000
    100      -4.5213      1.00000
    101      -4.0561      1.00000
    102      -3.0177      1.00000
    103      -2.3027      0.50981
    104      -1.7457      0.00000
    105      -1.3109      0.00000
    106      -1.2641      0.00000
    107      -1.1505      0.00000
    108      -0.9944      0.00000
    109      -0.8818      0.00000
    110      -0.6277      0.00000
    111      -0.4622      0.00000
    112      -0.3598      0.00000
    113      -0.0404      0.00000
    114       0.0141      0.00000
    115       0.3242      0.00000
    116       0.6410      0.00000
    117       0.7602      0.00000
    118       0.8471      0.00000
    119       0.9946      0.00000
    120       1.2588      0.00000
    121       1.3065      0.00000
    122       1.3821      0.00000
    123       1.6940      0.00000
    124       1.8302      0.00000
    125       1.8772      0.00000
    126       2.0132      0.00000
    127       2.0223      0.00000
    128       2.0411      0.00000
    129       2.2505      0.00000
    130       2.3920      0.00000
    131       2.4103      0.00000
    132       2.4517      0.00000
    133       2.5933      0.00000
    134       2.7664      0.00000
    135       2.7797      0.00000
    136       2.7929      0.00000
    137       2.7969      0.00000
    138       3.0025      0.00000
    139       3.0567      0.00000
    140       3.1772      0.00000
    141       3.1880      0.00000
    142       3.1976      0.00000
    143       3.2217      0.00000
    144       3.3163      0.00000
    145       3.4328      0.00000
    146       3.5349      0.00000
    147       3.5447      0.00000
    148       3.6337      0.00000
    149       3.6625      0.00000
    150       3.7190      0.00000
    151       3.7642      0.00000
    152       3.7724      0.00000
    153       3.8316      0.00000
    154       3.9672      0.00000
    155       3.9941      0.00000
    156       4.0103      0.00000
    157       4.0683      0.00000
    158       4.1091      0.00000
    159       4.1740      0.00000
    160       4.2299      0.00000
    161       4.2635      0.00000
    162       4.3030      0.00000
    163       4.3443      0.00000
    164       4.4606      0.00000
    165       4.5242      0.00000
    166       4.5751      0.00000
    167       4.6023      0.00000
    168       4.7241      0.00000
    169       4.7427      0.00000
    170       4.8519      0.00000
    171       4.8607      0.00000
    172       4.8936      0.00000
    173       4.9335      0.00000
    174       5.0160      0.00000
    175       5.0431      0.00000
    176       5.0858      0.00000
    177       5.1007      0.00000
    178       5.1281      0.00000
    179       5.1397      0.00000
    180       5.2505      0.00000
    181       5.2859      0.00000
    182       5.2992      0.00000
    183       5.3006      0.00000
    184       5.3779      0.00000
    185       5.3938      0.00000
    186       5.4215      0.00000
    187       5.4527      0.00000
    188       5.4573      0.00000
    189       5.5217      0.00000
    190       5.5621      0.00000
    191       5.5922      0.00000
    192       5.5936      0.00000
    193       5.6559      0.00000
    194       5.7091      0.00000
    195       5.7894      0.00000
    196       5.8148      0.00000
    197       5.8645      0.00000
    198       5.9445      0.00000
    199       5.9546      0.00000
    200       6.0008      0.00000
    201       6.0364      0.00000
    202       6.0596      0.00000
    203       6.0925      0.00000
    204       6.0938      0.00000
    205       6.1197      0.00000
    206       6.1600      0.00000
    207       6.1638      0.00000
    208       6.2926      0.00000
    209       6.3949      0.00000
    210       6.4282      0.00000
    211       6.4566      0.00000
    212       6.5111      0.00000
    213       6.5710      0.00000
    214       6.6293      0.00000
    215       6.6359      0.00000
    216       6.7831      0.00000
    217       6.8434      0.00000
    218       6.8895      0.00000
    219       6.9021      0.00000
    220       6.9391      0.00000
    221       7.0889      0.00000
    222       7.1129      0.00000
    223       7.1237      0.00000
    224       7.1473      0.00000
    225       7.2337      0.00000
    226       7.2954      0.00000
    227       7.3250      0.00000
    228       7.3722      0.00000
    229       7.4506      0.00000
    230       7.5403      0.00000
    231       7.5572      0.00000
    232       7.7403      0.00000
    233       7.7807      0.00000
    234       7.9202      0.00000
    235       7.9558      0.00000
    236       7.9770      0.00000
    237       8.0394      0.00000
    238       8.0999      0.00000
    239       8.2444      0.00000
    240       8.3249      0.00000
    241       8.3821      0.00000
    242       8.3838      0.00000
    243       8.5097      0.00000
    244       8.5228      0.00000
    245       8.6357      0.00000
    246       8.6791      0.00000
    247       8.7117      0.00000
    248       8.8855      0.00000
    249       9.1407      0.00000
    250       9.3539      0.00000
    251       9.4872      0.00000
    252       9.5098      0.00000
    253       9.6283      0.00000
    254      10.1071      0.00000
    255      10.2194      0.00000
    256      10.2880      0.00000


--------------------------------------------------------------------------------------------------------


 soft charge-density along one line, spin component           1
         0         1         2         3         4         5         6         7         8         9
 total charge-density along one line
 
 soft charge-density along one line, spin component           2
         0         1         2         3         4         5         6         7         8         9
 total charge-density along one line
 
 pseudopotential strength for first ion, spin component:           1
 10.220   0.019   0.000  -0.000  -0.000   0.000  -0.000  -0.000
  0.019  -0.002  -0.000   0.000   0.000   0.000  -0.000  -0.000
  0.000  -0.000  -4.337  -0.000  -0.000  -0.019  -0.000  -0.000
 -0.000   0.000  -0.000  -4.316   0.000  -0.000  -0.014   0.000
 -0.000   0.000  -0.000   0.000  -4.337  -0.000   0.000  -0.019
  0.000   0.000  -0.019  -0.000  -0.000  -0.772  -0.000   0.000
 -0.000  -0.000  -0.000  -0.014   0.000  -0.000  -0.772   0.000
 -0.000  -0.000  -0.000   0.000  -0.019   0.000   0.000  -0.772
 pseudopotential strength for first ion, spin component:           2
 10.220   0.019   0.000  -0.000  -0.000   0.000  -0.000  -0.000
  0.019  -0.002  -0.000   0.000   0.000   0.000  -0.000  -0.000
  0.000  -0.000  -4.337  -0.000  -0.000  -0.019  -0.000  -0.000
 -0.000   0.000  -0.000  -4.316   0.000  -0.000  -0.014   0.000
 -0.000   0.000  -0.000   0.000  -4.337  -0.000   0.000  -0.019
  0.000   0.000  -0.019  -0.000  -0.000  -0.772  -0.000   0.000
 -0.000  -0.000  -0.000  -0.014   0.000  -0.000  -0.772   0.000
 -0.000  -0.000  -0.000   0.000  -0.019   0.000   0.000  -0.772
 total augmentation occupancy for first ion, spin component:           1
  1.474  -1.143  -0.002   0.006   0.003  -0.002   0.003   0.003
 -1.143   1.092   0.008  -0.014  -0.013   0.003  -0.005  -0.005
 -0.002   0.008   1.243   0.004   0.006   0.225   0.002  -0.001
  0.006  -0.014   0.004   0.932  -0.007   0.002   0.104  -0.003
  0.003  -0.013   0.006  -0.007   1.236  -0.001  -0.003   0.226
 -0.002   0.003   0.225   0.002  -0.001   0.047   0.000  -0.000
  0.003  -0.005   0.002   0.104  -0.003   0.000   0.013  -0.001
  0.003  -0.005  -0.001  -0.003   0.226  -0.000  -0.001   0.047
 total augmentation occupancy for first ion, spin component:           2
 -0.000   0.000  -0.000   0.000   0.000   0.000   0.000  -0.000
  0.000   0.000  -0.000   0.000   0.000  -0.000   0.000   0.000
 -0.000  -0.000  -0.000  -0.000   0.000  -0.000  -0.000  -0.000
  0.000   0.000  -0.000   0.001   0.000  -0.000   0.000   0.000
  0.000   0.000   0.000   0.000  -0.000  -0.000   0.000   0.000
  0.000  -0.000  -0.000  -0.000  -0.000   0.000  -0.000  -0.000
  0.000   0.000  -0.000   0.000   0.000  -0.000   0.000   0.000
 -0.000   0.000  -0.000   0.000   0.000  -0.000   0.000   0.000


------------------------ aborting loop because EDIFF is reached ----------------------------------------


    FORLOC:  cpu time    0.0245: real time    0.0246
    FORNL :  cpu time    4.7821: real time    4.8026
    STRESS:  cpu time   72.8708: real time   73.2012
    FORCOR:  cpu time    1.9176: real time    1.9209
    OFIELD:  cpu time    0.0013: real time    0.0126

 ---------------------------------------------------------------------------------------------

         DFTD3 V3.0 Rev 1        
 IVDW         = 11
 DF pbe       
 parameters
 VDW_S6       =    1.0000
 VDW_S8       =    0.7220
 VDW_SR       =    1.2170
 rs18     =    1.0000
 alpha6   =   14.0000
 alpha8   =   16.0000
 k1-k3    =   16.0000    1.3333   -4.0000
 VDW_RADIUS   =   50.2022 A
 VDW_CNRADIUS =   21.1671 A
 Edisp (eV)   -1.76664

 E6    (eV) :    -0.9562
 E8    (eV) :    -0.8104
 % E8        : 45.87
    FORVDW:  cpu time    0.1087: real time    0.2613

  FORCE on cell =-STRESS in cart. coord.  units (eV):
  Direction    XX          YY          ZZ          XY          YZ          ZX
  --------------------------------------------------------------------------------------
  Alpha Z    94.07110    94.07110    94.07110
  Ewald   41219.73655 41128.77771-48329.19392   -78.77244    -0.27254     0.47180
  Hartree 40665.39323 40628.69808-40077.90280   -31.77854    -0.23088     0.39974
  E(xc)    -774.35083  -774.74003  -802.34544    -0.33707     0.00026    -0.00045
  Local  -84091.05051-83974.02364 85751.15619   101.34647     0.49463    -0.85636
  n-local  -254.13990  -258.78973  -250.47453    -4.02641    -0.00272     0.00472
  augment     8.08607     8.42942    10.35335     0.29739     0.00029    -0.00051
  Kinetic  3127.07413  3160.45026  3604.01331    28.90667     0.01077    -0.01864
  Fock        0.00000     0.00000     0.00000     0.00000     0.00000     0.00000
  vdW        -0.50344    -0.50711     0.01043    -0.00317     0.00001    -0.00001
  -------------------------------------------------------------------------------------
  Total      -5.68360    12.36606    -0.31232    15.63290    -0.00017     0.00028
  in kB      -3.47507     7.56086    -0.19096     9.55827    -0.00010     0.00017
  external pressure =        1.30 kB  Pullay stress =        0.00 kB


 VOLUME and BASIS-vectors are now :
 -----------------------------------------------------------------------------
  energy-cutoff  :      520.00
  volume of cell :     2620.42
      direct lattice vectors                 reciprocal lattice vectors
    12.300000000  0.000000000  0.000000000     0.081300813  0.046939046  0.000000000
    -6.150000000 10.652112467  0.000000000     0.000000000  0.093878093  0.000000000
     0.000000000  0.000000000 20.000000000     0.000000000  0.000000000  0.050000000

  length of vectors
    12.300000000 12.300000000 20.000000000     0.093878093  0.093878093  0.050000000


 FORCES acting on ions:
    Electron-Ion                     Ewald-Force                    Non-Local-Force
 -----------------------------------------------------------------------------------------------
   0.693E+01 -.400E+01 0.471E+02   -.711E+01 0.410E+01 -.472E+02   0.208E+00 -.120E+00 0.566E-01
   0.373E+01 0.598E+01 0.503E+02   -.376E+01 -.636E+01 -.504E+02   0.171E-01 0.398E+00 0.878E-01
   0.326E+01 0.626E+01 0.504E+02   -.358E+01 -.648E+01 -.505E+02   0.337E+00 0.209E+00 0.929E-01
   -.204E+01 0.208E+02 0.368E+02   0.186E+01 -.217E+02 -.370E+02   0.168E+00 0.833E+00 0.198E+00
   -.625E+01 0.124E+02 0.185E+02   0.638E+01 -.129E+02 -.184E+02   -.103E+00 0.529E+00 -.108E+00
   -.140E+02 0.128E+02 0.106E+02   0.142E+02 -.134E+02 -.107E+02   -.273E+00 0.515E+00 0.700E-01
   -.355E+00 0.528E+01 0.102E+02   0.663E+00 -.537E+01 -.103E+02   -.321E+00 0.571E-01 0.547E-01
   -.487E+01 -.194E+01 0.755E+01   0.498E+01 0.201E+01 -.746E+01   -.810E-01 -.403E-01 -.962E-01
   0.716E+01 -.765E+01 0.201E+02   -.712E+01 0.790E+01 -.202E+02   -.378E-01 -.221E+00 0.910E-01
   0.440E+01 -.254E+01 0.295E+02   -.445E+01 0.257E+01 -.295E+02   0.309E-01 -.179E-01 -.510E-01
   0.102E+02 -.238E+01 0.201E+02   -.104E+02 0.222E+01 -.202E+02   0.173E+00 0.143E+00 0.910E-01
   0.138E+02 0.798E+00 0.189E+02   -.143E+02 -.928E+00 -.188E+02   0.513E+00 0.175E+00 -.110E+00
   0.191E+02 0.867E+01 0.370E+02   -.197E+02 -.925E+01 -.372E+02   0.638E+00 0.564E+00 0.198E+00
   0.188E+02 0.340E+02 0.309E+02   -.194E+02 -.378E+02 -.324E+02   0.625E+00 0.385E+01 0.145E+01
   0.200E+02 0.333E+02 0.308E+02   -.230E+02 -.358E+02 -.322E+02   0.302E+01 0.246E+01 0.146E+01
   -.392E+02 0.172E+02 -.183E+01   0.430E+02 -.191E+02 0.112E+01   -.378E+01 0.194E+01 0.719E+00
   -.181E+02 0.105E+02 -.972E+01   0.184E+02 -.106E+02 0.980E+01   -.345E+00 0.199E+00 -.739E-01
   -.101E+01 0.582E+00 0.311E+01   0.118E+01 -.680E+00 -.323E+01   -.128E+00 0.738E-01 0.120E+00
   -.753E+00 0.519E+01 0.755E+01   0.744E+00 -.532E+01 -.746E+01   -.554E-02 0.903E-01 -.962E-01
   -.475E+01 -.233E+01 0.102E+02   0.498E+01 0.211E+01 -.103E+02   -.210E+00 0.249E+00 0.547E-01
   0.477E+01 0.237E+01 0.110E+02   -.500E+01 -.215E+01 -.110E+02   0.211E+00 -.255E+00 0.641E-01
   0.181E+02 -.572E+01 0.114E+02   -.187E+02 0.566E+01 -.114E+02   0.583E+00 0.251E-01 0.732E-01
   0.346E+02 -.254E+02 -.112E+01   -.381E+02 0.277E+02 0.413E+00   0.357E+01 -.230E+01 0.722E+00
   -.345E+02 0.254E+02 -.183E+01   0.381E+02 -.277E+02 0.112E+01   -.357E+01 0.231E+01 0.718E+00
   -.181E+02 0.567E+01 0.106E+02   0.187E+02 -.561E+01 -.107E+02   -.582E+00 -.214E-01 0.699E-01
   -.138E+02 -.777E+00 0.185E+02   0.143E+02 0.906E+00 -.184E+02   -.509E+00 -.175E+00 -.108E+00
   -.101E+02 0.239E+01 0.198E+02   0.103E+02 -.224E+01 -.199E+02   -.172E+00 -.143E+00 0.713E-01
   0.783E+00 -.520E+01 0.879E+01   -.777E+00 0.533E+01 -.870E+01   0.116E-02 -.918E-01 -.780E-01
   0.956E+00 -.552E+00 0.456E+01   -.112E+01 0.648E+00 -.468E+01   0.127E+00 -.734E-01 0.124E+00
   0.181E+02 -.105E+02 -.893E+01   -.184E+02 0.106E+02 0.901E+01   0.343E+00 -.198E+00 -.822E-01
   0.393E+02 -.172E+02 -.112E+01   -.431E+02 0.191E+02 0.413E+00   0.378E+01 -.194E+01 0.722E+00
   -.200E+02 -.333E+02 0.309E+02   0.230E+02 0.357E+02 -.324E+02   -.302E+01 -.247E+01 0.145E+01
   -.189E+02 -.339E+02 0.308E+02   0.195E+02 0.378E+02 -.322E+02   -.618E+00 -.385E+01 0.146E+01
   -.191E+02 -.864E+01 0.368E+02   0.197E+02 0.922E+01 -.370E+02   -.638E+00 -.562E+00 0.198E+00
   -.379E+01 -.595E+01 0.504E+02   0.382E+01 0.634E+01 -.505E+02   -.121E-01 -.396E+00 0.928E-01
   -.688E+01 0.397E+01 0.474E+02   0.706E+01 -.407E+01 -.474E+02   -.214E+00 0.124E+00 0.617E-01
   -.439E+01 0.254E+01 0.294E+02   0.445E+01 -.257E+01 -.294E+02   -.326E-01 0.188E-01 -.472E-01
   -.714E+01 0.758E+01 0.198E+02   0.711E+01 -.783E+01 -.199E+02   0.381E-01 0.220E+00 0.713E-01
   0.490E+01 0.192E+01 0.879E+01   -.500E+01 -.199E+01 -.870E+01   0.800E-01 0.449E-01 -.780E-01
   0.338E+00 -.532E+01 0.110E+02   -.641E+00 0.541E+01 -.110E+02   0.326E+00 -.549E-01 0.641E-01
   0.140E+02 -.128E+02 0.114E+02   -.142E+02 0.134E+02 -.114E+02   0.270E+00 -.517E+00 0.732E-01
   0.623E+01 -.124E+02 0.189E+02   -.636E+01 0.129E+02 -.188E+02   0.105E+00 -.531E+00 -.110E+00
   0.202E+01 -.208E+02 0.370E+02   -.183E+01 0.217E+02 -.372E+02   -.170E+00 -.834E+00 0.198E+00
   -.331E+01 -.622E+01 0.503E+02   0.362E+01 0.644E+01 -.504E+02   -.336E+00 -.214E+00 0.878E-01
   -.356E+02 0.510E+01 -.345E+02   0.363E+02 0.112E+02 0.381E+02   -.690E+00 -.163E+02 -.365E+01
   0.221E+02 -.283E+02 -.340E+02   -.835E+01 0.370E+02 0.376E+02   -.138E+02 -.874E+01 -.365E+01
   -.222E+02 0.283E+02 -.345E+02   0.848E+01 -.370E+02 0.381E+02   0.138E+02 0.874E+01 -.365E+01
   0.355E+02 -.501E+01 -.340E+02   -.362E+02 -.113E+02 0.376E+02   0.684E+00 0.163E+02 -.365E+01
   0.229E+00 -.132E+00 -.745E+03   -.225E+00 0.130E+00 0.741E+03   -.383E-02 0.219E-02 0.412E+01
 -----------------------------------------------------------------------------------------------
   0.186E-01 -.107E-01 0.469E+00   0.426E-13 0.171E-12 0.000E+00   -.192E-01 0.110E-01 -.467E+00
 
 
 POSITION                                       TOTAL-FORCE (eV/Angst)
 -----------------------------------------------------------------------------------
     12.28526      0.00851     14.78987         0.024030     -0.013860     -0.007108
      1.21985      0.69308     14.79682        -0.012652      0.019500      0.006447
     -3.69974     10.63497     14.79668         0.027412     -0.011947      0.009055
      3.67542      0.67518     14.89594        -0.016276     -0.001994     -0.000835
     -1.23512     10.62752     14.93406         0.030121      0.041777     -0.003729
      6.12944      0.71868     15.00033        -0.031845     -0.033638     -0.003243
      7.37034      0.00775     14.97464        -0.012761     -0.031885     -0.000966
      8.58320      0.73465     14.96868         0.019777      0.030096     -0.005319
      9.82360      0.01753     14.90811        -0.005430      0.025892      0.005715
     11.05555      0.71848     14.85742        -0.024095      0.013948      0.000405
     11.04662      2.13586     14.90811        -0.025101     -0.008147      0.005723
     -0.01889      2.82386     14.93246         0.026486      0.044585     -0.003089
      1.20690      2.10025     14.89505        -0.000922     -0.014078     -0.002453
      2.42605      2.78240     15.03168         0.001617      0.026161      0.007684
      3.65642      2.07229     15.03255         0.023857     -0.000806      0.006514
      6.07907      2.13671     15.11411         0.019739      0.047566      0.008100
      7.30365      2.88464     15.10173        -0.044627      0.025773      0.001675
      8.55650      2.16131     15.00836         0.040694     -0.023403      0.000868
      9.80537      2.85152     14.96868        -0.016134     -0.032144     -0.005338
      9.82845      4.26533     14.97464         0.021259      0.027061     -0.000948
     -1.21845      4.96672     14.97209        -0.018028     -0.036431      0.006624
      0.01766      4.24722     14.99713        -0.013457     -0.035116      0.000227
      1.27104      4.91270     15.11063         0.024697      0.040886      0.007544
      7.33909      4.31913     15.11411        -0.031218     -0.040775      0.008043
      8.59233      4.98452     15.00033         0.013222      0.044336     -0.003245
     -3.67127      6.40800     14.93406        -0.021104     -0.046995     -0.003729
     -2.43668      7.09598     14.90816         0.024326      0.006078     -0.009139
     -1.19517      6.38035     14.96449         0.008951      0.032883      0.009570
      0.05367      7.07042     15.00280        -0.037572      0.021623      0.005898
      1.30651      6.34709     15.09741         0.039879     -0.023045     -0.004212
      2.53100      7.09501     15.11063        -0.023092     -0.041951      0.007599
      4.95340      7.15989     15.03168        -0.021789     -0.014595      0.007703
      6.18356      6.44941     15.03255         0.012762     -0.020251      0.006492
      7.40298      7.13152     14.89594        -0.006375      0.015031     -0.000841
     -4.91002      8.53869     14.79668         0.024097     -0.017795      0.009069
     -3.67509      9.22322     14.78939        -0.039611      0.022857      0.000564
     -2.44555      8.51335     14.85731         0.025063     -0.014527      0.000149
     -1.21364      9.21435     14.90816         0.006864     -0.024177     -0.009145
      0.02687      8.49698     14.96449        -0.024037     -0.024280      0.009590
      1.23947      9.22396     14.97209         0.022492      0.033791      0.006606
      2.48063      8.51320     14.99713         0.023729      0.029251      0.000231
      3.69502      9.25654     14.93246        -0.025367     -0.045223     -0.003089
      4.93458      8.55678     14.89505         0.011818      0.007820     -0.002450
      6.15971      9.24915     14.79682        -0.023175      0.001187      0.006434
      4.84039      2.77082     15.26067         0.005300      0.001683     -0.028763
      2.43921      4.15721     15.25861        -0.001493      0.003481     -0.028412
      6.17059      5.07481     15.26067         0.001245     -0.005376     -0.028745
      3.76936      6.46109     15.25861        -0.003781     -0.000525     -0.028429
      4.30446      4.61623     16.00997         0.000503     -0.000301      0.038698
 -----------------------------------------------------------------------------------
    total drift:                               -0.000509      0.000296      0.002627


--------------------------------------------------------------------------------------------------------



  FREE ENERGIE OF THE ION-ELECTRON SYSTEM (eV)
  ---------------------------------------------------
  free  energy   TOTEN  =      -449.33422628 eV

  energy  without entropy=     -449.29059333  energy(sigma->0) =     -449.31240980
 


--------------------------------------------------------------------------------------------------------


    POTLOK:  cpu time    2.7703: real time    2.7762


--------------------------------------------------------------------------------------------------------


 stress matrix after NEB project (eV)
     -5.68360     15.63290      0.00028
     15.63290     12.36606     -0.00017
      0.00028     -0.00017     -0.31232
  FORCES: max atom, RMS     0.052132    0.036942
  FORCE total and by dimension    0.258591    0.047566
  Stress total and by dimension   25.963351   15.632905
 writing wavefunctions
     LOOP+:  cpu time 2339.5399: real time 2418.3867
    4ORBIT:  cpu time    0.0000: real time    0.0000

 total amount of memory used by VASP MPI-rank0   696067. kBytes
=======================================================================

   base      :      30000. kBytes
   nonl-proj :     452198. kBytes
   fftplans  :       7547. kBytes
   grid      :     115983. kBytes
   one-center:       1524. kBytes
   wavefun   :      88815. kBytes
 
  
  
 General timing and accounting informations for this job:
 ========================================================
  
                  Total CPU time used (sec):     2488.650
                            User time (sec):     2382.425
                          System time (sec):      106.225
                         Elapsed time (sec):     2572.347
  
                   Maximum memory used (kb):      877668.
                   Average memory used (kb):           0.
  
                          Minor page faults:       906325
                          Major page faults:            2
                 Voluntary context switches:        10233
