       N       E                     dE             d eps       ncg     rms          rms(c)
DAV:   1     0.130504478230E+04    0.13050E+04   -0.93536E+04  4096   0.773E+02
DAV:   2    -0.390463029570E+03   -0.16955E+04   -0.16943E+04  6144   0.122E+02
DAV:   3    -0.477483756131E+03   -0.87021E+02   -0.87012E+02  7168   0.416E+01
DAV:   4    -0.477924772122E+03   -0.44102E+00   -0.44058E+00  6144   0.270E+00
DAV:   5    -0.477925516343E+03   -0.74422E-03   -0.74422E-03  7168   0.988E-02    0.293E+01
DAV:   6    -0.452542280677E+03    0.25383E+02   -0.39001E+01  7424   0.158E+01    0.145E+01
DAV:   7    -0.444464753737E+03    0.80775E+01   -0.17585E+01  8192   0.108E+01    0.516E+00
DAV:   8    -0.443625105805E+03    0.83965E+00   -0.21201E+00  8192   0.251E+00    0.223E+00
DAV:   9    -0.443451279633E+03    0.17383E+00   -0.10889E-01  7680   0.152E+00    0.109E+00
DAV:  10    -0.443336207673E+03    0.11507E+00   -0.62653E-02  8192   0.477E-01    0.413E-01
DAV:  11    -0.443315733549E+03    0.20474E-01   -0.17227E-02  7680   0.674E-01    0.313E-01
DAV:  12    -0.443321385625E+03   -0.56521E-02   -0.32595E-02  7680   0.217E-01    0.517E-01
DAV:  13    -0.443320377598E+03    0.10080E-02   -0.12309E-03  4608   0.196E-01    0.450E-01
DAV:  14    -0.443290375692E+03    0.30002E-01   -0.44766E-01  4096   0.204E-01    0.908E-01
DAV:  15    -0.443342960825E+03   -0.52585E-01   -0.26527E+00  4096   0.263E-01    0.126E+00
DAV:  16    -0.443332311313E+03    0.10650E-01   -0.71027E-02  5632   0.738E-01    0.395E-01
DAV:  17    -0.443337593687E+03   -0.52824E-02   -0.42640E-02  7168   0.535E-01    0.181E-01
DAV:  18    -0.443350414588E+03   -0.12821E-01   -0.36517E-03  7168   0.160E-01    0.115E-01
DAV:  19    -0.443358351885E+03   -0.79373E-02   -0.18074E-03  6912   0.423E-02    0.118E-01
DAV:  20    -0.443361852218E+03   -0.35003E-02   -0.15662E-03  6400   0.308E-02    0.718E-02
DAV:  21    -0.443364859053E+03   -0.30068E-02   -0.94855E-04  6656   0.516E-02    0.139E-01
DAV:  22    -0.443366620167E+03   -0.17611E-02   -0.79055E-04  7168   0.629E-02    0.913E-02
DAV:  23    -0.443367637579E+03   -0.10174E-02   -0.43358E-04  5632   0.353E-02    0.643E-02
DAV:  24    -0.443368083218E+03   -0.44564E-03   -0.24343E-04  7936   0.429E-02    0.376E-02
DAV:  25    -0.443368447708E+03   -0.36449E-03   -0.26361E-04  7936   0.481E-02    0.175E-02
DAV:  26    -0.443368711455E+03   -0.26375E-03   -0.12068E-04  7424   0.233E-02    0.228E-02
DAV:  27    -0.443368833815E+03   -0.12236E-03   -0.73515E-05  7424   0.162E-02    0.155E-02
DAV:  28    -0.443368876008E+03   -0.42193E-04   -0.23404E-05  7168   0.683E-03    0.479E-03
DAV:  29    -0.443368917772E+03   -0.41764E-04   -0.89166E-06  5888   0.277E-03    0.185E-03
DAV:  30    -0.443368940572E+03   -0.22800E-04   -0.51889E-06  5120   0.140E-03    0.160E-03
DAV:  31    -0.443368953507E+03   -0.12935E-04   -0.20731E-06  7168   0.150E-03    0.779E-04
DAV:  32    -0.443368961883E+03   -0.83760E-05   -0.94264E-07  7168   0.630E-04
   1 F= -.44510720E+03 E0= -.44508064E+03  d E =-.445107E+03  mag=    -0.0001
       N       E                     dE             d eps       ncg     rms          rms(c)
DAV:   1    -0.443373054757E+03   -0.41013E-02   -0.60593E-01  4096   0.120E+00    0.206E-01
DAV:   2    -0.443372917579E+03    0.13718E-03   -0.11211E-02  7680   0.160E-01    0.106E-01
DAV:   3    -0.443372778888E+03    0.13869E-03   -0.87744E-04  7680   0.227E-01    0.574E-02
DAV:   4    -0.443372666012E+03    0.11288E-03   -0.20803E-04  7936   0.754E-02    0.133E-02
DAV:   5    -0.443372681492E+03   -0.15480E-04   -0.16348E-05  7168   0.674E-03    0.827E-03
DAV:   6    -0.443372696647E+03   -0.15155E-04   -0.96974E-06  7680   0.967E-03    0.114E-02
DAV:   7    -0.443372698018E+03   -0.13715E-05   -0.24930E-07  5888   0.658E-04
   2 F= -.44511097E+03 E0= -.44508510E+03  d E =-.376717E-02  mag=     0.0001
       N       E                     dE             d eps       ncg     rms          rms(c)
DAV:   1    -0.443373939566E+03   -0.12429E-02   -0.10020E-01  6144   0.490E-01    0.744E-02
DAV:   2    -0.443373969888E+03   -0.30323E-04   -0.15320E-03  5888   0.612E-02    0.400E-02
DAV:   3    -0.443373974671E+03   -0.47833E-05   -0.94414E-05  7168   0.549E-02
   3 F= -.44511209E+03 E0= -.44508630E+03  d E =-.112281E-02  mag=     0.0018
       N       E                     dE             d eps       ncg     rms          rms(c)
DAV:   1    -0.443374978300E+03   -0.10084E-02   -0.11663E-01  7936   0.490E-01    0.903E-02
DAV:   2    -0.443374828448E+03    0.14985E-03   -0.93589E-04  6912   0.605E-02    0.680E-02
DAV:   3    -0.443374460429E+03    0.36802E-03   -0.50157E-04  7680   0.949E-02    0.770E-02
DAV:   4    -0.443374254950E+03    0.20548E-03   -0.57724E-05  6656   0.454E-03    0.880E-02
DAV:   5    -0.443374818651E+03   -0.56370E-03   -0.20025E-03  6912   0.738E-02    0.395E-02
DAV:   6    -0.443374842171E+03   -0.23520E-04   -0.49502E-05  6656   0.405E-02    0.119E-02
DAV:   7    -0.443374866243E+03   -0.24073E-04   -0.89677E-06  6912   0.831E-03    0.560E-03
DAV:   8    -0.443374871253E+03   -0.50095E-05   -0.41848E-06  6912   0.390E-03
   4 F= -.44511288E+03 E0= -.44508728E+03  d E =-.784831E-03  mag=    -0.0002
       N       E                     dE             d eps       ncg     rms          rms(c)
DAV:   1    -0.443375318316E+03   -0.45207E-03   -0.76983E-02  4096   0.398E-01    0.722E-02
DAV:   2    -0.443375381317E+03   -0.63001E-04   -0.19085E-03  6400   0.618E-02    0.369E-02
DAV:   3    -0.443375382179E+03   -0.86194E-06   -0.90377E-05  6400   0.815E-02
   5 F= -.44511328E+03 E0= -.44508792E+03  d E =-.405960E-03  mag=     0.0001
       N       E                     dE             d eps       ncg     rms          rms(c)
DAV:   1    -0.443375603556E+03   -0.22224E-03   -0.33208E-02  4096   0.272E-01    0.484E-02
DAV:   2    -0.443375628856E+03   -0.25300E-04   -0.78499E-04  7936   0.435E-02    0.252E-02
DAV:   3    -0.443375624271E+03    0.45855E-05   -0.36670E-05  6912   0.478E-02
   6 F= -.44511344E+03 E0= -.44508811E+03  d E =-.161386E-03  mag=     0.0025
