C  N  Lu
 1.0000000000000000
    12.3000000000000007    0.0000000000000000    0.0000000000000000
    -6.1499999999999977   10.6521124665485960    0.0000000000000000
     0.0000000000000000    0.0000000000000000   20.0000000000000000
 C   N   Lu 
  44   4   1
Direct
  0.9993109999999999  0.0006890000000000  0.7420600000000001
  0.1318860000000000  0.0653820000000000  0.7423000000000002
  0.1987140000000000  0.9985540000000001  0.7423000000000002
  0.3307400000000000  0.0637470000000000  0.7459830000000000
  0.3985690000000001  0.9977650000000001  0.7470690000000000
  0.5320319999999999  0.0668430000000000  0.7491340000000000
  0.5996640000000000  0.0006860000000000  0.7483420000000001
  0.7324250000000000  0.0689340000000000  0.7484540000000000
  0.7996070000000000  0.0017080000000000  0.7464020000000000
  0.9325910000000002  0.0674090000000000  0.7447120000000000
  0.9982920000000000  0.2003930000000000  0.7464020000000000
  0.1310940000000000  0.2652370000000000  0.7470690000000000
  0.1970750000000000  0.1974070000000000  0.7459830000000000
  0.3291480000000000  0.2633910000000000  0.7511960000000002
  0.3967200000000000  0.1958200000000000  0.7511960000000002
  0.5944320000000000  0.2003500000000000  0.7533090000000000
  0.7293840000000000  0.2706160000000000  0.7531740000000000
  0.7971690000000000  0.2028310000000000  0.7499990000000000
  0.9310660000000001  0.2675750000000000  0.7484540000000000
  0.9993140000000000  0.4003360000000000  0.7483420000000001
  0.1340150000000000  0.4663340000000000  0.7483420000000001
  0.2001720000000000  0.3987010000000000  0.7491340000000000
  0.3336790000000000  0.4611020000000001  0.7533090000000000
  0.7996500000000000  0.4055680000000000  0.7533090000000000
  0.9331570000000002  0.4679680000000001  0.7491340000000000
  0.0022350000000000  0.6014310000000000  0.7470690000000000
  0.1350380000000000  0.6662760000000000  0.7464020000000000
  0.2022630000000000  0.5990950000000000  0.7484540000000000
  0.3361620000000001  0.6638380000000000  0.7499990000000000
  0.4039460000000000  0.5960540000000000  0.7531740000000000
  0.5388980000000000  0.6663210000000001  0.7533090000000000
  0.7366090000000000  0.6708520000000000  0.7511960000000002
  0.8041800000000002  0.6032800000000000  0.7511960000000002
  0.9362530000000000  0.6692600000000000  0.7459830000000000
  0.0014460000000000  0.8012860000000001  0.7423000000000002
  0.1340200000000000  0.8659800000000001  0.7420600000000001
  0.2007390000000000  0.7992610000000000  0.7447120000000000
  0.3337240000000000  0.8649620000000000  0.7464020000000000
  0.4009050000000000  0.7977370000000000  0.7484540000000000
  0.5336660000000000  0.8659850000000000  0.7483420000000001
  0.6012990000000000  0.7998280000000000  0.7491340000000000
  0.7347630000000001  0.8689050000000000  0.7470690000000000
  0.8025930000000000  0.8029250000000000  0.7459830000000000
  0.9346179999999999  0.8681139999999999  0.7423000000000002
  0.5251520000000000  0.2602070000000000  0.7581510000000000
  0.3935380000000000  0.3918230000000000  0.7581510000000000
  0.7397930000000000  0.4748480000000000  0.7581510000000000
  0.6081770000000000  0.6064619999999999  0.7581510000000000
  0.5666650000000001  0.4333350000000001  0.8097460000000002
