       N       E                     dE             d eps       ncg     rms          rms(c)
DAV:   1     0.122491608590E+04    0.12249E+04   -0.85047E+04  4096   0.591E+02
DAV:   2    -0.383429984291E+03   -0.16083E+04   -0.16072E+04  5632   0.118E+02
DAV:   3    -0.474993347684E+03   -0.91563E+02   -0.91533E+02  8192   0.399E+01
DAV:   4    -0.475067330159E+03   -0.73982E-01   -0.73976E-01  4096   0.139E+00
DAV:   5    -0.475067805805E+03   -0.47565E-03   -0.47565E-03  8192   0.114E-01    0.364E+01
DAV:   6    -0.462309133037E+03    0.12759E+02   -0.44721E+02  6144   0.180E+01    0.945E+01
DAV:   7    -0.460811250541E+03    0.14979E+01   -0.81114E-01  5120   0.191E+00    0.894E+01
DAV:   8    -0.445914774937E+03    0.14896E+02   -0.16129E+02  8192   0.261E+01    0.147E+01
DAV:   9    -0.443264809601E+03    0.26500E+01   -0.42303E+00  7168   0.276E+00    0.147E+01
DAV:  10    -0.442378113135E+03    0.88670E+00   -0.46774E+00  7680   0.326E+00    0.123E+01
DAV:  11    -0.442384176729E+03   -0.60636E-02   -0.40499E-02  5120   0.334E-01    0.127E+01
DAV:  12    -0.442268715440E+03    0.11546E+00   -0.56683E-01  8192   0.133E+00    0.332E+00
DAV:  13    -0.442274387847E+03   -0.56724E-02   -0.46471E-02  7168   0.394E-01    0.249E+00
DAV:  14    -0.442252327194E+03    0.22061E-01   -0.19141E-02  6144   0.283E-01    0.180E+00
DAV:  15    -0.442234530686E+03    0.17797E-01   -0.46005E-02  6656   0.422E-01    0.864E-01
DAV:  16    -0.442233383913E+03    0.11468E-02   -0.33951E-02  7424   0.350E-01    0.256E-01
DAV:  17    -0.442245147103E+03   -0.11763E-01   -0.31884E-02  7936   0.326E-01    0.526E-01
DAV:  18    -0.442248874635E+03   -0.37275E-02   -0.15575E-03  5632   0.619E-02    0.517E-01
DAV:  19    -0.442249671806E+03   -0.79717E-03   -0.40939E-03  7168   0.119E-01    0.246E-01
DAV:  20    -0.442251266945E+03   -0.15951E-02   -0.14249E-03  6144   0.702E-02    0.119E-01
DAV:  21    -0.442253235417E+03   -0.19685E-02   -0.83123E-04  7424   0.524E-02    0.318E-02
DAV:  22    -0.442254726932E+03   -0.14915E-02   -0.41236E-04  6912   0.359E-02    0.329E-02
DAV:  23    -0.442255079932E+03   -0.35300E-03   -0.32247E-05  5120   0.835E-03    0.349E-02
DAV:  24    -0.442255235236E+03   -0.15530E-03   -0.38290E-05  6656   0.110E-02    0.125E-02
DAV:  25    -0.442255333202E+03   -0.97965E-04   -0.76815E-06  5120   0.402E-03    0.685E-03
DAV:  26    -0.442255399008E+03   -0.65806E-04   -0.46938E-06  6144   0.292E-03    0.202E-03
DAV:  27    -0.442255433115E+03   -0.34107E-04   -0.29885E-06  5632   0.277E-03    0.395E-03
DAV:  28    -0.442255456044E+03   -0.22929E-04   -0.54910E-07  6656   0.996E-04    0.250E-03
DAV:  29    -0.442255470717E+03   -0.14673E-04   -0.50566E-07  7168   0.125E-03    0.849E-04
DAV:  30    -0.442255477253E+03   -0.65354E-05   -0.48548E-08  7168   0.284E-04
   1 F= -.44403839E+03 E0= -.44403801E+03  d E =-.444038E+03  mag=     0.0000
