C  N  Pd
 1.0000000000000000
    12.3000000000000007    0.0000000000000000    0.0000000000000000
    -6.1499999999999977   10.6521124665485960    0.0000000000000000
     0.0000000000000000    0.0000000000000000   20.0000000000000000
 C   N   Pd 
  44   4   1
Direct
  0.9989970000000002  0.0010030000000000  0.7477660000000000
  0.1306800000000000  0.0640110000000000  0.7483740000000001
  0.1973420000000000  0.9973500000000000  0.7483740000000001
  0.3293440000000001  0.0614750000000000  0.7503170000000000
  0.3982150000000000  0.9968129999999999  0.7502070000000001
  0.5311690000000000  0.0662970000000000  0.7513420000000002
  0.5991160000000000  0.0005680000000000  0.7506170000000001
  0.7321820000000000  0.0697330000000000  0.7501830000000000
  0.7994410000000000  0.0029570000000000  0.7491800000000000
  0.9320980000000001  0.0679020000000000  0.7483610000000001
  0.9970430000000000  0.2005590000000000  0.7491800000000000
  0.1301430000000000  0.2648850000000000  0.7502070000000001
  0.1948040000000000  0.1960130000000000  0.7503170000000000
  0.3255130000000000  0.2595880000000000  0.7529380000000000
  0.3929180000000000  0.1921820000000000  0.7529380000000000
  0.5930600000000000  0.2007820000000000  0.7531810000000001
  0.7283650000000002  0.2716350000000000  0.7527810000000001
  0.7962160000000000  0.2037840000000000  0.7509010000000000
  0.9302670000000000  0.2678180000000000  0.7501830000000000
  0.9994320000000000  0.4008840000000000  0.7506170000000001
  0.1338980000000000  0.4657850000000000  0.7506170000000001
  0.1996280000000000  0.3978390000000001  0.7513420000000002
  0.3341130000000000  0.4597300000000000  0.7531810000000001
  0.7992180000000000  0.4069400000000000  0.7531810000000001
  0.9337029999999999  0.4688310000000000  0.7513420000000002
  0.0031870000000000  0.6017850000000000  0.7502070000000001
  0.1362870000000000  0.6661110000000000  0.7491800000000000
  0.2030620000000000  0.5988520000000001  0.7501830000000000
  0.3371140000000000  0.6628860000000000  0.7509010000000000
  0.4049640000000001  0.5950360000000000  0.7527810000000001
  0.5402700000000000  0.6658870000000000  0.7531810000000001
  0.7404120000000001  0.6744869999999999  0.7529380000000000
  0.8078180000000003  0.6070820000000000  0.7529380000000000
  0.9385250000000001  0.6706560000000000  0.7503170000000000
  0.0026500000000000  0.8026580000000001  0.7483740000000001
  0.1343330000000000  0.8656669999999999  0.7477660000000000
  0.2012320000000001  0.7987680000000001  0.7483610000000001
  0.3338890000000001  0.8637130000000001  0.7491800000000000
  0.4011480000000000  0.7969380000000000  0.7501830000000000
  0.5342150000000001  0.8661020000000001  0.7506170000000001
  0.6021609999999999  0.8003720000000000  0.7513420000000002
  0.7351150000000001  0.8698570000000001  0.7502070000000001
  0.8039870000000000  0.8051960000000000  0.7503170000000000
  0.9359890000000000  0.8693200000000000  0.7483740000000001
  0.5212930000000000  0.2568510000000000  0.7549169999999999
  0.3901830000000001  0.3879650000000000  0.7549169999999999
  0.7431489999999999  0.4787069999999999  0.7549169999999999
  0.6120350000000000  0.6098170000000001  0.7549169999999999
  0.5666650000000001  0.4333350000000001  0.7563630000000000
