       N       E                     dE             d eps       ncg     rms          ort
DAV:   1     0.104643207515E+04    0.10464E+04   -0.90172E+04  3328   0.684E+02
DAV:   2    -0.367138801370E+03   -0.14136E+04   -0.14132E+04  3328   0.100E+02
DAV:   3    -0.443931252367E+03   -0.76792E+02   -0.76728E+02  3328   0.367E+01
DAV:   4    -0.444733119954E+03   -0.80187E+00   -0.80185E+00  3328   0.417E+00
DAV:   5    -0.444733300523E+03   -0.18057E-03   -0.18057E-03  3328   0.780E-02
SDA:   6    -0.444733300523E+03    0.00000E+00   -0.18057E-03  3328   0.265E-05 0.000E+00
   1 F= -.44653343E+03 E0= -.44653169E+03  d E =-.349048E-02  mag=    -1.6264
