C  N  Ru                                
   1.00000000000000     
    12.3000000000000007    0.0000000000000000    0.0000000000000000
    -6.1499999999999977   10.6521124665485960    0.0000000000000000
     0.0000000000000000    0.0000000000000000   20.0000000000000000
   C    N    Ru
    44     4     1
Direct
  0.9989827800375650  0.0010165053887832  0.7463336794290782
  0.1305669884390781  0.0638716636290653  0.7466064422565140
  0.1972374883003596  0.9972579211095720  0.7465998445365543
  0.3292340255960795  0.0613543736055107  0.7488378516523753
  0.3982289928333529  0.9965976805290566  0.7491094959633244
  0.5310133311043543  0.0663741774151276  0.7504385400859093
  0.5990475171475111  0.0004428773051401  0.7497069253809414
  0.7319416311522531  0.0698234894876393  0.7497442350629626
  0.7993453163524293  0.0031002053349738  0.7485131561562142
  0.9320178689830243  0.0679826702002870  0.7476227690644208
  0.9968994904753430  0.2006537768743115  0.7485103951645797
  0.1299023465030444  0.2648722322698092  0.7491282359937799
  0.1946792427647566  0.1958888658154052  0.7488408890202081
  0.3248453142325971  0.2591949990838955  0.7529772564750203
  0.3925155005651888  0.1915355084300288  0.7529860124149934
  0.5926991102211332  0.2002741858878281  0.7540627799710933
  0.7281706959725724  0.2718300470367936  0.7538341216538740
  0.7959616885454679  0.2040376841150149  0.7509301849462702
  0.9301767089349795  0.2680581176668042  0.7497428206141521
  0.9995574774790086  0.4009514944764518  0.7497063247298996
  0.1337588400214926  0.4657248836184564  0.7497080804065845
  0.1996820813429068  0.3976600200790585  0.7504495893642229
  0.3336168439146761  0.4593533697302519  0.7540430544199523
  0.7997266418152975  0.4073006789746643  0.7540629128725200
  0.9336276896838100  0.4689857063837124  0.7504399596299720
  0.0034022405387688  0.6017704741601264  0.7491099315766121
  0.1364057834561763  0.6660077791146506  0.7484698892498827
  0.2031446270357193  0.5986231971210714  0.7497204995242228
  0.3373516686194762  0.6626474630466959  0.7509397353534197
  0.4051758844881590  0.5948242980890583  0.7538393229537164
  0.5406463028222390  0.6663831243522367  0.7540442852679874
  0.7408064116887871  0.6751570797636148  0.7529778684434518
  0.8084638646494753  0.6074839607680786  0.7529857856370725
  0.9386462481250675  0.6707660659209296  0.7488377896927148
  0.0027416876140478  0.8027615865926236  0.7466001976875418
  0.1343645664209703  0.8656351803413713  0.7463270840085272
  0.2013203749465546  0.7986792727870267  0.7475982892669748
  0.3339916106247642  0.8635941551397721  0.7484696110740785
  0.4013767814310327  0.7968552225061387  0.7497204597248057
  0.5342748485097673  0.8662420225146406  0.7497091807040377
  0.6023385650958204  0.8003176624624260  0.7504524248468556
  0.7351219453089826  0.8700973487814778  0.7491242349651301
  0.8041162073171577  0.8053271305176537  0.7488412386470031
  0.9361300717056125  0.8694314933587250  0.7466039780365676
  0.5208725772351528  0.2573661071436462  0.7582614083669199
  0.3906979131429082  0.3875425763999729  0.7582529796862758
  0.7426343366115375  0.4791265959366697  0.7582610533218315
  0.6124564527075194  0.6093015670815376  0.7582534291355714
  0.5666734174860579  0.4333255016522344  0.7706577655632714
 
  0.00000000E+00  0.00000000E+00  0.00000000E+00
  0.00000000E+00  0.00000000E+00  0.00000000E+00
  0.00000000E+00  0.00000000E+00  0.00000000E+00
  0.00000000E+00  0.00000000E+00  0.00000000E+00
  0.00000000E+00  0.00000000E+00  0.00000000E+00
  0.00000000E+00  0.00000000E+00  0.00000000E+00
  0.00000000E+00  0.00000000E+00  0.00000000E+00
  0.00000000E+00  0.00000000E+00  0.00000000E+00
  0.00000000E+00  0.00000000E+00  0.00000000E+00
  0.00000000E+00  0.00000000E+00  0.00000000E+00
  0.00000000E+00  0.00000000E+00  0.00000000E+00
  0.00000000E+00  0.00000000E+00  0.00000000E+00
  0.00000000E+00  0.00000000E+00  0.00000000E+00
  0.00000000E+00  0.00000000E+00  0.00000000E+00
  0.00000000E+00  0.00000000E+00  0.00000000E+00
  0.00000000E+00  0.00000000E+00  0.00000000E+00
  0.00000000E+00  0.00000000E+00  0.00000000E+00
  0.00000000E+00  0.00000000E+00  0.00000000E+00
  0.00000000E+00  0.00000000E+00  0.00000000E+00
  0.00000000E+00  0.00000000E+00  0.00000000E+00
  0.00000000E+00  0.00000000E+00  0.00000000E+00
  0.00000000E+00  0.00000000E+00  0.00000000E+00
  0.00000000E+00  0.00000000E+00  0.00000000E+00
  0.00000000E+00  0.00000000E+00  0.00000000E+00
  0.00000000E+00  0.00000000E+00  0.00000000E+00
  0.00000000E+00  0.00000000E+00  0.00000000E+00
  0.00000000E+00  0.00000000E+00  0.00000000E+00
  0.00000000E+00  0.00000000E+00  0.00000000E+00
  0.00000000E+00  0.00000000E+00  0.00000000E+00
  0.00000000E+00  0.00000000E+00  0.00000000E+00
  0.00000000E+00  0.00000000E+00  0.00000000E+00
  0.00000000E+00  0.00000000E+00  0.00000000E+00
  0.00000000E+00  0.00000000E+00  0.00000000E+00
  0.00000000E+00  0.00000000E+00  0.00000000E+00
  0.00000000E+00  0.00000000E+00  0.00000000E+00
  0.00000000E+00  0.00000000E+00  0.00000000E+00
  0.00000000E+00  0.00000000E+00  0.00000000E+00
  0.00000000E+00  0.00000000E+00  0.00000000E+00
  0.00000000E+00  0.00000000E+00  0.00000000E+00
  0.00000000E+00  0.00000000E+00  0.00000000E+00
  0.00000000E+00  0.00000000E+00  0.00000000E+00
  0.00000000E+00  0.00000000E+00  0.00000000E+00
  0.00000000E+00  0.00000000E+00  0.00000000E+00
  0.00000000E+00  0.00000000E+00  0.00000000E+00
  0.00000000E+00  0.00000000E+00  0.00000000E+00
  0.00000000E+00  0.00000000E+00  0.00000000E+00
  0.00000000E+00  0.00000000E+00  0.00000000E+00
  0.00000000E+00  0.00000000E+00  0.00000000E+00
  0.00000000E+00  0.00000000E+00  0.00000000E+00
