       N       E                     dE             d eps       ncg     rms          ort
DAV:   1     0.984651694817E+03    0.98465E+03   -0.88165E+04  3328   0.670E+02
DAV:   2    -0.370977586334E+03   -0.13556E+04   -0.13553E+04  3328   0.961E+01
DAV:   3    -0.446907115022E+03   -0.75930E+02   -0.75923E+02  3328   0.359E+01
DAV:   4    -0.447759143072E+03   -0.85203E+00   -0.85193E+00  3328   0.424E+00
DAV:   5    -0.447759287122E+03   -0.14405E-03   -0.14405E-03  3328   0.674E-02
SDA:   6    -0.447759287122E+03    0.00000E+00   -0.14405E-03  3328   0.205E-05 0.000E+00
   1 F= -.44950840E+03 E0= -.44950466E+03  d E =-.749289E-02  mag=     0.8983
