       N       E                     dE             d eps       ncg     rms          ort
DAV:   1    -0.170545591553E-01   -0.17055E-01   -0.35755E+02   256   0.310E+00
DAV:   2    -0.292822704009E+00   -0.27577E+00   -0.27577E+00   256   0.111E-01
DAV:   3    -0.293289703031E+00   -0.46700E-03   -0.46700E-03   256   0.702E-03
DAV:   4    -0.293289777976E+00   -0.74945E-07   -0.74945E-07   256   0.971E-05
DAV:   5    -0.293289777976E+00   -0.52580E-12   -0.66835E-12   256   0.204E-07
SDA:   6    -0.293805352530E+00   -0.51557E-03   -0.66835E-12   256   0.302E-03 0.000E+00
CGA:   7    -0.293930941022E+00   -0.12559E-03   -0.12512E-03   256   0.166E-04 0.219E-05
CGA:   8    -0.293942061913E+00   -0.11121E-04   -0.11435E-04   256   0.612E-05-0.667E-06
CGA:   9    -0.293945623624E+00   -0.35617E-05   -0.37202E-05   256   0.143E-05-0.396E-06
   1 F= -.29394562E+00 E0= -.29394562E+00  d E =-.899457E-15  mag=     1.0000
