       N       E                     dE             d eps       ncg     rms          ort
DAV:   1     0.257266496084E+02    0.25727E+02   -0.49128E+03   256   0.440E+01
DAV:   2     0.203386565033E+00   -0.25523E+02   -0.25486E+02   256   0.585E+00
DAV:   3     0.148025528663E+00   -0.55361E-01   -0.55349E-01   256   0.372E-01
DAV:   4     0.146917705805E+00   -0.11078E-02   -0.11078E-02   256   0.595E-02
DAV:   5     0.146914058337E+00   -0.36475E-05   -0.36474E-05   256   0.280E-03
SDA:   6    -0.759459116817E+00   -0.90637E+00   -0.36474E-05   256   0.140E+00 0.000E+00
CGA:   7    -0.785274911140E+00   -0.25816E-01   -0.25815E-01   256   0.260E-01 0.141E-04
CGA:   8    -0.792482884995E+00   -0.72080E-02   -0.72054E-02   256   0.160E-01 0.134E-04
CGA:   9    -0.796702643743E+00   -0.42198E-02   -0.42181E-02   256   0.451E-02 0.440E-04
CGA:  10    -0.797914074454E+00   -0.12114E-02   -0.12108E-02   256   0.170E-02 0.892E-05
CGA:  11    -0.798505602924E+00   -0.59153E-03   -0.59259E-03   256   0.623E-03-0.779E-05
CGA:  12    -0.798678215209E+00   -0.17261E-03   -0.17302E-03   256   0.133E-03-0.649E-05
CGA:  13    -0.798716147174E+00   -0.37932E-04   -0.38080E-04   256   0.278E-04-0.211E-05
CGA:  14    -0.798725039068E+00   -0.88919E-05   -0.89408E-05   256   0.723E-05-0.474E-06
   1 F= -.79872504E+00 E0= -.77944225E+00  d E =-.385656E-01  mag=     2.0000
