 vasp.5.4.4.18Apr17-6-g9f103f2a35 (build Nov 21 2023 15:34:30) complex          
  
 executed on             LinuxIFC date 2026.09.21  17:47:31
 running on  256 total cores
 distrk:  each k-point on  256 cores,    1 groups
 distr:  one band on NCORES_PER_BAND=   1 cores,  256 groups


--------------------------------------------------------------------------------------------------------


 INCAR:
 POTCAR:    PAW_PBE Ge_d 03Jul2007                

 ----------------------------------------------------------------------------- 
|                                                                             |
|           W    W    AA    RRRRR   N    N  II  N    N   GGGG   !!!           |
|           W    W   A  A   R    R  NN   N  II  NN   N  G    G  !!!           |
|           W    W  A    A  R    R  N N  N  II  N N  N  G       !!!           |
|           W WW W  AAAAAA  RRRRR   N  N N  II  N  N N  G  GGG   !            |
|           WW  WW  A    A  R   R   N   NN  II  N   NN  G    G                |
|           W    W  A    A  R    R  N    N  II  N    N   GGGG   !!!           |
|                                                                             |
|      For optimal performance we recommend to set                            |
|        NCORE= 4 - approx SQRT( number of cores)                             |
|      NCORE specifies how many cores store one orbital (NPAR=cpu/NCORE).     |
|      This setting can  greatly improve the performance of VASP for DFT.     |
|      The default,   NCORE=1            might be grossly inefficient         |
|      on modern multi-core architectures or massively parallel machines.     |
|      Do your own testing !!!!                                               |
|      Unfortunately you need to use the default for GW and RPA calculations. |
|      (for HF NCORE is supported but not extensively tested yet)             |
|                                                                             |
 ----------------------------------------------------------------------------- 

 POTCAR:    PAW_PBE Ge_d 03Jul2007                
   VRHFIN =Ge: 3d4s4p                                                           
   LEXCH  = PE                                                                  
   EATOM  =  2596.2399 eV,  190.8182 Ry                                         
                                                                                
   TITEL  = PAW_PBE Ge_d 03Jul2007                                              
   LULTRA =        F    use ultrasoft PP ?                                      
   IUNSCR =        1    unscreen: 0-lin 1-nonlin 2-no                           
   RPACOR =    2.000    partial core radius                                     
   POMASS =   72.610; ZVAL   =   14.000    mass and valenz                      
   RCORE  =    2.300    outmost cutoff radius                                   
   RWIGS  =    2.300; RWIGS  =    1.217    wigner-seitz radius (au A)           
   ENMAX  =  310.294; ENMIN  =  232.720 eV                                      
   ICORE  =        3    local potential                                         
   LCOR   =        T    correct aug charges                                     
   LPAW   =        T    paw PP                                                  
   EAUG   =  531.356                                                            
   DEXC   =    0.000                                                            
   RMAX   =    2.617    core radius for proj-oper                               
   RAUG   =    1.300    factor for augmentation sphere                          
   RDEP   =    2.318    radius for radial grids                                 
   QCUT   =   -4.776; QGAM   =    9.551    optimization parameters              
                                                                                
   Description                                                                  
     l     E      TYP  RCUT    TYP  RCUT                                        
     2   -29.31     23  2.200                                                   
     2   -13.61     23  2.200                                                   
     0   -11.73     23  2.300                                                   
     0    -7.46     23  2.300                                                   
     1    -3.90     23  2.300                                                   
     1     6.12     23  2.300                                                   
     3    -1.36     23  2.300                                                   
  local pseudopotential read in
  partial core-charges read in
  atomic valenz-charges read in
  non local Contribution for L=           2  read in
    real space projection operators read in
  non local Contribution for L=           2  read in
    real space projection operators read in
  non local Contribution for L=           0  read in
    real space projection operators read in
  non local Contribution for L=           0  read in
    real space projection operators read in
  non local Contribution for L=           1  read in
    real space projection operators read in
  non local Contribution for L=           1  read in
    real space projection operators read in
    PAW grid and wavefunctions read in
 
   number of l-projection  operators is LMAX  =           6
   number of lm-projection operators is LMMAX =          18
 
  PAW_PBE Ge_d 03Jul2007                :
 energy of atom  1       EATOM=-2596.2399
 kinetic energy error for atom=    0.0028 (will be added to EATOM!!)
 
 
 POSCAR: Ge                                      
  positions in direct lattice
  No initial velocities read in
 exchange correlation table for  LEXCH =        8
   RHO(1)=    0.500       N(1)  =     2000
   RHO(2)=  100.500       N(2)  =     4000

 VTST: version 3.2, (02/03/18)

 CHAIN: initializing optimizer
 
 OPT: Using VASP Dynamics algorithm
 CHAIN: Read ICHAIN            0
 
 POSCAR: Ge                                      
  positions in direct lattice
  No initial velocities read in
 


--------------------------------------------------------------------------------------------------------


 ion  position               nearest neighbor table
   1  0.010  0.010  0.751-
 

IMPORTANT INFORMATION: All symmetrisations will be switched off!
NOSYMM: (Re-)initialisation of all symmetry stuff for point group C_1.

 
 

Automatic generation of k-mesh.
 generate k-points for:    1    1    1
Space group operators:
 irot       det(A)        alpha          n_x          n_y          n_z        tau_x        tau_y        tau_z
    1     1.000000     0.000000     1.000000     0.000000     0.000000     0.000000     0.000000     0.000000
 
 Subroutine IBZKPT returns following result:
 ===========================================
 
 Found      1 irreducible k-points:
 
 Following reciprocal coordinates:
            Coordinates               Weight
  0.000000  0.000000  0.000000      1.000000
 
 Following cartesian coordinates:
            Coordinates               Weight
  0.000000  0.000000  0.000000      1.000000
 


--------------------------------------------------------------------------------------------------------




 Dimension of arrays:
   k-points           NKPTS =      1   k-points in BZ     NKDIM =      1   number of bands    NBANDS=    256
   number of dos      NEDOS =    301   number of ions     NIONS =      1
   non local maximal  LDIM  =      6   non local SUM 2l+1 LMDIM =     18
   total plane-waves  NPLWV = ******
   max r-space proj   IRMAX =      1   max aug-charges    IRDMAX=  14198
   dimension x,y,z NGX =   112 NGY =  112 NGZ =  112
   dimension x,y,z NGXF=   224 NGYF=  224 NGZF=  224
   support grid    NGXF=   224 NGYF=  224 NGZF=  224
   ions per type =               1
   NGX,Y,Z   is equivalent  to a cutoff of  12.41, 12.41, 12.41 a.u.
   NGXF,Y,Z  is equivalent  to a cutoff of  24.83, 24.83, 24.83 a.u.

 SYSTEM =  Ge                                      
 POSCAR =  Ge                                      

 Startparameter for this run:
   NWRITE =      2    write-flag & timer
   PREC   = accura    normal or accurate (medium, high low for compatibility)
   ISTART =      0    job   : 0-new  1-cont  2-samecut
   ICHARG =      2    charge: 1-file 2-atom 10-const
   ISPIN  =      2    spin polarized calculation?
   LNONCOLLINEAR =      F non collinear calculations
   LSORBIT =      F    spin-orbit coupling
   INIWAV =      1    electr: 0-lowe 1-rand  2-diag
   LASPH  =      T    aspherical Exc in radial PAW
   METAGGA=      F    non-selfconsistent MetaGGA calc.

 Electronic Relaxation 1
   ENCUT  =  520.0 eV  38.22 Ry    6.18 a.u.  27.89 27.89 27.89*2*pi/ulx,y,z
   ENINI  =  520.0     initial cutoff
   ENAUG  =  531.4 eV  augmentation charge cutoff
   NELM   =    200;   NELMIN=  2; NELMDL= -5     # of ELM steps 
   EDIFF  = 0.1E-04   stopping-criterion for ELM
   LREAL  =      F    real-space projection
   NLSPLINE    = F    spline interpolate recip. space projectors
   LCOMPAT=      F    compatible to vasp.4.4
   GGA_COMPAT  = T    GGA compatible to vasp.4.4-vasp.4.6
   LMAXPAW     = -100 max onsite density
   LMAXMIX     =    2 max onsite mixed and CHGCAR
   VOSKOWN=      0    Vosko Wilk Nusair interpolation
   ROPT   =    0.00000
 Ionic relaxation
   EDIFFG = 0.1E-03   stopping-criterion for IOM
   NSW    =      0    number of steps for IOM
   NBLOCK =      1;   KBLOCK =      1    inner block; outer block 
   IBRION =     -1    ionic relax: 0-MD 1-quasi-New 2-CG
   NFREE  =      0    steps in history (QN), initial steepest desc. (CG)
   ISIF   =      0    stress and relaxation
   IWAVPR =     10    prediction:  0-non 1-charg 2-wave 3-comb
   ISYM   =      0    0-nonsym 1-usesym 2-fastsym
   LCORR  =      T    Harris-Foulkes like correction to forces

   POTIM  = 0.5000    time-step for ionic-motion
   TEIN   =    0.0    initial temperature
   TEBEG  =    0.0;   TEEND  =   0.0 temperature during run
   SMASS  =  -3.00    Nose mass-parameter (am)
   estimated Nose-frequenzy (Omega)   =  0.10E-29 period in steps =****** mass=  -0.514E-26a.u.
   SCALEE = 1.0000    scale energy and forces
   NPACO  =    256;   APACO  = 16.0  distance and # of slots for P.C.
   PSTRESS=    0.0 pullay stress

  Mass of Ions in am
   POMASS =  72.61
  Ionic Valenz
   ZVAL   =  14.00
  Atomic Wigner-Seitz radii
   RWIGS  =  -1.00
  virtual crystal weights 
   VCA    =   1.00
   NELECT =      14.0000    total number of electrons
   NUPDOWN=       2.0000    fix difference up-down

 DOS related values:
   EMIN   =  10.00;   EMAX   =-10.00  energy-range for DOS
   EFERMI =   0.00
   ISMEAR =     0;   SIGMA  =   0.05  broadening in eV -4-tet -1-fermi 0-gaus

 Electronic relaxation 2 (details)
   IALGO  =     58    algorithm
   LDIAG  =      T    sub-space diagonalisation (order eigenvalues)
   LSUBROT=      F    optimize rotation matrix (better conditioning)
   TURBO    =      0    0=normal 1=particle mesh
   IRESTART =      0    0=no restart 2=restart with 2 vectors
   NREBOOT  =      0    no. of reboots
   NMIN     =      0    reboot dimension
   EREF     =   0.00    reference energy to select bands
   IMIX   =      4    mixing-type and parameters
     AMIX     =   0.40;   BMIX     =  1.00
     AMIX_MAG =   1.60;   BMIX_MAG =  1.00
     AMIN     =   0.10
     WC   =   100.;   INIMIX=   1;  MIXPRE=   1;  MAXMIX= -45

 Intra band minimization:
   WEIMIN = 0.0000     energy-eigenvalue tresh-hold
   EBREAK =  0.98E-08  absolut break condition
   DEPER  =   0.30     relativ break condition  

   TIME   =   0.40     timestep for ELM

  volume/ion in A,a.u.               =    3375.00     22775.62
  Fermi-wavevector in a.u.,A,eV,Ry     =   0.263043  0.497079  0.941407  0.069191
  Thomas-Fermi vector in A             =   1.093621
 
 Write flags
   LWAVE        =      F    write WAVECAR
   LDOWNSAMPLE  =      F    k-point downsampling of WAVECAR
   LCHARG       =      F    write CHGCAR
   LVTOT        =      F    write LOCPOT, total local potential
   LVHAR        =      F    write LOCPOT, Hartree potential only
   LELF         =      F    write electronic localiz. function (ELF)
   LORBIT       =      0    0 simple, 1 ext, 2 COOP (PROOUT), +10 PAW based schemes


 Dipole corrections
   LMONO  =      F    monopole corrections only (constant potential shift)
   LDIPOL =      F    correct potential (dipole corrections)
   IDIPOL =      0    1-x, 2-y, 3-z, 4-all directions 
   EPSILON=  1.0000000 bulk dielectric constant

 Exchange correlation treatment:
   GGA     =    --    GGA type
   LEXCH   =     8    internal setting for exchange type
   VOSKOWN=      0    Vosko Wilk Nusair interpolation
   LHFCALC =     F    Hartree Fock is set to
   LHFONE  =     F    Hartree Fock one center treatment
   AEXX    =    0.0000 exact exchange contribution

 Linear response parameters
   LEPSILON=     F    determine dielectric tensor
   LRPA    =     F    only Hartree local field effects (RPA)
   LNABLA  =     F    use nabla operator in PAW spheres
   LVEL    =     F    velocity operator in full k-point grid
   LINTERFAST=   F  fast interpolation
   KINTER  =     0    interpolate to denser k-point grid
   CSHIFT  =0.1000    complex shift for real part using Kramers Kronig
   OMEGAMAX=  -1.0    maximum frequency
   DEG_THRESHOLD= 0.2000000E-02 threshold for treating states as degnerate
   RTIME   =   -0.100 relaxation time in fs
  (WPLASMAI=    0.000 imaginary part of plasma frequency in eV, 0.658/RTIME)
   DFIELD  = 0.0000000 0.0000000 0.0000000 field for delta impulse in time
 
 Orbital magnetization related:
   ORBITALMAG=     F  switch on orbital magnetization
   LCHIMAG   =     F  perturbation theory with respect to B field
   DQ        =  0.001000  dq finite difference perturbation B field
   LLRAUG    =     F  two centre corrections for induced B field



--------------------------------------------------------------------------------------------------------


 Static calculation
 charge density and potential will be updated during run
 spin polarized calculation
 Conjugate gradient for all bands (Freysoldt, et al. PRB 79, 241103 (2009))
 preconditioned conjugated gradient                                        
 perform sub-space diagonalisation
    before iterative eigenvector-optimisation
 modified Broyden-mixing scheme, WC =      100.0
 initial mixing is a Kerker type mixing with AMIX =  0.4000 and BMIX =      1.0000
 Hartree-type preconditioning will be used
 using additional bands          249
 reciprocal scheme for non local part
 use partial core corrections
 no Harris-corrections to forces 
 use gradient corrections 
 use of overlap-Matrix (Vanderbilt PP)
 Gauss-broadening in eV      SIGMA  =   0.05


--------------------------------------------------------------------------------------------------------


  energy-cutoff  :      520.00
  volume of cell :     3375.00
      direct lattice vectors                 reciprocal lattice vectors
    15.000000000  0.000000000  0.000000000     0.066666667  0.000000000  0.000000000
     0.000000000 15.000000000  0.000000000     0.000000000  0.066666667  0.000000000
     0.000000000  0.000000000 15.000000000     0.000000000  0.000000000  0.066666667

  length of vectors
    15.000000000 15.000000000 15.000000000     0.066666667  0.066666667  0.066666667


 
 k-points in units of 2pi/SCALE and weight: read from INCAR                         
   0.00000000  0.00000000  0.00000000       1.000
 
 k-points in reciprocal lattice and weights: read from INCAR                         
   0.00000000  0.00000000  0.00000000       1.000
 
 position of ions in fractional coordinates (direct lattice) 
   0.01000000  0.01000000  0.75100000
 
 position of ions in cartesian coordinates  (Angst):
   0.15000000  0.15000000 11.26500000
 


--------------------------------------------------------------------------------------------------------


 k-point  1 :   0.0000 0.0000 0.0000  plane waves:   90879

 maximum and minimum number of plane-waves per node :     90879    90879

 maximum number of plane-waves:     90879
 maximum index in each direction: 
   IXMAX=   27   IYMAX=   27   IZMAX=   27
   IXMIN=  -27   IYMIN=  -27   IZMIN=  -27


 serial   3D FFT for wavefunctions
 parallel 3D FFT for charge:
    minimum data exchange during FFTs selected (reduces bandwidth)


 total amount of memory used by VASP MPI-rank0   177231. kBytes
=======================================================================

   base      :      30000. kBytes
   nonl-proj :      14540. kBytes
   fftplans  :       7479. kBytes
   grid      :     116433. kBytes
   one-center:         31. kBytes
   wavefun   :       8748. kBytes
 
     INWAV:  cpu time    0.0000: real time    0.0000
 Broyden mixing: mesh for mixing (old mesh)
   NGX = 55   NGY = 55   NGZ = 55
  (NGX  =224   NGY  =224   NGZ  =224)
  gives a total of 166375 points

 initial charge density was supplied:
 charge density of overlapping atoms calculated
 number of electron      14.0000000 magnetization       2.0000000
 keeping initial charge density in first step


--------------------------------------------------------------------------------------------------------


 Maximum index for augmentation-charges          673 (set IRDMAX)


--------------------------------------------------------------------------------------------------------


 First call to EWALD:  gamma=   0.118
 Maximum number of real-space cells 3x 3x 3
 Maximum number of reciprocal cells 3x 3x 3

    FEWALD:  cpu time    0.0092: real time    0.0092


--------------------------------------- Iteration      1(   1)  ---------------------------------------


    POTLOK:  cpu time    2.5769: real time    2.6143
    SETDIJ:  cpu time    0.5100: real time    0.5300
    TRIAL :  cpu time    8.8050: real time    8.9134
    CORREC:  cpu time    0.0622: real time    0.0622
    --------------------------------------------
      LOOP:  cpu time   11.9635: real time   12.1361

 eigenvalue-minimisations  :  1024
 total energy-change (2. order) : 0.2572665E+02  (-0.4912769E+03)
 number of electron      14.0000000 magnetization       2.0000000
 augmentation part       14.0000000 magnetization       2.0000000

 Free energy of the ion-electron system (eV)
  ---------------------------------------------------
  alpha Z        PSCENC =         0.43404663
  Ewald energy   TEWEN  =      -266.92900274
  -Hartree energ DENC   =     -1642.46477508
  -exchange      EXHF   =         0.00000000
  -V(xc)+E(xc)   XCENC  =        71.36754836
  PAW double counting   =      1739.12302829    -2173.93715682
  entropy T*S    EENTRO =        -0.00000617
  eigenvalues    EBANDS =      -298.10412861
  atomic energy  EATOM  =      2596.23709575
  ---------------------------------------------------
  free energy    TOTEN  =        25.72664961 eV

  energy without entropy =       25.72665578  energy(sigma->0) =       25.72665270


--------------------------------------------------------------------------------------------------------




--------------------------------------- Iteration      1(   2)  ---------------------------------------


    TRIAL :  cpu time   32.7179: real time   32.8416
    CORREC:  cpu time    0.2489: real time    0.2491
    --------------------------------------------
      LOOP:  cpu time   32.9744: real time   33.1294

 eigenvalue-minimisations  :  1536
 total energy-change (2. order) :-0.2552326E+02  (-0.2548582E+02)
 number of electron      14.0000000 magnetization       2.0000000
 augmentation part       14.0000000 magnetization       2.0000000

 Free energy of the ion-electron system (eV)
  ---------------------------------------------------
  alpha Z        PSCENC =         0.43404663
  Ewald energy   TEWEN  =      -266.92900274
  -Hartree energ DENC   =     -1642.46477508
  -exchange      EXHF   =         0.00000000
  -V(xc)+E(xc)   XCENC  =        71.36754836
  PAW double counting   =      1739.12302829    -2173.93715682
  entropy T*S    EENTRO =        -0.03855396
  eigenvalues    EBANDS =      -323.58884386
  atomic energy  EATOM  =      2596.23709575
  ---------------------------------------------------
  free energy    TOTEN  =         0.20338657 eV

  energy without entropy =        0.24194053  energy(sigma->0) =        0.22266355


--------------------------------------------------------------------------------------------------------




--------------------------------------- Iteration      1(   3)  ---------------------------------------


    TRIAL :  cpu time   14.4703: real time   14.5037
    CORREC:  cpu time    0.0954: real time    0.0955
    --------------------------------------------
      LOOP:  cpu time   14.6150: real time   14.6484

 eigenvalue-minimisations  :  1024
 total energy-change (2. order) :-0.5536104E-01  (-0.5534946E-01)
 number of electron      14.0000000 magnetization       2.0000000
 augmentation part       14.0000000 magnetization       2.0000000

 Free energy of the ion-electron system (eV)
  ---------------------------------------------------
  alpha Z        PSCENC =         0.43404663
  Ewald energy   TEWEN  =      -266.92900274
  -Hartree energ DENC   =     -1642.46477508
  -exchange      EXHF   =         0.00000000
  -V(xc)+E(xc)   XCENC  =        71.36754836
  PAW double counting   =      1739.12302829    -2173.93715682
  entropy T*S    EENTRO =        -0.03856558
  eigenvalues    EBANDS =      -323.64419328
  atomic energy  EATOM  =      2596.23709575
  ---------------------------------------------------
  free energy    TOTEN  =         0.14802553 eV

  energy without entropy =        0.18659111  energy(sigma->0) =        0.16730832


--------------------------------------------------------------------------------------------------------




--------------------------------------- Iteration      1(   4)  ---------------------------------------


    TRIAL :  cpu time   23.8809: real time   23.9800
    CORREC:  cpu time    0.0918: real time    0.0920
    --------------------------------------------
      LOOP:  cpu time   23.9797: real time   24.0790

 eigenvalue-minimisations  :  2048
 total energy-change (2. order) :-0.1107823E-02  (-0.1107823E-02)
 number of electron      14.0000000 magnetization       2.0000000
 augmentation part       14.0000000 magnetization       2.0000000

 Free energy of the ion-electron system (eV)
  ---------------------------------------------------
  alpha Z        PSCENC =         0.43404663
  Ewald energy   TEWEN  =      -266.92900274
  -Hartree energ DENC   =     -1642.46477508
  -exchange      EXHF   =         0.00000000
  -V(xc)+E(xc)   XCENC  =        71.36754836
  PAW double counting   =      1739.12302829    -2173.93715682
  entropy T*S    EENTRO =        -0.03856558
  eigenvalues    EBANDS =      -323.64530111
  atomic energy  EATOM  =      2596.23709575
  ---------------------------------------------------
  free energy    TOTEN  =         0.14691771 eV

  energy without entropy =        0.18548329  energy(sigma->0) =        0.16620050


--------------------------------------------------------------------------------------------------------




--------------------------------------- Iteration      1(   5)  ---------------------------------------


    TRIAL :  cpu time    8.6630: real time    8.6914
    CORREC:  cpu time    0.1139: real time    0.1139
    CHARGE:  cpu time    1.3377: real time    1.3634
    --------------------------------------------
      LOOP:  cpu time   10.1248: real time   10.1789

 eigenvalue-minimisations  :  1024
 total energy-change (2. order) :-0.3647468E-05  (-0.3647435E-05)
 number of electron      13.9999998 magnetization       2.0000000
 augmentation part        8.3779370 magnetization      -0.0979595

 Free energy of the ion-electron system (eV)
  ---------------------------------------------------
  alpha Z        PSCENC =         0.43404663
  Ewald energy   TEWEN  =      -266.92900274
  -Hartree energ DENC   =     -1642.46477508
  -exchange      EXHF   =         0.00000000
  -V(xc)+E(xc)   XCENC  =        71.36754836
  PAW double counting   =      1739.12302829    -2173.93715682
  entropy T*S    EENTRO =        -0.03856558
  eigenvalues    EBANDS =      -323.64530475
  atomic energy  EATOM  =      2596.23709575
  ---------------------------------------------------
  free energy    TOTEN  =         0.14691406 eV

  energy without entropy =        0.18547964  energy(sigma->0) =        0.16619685


--------------------------------------------------------------------------------------------------------




--------------------------------------- Iteration      1(   6)  ---------------------------------------


    POTLOK:  cpu time    2.5162: real time    2.5221
    SETDIJ:  cpu time    0.5238: real time    0.5243
    TRIAL :  cpu time    3.8094: real time    4.2288
    CORREC:  cpu time    6.1811: real time    6.3133
    CHARGE:  cpu time    1.3872: real time    1.3875
    --------------------------------------------
      LOOP:  cpu time   14.4350: real time   14.9932

 eigenvalue-minimisations  :     0
 total energy-change (2. order) :-0.9063732E+00  (-0.2581479E-01)
 number of electron      13.9999998 magnetization       2.0000000
 augmentation part        8.3787916 magnetization      -0.1202660

 Free energy of the ion-electron system (eV)
  ---------------------------------------------------
  alpha Z        PSCENC =         0.43404663
  Ewald energy   TEWEN  =      -266.92900274
  -Hartree energ DENC   =     -1645.50236990
  -exchange      EXHF   =         0.00000000
  -V(xc)+E(xc)   XCENC  =        71.43707894
  PAW double counting   =      1741.65088592    -2177.03305023
  entropy T*S    EENTRO =        -0.03856558
  eigenvalues    EBANDS =      -321.01557791
  atomic energy  EATOM  =      2596.23709575
  ---------------------------------------------------
  free energy    TOTEN  =        -0.75945912 eV

  energy without entropy =       -0.72089354  energy(sigma->0) =       -0.74017633


--------------------------------------------------------------------------------------------------------




--------------------------------------- Iteration      1(   7)  ---------------------------------------


    POTLOK:  cpu time    2.5446: real time    2.5450
    SETDIJ:  cpu time    0.5065: real time    0.5066
    TRIAL :  cpu time    3.5913: real time    3.6861
    CORREC:  cpu time    6.3153: real time    6.4117
    CHARGE:  cpu time    1.2998: real time    1.3030
    --------------------------------------------
      LOOP:  cpu time   14.2816: real time   14.4766

 eigenvalue-minimisations  :     0
 total energy-change (2. order) :-0.2581579E-01  (-0.7205424E-02)
 number of electron      13.9999998 magnetization       2.0000000
 augmentation part        8.3802527 magnetization      -0.1119448

 Free energy of the ion-electron system (eV)
  ---------------------------------------------------
  alpha Z        PSCENC =         0.43404663
  Ewald energy   TEWEN  =      -266.92900274
  -Hartree energ DENC   =     -1645.08090985
  -exchange      EXHF   =         0.00000000
  -V(xc)+E(xc)   XCENC  =        71.43647043
  PAW double counting   =      1742.70447613    -2177.92107004
  entropy T*S    EENTRO =        -0.03856558
  eigenvalues    EBANDS =      -321.62781565
  atomic energy  EATOM  =      2596.23709575
  ---------------------------------------------------
  free energy    TOTEN  =        -0.78527491 eV

  energy without entropy =       -0.74670933  energy(sigma->0) =       -0.76599212


--------------------------------------------------------------------------------------------------------




--------------------------------------- Iteration      1(   8)  ---------------------------------------


    POTLOK:  cpu time    2.4917: real time    2.4970
    SETDIJ:  cpu time    0.5067: real time    0.5073
    TRIAL :  cpu time    3.7116: real time    3.8182
    CORREC:  cpu time    6.4356: real time    6.5283
    CHARGE:  cpu time    1.3301: real time    1.3303
    --------------------------------------------
      LOOP:  cpu time   14.5019: real time   14.7075

 eigenvalue-minimisations  :     0
 total energy-change (2. order) :-0.7207974E-02  (-0.4218130E-02)
 number of electron      13.9999998 magnetization       2.0000000
 augmentation part        8.3807601 magnetization      -0.1021367

 Free energy of the ion-electron system (eV)
  ---------------------------------------------------
  alpha Z        PSCENC =         0.43404663
  Ewald energy   TEWEN  =      -266.92900274
  -Hartree energ DENC   =     -1644.93718619
  -exchange      EXHF   =         0.00000000
  -V(xc)+E(xc)   XCENC  =        71.43705649
  PAW double counting   =      1744.90833939    -2180.11535019
  entropy T*S    EENTRO =        -0.03856558
  eigenvalues    EBANDS =      -321.78891644
  atomic energy  EATOM  =      2596.23709575
  ---------------------------------------------------
  free energy    TOTEN  =        -0.79248288 eV

  energy without entropy =       -0.75391731  energy(sigma->0) =       -0.77320010


--------------------------------------------------------------------------------------------------------




--------------------------------------- Iteration      1(   9)  ---------------------------------------


    POTLOK:  cpu time    2.5176: real time    2.5180
    SETDIJ:  cpu time    0.5089: real time    0.5090
    TRIAL :  cpu time    3.5859: real time    3.6709
    CORREC:  cpu time    6.3266: real time    6.4159
    CHARGE:  cpu time    1.3285: real time    1.3289
    --------------------------------------------
      LOOP:  cpu time   14.2962: real time   14.4717

 eigenvalue-minimisations  :     0
 total energy-change (2. order) :-0.4219759E-02  (-0.1210784E-02)
 number of electron      13.9999998 magnetization       2.0000000
 augmentation part        8.3805999 magnetization      -0.1011310

 Free energy of the ion-electron system (eV)
  ---------------------------------------------------
  alpha Z        PSCENC =         0.43404663
  Ewald energy   TEWEN  =      -266.92900274
  -Hartree energ DENC   =     -1644.87297856
  -exchange      EXHF   =         0.00000000
  -V(xc)+E(xc)   XCENC  =        71.43758138
  PAW double counting   =      1747.54516824    -2182.70395539
  entropy T*S    EENTRO =        -0.03856558
  eigenvalues    EBANDS =      -321.90609238
  atomic energy  EATOM  =      2596.23709575
  ---------------------------------------------------
  free energy    TOTEN  =        -0.79670264 eV

  energy without entropy =       -0.75813706  energy(sigma->0) =       -0.77741985


--------------------------------------------------------------------------------------------------------




--------------------------------------- Iteration      1(  10)  ---------------------------------------


    POTLOK:  cpu time    2.5029: real time    2.5039
    SETDIJ:  cpu time    0.5087: real time    0.5089
    TRIAL :  cpu time    3.7468: real time    3.8200
    CORREC:  cpu time    6.2633: real time    6.3589
    CHARGE:  cpu time    1.3095: real time    1.3099
    --------------------------------------------
      LOOP:  cpu time   14.3597: real time   14.5300

 eigenvalue-minimisations  :     0
 total energy-change (2. order) :-0.1211431E-02  (-0.5925888E-03)
 number of electron      13.9999998 magnetization       2.0000000
 augmentation part        8.3801538 magnetization      -0.1031981

 Free energy of the ion-electron system (eV)
  ---------------------------------------------------
  alpha Z        PSCENC =         0.43404663
  Ewald energy   TEWEN  =      -266.92900274
  -Hartree energ DENC   =     -1644.97972497
  -exchange      EXHF   =         0.00000000
  -V(xc)+E(xc)   XCENC  =        71.44064977
  PAW double counting   =      1748.57288331    -2183.72960033
  entropy T*S    EENTRO =        -0.03856558
  eigenvalues    EBANDS =      -321.80569591
  atomic energy  EATOM  =      2596.23709575
  ---------------------------------------------------
  free energy    TOTEN  =        -0.79791407 eV

  energy without entropy =       -0.75934849  energy(sigma->0) =       -0.77863128


--------------------------------------------------------------------------------------------------------




--------------------------------------- Iteration      1(  11)  ---------------------------------------


    POTLOK:  cpu time    2.5654: real time    2.5662
    SETDIJ:  cpu time    0.5093: real time    0.5094
    TRIAL :  cpu time    3.5905: real time    3.6872
    CORREC:  cpu time    6.4525: real time    6.5319
    CHARGE:  cpu time    1.3892: real time    1.3896
    --------------------------------------------
      LOOP:  cpu time   14.5336: real time   14.7112

 eigenvalue-minimisations  :     0
 total energy-change (2. order) :-0.5915285E-03  (-0.1730206E-03)
 number of electron      13.9999998 magnetization       2.0000000
 augmentation part        8.3798968 magnetization      -0.1044973

 Free energy of the ion-electron system (eV)
  ---------------------------------------------------
  alpha Z        PSCENC =         0.43404663
  Ewald energy   TEWEN  =      -266.92900274
  -Hartree energ DENC   =     -1645.14611783
  -exchange      EXHF   =         0.00000000
  -V(xc)+E(xc)   XCENC  =        71.44479965
  PAW double counting   =      1748.87178609    -2184.03669117
  entropy T*S    EENTRO =        -0.03856558
  eigenvalues    EBANDS =      -321.63585641
  atomic energy  EATOM  =      2596.23709575
  ---------------------------------------------------
  free energy    TOTEN  =        -0.79850560 eV

  energy without entropy =       -0.75994002  energy(sigma->0) =       -0.77922281


--------------------------------------------------------------------------------------------------------




--------------------------------------- Iteration      1(  12)  ---------------------------------------


    POTLOK:  cpu time    2.4683: real time    2.4690
    SETDIJ:  cpu time    0.5077: real time    0.5078
    TRIAL :  cpu time    3.5386: real time    3.6420
    CORREC:  cpu time    6.8177: real time    6.9206
    CHARGE:  cpu time    1.3250: real time    1.3254
    --------------------------------------------
      LOOP:  cpu time   14.6858: real time   14.8933

 eigenvalue-minimisations  :     0
 total energy-change (2. order) :-0.1726123E-03  (-0.3807980E-04)
 number of electron      13.9999998 magnetization       2.0000000
 augmentation part        8.3798273 magnetization      -0.1046838

 Free energy of the ion-electron system (eV)
  ---------------------------------------------------
  alpha Z        PSCENC =         0.43404663
  Ewald energy   TEWEN  =      -266.92900274
  -Hartree energ DENC   =     -1645.21701035
  -exchange      EXHF   =         0.00000000
  -V(xc)+E(xc)   XCENC  =        71.44672719
  PAW double counting   =      1748.67112211    -2183.83928995
  entropy T*S    EENTRO =        -0.03856558
  eigenvalues    EBANDS =      -321.56380126
  atomic energy  EATOM  =      2596.23709575
  ---------------------------------------------------
  free energy    TOTEN  =        -0.79867822 eV

  energy without entropy =       -0.76011264  energy(sigma->0) =       -0.77939543


--------------------------------------------------------------------------------------------------------




--------------------------------------- Iteration      1(  13)  ---------------------------------------


    POTLOK:  cpu time    2.5429: real time    2.5436
    SETDIJ:  cpu time    0.5116: real time    0.5118
    TRIAL :  cpu time    3.5999: real time    3.6846
    CORREC:  cpu time    6.3341: real time    6.4230
    CHARGE:  cpu time    1.3928: real time    1.3932
    --------------------------------------------
      LOOP:  cpu time   14.4038: real time   14.5788

 eigenvalue-minimisations  :     0
 total energy-change (2. order) :-0.3793196E-04  (-0.8940849E-05)
 number of electron      13.9999998 magnetization       2.0000000
 augmentation part        8.3798543 magnetization      -0.1046482

 Free energy of the ion-electron system (eV)
  ---------------------------------------------------
  alpha Z        PSCENC =         0.43404663
  Ewald energy   TEWEN  =      -266.92900274
  -Hartree energ DENC   =     -1645.21860763
  -exchange      EXHF   =         0.00000000
  -V(xc)+E(xc)   XCENC  =        71.44685001
  PAW double counting   =      1748.39385653    -2183.56006547
  entropy T*S    EENTRO =        -0.03856558
  eigenvalues    EBANDS =      -321.56432366
  atomic energy  EATOM  =      2596.23709575
  ---------------------------------------------------
  free energy    TOTEN  =        -0.79871615 eV

  energy without entropy =       -0.76015057  energy(sigma->0) =       -0.77943336


--------------------------------------------------------------------------------------------------------




--------------------------------------- Iteration      1(  14)  ---------------------------------------


    POTLOK:  cpu time    2.4806: real time    2.4814
    SETDIJ:  cpu time    0.5089: real time    0.5090
    TRIAL :  cpu time    3.5087: real time    3.6041
    CORREC:  cpu time    6.5120: real time    6.5980
    EDDIAG:  cpu time    1.6688: real time    1.6918
    CHARGE:  cpu time    1.2824: real time    1.2847
    --------------------------------------------
      LOOP:  cpu time   15.9883: real time   16.1961

 eigenvalue-minimisations  :     0
 total energy-change (2. order) :-0.8891893E-05  (-0.2282751E-05)
 number of electron      13.9999998 magnetization       2.0000000
 augmentation part        8.3798732 magnetization      -0.1046370

 Free energy of the ion-electron system (eV)
  ---------------------------------------------------
  alpha Z        PSCENC =         0.43404663
  Ewald energy   TEWEN  =      -266.92900274
  -Hartree energ DENC   =     -1645.20571252
  -exchange      EXHF   =         0.00000000
  -V(xc)+E(xc)   XCENC  =        71.44657898
  PAW double counting   =      1748.19478854    -2183.36162692
  entropy T*S    EENTRO =        -0.03856558
  eigenvalues    EBANDS =      -321.57632718
  atomic energy  EATOM  =      2596.23709575
  ---------------------------------------------------
  free energy    TOTEN  =        -0.79872504 eV

  energy without entropy =       -0.76015946  energy(sigma->0) =       -0.77944225


--------------------------------------------------------------------------------------------------------


  average scaling for gradient   1.2662


 average (electrostatic) potential at core
  the test charge radii are     0.9911
  (the norm of the test charge is              1.0000)
       1 -83.7077
 
 
 
 E-fermi : -10.3775     XC(G=0):  -0.2791     alpha+bet : -0.0699


 spin component 1

 k-point     1 :       0.0000    0.0000    0.0000
  band No.  band energies     occupation 
      1     -29.0805      1.00000
      2     -29.0805      1.00000
      3     -29.0805      1.00000
      4     -29.0805      1.00000
      5     -29.0805      1.00000
      6     -12.1593      1.00000
      7      -4.3456      0.66667
      8      -4.3456      0.66667
      9      -4.3456      0.66666
     10      -0.5580      0.00000
     11       0.3038      0.00000
     12       0.3709      0.00000
     13       0.3709      0.00000
     14       0.3709      0.00000
     15       0.4818      0.00000
     16       0.4818      0.00000
     17       0.8461      0.00000
     18       0.8461      0.00000
     19       0.8461      0.00000
     20       1.0896      0.00000
     21       1.0897      0.00000
     22       1.0897      0.00000
     23       1.1492      0.00000
     24       1.1583      0.00000
     25       1.1583      0.00000
     26       1.2470      0.00000
     27       1.2470      0.00000
     28       1.2470      0.00000
     29       1.6977      0.00000
     30       1.6977      0.00000
     31       1.6977      0.00000
     32       1.7809      0.00000
     33       1.8364      0.00000
     34       1.8364      0.00000
     35       1.8829      0.00000
     36       1.8829      0.00000
     37       1.8829      0.00000
     38       1.9525      0.00000
     39       2.4200      0.00000
     40       2.4200      0.00000
     41       2.4200      0.00000
     42       2.5025      0.00000
     43       2.5025      0.00000
     44       2.5025      0.00000
     45       2.5728      0.00000
     46       2.8661      0.00000
     47       2.8661      0.00000
     48       2.9309      0.00000
     49       2.9309      0.00000
     50       2.9309      0.00000
     51       3.0997      0.00000
     52       3.0997      0.00000
     53       3.0997      0.00000
     54       3.1698      0.00000
     55       3.1698      0.00000
     56       3.1698      0.00000
     57       3.2298      0.00000
     58       3.2298      0.00000
     59       3.2298      0.00000
     60       3.2422      0.00000
     61       3.2422      0.00000
     62       3.2947      0.00000
     63       3.2947      0.00000
     64       3.2947      0.00000
     65       3.3307      0.00000
     66       3.3501      0.00000
     67       3.5029      0.00000
     68       3.5029      0.00000
     69       3.5029      0.00000
     70       3.5029      0.00000
     71       3.7920      0.00000
     72       3.7920      0.00000
     73       3.7977      0.00000
     74       3.7977      0.00000
     75       3.7977      0.00000
     76       3.8743      0.00000
     77       3.8743      0.00000
     78       3.8743      0.00000
     79       3.8796      0.00000
     80       3.8796      0.00000
     81       3.8796      0.00000
     82       3.8834      0.00000
     83       3.8834      0.00000
     84       3.8834      0.00000
     85       3.8957      0.00000
     86       3.8957      0.00000
     87       3.9683      0.00000
     88       3.9683      0.00000
     89       3.9683      0.00000
     90       4.0621      0.00000
     91       4.5386      0.00000
     92       4.5386      0.00000
     93       4.5842      0.00000
     94       4.5842      0.00000
     95       4.5842      0.00000
     96       4.9494      0.00000
     97       4.9494      0.00000
     98       4.9494      0.00000
     99       5.1632      0.00000
    100       5.1632      0.00000
    101       5.1930      0.00000
    102       5.1930      0.00000
    103       5.1930      0.00000
    104       5.2855      0.00000
    105       5.3830      0.00000
    106       5.3830      0.00000
    107       5.3830      0.00000
    108       5.4337      0.00000
    109       5.4884      0.00000
    110       5.4884      0.00000
    111       5.4884      0.00000
    112       5.6232      0.00000
    113       5.8374      0.00000
    114       5.8374      0.00000
    115       5.8374      0.00000
    116       5.8430      0.00000
    117       5.8430      0.00000
    118       5.8430      0.00000
    119       5.8642      0.00000
    120       5.8642      0.00000
    121       5.8715      0.00000
    122       5.8716      0.00000
    123       5.8716      0.00000
    124       5.8761      0.00000
    125       5.8761      0.00000
    126       5.8761      0.00000
    127       5.8810      0.00000
    128       5.8810      0.00000
    129       6.0370      0.00000
    130       6.0370      0.00000
    131       6.0370      0.00000
    132       6.1410      0.00000
    133       6.1713      0.00000
    134       6.1713      0.00000
    135       6.2428      0.00000
    136       6.2428      0.00000
    137       6.2428      0.00000
    138       6.2978      0.00000
    139       6.2978      0.00000
    140       6.2978      0.00000
    141       6.3315      0.00000
    142       6.3315      0.00000
    143       6.3315      0.00000
    144       6.3326      0.00000
    145       6.3326      0.00000
    146       6.3326      0.00000
    147       6.5939      0.00000
    148       6.5939      0.00000
    149       6.5952      0.00000
    150       6.5952      0.00000
    151       6.5952      0.00000
    152       6.5982      0.00000
    153       6.6423      0.00000
    154       6.6423      0.00000
    155       6.6423      0.00000
    156       6.7903      0.00000
    157       6.8809      0.00000
    158       6.8809      0.00000
    159       6.8809      0.00000
    160       7.0230      0.00000
    161       7.0230      0.00000
    162       7.0650      0.00000
    163       7.1164      0.00000
    164       7.1164      0.00000
    165       7.1164      0.00000
    166       7.1181      0.00000
    167       7.1181      0.00000
    168       7.1181      0.00000
    169       7.1316      0.00000
    170       7.1316      0.00000
    171       7.1316      0.00000
    172       7.1351      0.00000
    173       7.1351      0.00000
    174       7.1363      0.00000
    175       7.1363      0.00000
    176       7.1363      0.00000
    177       7.3699      0.00000
    178       7.3699      0.00000
    179       7.3699      0.00000
    180       7.4728      0.00000
    181       7.4970      0.00000
    182       7.4970      0.00000
    183       7.4970      0.00000
    184       7.6735      0.00000
    185       7.8206      0.00000
    186       7.8206      0.00000
    187       7.8546      0.00000
    188       7.8547      0.00000
    189       7.8547      0.00000
    190       7.9340      0.00000
    191       7.9461      0.00000
    192       7.9461      0.00000
    193       7.9461      0.00000
    194       8.0262      0.00000
    195       8.0262      0.00000
    196       8.0262      0.00000
    197       8.4138      0.00000
    198       8.4138      0.00000
    199       8.4320      0.00000
    200       8.4320      0.00000
    201       8.4320      0.00000
    202       8.4892      0.00000
    203       8.4892      0.00000
    204       8.4892      0.00000
    205       8.5025      0.00000
    206       8.5025      0.00000
    207       8.5025      0.00000
    208       8.5164      0.00000
    209       8.6638      0.00000
    210       8.6638      0.00000
    211       8.6638      0.00000
    212       8.7341      0.00000
    213       8.7341      0.00000
    214       8.7341      0.00000
    215       8.7565      0.00000
    216       8.7911      0.00000
    217       8.8825      0.00000
    218       8.8825      0.00000
    219       8.9595      0.00000
    220       8.9595      0.00000
    221       8.9595      0.00000
    222       9.0160      0.00000
    223       9.0160      0.00000
    224       9.0193      0.00000
    225       9.0193      0.00000
    226       9.0193      0.00000
    227       9.0239      0.00000
    228       9.0239      0.00000
    229       9.0239      0.00000
    230       9.0246      0.00000
    231       9.0246      0.00000
    232       9.0246      0.00000
    233       9.2192      0.00000
    234       9.2193      0.00000
    235       9.2193      0.00000
    236       9.2206      0.00000
    237       9.2206      0.00000
    238       9.2321      0.00000
    239       9.2321      0.00000
    240       9.2321      0.00000
    241       9.2363      0.00000
    242       9.2363      0.00000
    243       9.2363      0.00000
    244       9.2371      0.00000
    245       9.2371      0.00000
    246       9.2371      0.00000
    247       9.2377      0.00000
    248       9.2377      0.00000
    249       9.3001      0.00000
    250       9.3034      0.00000
    251       9.3034      0.00000
    252       9.3034      0.00000
    253       9.3065      0.00000
    254       9.3065      0.00000
    255       9.3065      0.00000
    256       9.3094      0.00000

 spin component 2

 k-point     1 :       0.0000    0.0000    0.0000
  band No.  band energies     occupation 
      1     -28.9294      1.00000
      2     -28.9294      1.00000
      3     -28.9294      1.00000
      4     -28.9294      1.00000
      5     -28.9294      1.00000
      6     -10.6852      1.00000
      7      -2.8196      0.00000
      8      -2.8196      0.00000
      9      -2.8196      0.00000
     10      -0.0153      0.00000
     11       0.5912      0.00000
     12       0.7062      0.00000
     13       0.7062      0.00000
     14       0.7265      0.00000
     15       0.7265      0.00000
     16       0.7265      0.00000
     17       1.3087      0.00000
     18       1.3087      0.00000
     19       1.3087      0.00000
     20       1.3465      0.00000
     21       1.3579      0.00000
     22       1.3579      0.00000
     23       1.3916      0.00000
     24       1.3916      0.00000
     25       1.3916      0.00000
     26       1.4001      0.00000
     27       1.4001      0.00000
     28       1.4002      0.00000
     29       1.9456      0.00000
     30       1.9456      0.00000
     31       1.9456      0.00000
     32       2.0377      0.00000
     33       2.0721      0.00000
     34       2.0721      0.00000
     35       2.0721      0.00000
     36       2.0826      0.00000
     37       2.4292      0.00000
     38       2.4292      0.00000
     39       2.7275      0.00000
     40       2.7275      0.00000
     41       2.7275      0.00000
     42       2.7592      0.00000
     43       2.9996      0.00000
     44       2.9996      0.00000
     45       2.9996      0.00000
     46       3.0612      0.00000
     47       3.0613      0.00000
     48       3.3112      0.00000
     49       3.3112      0.00000
     50       3.3112      0.00000
     51       3.3464      0.00000
     52       3.3464      0.00000
     53       3.3464      0.00000
     54       3.3888      0.00000
     55       3.3888      0.00000
     56       3.3888      0.00000
     57       3.3920      0.00000
     58       3.3920      0.00000
     59       3.4049      0.00000
     60       3.4049      0.00000
     61       3.4049      0.00000
     62       3.4080      0.00000
     63       3.4885      0.00000
     64       3.4885      0.00000
     65       3.4885      0.00000
     66       3.5551      0.00000
     67       3.7456      0.00000
     68       3.7456      0.00000
     69       3.7456      0.00000
     70       3.9153      0.00000
     71       3.9231      0.00000
     72       3.9231      0.00000
     73       4.0103      0.00000
     74       4.0104      0.00000
     75       4.0104      0.00000
     76       4.0198      0.00000
     77       4.0198      0.00000
     78       4.0198      0.00000
     79       4.0491      0.00000
     80       4.0491      0.00000
     81       4.0492      0.00000
     82       4.0546      0.00000
     83       4.0546      0.00000
     84       4.0546      0.00000
     85       4.0674      0.00000
     86       4.0674      0.00000
     87       4.2019      0.00000
     88       4.2019      0.00000
     89       4.2019      0.00000
     90       4.3436      0.00000
     91       4.9913      0.00000
     92       4.9913      0.00000
     93       4.9913      0.00000
     94       5.0418      0.00000
     95       5.0419      0.00000
     96       5.2724      0.00000
     97       5.2724      0.00000
     98       5.2724      0.00000
     99       5.4489      0.00000
    100       5.4489      0.00000
    101       5.4489      0.00000
    102       5.4992      0.00000
    103       5.5467      0.00000
    104       5.5467      0.00000
    105       5.6467      0.00000
    106       5.6467      0.00000
    107       5.6467      0.00000
    108       5.8058      0.00000
    109       5.8731      0.00000
    110       5.8731      0.00000
    111       5.8731      0.00000
    112       5.9777      0.00000
    113       5.9804      0.00000
    114       5.9804      0.00000
    115       5.9804      0.00000
    116       6.0264      0.00000
    117       6.0265      0.00000
    118       6.0293      0.00000
    119       6.0293      0.00000
    120       6.0293      0.00000
    121       6.0570      0.00000
    122       6.0570      0.00000
    123       6.0570      0.00000
    124       6.0617      0.00000
    125       6.0617      0.00000
    126       6.0617      0.00000
    127       6.0640      0.00000
    128       6.0640      0.00000
    129       6.2185      0.00000
    130       6.2185      0.00000
    131       6.2185      0.00000
    132       6.2965      0.00000
    133       6.3152      0.00000
    134       6.3152      0.00000
    135       6.5654      0.00000
    136       6.5654      0.00000
    137       6.5654      0.00000
    138       6.6076      0.00000
    139       6.6077      0.00000
    140       6.6077      0.00000
    141       6.6359      0.00000
    142       6.6359      0.00000
    143       6.6359      0.00000
    144       6.6699      0.00000
    145       6.6699      0.00000
    146       6.6699      0.00000
    147       6.7282      0.00000
    148       6.7283      0.00000
    149       6.7342      0.00000
    150       6.7342      0.00000
    151       6.7342      0.00000
    152       6.7403      0.00000
    153       6.8659      0.00000
    154       6.8659      0.00000
    155       6.8659      0.00000
    156       6.9876      0.00000
    157       7.1033      0.00000
    158       7.1033      0.00000
    159       7.1033      0.00000
    160       7.1730      0.00000
    161       7.1730      0.00000
    162       7.2773      0.00000
    163       7.2773      0.00000
    164       7.2773      0.00000
    165       7.2937      0.00000
    166       7.2937      0.00000
    167       7.2937      0.00000
    168       7.3037      0.00000
    169       7.3247      0.00000
    170       7.3247      0.00000
    171       7.3247      0.00000
    172       7.3674      0.00000
    173       7.3674      0.00000
    174       7.3674      0.00000
    175       7.3789      0.00000
    176       7.3789      0.00000
    177       7.5720      0.00000
    178       7.5720      0.00000
    179       7.5720      0.00000
    180       7.6998      0.00000
    181       7.7830      0.00000
    182       7.7830      0.00000
    183       7.7830      0.00000
    184       7.9086      0.00000
    185       8.0958      0.00000
    186       8.0958      0.00000
    187       8.0958      0.00000
    188       8.1807      0.00000
    189       8.2532      0.00000
    190       8.2532      0.00000
    191       8.2669      0.00000
    192       8.2669      0.00000
    193       8.2669      0.00000
    194       8.4098      0.00000
    195       8.4098      0.00000
    196       8.4098      0.00000
    197       8.6615      0.00000
    198       8.6615      0.00000
    199       8.6615      0.00000
    200       8.6722      0.00000
    201       8.6722      0.00000
    202       8.6991      0.00000
    203       8.6991      0.00000
    204       8.6991      0.00000
    205       8.7169      0.00000
    206       8.7169      0.00000
    207       8.7169      0.00000
    208       8.7272      0.00000
    209       8.8726      0.00000
    210       8.8726      0.00000
    211       8.8726      0.00000
    212       8.9521      0.00000
    213       8.9719      0.00000
    214       8.9719      0.00000
    215       8.9719      0.00000
    216       9.0496      0.00000
    217       9.0844      0.00000
    218       9.0844      0.00000
    219       9.1971      0.00000
    220       9.1971      0.00000
    221       9.1971      0.00000
    222       9.2197      0.00000
    223       9.2197      0.00000
    224       9.2197      0.00000
    225       9.2745      0.00000
    226       9.2745      0.00000
    227       9.2745      0.00000
    228       9.2941      0.00000
    229       9.2941      0.00000
    230       9.2941      0.00000
    231       9.3249      0.00000
    232       9.3249      0.00000
    233       9.3556      0.00000
    234       9.3556      0.00000
    235       9.3839      0.00000
    236       9.3839      0.00000
    237       9.3839      0.00000
    238       9.3840      0.00000
    239       9.3840      0.00000
    240       9.3840      0.00000
    241       9.3979      0.00000
    242       9.3979      0.00000
    243       9.3979      0.00000
    244       9.4030      0.00000
    245       9.4030      0.00000
    246       9.4030      0.00000
    247       9.4067      0.00000
    248       9.4115      0.00000
    249       9.4115      0.00000
    250       9.4173      0.00000
    251       9.4173      0.00000
    252       9.4173      0.00000
    253       9.4223      0.00000
    254       9.4223      0.00000
    255       9.4223      0.00000
    256       9.4249      0.00000


--------------------------------------------------------------------------------------------------------


 soft charge-density along one line, spin component           1
         0         1         2         3         4         5         6         7         8         9
 total charge-density along one line
 
 soft charge-density along one line, spin component           2
         0         1         2         3         4         5         6         7         8         9
 total charge-density along one line
 
 pseudopotential strength for first ion, spin component:           1
-30.805  -0.000   0.000  -0.000  -0.000  23.680   0.000  -0.000
 -0.000 -30.805  -0.000  -0.000   0.000   0.000  23.680   0.000
  0.000  -0.000 -30.805  -0.000  -0.000  -0.000   0.000  23.680
 -0.000  -0.000  -0.000 -30.805  -0.000   0.000   0.000   0.000
 -0.000   0.000  -0.000  -0.000 -30.805   0.000  -0.000   0.000
 23.680   0.000  -0.000   0.000   0.000 -17.068  -0.000   0.000
  0.000  23.680   0.000   0.000  -0.000  -0.000 -17.068  -0.000
 -0.000   0.000  23.680   0.000   0.000   0.000  -0.000 -17.068
  0.000   0.000   0.000  23.680   0.000  -0.000  -0.000  -0.000
  0.000  -0.000   0.000   0.000  23.680  -0.000   0.000  -0.000
 -0.000  -0.000   0.000  -0.000   0.000   0.000   0.000  -0.000
 -0.000  -0.000  -0.000  -0.000   0.000  -0.000  -0.000   0.000
  0.000   0.000   0.000  -0.000   0.000  -0.000  -0.000  -0.000
 -0.000   0.000  -0.000   0.000   0.000   0.000  -0.000   0.000
  0.000  -0.000   0.000   0.000  -0.000  -0.000   0.000  -0.000
  0.000   0.000   0.000  -0.000   0.000   0.000   0.000  -0.000
 -0.000   0.000  -0.000   0.000   0.000   0.000   0.000   0.000
  0.000  -0.000   0.000   0.000  -0.000   0.000   0.000  -0.000
 pseudopotential strength for first ion, spin component:           2
-30.735  -0.000   0.000  -0.000   0.000  23.638   0.000  -0.000
 -0.000 -30.735  -0.000  -0.000   0.000   0.000  23.638   0.000
  0.000  -0.000 -30.735  -0.000  -0.000  -0.000   0.000  23.638
 -0.000  -0.000  -0.000 -30.735  -0.000   0.000   0.000   0.000
  0.000   0.000  -0.000  -0.000 -30.735  -0.000  -0.000   0.000
 23.638   0.000  -0.000   0.000  -0.000 -17.017  -0.000   0.000
  0.000  23.638   0.000   0.000  -0.000  -0.000 -17.017  -0.000
 -0.000   0.000  23.638   0.000   0.000   0.000  -0.000 -17.017
  0.000   0.000   0.000  23.638   0.000  -0.000  -0.000  -0.000
 -0.000  -0.000   0.000   0.000  23.638   0.000   0.000  -0.000
 -0.000  -0.000  -0.000  -0.000  -0.000   0.000   0.000   0.000
 -0.000  -0.000  -0.000  -0.000  -0.000  -0.000  -0.000   0.000
  0.000   0.000   0.000  -0.000   0.000  -0.000  -0.000  -0.000
 -0.000  -0.000  -0.000  -0.000  -0.000   0.000  -0.000   0.000
  0.000  -0.000   0.000   0.000  -0.000  -0.000   0.000  -0.000
  0.000   0.000  -0.000  -0.000  -0.000  -0.000  -0.000  -0.000
 -0.000   0.000  -0.000   0.000  -0.000   0.000  -0.000   0.000
  0.000  -0.000  -0.000   0.000   0.000  -0.000   0.000  -0.000
 total augmentation occupancy for first ion, spin component:           1
  1.999  -0.000  -0.000  -0.000  -0.000  -0.000  -0.000  -0.000  -0.000  -0.000  -0.000   0.000  -0.000   0.000  -0.000  -0.000
 -0.000   1.999   0.000  -0.000  -0.000  -0.000  -0.000   0.000  -0.000  -0.000  -0.000   0.000  -0.000  -0.000   0.000  -0.000
 -0.000   0.000   1.999   0.000   0.000  -0.000   0.000  -0.000   0.000   0.000   0.000   0.000   0.000  -0.000   0.000   0.000
 -0.000  -0.000   0.000   1.999   0.000  -0.000  -0.000   0.000  -0.000   0.000  -0.000   0.000   0.000  -0.000  -0.000   0.000
 -0.000  -0.000   0.000   0.000   1.999  -0.000  -0.000   0.000   0.000  -0.000  -0.000  -0.000   0.000   0.000  -0.000   0.000
 -0.000  -0.000  -0.000  -0.000  -0.000   0.000  -0.000  -0.000  -0.000  -0.000  -0.000  -0.000  -0.000  -0.000  -0.000   0.000
 -0.000  -0.000   0.000  -0.000  -0.000  -0.000   0.000   0.000  -0.000  -0.000  -0.000  -0.000  -0.000  -0.000  -0.000   0.000
 -0.000   0.000  -0.000   0.000   0.000  -0.000   0.000   0.000   0.000   0.000   0.000   0.000   0.000  -0.000   0.000  -0.000
 -0.000  -0.000   0.000  -0.000   0.000  -0.000  -0.000   0.000   0.000   0.000  -0.000  -0.000  -0.000  -0.000  -0.000   0.000
 -0.000  -0.000   0.000   0.000  -0.000  -0.000  -0.000   0.000   0.000   0.000   0.000  -0.000   0.000   0.000  -0.000  -0.000
 -0.000  -0.000   0.000  -0.000  -0.000  -0.000  -0.000   0.000  -0.000   0.000   2.004   0.025  -0.000  -0.000  -0.000  -0.000
  0.000   0.000   0.000   0.000  -0.000  -0.000  -0.000   0.000  -0.000  -0.000   0.025   0.020  -0.000  -0.000  -0.000  -0.000
 -0.000  -0.000   0.000   0.000   0.000  -0.000  -0.000   0.000  -0.000   0.000  -0.000  -0.000   0.673   0.000  -0.000  -0.030
  0.000  -0.000  -0.000  -0.000   0.000  -0.000  -0.000  -0.000  -0.000   0.000  -0.000  -0.000   0.000   0.673   0.000  -0.000
 -0.000   0.000   0.000  -0.000  -0.000  -0.000  -0.000   0.000  -0.000  -0.000  -0.000  -0.000  -0.000   0.000   0.673  -0.000
 -0.000  -0.000   0.000   0.000   0.000   0.000   0.000  -0.000   0.000  -0.000  -0.000  -0.000  -0.030  -0.000  -0.000   0.001
  0.000  -0.000   0.000  -0.000   0.000  -0.000   0.000   0.000   0.000  -0.000  -0.000   0.000  -0.000  -0.030  -0.000   0.000
 -0.000   0.000   0.000  -0.000  -0.000   0.000   0.000  -0.000   0.000   0.000  -0.000  -0.000  -0.000  -0.000  -0.030   0.000
 total augmentation occupancy for first ion, spin component:           2
  0.029  -0.000  -0.000  -0.000  -0.000   0.018  -0.000  -0.000  -0.000  -0.000   0.000   0.000  -0.000  -0.000  -0.000  -0.000
 -0.000   0.029   0.000  -0.000  -0.000  -0.000   0.018   0.000  -0.000  -0.000   0.000   0.000  -0.000  -0.000  -0.000  -0.000
 -0.000   0.000   0.029   0.000   0.000  -0.000   0.000   0.018   0.000   0.000  -0.000   0.000   0.000  -0.000   0.000  -0.000
 -0.000  -0.000   0.000   0.029   0.000  -0.000  -0.000   0.000   0.018   0.000   0.000  -0.000  -0.000  -0.000  -0.000   0.000
 -0.000  -0.000   0.000   0.000   0.029   0.000  -0.000   0.000   0.000   0.018  -0.000  -0.000   0.000  -0.000  -0.000  -0.000
  0.018  -0.000  -0.000  -0.000   0.000  -0.000  -0.000  -0.000  -0.000  -0.000   0.000   0.000  -0.000  -0.000  -0.000   0.000
 -0.000   0.018   0.000  -0.000  -0.000  -0.000  -0.000   0.000  -0.000  -0.000   0.000   0.000  -0.000  -0.000  -0.000   0.000
 -0.000   0.000   0.018   0.000   0.000  -0.000   0.000  -0.000   0.000   0.000  -0.000  -0.000   0.000  -0.000   0.000  -0.000
 -0.000  -0.000   0.000   0.018   0.000  -0.000  -0.000   0.000  -0.000   0.000   0.000   0.000  -0.000  -0.000  -0.000   0.000
 -0.000  -0.000   0.000   0.000   0.018  -0.000  -0.000   0.000   0.000  -0.000  -0.000  -0.000   0.000   0.000  -0.000  -0.000
  0.000   0.000  -0.000   0.000  -0.000   0.000   0.000  -0.000   0.000  -0.000  -0.050  -0.200  -0.000  -0.000  -0.000   0.000
  0.000   0.000   0.000  -0.000  -0.000   0.000   0.000  -0.000   0.000  -0.000  -0.200  -0.005  -0.000  -0.000  -0.000   0.000
 -0.000  -0.000   0.000  -0.000   0.000  -0.000  -0.000   0.000  -0.000   0.000  -0.000  -0.000   0.673   0.000  -0.000  -0.030
 -0.000  -0.000  -0.000  -0.000  -0.000  -0.000  -0.000  -0.000  -0.000   0.000  -0.000  -0.000   0.000   0.673   0.000  -0.000
 -0.000  -0.000   0.000  -0.000  -0.000  -0.000  -0.000   0.000  -0.000  -0.000  -0.000  -0.000  -0.000   0.000   0.673  -0.000
 -0.000  -0.000  -0.000   0.000  -0.000   0.000   0.000  -0.000   0.000  -0.000   0.000   0.000  -0.030  -0.000  -0.000   0.001
 -0.000  -0.000   0.000  -0.000   0.000   0.000   0.000   0.000   0.000   0.000  -0.000   0.000  -0.000  -0.030  -0.000   0.000
 -0.000   0.000  -0.000  -0.000   0.000   0.000   0.000  -0.000   0.000   0.000   0.000   0.000  -0.000  -0.000  -0.030   0.000


------------------------ aborting loop because EDIFF is reached ----------------------------------------


    FORLOC:  cpu time    0.0038: real time    0.0059
    FORNL :  cpu time    0.0502: real time    0.0633
    FORCOR:  cpu time    2.5331: real time    2.5448
    OFIELD:  cpu time    0.0009: real time    0.0051

 VOLUME and BASIS-vectors are now :
 -----------------------------------------------------------------------------
  energy-cutoff  :      520.00
  volume of cell :     3375.00
      direct lattice vectors                 reciprocal lattice vectors
    15.000000000  0.000000000  0.000000000     0.066666667  0.000000000  0.000000000
     0.000000000 15.000000000  0.000000000     0.000000000  0.066666667  0.000000000
     0.000000000  0.000000000 15.000000000     0.000000000  0.000000000  0.066666667

  length of vectors
    15.000000000 15.000000000 15.000000000     0.066666667  0.066666667  0.066666667


 FORCES acting on ions:
    Electron-Ion                     Ewald-Force                    Non-Local-Force
 -----------------------------------------------------------------------------------------------
   0.158E-04 0.150E-04 0.598E-05   -.241E-18 -.747E-16 -.460E-16   0.291E-02 0.291E-02 0.279E-02
 -----------------------------------------------------------------------------------------------
   0.134E-04 0.125E-04 0.371E-05   -.241E-18 -.747E-16 -.460E-16   0.291E-02 0.291E-02 0.279E-02
 
 
 POSITION                                       TOTAL-FORCE (eV/Angst)
 -----------------------------------------------------------------------------------
      0.15000      0.15000     11.26500         0.002923      0.002923      0.002790
 -----------------------------------------------------------------------------------
    total drift:                                0.002923      0.002923      0.002790


--------------------------------------------------------------------------------------------------------



  FREE ENERGIE OF THE ION-ELECTRON SYSTEM (eV)
  ---------------------------------------------------
  free  energy   TOTEN  =        -0.79872504 eV

  energy  without entropy=       -0.76015946  energy(sigma->0) =       -0.77944225
 


--------------------------------------------------------------------------------------------------------


    POTLOK:  cpu time    2.9773: real time    2.9975


--------------------------------------------------------------------------------------------------------


 stress matrix after NEB project (eV)
      0.00000      0.00000      0.00000
      0.00000      0.00000      0.00000
      0.00000      0.00000      0.00000
  FORCES: max atom, RMS     0.004987    0.004987
  FORCE total and by dimension    0.004987    0.002923
  Stress total and by dimension    0.000000    0.000000
     LOOP+:  cpu time  230.7801: real time  233.4785
    4ORBIT:  cpu time    0.0000: real time    0.0000

 total amount of memory used by VASP MPI-rank0   177231. kBytes
=======================================================================

   base      :      30000. kBytes
   nonl-proj :      14540. kBytes
   fftplans  :       7479. kBytes
   grid      :     116433. kBytes
   one-center:         31. kBytes
   wavefun   :       8748. kBytes
 
  
  
 General timing and accounting informations for this job:
 ========================================================
  
                  Total CPU time used (sec):      245.836
                            User time (sec):      240.380
                          System time (sec):        5.457
                         Elapsed time (sec):      251.173
  
                   Maximum memory used (kb):      450712.
                   Average memory used (kb):           0.
  
                          Minor page faults:        55551
                          Major page faults:            0
                 Voluntary context switches:         2570
