       N       E                     dE             d eps       ncg     rms          ort
SDA:   1    -0.338348413953E+03   -0.33835E+03    0.00000E+00  3328   0.126E+03 0.000E+00
CGA:   2    -0.412169687302E+03   -0.73821E+02   -0.92203E+02  3328   0.810E+02-0.305E+02
CGA:   3    -0.428901235142E+03   -0.16732E+02   -0.16664E+02  3328   0.297E+02 0.820E+00
CGA:   4    -0.438492948208E+03   -0.95917E+01   -0.95627E+01  3328   0.111E+02 0.195E+00
CGA:   5    -0.441870972712E+03   -0.33780E+01   -0.34060E+01  3328   0.397E+01-0.298E+00
CGA:   6    -0.442989355193E+03   -0.11184E+01   -0.11147E+01  3328   0.131E+01 0.468E-01
CGA:   7    -0.443393603859E+03   -0.40425E+00   -0.40424E+00  3328   0.456E+00 0.832E-03
CGA:   8    -0.443533613622E+03   -0.14001E+00   -0.14012E+00  3328   0.188E+00-0.112E-02
CGA:   9    -0.443587286894E+03   -0.53673E-01   -0.53680E-01  3328   0.870E-01-0.730E-04
CGA:  10    -0.443612676954E+03   -0.25390E-01   -0.25387E-01  3328   0.314E-01 0.246E-04
CGA:  11    -0.443623037204E+03   -0.10360E-01   -0.10366E-01  3328   0.101E-01-0.645E-04
CGA:  12    -0.443626446619E+03   -0.34094E-02   -0.34110E-02  3328   0.322E-02-0.166E-04
CGA:  13    -0.443627496192E+03   -0.10496E-02   -0.10503E-02  3328   0.132E-02-0.102E-04
CGA:  14    -0.443627877309E+03   -0.38112E-03   -0.38114E-03  3328   0.606E-03-0.107E-05
CGA:  15    -0.443628072411E+03   -0.19510E-03   -0.19541E-03  3328   0.247E-03-0.512E-05
CGA:  16    -0.443628168302E+03   -0.95891E-04   -0.96037E-04  3328   0.105E-03-0.113E-05
CGA:  17    -0.443628209252E+03   -0.40950E-04   -0.41136E-04  3328   0.523E-04-0.146E-05
CGA:  18    -0.443628226994E+03   -0.17742E-04   -0.17723E-04  3328   0.333E-04 0.306E-06
CGA:  19    -0.443628239550E+03   -0.12556E-04   -0.12596E-04  3328   0.228E-04-0.404E-06
CGA:  20    -0.443628251071E+03   -0.11521E-04   -0.11372E-04  3328   0.185E-04 0.682E-06
CGA:  21    -0.443628261516E+03   -0.10446E-04   -0.10371E-04  3328   0.156E-04 0.305E-06
CGA:  22    -0.443628268039E+03   -0.65228E-05   -0.64508E-05  3328   0.113E-04 0.725E-06
   1 F= -.44539099E+03 E0= -.44538658E+03  d E =-.881723E-02  mag=     1.9971
