C  N  Cr                                
   1.00000000000000     
    12.3000000000000007    0.0000000000000000    0.0000000000000000
    -6.1499999999999977   10.6521124665485960    0.0000000000000000
     0.0000000000000000    0.0000000000000000   20.0000000000000000
   C    N    Cr
    44     4     1
Direct
  0.9991978198807629  0.0008021712058195  0.7500023973784522
  0.1310166769805221  0.0642783519012724  0.7499911198601339
  0.1976203286373064  0.9976708922858037  0.7499893987826241
  0.3298059028627875  0.0623169100078158  0.7499665666388680
  0.3983991448324602  0.9972248587428183  0.7499885232621182
  0.5315211100084767  0.0658688677568691  0.7499789137810922
  0.5993402060305399  0.0003609931693020  0.7499857772916201
  0.7324464356666951  0.0692733011753930  0.7499989542050969
  0.7996581301341692  0.0025493357947681  0.7500028023995213
  0.9323482952687812  0.0676515822605523  0.7500027676938288
  0.9974505996908078  0.2003417449179707  0.7500028402586096
  0.1305282338944025  0.2650453318942496  0.7499881088896601
  0.1956122542005474  0.1964670624724150  0.7499674480790546
  0.3267088890650669  0.2614106432588343  0.7499876637230969
  0.3946659799696235  0.1934352873588523  0.7499879219145029
  0.5936512594552639  0.1998318123775675  0.7500236276112915
  0.7290627810988184  0.2709371543094079  0.7500158279613203
  0.7967395203007044  0.2032603326839890  0.7500002733225344
  0.9307265671144265  0.2675533521832278  0.7499990051162087
  0.9996390306276268  0.4006595774448840  0.7499859828411530
  0.1336870267025247  0.4659609999216343  0.7499859742328354
  0.1992083457755740  0.3981471255416835  0.7499781794152227
  0.3331884703104819  0.4603468454631212  0.7500252864381949
  0.8001682625375253  0.4063486677452275  0.7500236603183055
  0.9341312000575925  0.4684787265802655  0.7499792110130983
  0.0027751243452201  0.6016006937515428  0.7499884321975614
  0.1358475401007553  0.6662843287486098  0.7500018834337467
  0.2025745141844624  0.5990738472241190  0.7499994308322542
  0.3365788626124129  0.6634210331443668  0.7500033297183037
  0.4042461284380749  0.5957538680128565  0.7500241971918200
  0.5396531590850344  0.6668116300744984  0.7500254591650801
  0.7385894028411499  0.6732911469818958  0.7499872295919658
  0.8065647601335897  0.6053339890432028  0.7499873766681233
  0.9376831240994505  0.6701940229503265  0.7499661318630544
  0.0023291041715225  0.8023796173044175  0.7499890265135605
  0.1341783521015998  0.8658216114279895  0.7500031688794095
  0.2010185456315270  0.7989813446646608  0.7500050499769557
  0.3337155370798186  0.8641524007665851  0.7500019300503240
  0.4009259697382177  0.7974253904953059  0.7499994820533828
  0.5340388168355972  0.8663129992298124  0.7499861336750939
  0.6018527707324495  0.8007917328130247  0.7499784720401621
  0.7349545717008255  0.8694717392278335  0.7499880175233642
  0.8035329399510829  0.8043877693916741  0.7499670096976914
  0.9357216447473533  0.8689833001998650  0.7499907236984029
  0.5232058012602820  0.2569435788501693  0.7501200886940254
  0.3902881873347113  0.3899313812817553  0.7501201561855950
  0.7430565034643379  0.4767941643296538  0.7501196434667463
  0.6100686537336770  0.6097119110988132  0.7501200398335044
  0.5666685145733084  0.4333315705333192  0.7507663546214545
 
  0.00000000E+00  0.00000000E+00  0.00000000E+00
  0.00000000E+00  0.00000000E+00  0.00000000E+00
  0.00000000E+00  0.00000000E+00  0.00000000E+00
  0.00000000E+00  0.00000000E+00  0.00000000E+00
  0.00000000E+00  0.00000000E+00  0.00000000E+00
  0.00000000E+00  0.00000000E+00  0.00000000E+00
  0.00000000E+00  0.00000000E+00  0.00000000E+00
  0.00000000E+00  0.00000000E+00  0.00000000E+00
  0.00000000E+00  0.00000000E+00  0.00000000E+00
  0.00000000E+00  0.00000000E+00  0.00000000E+00
  0.00000000E+00  0.00000000E+00  0.00000000E+00
  0.00000000E+00  0.00000000E+00  0.00000000E+00
  0.00000000E+00  0.00000000E+00  0.00000000E+00
  0.00000000E+00  0.00000000E+00  0.00000000E+00
  0.00000000E+00  0.00000000E+00  0.00000000E+00
  0.00000000E+00  0.00000000E+00  0.00000000E+00
  0.00000000E+00  0.00000000E+00  0.00000000E+00
  0.00000000E+00  0.00000000E+00  0.00000000E+00
  0.00000000E+00  0.00000000E+00  0.00000000E+00
  0.00000000E+00  0.00000000E+00  0.00000000E+00
  0.00000000E+00  0.00000000E+00  0.00000000E+00
  0.00000000E+00  0.00000000E+00  0.00000000E+00
  0.00000000E+00  0.00000000E+00  0.00000000E+00
  0.00000000E+00  0.00000000E+00  0.00000000E+00
  0.00000000E+00  0.00000000E+00  0.00000000E+00
  0.00000000E+00  0.00000000E+00  0.00000000E+00
  0.00000000E+00  0.00000000E+00  0.00000000E+00
  0.00000000E+00  0.00000000E+00  0.00000000E+00
  0.00000000E+00  0.00000000E+00  0.00000000E+00
  0.00000000E+00  0.00000000E+00  0.00000000E+00
  0.00000000E+00  0.00000000E+00  0.00000000E+00
  0.00000000E+00  0.00000000E+00  0.00000000E+00
  0.00000000E+00  0.00000000E+00  0.00000000E+00
  0.00000000E+00  0.00000000E+00  0.00000000E+00
  0.00000000E+00  0.00000000E+00  0.00000000E+00
  0.00000000E+00  0.00000000E+00  0.00000000E+00
  0.00000000E+00  0.00000000E+00  0.00000000E+00
  0.00000000E+00  0.00000000E+00  0.00000000E+00
  0.00000000E+00  0.00000000E+00  0.00000000E+00
  0.00000000E+00  0.00000000E+00  0.00000000E+00
  0.00000000E+00  0.00000000E+00  0.00000000E+00
  0.00000000E+00  0.00000000E+00  0.00000000E+00
  0.00000000E+00  0.00000000E+00  0.00000000E+00
  0.00000000E+00  0.00000000E+00  0.00000000E+00
  0.00000000E+00  0.00000000E+00  0.00000000E+00
  0.00000000E+00  0.00000000E+00  0.00000000E+00
  0.00000000E+00  0.00000000E+00  0.00000000E+00
  0.00000000E+00  0.00000000E+00  0.00000000E+00
  0.00000000E+00  0.00000000E+00  0.00000000E+00
