       N       E                     dE             d eps       ncg     rms          ort
DAV:   1     0.581338025351E+03    0.58134E+03   -0.92724E+04  3328   0.679E+02
DAV:   2    -0.392607973787E+03   -0.97395E+03   -0.90160E+03  3328   0.921E+01
DAV:   3    -0.444920444966E+03   -0.52312E+02   -0.52309E+02  3328   0.297E+01
DAV:   4    -0.445444016853E+03   -0.52357E+00   -0.52347E+00  3328   0.311E+00
DAV:   5    -0.445444165129E+03   -0.14828E-03   -0.14828E-03  3328   0.621E-02
SDA:   6    -0.445444165129E+03    0.72760E-11   -0.14828E-03  3328   0.200E-05 0.000E+00
   1 F= -.44718476E+03 E0= -.44718335E+03  d E =-.281679E-02  mag=     4.0004
