       N       E                     dE             d eps       ncg     rms          ort
DAV:   1     0.647453483949E+02    0.64745E+02   -0.58901E+03   256   0.534E+01
DAV:   2    -0.821810110518E+00   -0.65567E+02   -0.65567E+02   256   0.747E+00
DAV:   3    -0.242471427087E+01   -0.16029E+01   -0.16029E+01   256   0.141E+00
DAV:   4    -0.244849364023E+01   -0.23779E-01   -0.23779E-01   256   0.136E-01
DAV:   5    -0.244849509845E+01   -0.14582E-05   -0.14583E-05   256   0.118E-03
SDA:   6    -0.809858472995E+01   -0.56501E+01   -0.14583E-05   256   0.176E+00 0.000E+00
CGA:   7    -0.814998409661E+01   -0.51399E-01   -0.51297E-01   256   0.708E-01 0.769E-03
CGA:   8    -0.816669819233E+01   -0.16714E-01   -0.16714E-01   256   0.283E-01 0.262E-04
CGA:   9    -0.817367484145E+01   -0.69766E-02   -0.69743E-02   256   0.187E-01 0.299E-04
CGA:  10    -0.817835181207E+01   -0.46770E-02   -0.46703E-02   256   0.768E-02 0.111E-03
CGA:  11    -0.818034452554E+01   -0.19927E-02   -0.19905E-02   256   0.243E-02 0.464E-04
CGA:  12    -0.818091103364E+01   -0.56651E-03   -0.56617E-03   256   0.658E-03 0.178E-04
CGA:  13    -0.818106718730E+01   -0.15615E-03   -0.15609E-03   256   0.178E-03 0.284E-05
CGA:  14    -0.818111165039E+01   -0.44463E-04   -0.44387E-04   256   0.484E-04 0.221E-05
CGA:  15    -0.818112673459E+01   -0.15084E-04   -0.15110E-04   256   0.162E-04-0.287E-06
CGA:  16    -0.818113192775E+01   -0.51932E-05   -0.52744E-05   256   0.682E-05-0.770E-06
   1 F= -.81811319E+01 E0= -.81811319E+01  d E =-.175326E-11  mag=     7.0000
