C  N  Ag                                
   1.00000000000000     
    12.3000000000000007    0.0000000000000000    0.0000000000000000
    -6.1499999999999977   10.6521124665485960    0.0000000000000000
     0.0000000000000000    0.0000000000000000   20.0000000000000000
   C    N    Ag
    44     4     1
Direct
  0.9994557028196809  0.0005443002155374  0.7437245124684395
  0.1318387242427974  0.0652556534853872  0.7436272434628037
  0.1985627991325458  0.9985154392365487  0.7436523306522460
  0.3312516798068117  0.0639433729492396  0.7464755845466655
  0.3987575174167759  0.9976887989083636  0.7479500137059532
  0.5313428526076223  0.0659508821394468  0.7503464695787159
  0.5992726670423920  0.0002850121429390  0.7496727491175932
  0.7321467016351093  0.0692225623758915  0.7495573254446910
  0.7995929237847719  0.0026049524650418  0.7474536621389163
  0.9322772693233006  0.0677227293149087  0.7459398525539385
  0.9973950433046141  0.2004070739555601  0.7474536658391173
  0.1309863535974571  0.2654288370584013  0.7478613906381710
  0.1972699903779045  0.1979138073818234  0.7464119800420264
  0.3293190002587920  0.2654687481632507  0.7518067748362753
  0.3987974748405492  0.1960031118105547  0.7518105524956837
  0.5929116861983630  0.2000493539952046  0.7544801625757103
  0.7288889199748283  0.2711110779723285  0.7541801590658324
  0.7962984398343238  0.2037015591261024  0.7510249050905315
  0.9307774363066983  0.2678532982202597  0.7495573288558717
  0.9997149885802230  0.4007273334392565  0.7496727522090580
  0.1336083391649083  0.4659541136012919  0.7496714800056949
  0.1992751956912571  0.3979971914253824  0.7502882846113437
  0.3334040848083646  0.4595588957225729  0.7544317979234663
  0.7999506451889005  0.4070883116153823  0.7544801610522001
  0.9340491173575813  0.4686571464022151  0.7503464706697969
  0.0023111990068259  0.6012424824240910  0.7479500135896444
  0.1359099307871574  0.6662640500128418  0.7474941531293453
  0.2025433924181215  0.5988235595044813  0.7495991239059947
  0.3370292367788963  0.6629707618778795  0.7510504233663653
  0.4044653317425713  0.5955346643366823  0.7541988710034957
  0.5404410999370484  0.6665959119041602  0.7544317961492837
  0.7345312513281996  0.6706809986622986  0.7518067784646973
  0.8039968901318417  0.6012025265589003  0.7518105539716444
  0.9360566295061616  0.6687483251378339  0.7464755899337163
  0.0014845665884948  0.8014372079071137  0.7436523384874576
  0.1338816408299408  0.8661183659076528  0.7437723770022160
  0.2010558648488541  0.7989441361418415  0.7460275440838089
  0.3337359499209143  0.8640900669721319  0.7474941553537704
  0.4011764410924954  0.7974566064452091  0.7495991254155996
  0.5340458872203300  0.8663916612417992  0.7496714766190564
  0.6020028057615150  0.8007248013506256  0.7502882794382941
  0.7345711602328677  0.8690136417577676  0.7478613890411623
  0.8020861930649659  0.8027300081651205  0.7464119858122658
  0.9347443485793789  0.8681612789436599  0.7436272519433942
  0.5242455963748114  0.2583743652137400  0.7581912070405821
  0.3917111111233211  0.3909046818643702  0.7581855559946504
  0.7416256362349003  0.4757544036476844  0.7581912016999723
  0.6090953170462825  0.6082888893684242  0.7581855590818165
  0.5666999661475458  0.4333000415310906  0.8221466398910451
 
  0.00000000E+00  0.00000000E+00  0.00000000E+00
  0.00000000E+00  0.00000000E+00  0.00000000E+00
  0.00000000E+00  0.00000000E+00  0.00000000E+00
  0.00000000E+00  0.00000000E+00  0.00000000E+00
  0.00000000E+00  0.00000000E+00  0.00000000E+00
  0.00000000E+00  0.00000000E+00  0.00000000E+00
  0.00000000E+00  0.00000000E+00  0.00000000E+00
  0.00000000E+00  0.00000000E+00  0.00000000E+00
  0.00000000E+00  0.00000000E+00  0.00000000E+00
  0.00000000E+00  0.00000000E+00  0.00000000E+00
  0.00000000E+00  0.00000000E+00  0.00000000E+00
  0.00000000E+00  0.00000000E+00  0.00000000E+00
  0.00000000E+00  0.00000000E+00  0.00000000E+00
  0.00000000E+00  0.00000000E+00  0.00000000E+00
  0.00000000E+00  0.00000000E+00  0.00000000E+00
  0.00000000E+00  0.00000000E+00  0.00000000E+00
  0.00000000E+00  0.00000000E+00  0.00000000E+00
  0.00000000E+00  0.00000000E+00  0.00000000E+00
  0.00000000E+00  0.00000000E+00  0.00000000E+00
  0.00000000E+00  0.00000000E+00  0.00000000E+00
  0.00000000E+00  0.00000000E+00  0.00000000E+00
  0.00000000E+00  0.00000000E+00  0.00000000E+00
  0.00000000E+00  0.00000000E+00  0.00000000E+00
  0.00000000E+00  0.00000000E+00  0.00000000E+00
  0.00000000E+00  0.00000000E+00  0.00000000E+00
  0.00000000E+00  0.00000000E+00  0.00000000E+00
  0.00000000E+00  0.00000000E+00  0.00000000E+00
  0.00000000E+00  0.00000000E+00  0.00000000E+00
  0.00000000E+00  0.00000000E+00  0.00000000E+00
  0.00000000E+00  0.00000000E+00  0.00000000E+00
  0.00000000E+00  0.00000000E+00  0.00000000E+00
  0.00000000E+00  0.00000000E+00  0.00000000E+00
  0.00000000E+00  0.00000000E+00  0.00000000E+00
  0.00000000E+00  0.00000000E+00  0.00000000E+00
  0.00000000E+00  0.00000000E+00  0.00000000E+00
  0.00000000E+00  0.00000000E+00  0.00000000E+00
  0.00000000E+00  0.00000000E+00  0.00000000E+00
  0.00000000E+00  0.00000000E+00  0.00000000E+00
  0.00000000E+00  0.00000000E+00  0.00000000E+00
  0.00000000E+00  0.00000000E+00  0.00000000E+00
  0.00000000E+00  0.00000000E+00  0.00000000E+00
  0.00000000E+00  0.00000000E+00  0.00000000E+00
  0.00000000E+00  0.00000000E+00  0.00000000E+00
  0.00000000E+00  0.00000000E+00  0.00000000E+00
  0.00000000E+00  0.00000000E+00  0.00000000E+00
  0.00000000E+00  0.00000000E+00  0.00000000E+00
  0.00000000E+00  0.00000000E+00  0.00000000E+00
  0.00000000E+00  0.00000000E+00  0.00000000E+00
  0.00000000E+00  0.00000000E+00  0.00000000E+00
