       N       E                     dE             d eps       ncg     rms          ort
DAV:   1     0.101154502724E+04    0.10115E+04   -0.87891E+04  3328   0.673E+02
DAV:   2    -0.363047400137E+03   -0.13746E+04   -0.13741E+04  3328   0.101E+02
DAV:   3    -0.436651875490E+03   -0.73604E+02   -0.73603E+02  3328   0.363E+01
DAV:   4    -0.437570910721E+03   -0.91904E+00   -0.91902E+00  3328   0.463E+00
DAV:   5    -0.437571029000E+03   -0.11828E-03   -0.11828E-03  3328   0.637E-02
SDA:   6    -0.437571029000E+03    0.00000E+00   -0.11828E-03  3328   0.207E-05 0.000E+00
   1 F= -.43937990E+03 E0= -.43937771E+03  d E =-.437839E-02  mag=     0.0000
