M-N-C
1.0
       12.3000001907         0.0000000000         0.0000000000
       -6.1500000954        10.6521126317         0.0000000000
        0.0000000000         0.0000000000        20.0000000000
    C    N   Fe
   44    4    1
Direct
     0.000000000         0.000000000         0.750000000
     0.133330000         0.066670000         0.750000000
     0.200000000         0.000000000         0.750000000
     0.333330000         0.066670000         0.750000000
     0.400000000         0.000000000         0.750000000
     0.533330000         0.066670000         0.750000000
     0.600000000         0.000000000         0.750000000
     0.733330000         0.066670000         0.750000000
     0.800000000         0.000000000         0.750000000
     0.933330000         0.066670000         0.750000000
     0.000000000         0.200000000         0.750000000
     0.133330000         0.266670000         0.750000000
     0.200000000         0.200000000         0.750000000
     0.333330000         0.266670000         0.750000000
     0.400000000         0.200000000         0.750000000
     0.600000000         0.200000000         0.750000000
     0.733330000         0.266670000         0.750000000
     0.800000000         0.200000000         0.750000000
     0.933330000         0.266670000         0.750000000
     0.000000000         0.400000000         0.750000000
     0.133330000         0.466670000         0.750000000
     0.200000000         0.400000000         0.750000000
     0.333330000         0.466670000         0.750000000
     0.800000000         0.400000000         0.750000000
     0.933330000         0.466670000         0.750000000
     0.000000000         0.600000000         0.750000000
     0.133330000         0.666670000         0.750000000
     0.200000000         0.600000000         0.750000000
     0.333330000         0.666670000         0.750000000
     0.400000000         0.600000000         0.750000000
     0.533330000         0.666670000         0.750000000
     0.733330000         0.666670000         0.750000000
     0.800000000         0.600000000         0.750000000
     0.933330000         0.666670000         0.750000000
     0.000000000         0.800000000         0.750000000
     0.133330000         0.866670000         0.750000000
     0.200000000         0.800000000         0.750000000
     0.333330000         0.866670000         0.750000000
     0.400000000         0.800000000         0.750000000
     0.533330000         0.866670000         0.750000000
     0.600000000         0.800000000         0.750000000
     0.733330000         0.866670000         0.750000000
     0.800000000         0.800000000         0.750000000
     0.933330000         0.866670000         0.750000000
     0.533330000         0.266670000         0.750000000
     0.400000000         0.400000000         0.750000000
     0.733330000         0.466670000         0.750000000
     0.600000000         0.600000000         0.750000000
     0.566670000         0.433330000         0.750000000
