       N       E                     dE             d eps       ncg     rms          ort
DAV:   1     0.662805692908E+01    0.66281E+01   -0.47971E+03   256   0.391E+01
DAV:   2     0.201248419438E+00   -0.64268E+01   -0.63819E+01   256   0.348E+00
DAV:   3     0.199402069233E+00   -0.18464E-02   -0.18463E-02   256   0.788E-02
DAV:   4     0.199386986644E+00   -0.15083E-04   -0.15083E-04   256   0.674E-03
DAV:   5     0.199386986119E+00   -0.52410E-09   -0.43406E-09   256   0.311E-05
SDA:   6     0.996306812536E+00    0.79692E+00   -0.43406E-09   256   0.593E+01 0.000E+00
CGA:   7     0.266358028378E+00   -0.72995E+00   -0.74254E+00   256   0.146E+01-0.632E-01
CGA:   8     0.218963024158E-01   -0.24446E+00   -0.28745E+00   256   0.304E+01-0.130E+01
CGA:   9    -0.134967507864E+00   -0.15686E+00   -0.22190E+00   256   0.249E+00 0.194E+00
CGA:  10    -0.195827804941E+00   -0.60860E-01   -0.26335E-02   256   0.202E+00 0.247E+00
CGA:  11    -0.232824934572E+00   -0.36997E-01   -0.14674E-02   256   0.197E+00 0.199E+00
CGA:  12    -0.264422573926E+00   -0.31598E-01   -0.15527E-02   256   0.209E+00 0.203E+00
CGA:  13    -0.303651647398E+00   -0.39229E-01   -0.27779E-02   256   0.255E+00 0.229E+00
CGA:  14    -0.525787477283E+00   -0.22214E+00    0.11186E-01   256   0.136E+01 0.485E+00
CGA:  15    -0.188118630581E+01   -0.13554E+01    0.48984E-01   256   0.250E+01-0.154E+01
CGA:  16    -0.234967644794E+01   -0.46849E+00   -0.47677E+00   256   0.366E+00-0.605E-01
CGA:  17    -0.241737687283E+01   -0.67700E-01   -0.15660E+00   256   0.572E+00-0.227E+00
CGA:  18    -0.250150225177E+01   -0.84125E-01   -0.84109E-01   256   0.526E-01-0.350E-03
CGA:  19    -0.251560945554E+01   -0.14107E-01   -0.14123E-01   256   0.157E-01-0.162E-03
CGA:  20    -0.252126094536E+01   -0.56515E-02   -0.56135E-02   256   0.868E-02 0.209E-03
CGA:  21    -0.252428165709E+01   -0.30207E-02   -0.29820E-02   256   0.105E-02 0.241E-03
CGA:  22    -0.252456947966E+01   -0.28782E-03   -0.28701E-03   256   0.266E-03 0.108E-04
CGA:  23    -0.252467816050E+01   -0.10868E-03   -0.10602E-03   256   0.112E-03 0.134E-04
CGA:  24    -0.252473596332E+01   -0.57803E-04   -0.56248E-04   256   0.563E-04 0.571E-05
CGA:  25    -0.252475763436E+01   -0.21671E-04   -0.21625E-04   256   0.208E-04 0.314E-06
CGA:  26    -0.252476922874E+01   -0.11594E-04   -0.11495E-04   256   0.215E-04 0.308E-06
CGA:  27    -0.252478409433E+01   -0.14866E-04   -0.14539E-04   256   0.220E-04 0.764E-06
CGA:  28    -0.252479573238E+01   -0.11638E-04   -0.11953E-04   256   0.111E-04-0.121E-05
CGA:  29    -0.252479943272E+01   -0.37003E-05   -0.37612E-05   256   0.372E-05-0.749E-06
   1 F= -.25247994E+01 E0= -.25247994E+01  d E =-.160551E-13  mag=     3.0000
