C  N  Nd                                
   1.00000000000000     
    12.3000000000000007    0.0000000000000000    0.0000000000000000
    -6.1499999999999977   10.6521124665485960    0.0000000000000000
     0.0000000000000000    0.0000000000000000   20.0000000000000000
   C    N    Nd
    44     4     1
Direct
  0.9994134591025434  0.0005526687625800  0.7448313153554337
  0.1321495364275934  0.0656037368459913  0.7455633327247142
  0.1989596132635415  0.9988177414027070  0.7456225658946949
  0.3310086623787518  0.0642303154585297  0.7479316560060354
  0.3986987065523178  0.9981395844497964  0.7468412507630809
  0.5323064399843561  0.0667467583669207  0.7472471873134977
  0.5997741838832495  0.0005958195318810  0.7458215586220309
  0.7325739558376666  0.0685018740818802  0.7462245064382182
  0.7997205900216654  0.0012720464291613  0.7457195206181191
  0.9328095826971726  0.0671637303780577  0.7453669667666803
  0.9986860875204370  0.2002490124165333  0.7457233948992641
  0.1314130732316703  0.2653344534564406  0.7468971697423380
  0.1975128146782327  0.1976323794399407  0.7479120490681884
  0.3301157736473351  0.2644176236252181  0.7529367960075689
  0.3977455415786472  0.1968755755131982  0.7528586177283002
  0.5951464655916613  0.2000607899988567  0.7515916579141757
  0.7299900378643318  0.2700425022550126  0.7509200658822027
  0.7976292019311501  0.2023686479113920  0.7475267122775727
  0.9314847482731611  0.2674196359287022  0.7461956294868251
  0.9994134687955832  0.4002303235751191  0.7457793903866571
  0.1339027008543471  0.4664415062327355  0.7457744987515013
  0.1999929826665788  0.3989315827303130  0.7473173678944312
  0.3332837960009543  0.4618100436254979  0.7517757814983327
  0.8000349400347773  0.4048756371003994  0.7517741000530909
  0.9333221399961239  0.4677248894078009  0.7473224632819936
  0.0019106754299032  0.6013331224990375  0.7469158194147302
  0.1346527101666528  0.6663932366191698  0.7457279434959908
  0.2018351856701047  0.5992360068273586  0.7461691420329459
  0.3356856377438837  0.6643172472595537  0.7475415034192482
  0.4033189933019736  0.5966542750247444  0.7509880300227838
  0.5381720761344453  0.6666340289270447  0.7516666725642859
  0.7355659015295062  0.6698136461714643  0.7528793280491585
  0.8032051346411091  0.6022833481085240  0.7530317498067879
  0.9358191815949757  0.6690207920787796  0.7480154760183557
  0.0012095556712047  0.8010593969481367  0.7456176291843637
  0.1339461157917706  0.8660862112619947  0.7449126825088421
  0.2005471991108181  0.7994858190446659  0.7454079838544052
  0.3336401018863215  0.8653890672887030  0.7457296732515170
  0.4007720884141401  0.7981747178249872  0.7461999658010595
  0.5335563904511417  0.8660927397371766  0.7458233971029774
  0.6010451140517483  0.7999496121438393  0.7472688084977536
  0.7346406413760890  0.8685343586524285  0.7468339616153609
  0.8023391134198570  0.8024225231410562  0.7478322097430735
  0.9343811885951890  0.8678243904878544  0.7455370218315117
  0.5266803599244396  0.2601404556109189  0.7581106171081318
  0.3932900547053495  0.3933129324887149  0.7583722937417772
  0.7400473400162279  0.4733775104246490  0.7584769711509836
  0.6066501566257507  0.6065739215430174  0.7582287399276948
  0.5665895809335235  0.4332627609615263  0.8202338244812901
 
  0.00000000E+00  0.00000000E+00  0.00000000E+00
  0.00000000E+00  0.00000000E+00  0.00000000E+00
  0.00000000E+00  0.00000000E+00  0.00000000E+00
  0.00000000E+00  0.00000000E+00  0.00000000E+00
  0.00000000E+00  0.00000000E+00  0.00000000E+00
  0.00000000E+00  0.00000000E+00  0.00000000E+00
  0.00000000E+00  0.00000000E+00  0.00000000E+00
  0.00000000E+00  0.00000000E+00  0.00000000E+00
  0.00000000E+00  0.00000000E+00  0.00000000E+00
  0.00000000E+00  0.00000000E+00  0.00000000E+00
  0.00000000E+00  0.00000000E+00  0.00000000E+00
  0.00000000E+00  0.00000000E+00  0.00000000E+00
  0.00000000E+00  0.00000000E+00  0.00000000E+00
  0.00000000E+00  0.00000000E+00  0.00000000E+00
  0.00000000E+00  0.00000000E+00  0.00000000E+00
  0.00000000E+00  0.00000000E+00  0.00000000E+00
  0.00000000E+00  0.00000000E+00  0.00000000E+00
  0.00000000E+00  0.00000000E+00  0.00000000E+00
  0.00000000E+00  0.00000000E+00  0.00000000E+00
  0.00000000E+00  0.00000000E+00  0.00000000E+00
  0.00000000E+00  0.00000000E+00  0.00000000E+00
  0.00000000E+00  0.00000000E+00  0.00000000E+00
  0.00000000E+00  0.00000000E+00  0.00000000E+00
  0.00000000E+00  0.00000000E+00  0.00000000E+00
  0.00000000E+00  0.00000000E+00  0.00000000E+00
  0.00000000E+00  0.00000000E+00  0.00000000E+00
  0.00000000E+00  0.00000000E+00  0.00000000E+00
  0.00000000E+00  0.00000000E+00  0.00000000E+00
  0.00000000E+00  0.00000000E+00  0.00000000E+00
  0.00000000E+00  0.00000000E+00  0.00000000E+00
  0.00000000E+00  0.00000000E+00  0.00000000E+00
  0.00000000E+00  0.00000000E+00  0.00000000E+00
  0.00000000E+00  0.00000000E+00  0.00000000E+00
  0.00000000E+00  0.00000000E+00  0.00000000E+00
  0.00000000E+00  0.00000000E+00  0.00000000E+00
  0.00000000E+00  0.00000000E+00  0.00000000E+00
  0.00000000E+00  0.00000000E+00  0.00000000E+00
  0.00000000E+00  0.00000000E+00  0.00000000E+00
  0.00000000E+00  0.00000000E+00  0.00000000E+00
  0.00000000E+00  0.00000000E+00  0.00000000E+00
  0.00000000E+00  0.00000000E+00  0.00000000E+00
  0.00000000E+00  0.00000000E+00  0.00000000E+00
  0.00000000E+00  0.00000000E+00  0.00000000E+00
  0.00000000E+00  0.00000000E+00  0.00000000E+00
  0.00000000E+00  0.00000000E+00  0.00000000E+00
  0.00000000E+00  0.00000000E+00  0.00000000E+00
  0.00000000E+00  0.00000000E+00  0.00000000E+00
  0.00000000E+00  0.00000000E+00  0.00000000E+00
  0.00000000E+00  0.00000000E+00  0.00000000E+00
