C  N  Nd                                
   1.00000000000000     
    12.3000000000000007    0.0000000000000000    0.0000000000000000
    -6.1499999999999977   10.6521124665485960    0.0000000000000000
     0.0000000000000000    0.0000000000000000   20.0000000000000000
   C    N    Nd
    44     4     1
Direct
  0.9994633036433714  0.0005128256085559  0.7448662220606710
  0.1322248080630872  0.0656265039393667  0.7455899581755729
  0.1989869298186581  0.9988212996377750  0.7456583180012950
  0.3310669483938593  0.0643013230996885  0.7479425593713742
  0.3987220310470777  0.9981774747672667  0.7468089868723645
  0.5323790416132705  0.0668870057925097  0.7472038644201799
  0.5997793575989223  0.0006805836820920  0.7458294795222996
  0.7325978497506848  0.0684723721292954  0.7462490742387522
  0.7997109493015033  0.0012340120787191  0.7457400990351694
  0.9328648787281524  0.0671116723159998  0.7453947951805056
  0.9987396794205320  0.2002670732650329  0.7457403652126769
  0.1314960171640514  0.2653777666568239  0.7469077538006189
  0.1976329824097713  0.1977133117681263  0.7479169309034661
  0.3302278010678101  0.2645017539196663  0.7529573809459840
  0.3978531745034062  0.1969556768565142  0.7528766744710454
  0.5951720254513451  0.2001193028364361  0.7515361836714082
  0.7300020842062961  0.2700458605654282  0.7508787999985558
  0.7976375351491152  0.2023679339747687  0.7474967629876111
  0.9315131912703952  0.2673991069395729  0.7462110025410379
  0.9993258830881051  0.4002195830745007  0.7457718161159455
  0.1338314448485857  0.4664254311006716  0.7457578501543797
  0.2001156470341094  0.3990451165422556  0.7472642867761471
  0.3333209333657884  0.4618789577743812  0.7517605971636390
  0.7999992769214251  0.4048596379168525  0.7517496729787428
  0.9331776048890381  0.4676521045886361  0.7472814318003563
  0.0018704984355793  0.6013145378709053  0.7468754016136923
  0.1345721424541896  0.6663741989174439  0.7457276989858537
  0.2017879230036965  0.5992577521937905  0.7461488581968244
  0.3356722743351192  0.6643265333995509  0.7475668144899142
  0.4033377380736059  0.5966288260795404  0.7509724702608017
  0.5381048380454426  0.6665886615896084  0.7516239567050709
  0.7354787118344015  0.6696818864994974  0.7528790649997721
  0.8031401585128155  0.6021922164339747  0.7530787378866046
  0.9357570102937349  0.6689615814336267  0.7480275724888736
  0.0012202704862300  0.8010423934573979  0.7456420557700079
  0.1339167589885656  0.8661028789996108  0.7449325922303155
  0.2005569794319862  0.7994843143892000  0.7454485053782293
  0.3336547856925768  0.8654598800728168  0.7457331216138415
  0.4007500925019419  0.7982261632921855  0.7461835326382871
  0.5335510197415676  0.8661455136084864  0.7458184596764372
  0.6009340785779300  0.7998297769259258  0.7472163750646851
  0.7345958178342989  0.8684475412577588  0.7468443139944899
  0.8022453337803187  0.8022855973862715  0.7478440995880640
  0.9343266115461982  0.8677398954755479  0.7455672846918764
  0.5267544046077660  0.2601816094521449  0.7581823830677262
  0.3933107253951491  0.3933798319629366  0.7584986146409805
  0.7400372143407740  0.4733107181359574  0.7586140158906906
  0.6065705801161466  0.6065209768506227  0.7583065351498955
  0.5666016532215781  0.4332740234842673  0.8198736685772799
 
  0.00000000E+00  0.00000000E+00  0.00000000E+00
  0.00000000E+00  0.00000000E+00  0.00000000E+00
  0.00000000E+00  0.00000000E+00  0.00000000E+00
  0.00000000E+00  0.00000000E+00  0.00000000E+00
  0.00000000E+00  0.00000000E+00  0.00000000E+00
  0.00000000E+00  0.00000000E+00  0.00000000E+00
  0.00000000E+00  0.00000000E+00  0.00000000E+00
  0.00000000E+00  0.00000000E+00  0.00000000E+00
  0.00000000E+00  0.00000000E+00  0.00000000E+00
  0.00000000E+00  0.00000000E+00  0.00000000E+00
  0.00000000E+00  0.00000000E+00  0.00000000E+00
  0.00000000E+00  0.00000000E+00  0.00000000E+00
  0.00000000E+00  0.00000000E+00  0.00000000E+00
  0.00000000E+00  0.00000000E+00  0.00000000E+00
  0.00000000E+00  0.00000000E+00  0.00000000E+00
  0.00000000E+00  0.00000000E+00  0.00000000E+00
  0.00000000E+00  0.00000000E+00  0.00000000E+00
  0.00000000E+00  0.00000000E+00  0.00000000E+00
  0.00000000E+00  0.00000000E+00  0.00000000E+00
  0.00000000E+00  0.00000000E+00  0.00000000E+00
  0.00000000E+00  0.00000000E+00  0.00000000E+00
  0.00000000E+00  0.00000000E+00  0.00000000E+00
  0.00000000E+00  0.00000000E+00  0.00000000E+00
  0.00000000E+00  0.00000000E+00  0.00000000E+00
  0.00000000E+00  0.00000000E+00  0.00000000E+00
  0.00000000E+00  0.00000000E+00  0.00000000E+00
  0.00000000E+00  0.00000000E+00  0.00000000E+00
  0.00000000E+00  0.00000000E+00  0.00000000E+00
  0.00000000E+00  0.00000000E+00  0.00000000E+00
  0.00000000E+00  0.00000000E+00  0.00000000E+00
  0.00000000E+00  0.00000000E+00  0.00000000E+00
  0.00000000E+00  0.00000000E+00  0.00000000E+00
  0.00000000E+00  0.00000000E+00  0.00000000E+00
  0.00000000E+00  0.00000000E+00  0.00000000E+00
  0.00000000E+00  0.00000000E+00  0.00000000E+00
  0.00000000E+00  0.00000000E+00  0.00000000E+00
  0.00000000E+00  0.00000000E+00  0.00000000E+00
  0.00000000E+00  0.00000000E+00  0.00000000E+00
  0.00000000E+00  0.00000000E+00  0.00000000E+00
  0.00000000E+00  0.00000000E+00  0.00000000E+00
  0.00000000E+00  0.00000000E+00  0.00000000E+00
  0.00000000E+00  0.00000000E+00  0.00000000E+00
  0.00000000E+00  0.00000000E+00  0.00000000E+00
  0.00000000E+00  0.00000000E+00  0.00000000E+00
  0.00000000E+00  0.00000000E+00  0.00000000E+00
  0.00000000E+00  0.00000000E+00  0.00000000E+00
  0.00000000E+00  0.00000000E+00  0.00000000E+00
  0.00000000E+00  0.00000000E+00  0.00000000E+00
  0.00000000E+00  0.00000000E+00  0.00000000E+00
