       N       E                     dE             d eps       ncg     rms          rms(c)
DAV:   1    -0.480527497661E+03   -0.48053E+03   -0.16519E+02  8192   0.130E+01    0.406E+01
DAV:   2    -0.457986297583E+03    0.22541E+02   -0.39649E+02  6144   0.122E+01    0.294E+01
DAV:   3    -0.445530213742E+03    0.12456E+02   -0.30176E+02  7424   0.167E+01    0.176E+01
DAV:   4    -0.441969739835E+03    0.35605E+01   -0.80002E+01  6400   0.511E+00    0.892E+00
DAV:   5    -0.442359508647E+03   -0.38977E+00   -0.10334E+01  6144   0.269E+00    0.468E+00
DAV:   6    -0.443803252990E+03   -0.14437E+01   -0.40216E+00  6656   0.156E+00    0.282E+00
DAV:   7    -0.444792333932E+03   -0.98908E+00   -0.77543E-01  6912   0.823E-01    0.249E+00
DAV:   8    -0.445192793241E+03   -0.40046E+00   -0.19595E-01  6656   0.407E-01    0.209E+00
DAV:   9    -0.445756802277E+03   -0.56401E+00   -0.43818E-01  7936   0.565E-01    0.944E-01
DAV:  10    -0.445950834764E+03   -0.19403E+00   -0.11766E-01  7680   0.301E-01    0.456E-01
DAV:  11    -0.445954711181E+03   -0.38764E-02   -0.71268E-02  4352   0.202E-01    0.272E-01
DAV:  12    -0.445945868730E+03    0.88425E-02   -0.13628E-02  8192   0.128E-01    0.198E-01
DAV:  13    -0.445973722577E+03   -0.27854E-01   -0.30042E-02  5888   0.154E-01    0.181E-01
DAV:  14    -0.445992320538E+03   -0.18598E-01   -0.83115E-03  6400   0.876E-02    0.150E-01
DAV:  15    -0.446008696399E+03   -0.16376E-01   -0.48382E-03  6656   0.611E-02    0.618E-02
DAV:  16    -0.446017632093E+03   -0.89357E-02   -0.16244E-03  6912   0.354E-02    0.295E-02
DAV:  17    -0.446018007186E+03   -0.37509E-03   -0.23462E-04  5632   0.165E-02    0.221E-02
DAV:  18    -0.446021035265E+03   -0.30281E-02   -0.12865E-04  5376   0.116E-02    0.129E-02
DAV:  19    -0.446023747804E+03   -0.27125E-02   -0.20843E-04  4864   0.113E-02    0.774E-03
DAV:  20    -0.446024945963E+03   -0.11982E-02   -0.55852E-05  5632   0.601E-03    0.570E-03
DAV:  21    -0.446025591974E+03   -0.64601E-03   -0.38646E-05  5632   0.463E-03    0.289E-03
DAV:  22    -0.446025681876E+03   -0.89902E-04   -0.34499E-06  6912   0.194E-03    0.230E-03
DAV:  23    -0.446025727507E+03   -0.45631E-04   -0.19461E-06  7424   0.148E-03    0.108E-03
DAV:  24    -0.446025785409E+03   -0.57902E-04   -0.22228E-06  7680   0.134E-03    0.945E-04
DAV:  25    -0.446025820961E+03   -0.35553E-04   -0.86884E-07  6400   0.902E-04    0.444E-04
DAV:  26    -0.446025837680E+03   -0.16719E-04   -0.25892E-07  6400   0.568E-04    0.242E-04
DAV:  27    -0.446025845434E+03   -0.77534E-05   -0.94429E-08  7168   0.319E-04
   1 F= -.44778421E+03 E0= -.44776491E+03  d E =-.447784E+03  mag=     3.5193
       N       E                     dE             d eps       ncg     rms          rms(c)
DAV:   1    -0.446026116434E+03   -0.27875E-03   -0.32220E-02  5888   0.287E-01    0.436E-02
DAV:   2    -0.446026068013E+03    0.48421E-04   -0.47685E-04  8192   0.376E-02    0.229E-02
DAV:   3    -0.446025992060E+03    0.75954E-04   -0.32999E-05  5376   0.871E-03    0.104E-02
DAV:   4    -0.446025953556E+03    0.38504E-04   -0.17295E-05  7168   0.471E-03    0.917E-03
DAV:   5    -0.446025946269E+03    0.72867E-05   -0.50322E-06  5888   0.221E-03
   2 F= -.44778428E+03 E0= -.44776512E+03  d E =-.682221E-04  mag=     3.5244
