C  N  Mo                                
   1.00000000000000     
    12.3000000000000007    0.0000000000000000    0.0000000000000000
    -6.1499999999999977   10.6521124665485960    0.0000000000000000
     0.0000000000000000    0.0000000000000000   20.0000000000000000
   C    N    Mo
    44     4     1
Direct
  0.9991581725417797  0.0008418538172856  0.7370148179741343
  0.1315796852998449  0.0649031694557015  0.7378971877896375
  0.1982562058639162  0.9982600619511306  0.7378702066057639
  0.3303994448778832  0.0630892751724794  0.7443594589515333
  0.3984501241268792  0.9974307867161415  0.7458557624479449
  0.5316698801868269  0.0665207898343642  0.7500758357410094
  0.5994222193663710  0.0004735798219554  0.7482859940245780
  0.7324237176702817  0.0691632072099802  0.7478595842084156
  0.7995398581832485  0.0021542634967484  0.7439563101582894
  0.9323756381993095  0.0676243732045668  0.7408093338432914
  0.9978457348139720  0.2004601485174787  0.7439563101857054
  0.1307704667240674  0.2651503941348721  0.7458862355231733
  0.1964256294844217  0.1970531457170955  0.7444052012698293
  0.3267316595548733  0.2607460961244585  0.7538035608745758
  0.3941177114256461  0.1934047609781748  0.7538062393094305
  0.5939024460254523  0.1996334991085945  0.7578194830137706
  0.7292314230464499  0.2707685781788920  0.7572015986603919
  0.7969081439982963  0.2030918556016858  0.7507531179472408
  0.9308367869112055  0.2675762832011419  0.7478595822953575
  0.9995264044193983  0.4005777783174710  0.7482859923995472
  0.1337982266587588  0.4660807956317689  0.7483152278938102
  0.1998452127144623  0.3983684857410613  0.7500886327318080
  0.3329898872049558  0.4606498533842959  0.7578077601009419
  0.8003664932535633  0.4060975514957167  0.7578194843586961
  0.9334791954976144  0.4683301151825018  0.7500758344763748
  0.0025692061610563  0.6015498755038690  0.7458557603329632
  0.1354790778077097  0.6661776211062290  0.7439237595081019
  0.2025284272297500  0.5990898575939912  0.7478319862325961
  0.3364206091542841  0.6635793874307798  0.7507179470729759
  0.4040814574586267  0.5959185442686996  0.7572147498366192
  0.5393501447242915  0.6670101063143544  0.7578077619510716
  0.7392538959719436  0.6732683330534337  0.7538035575256713
  0.8065952314402817  0.6058822831182845  0.7538062384230626
  0.9369107253462473  0.6696005649020020  0.7443594603211144
  0.0017399602189142  0.8017438154898213  0.7378702060674340
  0.1341536090825338  0.8658464170181586  0.7370259641804753
  0.2009407319146605  0.7990592811633337  0.7407993894034616
  0.3338223869762165  0.8645209210392470  0.7439237603190786
  0.4009101412538122  0.7974715648204529  0.7478319857348652
  0.5339192008819926  0.8662017562980129  0.7483152254973796
  0.6016315087425231  0.8001547716661264  0.7500886307916346
  0.7348496041167277  0.8692295251176344  0.7458862358051710
  0.8029468618615823  0.8035743703898854  0.7444051990396450
  0.9350968502609199  0.8684203369887427  0.7378971877622690
  0.5223574973452570  0.2566520430819193  0.7662274749023770
  0.3899939458554556  0.3890319402487302  0.7662357853150704
  0.7433479481558591  0.4776424975840772  0.7662274717885796
  0.6109680525366655  0.6100060453380390  0.7662357822146648
  0.5666735574532230  0.4333264384686006  0.7948367271884660
 
  0.00000000E+00  0.00000000E+00  0.00000000E+00
  0.00000000E+00  0.00000000E+00  0.00000000E+00
  0.00000000E+00  0.00000000E+00  0.00000000E+00
  0.00000000E+00  0.00000000E+00  0.00000000E+00
  0.00000000E+00  0.00000000E+00  0.00000000E+00
  0.00000000E+00  0.00000000E+00  0.00000000E+00
  0.00000000E+00  0.00000000E+00  0.00000000E+00
  0.00000000E+00  0.00000000E+00  0.00000000E+00
  0.00000000E+00  0.00000000E+00  0.00000000E+00
  0.00000000E+00  0.00000000E+00  0.00000000E+00
  0.00000000E+00  0.00000000E+00  0.00000000E+00
  0.00000000E+00  0.00000000E+00  0.00000000E+00
  0.00000000E+00  0.00000000E+00  0.00000000E+00
  0.00000000E+00  0.00000000E+00  0.00000000E+00
  0.00000000E+00  0.00000000E+00  0.00000000E+00
  0.00000000E+00  0.00000000E+00  0.00000000E+00
  0.00000000E+00  0.00000000E+00  0.00000000E+00
  0.00000000E+00  0.00000000E+00  0.00000000E+00
  0.00000000E+00  0.00000000E+00  0.00000000E+00
  0.00000000E+00  0.00000000E+00  0.00000000E+00
  0.00000000E+00  0.00000000E+00  0.00000000E+00
  0.00000000E+00  0.00000000E+00  0.00000000E+00
  0.00000000E+00  0.00000000E+00  0.00000000E+00
  0.00000000E+00  0.00000000E+00  0.00000000E+00
  0.00000000E+00  0.00000000E+00  0.00000000E+00
  0.00000000E+00  0.00000000E+00  0.00000000E+00
  0.00000000E+00  0.00000000E+00  0.00000000E+00
  0.00000000E+00  0.00000000E+00  0.00000000E+00
  0.00000000E+00  0.00000000E+00  0.00000000E+00
  0.00000000E+00  0.00000000E+00  0.00000000E+00
  0.00000000E+00  0.00000000E+00  0.00000000E+00
  0.00000000E+00  0.00000000E+00  0.00000000E+00
  0.00000000E+00  0.00000000E+00  0.00000000E+00
  0.00000000E+00  0.00000000E+00  0.00000000E+00
  0.00000000E+00  0.00000000E+00  0.00000000E+00
  0.00000000E+00  0.00000000E+00  0.00000000E+00
  0.00000000E+00  0.00000000E+00  0.00000000E+00
  0.00000000E+00  0.00000000E+00  0.00000000E+00
  0.00000000E+00  0.00000000E+00  0.00000000E+00
  0.00000000E+00  0.00000000E+00  0.00000000E+00
  0.00000000E+00  0.00000000E+00  0.00000000E+00
  0.00000000E+00  0.00000000E+00  0.00000000E+00
  0.00000000E+00  0.00000000E+00  0.00000000E+00
  0.00000000E+00  0.00000000E+00  0.00000000E+00
  0.00000000E+00  0.00000000E+00  0.00000000E+00
  0.00000000E+00  0.00000000E+00  0.00000000E+00
  0.00000000E+00  0.00000000E+00  0.00000000E+00
  0.00000000E+00  0.00000000E+00  0.00000000E+00
  0.00000000E+00  0.00000000E+00  0.00000000E+00
