C  N  Bi                                
   1.00000000000000     
    12.3000000000000007    0.0000000000000000    0.0000000000000000
    -6.1499999999999977   10.6521124665485960    0.0000000000000000
     0.0000000000000000    0.0000000000000000   20.0000000000000000
   C    N    Bi
    44     4     1
Direct
  0.9991245978159853  0.0008754076434911  0.7369750837598303
  0.1316302557022411  0.0650767039961835  0.7372390669763078
  0.1983575461909055  0.9983239775472086  0.7372861756843108
  0.3303452600304126  0.0632248823318307  0.7432698587433251
  0.3983318416125314  0.9974891113947635  0.7459712615240619
  0.5318588667702215  0.0670923849057843  0.7505370336994872
  0.5995641015840576  0.0007526968469094  0.7491608572149815
  0.7323617079120481  0.0691885343369378  0.7488813796205207
  0.7995047065057008  0.0018949649928359  0.7446831821496858
  0.9324491903361789  0.0675508118819934  0.7413483662102323
  0.9981050331097023  0.2004952944967258  0.7446831825227775
  0.1308237569239310  0.2650255652197089  0.7459651459617547
  0.1965575308363441  0.1970444689367241  0.7432426154988860
  0.3275401102112809  0.2612076655596596  0.7511541986736461
  0.3945170451687190  0.1942103978635998  0.7511498898200912
  0.5939402028694332  0.2004393960292745  0.7570166126373223
  0.7290202657218785  0.2709797332756807  0.7571679563078106
  0.7969305678642442  0.2030694305144891  0.7517244099824083
  0.9308114633734021  0.2676382919390221  0.7488813793833557
  0.9992472997589417  0.4004358982573564  0.7491608570358963
  0.1341018738947639  0.4662353180485681  0.7490779836134180
  0.2004503633113046  0.3985256653345743  0.7505159339865841
  0.3338101596624981  0.4605964649100969  0.7569960825748936
  0.7995606019045027  0.4060597964205002  0.7570166127056623
  0.9329076130799336  0.4681411340281159  0.7505370329014056
  0.0025108865518746  0.6016681596716111  0.7459712606747146
  0.1352243985074821  0.6661744716022184  0.7446417421206561
  0.2025291535192082  0.5990225739773862  0.7486766210310165
  0.3364158962168702  0.6635841017516881  0.7514848142456714
  0.4043137640512526  0.5956862348375012  0.7570950743541616
  0.5394035340707433  0.6661898380199247  0.7569960831089944
  0.7387923336665168  0.6724598886285733  0.7511541975413465
  0.8057896009158014  0.6054829546144020  0.7511498897632762
  0.9367751176995611  0.6696547434727904  0.7432698595354239
  0.0016760274974956  0.8016424592751079  0.7372861764117573
  0.1341849988207855  0.8658150071550423  0.7371013938169568
  0.2008633961072661  0.7991366061175214  0.7414255774136933
  0.3338255293811088  0.8647755997573938  0.7446417427686924
  0.4009774253342187  0.7974708437079272  0.7486766210961093
  0.5337646814037882  0.8658981224733324  0.7490779831932244
  0.6014743350728367  0.7995496343410124  0.7505159333574056
  0.7349744358646149  0.8691762410701571  0.7459651455959957
  0.8029555340040133  0.8034424692610216  0.7432426154790335
  0.9349233011140399  0.8683697496023726  0.7372390673783045
  0.5222399912686484  0.2583915933291863  0.7616394944865803
  0.3917463601507265  0.3889180581085228  0.7616785191337883
  0.7416084048543041  0.4777600076950890  0.7616394944665643
  0.6110819404284911  0.6082536375489056  0.7616785185026131
  0.5666879913471874  0.4333120072692722  0.8191070153353408
 
  0.00000000E+00  0.00000000E+00  0.00000000E+00
  0.00000000E+00  0.00000000E+00  0.00000000E+00
  0.00000000E+00  0.00000000E+00  0.00000000E+00
  0.00000000E+00  0.00000000E+00  0.00000000E+00
  0.00000000E+00  0.00000000E+00  0.00000000E+00
  0.00000000E+00  0.00000000E+00  0.00000000E+00
  0.00000000E+00  0.00000000E+00  0.00000000E+00
  0.00000000E+00  0.00000000E+00  0.00000000E+00
  0.00000000E+00  0.00000000E+00  0.00000000E+00
  0.00000000E+00  0.00000000E+00  0.00000000E+00
  0.00000000E+00  0.00000000E+00  0.00000000E+00
  0.00000000E+00  0.00000000E+00  0.00000000E+00
  0.00000000E+00  0.00000000E+00  0.00000000E+00
  0.00000000E+00  0.00000000E+00  0.00000000E+00
  0.00000000E+00  0.00000000E+00  0.00000000E+00
  0.00000000E+00  0.00000000E+00  0.00000000E+00
  0.00000000E+00  0.00000000E+00  0.00000000E+00
  0.00000000E+00  0.00000000E+00  0.00000000E+00
  0.00000000E+00  0.00000000E+00  0.00000000E+00
  0.00000000E+00  0.00000000E+00  0.00000000E+00
  0.00000000E+00  0.00000000E+00  0.00000000E+00
  0.00000000E+00  0.00000000E+00  0.00000000E+00
  0.00000000E+00  0.00000000E+00  0.00000000E+00
  0.00000000E+00  0.00000000E+00  0.00000000E+00
  0.00000000E+00  0.00000000E+00  0.00000000E+00
  0.00000000E+00  0.00000000E+00  0.00000000E+00
  0.00000000E+00  0.00000000E+00  0.00000000E+00
  0.00000000E+00  0.00000000E+00  0.00000000E+00
  0.00000000E+00  0.00000000E+00  0.00000000E+00
  0.00000000E+00  0.00000000E+00  0.00000000E+00
  0.00000000E+00  0.00000000E+00  0.00000000E+00
  0.00000000E+00  0.00000000E+00  0.00000000E+00
  0.00000000E+00  0.00000000E+00  0.00000000E+00
  0.00000000E+00  0.00000000E+00  0.00000000E+00
  0.00000000E+00  0.00000000E+00  0.00000000E+00
  0.00000000E+00  0.00000000E+00  0.00000000E+00
  0.00000000E+00  0.00000000E+00  0.00000000E+00
  0.00000000E+00  0.00000000E+00  0.00000000E+00
  0.00000000E+00  0.00000000E+00  0.00000000E+00
  0.00000000E+00  0.00000000E+00  0.00000000E+00
  0.00000000E+00  0.00000000E+00  0.00000000E+00
  0.00000000E+00  0.00000000E+00  0.00000000E+00
  0.00000000E+00  0.00000000E+00  0.00000000E+00
  0.00000000E+00  0.00000000E+00  0.00000000E+00
  0.00000000E+00  0.00000000E+00  0.00000000E+00
  0.00000000E+00  0.00000000E+00  0.00000000E+00
  0.00000000E+00  0.00000000E+00  0.00000000E+00
  0.00000000E+00  0.00000000E+00  0.00000000E+00
  0.00000000E+00  0.00000000E+00  0.00000000E+00
