       N       E                     dE             d eps       ncg     rms          ort
SDA:   1    -0.330514269160E+03   -0.33051E+03    0.00000E+00  3328   0.140E+03 0.000E+00
CGA:   2    -0.409137380061E+03   -0.78623E+02   -0.78184E+02  3328   0.619E+02 0.802E+00
CGA:   3    -0.427616679094E+03   -0.18479E+02   -0.18368E+02  3328   0.271E+02 0.826E+00
CGA:   4    -0.435096986033E+03   -0.74803E+01   -0.74689E+01  3328   0.111E+02 0.696E-01
CGA:   5    -0.438068830780E+03   -0.29718E+01   -0.29859E+01  3328   0.369E+01-0.229E+00
CGA:   6    -0.439061226846E+03   -0.99240E+00   -0.99216E+00  3328   0.109E+01-0.625E-03
CGA:   7    -0.439375523257E+03   -0.31430E+00   -0.31431E+00  3328   0.317E+00-0.621E-03
CGA:   8    -0.439473576824E+03   -0.98054E-01   -0.98286E-01  3328   0.936E-01-0.227E-02
CGA:   9    -0.439504354469E+03   -0.30778E-01   -0.30833E-01  3328   0.309E-01-0.451E-03
CGA:  10    -0.439515539576E+03   -0.11185E-01   -0.11192E-01  3328   0.107E-01-0.513E-04
CGA:  11    -0.439519563792E+03   -0.40242E-02   -0.40257E-02  3328   0.350E-02-0.120E-04
CGA:  12    -0.439520856030E+03   -0.12922E-02   -0.12933E-02  3328   0.951E-03-0.872E-05
CGA:  13    -0.439521211091E+03   -0.35506E-03   -0.35539E-03  3328   0.251E-03-0.256E-05
CGA:  14    -0.439521309802E+03   -0.98711E-04   -0.98712E-04  3328   0.731E-04 0.291E-07
CGA:  15    -0.439521341104E+03   -0.31301E-04   -0.31352E-04  3328   0.242E-04-0.328E-06
CGA:  16    -0.439521351653E+03   -0.10550E-04   -0.10615E-04  3328   0.756E-05-0.406E-06
CGA:  17    -0.439521354904E+03   -0.32503E-05   -0.32876E-05  3328   0.220E-05-0.239E-06
   1 F= -.44126860E+03 E0= -.44124741E+03  d E =-.423715E-01  mag=     0.0000
