C  N  Bi                                
   1.00000000000000     
    12.3000000000000007    0.0000000000000000    0.0000000000000000
    -6.1499999999999977   10.6521124665485960    0.0000000000000000
     0.0000000000000000    0.0000000000000000   20.0000000000000000
   C    N    Bi
    44     4     1
Direct
  0.9991245978159887  0.0008754076434915  0.7369750837598311
  0.1316302557022411  0.0650767039961863  0.7372390669763087
  0.1983575461909065  0.9983239775472068  0.7372861756843083
  0.3303452600304101  0.0632248823318289  0.7432698587433255
  0.3983318416125319  0.9974891113947630  0.7459712615240643
  0.5318588667702189  0.0670923849057825  0.7505370336994839
  0.5995641015840562  0.0007526968469105  0.7491608572149814
  0.7323617079120512  0.0691885343369383  0.7488813796205199
  0.7995047065056973  0.0018949649928387  0.7446831821496830
  0.9324491903361785  0.0675508118819914  0.7413483662102328
  0.9981050331097027  0.2004952944967226  0.7446831825227754
  0.1308237569239316  0.2650255652197114  0.7459651459617526
  0.1965575308363406  0.1970444689367243  0.7432426154988861
  0.3275401102112789  0.2612076655596614  0.7511541986736492
  0.3945170451687198  0.1942103978635978  0.7511498898200923
  0.5939402028694316  0.2004393960292742  0.7570166126373234
  0.7290202657218806  0.2709797332756772  0.7571679563078114
  0.7969305678642467  0.2030694305144874  0.7517244099824064
  0.9308114633734008  0.2676382919390186  0.7488813793833565
  0.9992472997589384  0.4004358982573529  0.7491608570358953
  0.1341018738947613  0.4662353180485693  0.7490779836134172
  0.2004503633113040  0.3985256653345773  0.7505159339865842
  0.3338101596625002  0.4605964649100993  0.7569960825748938
  0.7995606019045040  0.4060597964205027  0.7570166127056593
  0.9329076130799366  0.4681411340281124  0.7505370329014079
  0.0025108865518729  0.6016681596716104  0.7459712606747169
  0.1352243985074838  0.6661744716022197  0.7446417421206595
  0.2025291535192077  0.5990225739773883  0.7486766210310163
  0.3364158962168695  0.6635841017516886  0.7514848142456744
  0.4043137640512509  0.5956862348374988  0.7570950743541602
  0.5394035340707397  0.6661898380199224  0.7569960831089918
  0.7387923336665181  0.6724598886285700  0.7511541975413499
  0.8057896009158045  0.6054829546143993  0.7511498897632766
  0.9367751176995619  0.6696547434727894  0.7432698595354217
  0.0016760274974949  0.8016424592751070  0.7372861764117604
  0.1341849988207889  0.8658150071550436  0.7371013938169598
  0.2008633961072682  0.7991366061175246  0.7414255774136898
  0.3338255293811083  0.8647755997573958  0.7446417427686893
  0.4009774253342201  0.7974708437079293  0.7486766210961064
  0.5337646814037896  0.8658981224733308  0.7490779831932262
  0.6014743350728357  0.7995496343410140  0.7505159333574052
  0.7349744358646167  0.8691762410701571  0.7459651455959936
  0.8029555340040159  0.8034424692610229  0.7432426154790336
  0.9349233011140405  0.8683697496023718  0.7372390673783044
  0.5222399912686451  0.2583915933291847  0.7616394944865793
  0.3917463601507267  0.3889180581085203  0.7616785191337883
  0.7416084048543010  0.4777600076950869  0.7616394944665648
  0.6110819404284898  0.6082536375489058  0.7616785185026144
  0.5666879913471902  0.4333120072692720  0.8191070153353440
 
  0.00000000E+00  0.00000000E+00  0.00000000E+00
  0.00000000E+00  0.00000000E+00  0.00000000E+00
  0.00000000E+00  0.00000000E+00  0.00000000E+00
  0.00000000E+00  0.00000000E+00  0.00000000E+00
  0.00000000E+00  0.00000000E+00  0.00000000E+00
  0.00000000E+00  0.00000000E+00  0.00000000E+00
  0.00000000E+00  0.00000000E+00  0.00000000E+00
  0.00000000E+00  0.00000000E+00  0.00000000E+00
  0.00000000E+00  0.00000000E+00  0.00000000E+00
  0.00000000E+00  0.00000000E+00  0.00000000E+00
  0.00000000E+00  0.00000000E+00  0.00000000E+00
  0.00000000E+00  0.00000000E+00  0.00000000E+00
  0.00000000E+00  0.00000000E+00  0.00000000E+00
  0.00000000E+00  0.00000000E+00  0.00000000E+00
  0.00000000E+00  0.00000000E+00  0.00000000E+00
  0.00000000E+00  0.00000000E+00  0.00000000E+00
  0.00000000E+00  0.00000000E+00  0.00000000E+00
  0.00000000E+00  0.00000000E+00  0.00000000E+00
  0.00000000E+00  0.00000000E+00  0.00000000E+00
  0.00000000E+00  0.00000000E+00  0.00000000E+00
  0.00000000E+00  0.00000000E+00  0.00000000E+00
  0.00000000E+00  0.00000000E+00  0.00000000E+00
  0.00000000E+00  0.00000000E+00  0.00000000E+00
  0.00000000E+00  0.00000000E+00  0.00000000E+00
  0.00000000E+00  0.00000000E+00  0.00000000E+00
  0.00000000E+00  0.00000000E+00  0.00000000E+00
  0.00000000E+00  0.00000000E+00  0.00000000E+00
  0.00000000E+00  0.00000000E+00  0.00000000E+00
  0.00000000E+00  0.00000000E+00  0.00000000E+00
  0.00000000E+00  0.00000000E+00  0.00000000E+00
  0.00000000E+00  0.00000000E+00  0.00000000E+00
  0.00000000E+00  0.00000000E+00  0.00000000E+00
  0.00000000E+00  0.00000000E+00  0.00000000E+00
  0.00000000E+00  0.00000000E+00  0.00000000E+00
  0.00000000E+00  0.00000000E+00  0.00000000E+00
  0.00000000E+00  0.00000000E+00  0.00000000E+00
  0.00000000E+00  0.00000000E+00  0.00000000E+00
  0.00000000E+00  0.00000000E+00  0.00000000E+00
  0.00000000E+00  0.00000000E+00  0.00000000E+00
  0.00000000E+00  0.00000000E+00  0.00000000E+00
  0.00000000E+00  0.00000000E+00  0.00000000E+00
  0.00000000E+00  0.00000000E+00  0.00000000E+00
  0.00000000E+00  0.00000000E+00  0.00000000E+00
  0.00000000E+00  0.00000000E+00  0.00000000E+00
  0.00000000E+00  0.00000000E+00  0.00000000E+00
  0.00000000E+00  0.00000000E+00  0.00000000E+00
  0.00000000E+00  0.00000000E+00  0.00000000E+00
  0.00000000E+00  0.00000000E+00  0.00000000E+00
  0.00000000E+00  0.00000000E+00  0.00000000E+00
