       N       E                     dE             d eps       ncg     rms          ort
SDA:   1    -0.336863600485E+03   -0.33686E+03    0.00000E+00  3328   0.134E+03 0.000E+00
CGA:   2    -0.413152325099E+03   -0.76289E+02   -0.73308E+02  3328   0.653E+02 0.500E+01
CGA:   3    -0.429748063872E+03   -0.16596E+02   -0.16592E+02  3328   0.415E+02-0.428E+00
CGA:   4    -0.436817039154E+03   -0.70690E+01   -0.71111E+01  3328   0.236E+02 0.660E-01
CGA:   5    -0.440506382873E+03   -0.36893E+01   -0.37012E+01  3328   0.110E+02 0.184E-01
CGA:   6    -0.442356812207E+03   -0.18504E+01   -0.18514E+01  3328   0.419E+01-0.128E-01
CGA:   7    -0.443125750811E+03   -0.76894E+00   -0.76870E+00  3328   0.187E+01-0.768E-02
CGA:   8    -0.443475217274E+03   -0.34947E+00   -0.34951E+00  3328   0.702E+00 0.186E-03
CGA:   9    -0.443619916273E+03   -0.14470E+00   -0.14470E+00  3328   0.269E+00-0.243E-03
CGA:  10    -0.443678106036E+03   -0.58190E-01   -0.58195E-01  3328   0.104E+00-0.328E-03
CGA:  11    -0.443702556591E+03   -0.24451E-01   -0.24455E-01  3328   0.415E-01-0.106E-03
CGA:  12    -0.443713484605E+03   -0.10928E-01   -0.10928E-01  3328   0.184E-01-0.971E-05
CGA:  13    -0.443718600586E+03   -0.51160E-02   -0.51170E-02  3328   0.764E-02-0.196E-04
CGA:  14    -0.443720823995E+03   -0.22234E-02   -0.22245E-02  3328   0.300E-02-0.135E-04
CGA:  15    -0.443721700816E+03   -0.87682E-03   -0.87734E-03  3328   0.112E-02-0.607E-05
CGA:  16    -0.443722051772E+03   -0.35096E-03   -0.35124E-03  3328   0.475E-03-0.287E-05
CGA:  17    -0.443722230397E+03   -0.17862E-03   -0.17855E-03  3328   0.288E-03 0.560E-06
CGA:  18    -0.443722367108E+03   -0.13671E-03   -0.13652E-03  3328   0.260E-03 0.783E-06
CGA:  19    -0.443722510984E+03   -0.14388E-03   -0.14391E-03  3328   0.289E-03-0.129E-06
CGA:  20    -0.443722673127E+03   -0.16214E-03   -0.16202E-03  3328   0.304E-03 0.140E-05
CGA:  21    -0.443722839864E+03   -0.16674E-03   -0.16560E-03  3328   0.285E-03 0.564E-05
CGA:  22    -0.443722981965E+03   -0.14210E-03   -0.13990E-03  3328   0.212E-03 0.118E-04
CGA:  23    -0.443723075333E+03   -0.93368E-04   -0.91777E-04  3328   0.116E-03 0.120E-04
CGA:  24    -0.443723123305E+03   -0.47972E-04   -0.47416E-04  3328   0.530E-04 0.598E-05
CGA:  25    -0.443723144477E+03   -0.21171E-04   -0.20917E-04  3328   0.232E-04 0.312E-05
CGA:  26    -0.443723153819E+03   -0.93427E-05   -0.92310E-05  3328   0.104E-04 0.145E-05
   1 F= -.44546515E+03 E0= -.44544894E+03  d E =-.324217E-01  mag=     1.2785
