       N       E                     dE             d eps       ncg     rms          ort
DAV:   1     0.124008431417E+02    0.12401E+02   -0.24850E+03   256   0.216E+01
DAV:   2    -0.467501668932E+01   -0.17076E+02   -0.17076E+02   256   0.230E+00
DAV:   3    -0.467966839305E+01   -0.46517E-02   -0.46517E-02   256   0.639E-02
DAV:   4    -0.467968264228E+01   -0.14249E-04   -0.14249E-04   256   0.112E-02
DAV:   5    -0.467968288706E+01   -0.24478E-06   -0.24477E-06   256   0.598E-04
SDA:   6    -0.422235675328E+01    0.45733E+00   -0.24477E-06   256   0.217E+01 0.000E+00
CGA:   7    -0.431208125310E+01   -0.89724E-01   -0.87580E-01   256   0.114E+01 0.494E-01
CGA:   8    -0.454802498303E+01   -0.23594E+00   -0.23582E+00   256   0.155E+00-0.454E-03
CGA:   9    -0.455950969488E+01   -0.11485E-01   -0.11114E-01   256   0.185E+00 0.556E-03
CGA:  10    -0.459855304430E+01   -0.39043E-01   -0.39018E-01   256   0.293E-01 0.324E-03
CGA:  11    -0.460013199235E+01   -0.15789E-02   -0.14869E-02   256   0.139E-01 0.110E-02
CGA:  12    -0.460465796333E+01   -0.45260E-02   -0.46356E-02   256   0.165E-01-0.625E-03
CGA:  13    -0.460543218396E+01   -0.77422E-03   -0.69903E-03   256   0.181E-02 0.129E-02
CGA:  14    -0.460564320063E+01   -0.21102E-03   -0.20657E-03   256   0.295E-02-0.488E-05
CGA:  15    -0.460607818665E+01   -0.43499E-03   -0.43447E-03   256   0.230E-02 0.267E-04
CGA:  16    -0.460618939242E+01   -0.11121E-03   -0.10981E-03   256   0.358E-03 0.917E-04
CGA:  17    -0.460622602661E+01   -0.36634E-04   -0.37435E-04   256   0.442E-03 0.162E-04
CGA:  18    -0.460630447933E+01   -0.78453E-04   -0.78321E-04   256   0.395E-03 0.384E-04
CGA:  19    -0.460633616613E+01   -0.31687E-04   -0.33971E-04   256   0.691E-04 0.243E-05
CGA:  20    -0.460634285457E+01   -0.66884E-05   -0.69638E-05   256   0.427E-04 0.265E-05
CGA:  21    -0.460635439172E+01   -0.11537E-04   -0.11132E-04   256   0.590E-04 0.466E-05
CGA:  22    -0.460636044643E+01   -0.60547E-05   -0.62478E-05   256   0.617E-05 0.137E-05
   1 F= -.46063604E+01 E0= -.46063604E+01  d E =-.245040E-12  mag=     5.0000
