 vasp.5.4.4.18Apr17-6-g9f103f2a35 (build Nov 21 2023 15:34:30) complex          
  
 executed on             LinuxIFC date 2026.09.21  18:27:35
 running on  256 total cores
 distrk:  each k-point on  256 cores,    1 groups
 distr:  one band on NCORES_PER_BAND=   1 cores,  256 groups


--------------------------------------------------------------------------------------------------------


 INCAR:
 POTCAR:    PAW_PBE Re 17Jan2003                  

 ----------------------------------------------------------------------------- 
|                                                                             |
|           W    W    AA    RRRRR   N    N  II  N    N   GGGG   !!!           |
|           W    W   A  A   R    R  NN   N  II  NN   N  G    G  !!!           |
|           W    W  A    A  R    R  N N  N  II  N N  N  G       !!!           |
|           W WW W  AAAAAA  RRRRR   N  N N  II  N  N N  G  GGG   !            |
|           WW  WW  A    A  R   R   N   NN  II  N   NN  G    G                |
|           W    W  A    A  R    R  N    N  II  N    N   GGGG   !!!           |
|                                                                             |
|      For optimal performance we recommend to set                            |
|        NCORE= 4 - approx SQRT( number of cores)                             |
|      NCORE specifies how many cores store one orbital (NPAR=cpu/NCORE).     |
|      This setting can  greatly improve the performance of VASP for DFT.     |
|      The default,   NCORE=1            might be grossly inefficient         |
|      on modern multi-core architectures or massively parallel machines.     |
|      Do your own testing !!!!                                               |
|      Unfortunately you need to use the default for GW and RPA calculations. |
|      (for HF NCORE is supported but not extensively tested yet)             |
|                                                                             |
 ----------------------------------------------------------------------------- 

 POTCAR:    PAW_PBE Re 17Jan2003                  
   VRHFIN =Re: 5p6s5d                                                           
   LEXCH  = PE                                                                  
   EATOM  =   299.6589 eV,   22.0243 Ry                                         
                                                                                
   TITEL  = PAW_PBE Re 17Jan2003                                                
   LULTRA =        F    use ultrasoft PP ?                                      
   IUNSCR =        1    unscreen: 0-lin 1-nonlin 2-no                           
   RPACOR =    2.250    partial core radius                                     
   POMASS =  186.207; ZVAL   =    7.000    mass and valenz                      
   RCORE  =    2.700    outmost cutoff radius                                   
   RWIGS  =    2.710; RWIGS  =    1.434    wigner-seitz radius (au A)           
   ENMAX  =  226.216; ENMIN  =  169.662 eV                                      
   RCLOC  =    2.105    cutoff for local pot                                    
   LCOR   =        T    correct aug charges                                     
   LPAW   =        T    paw PP                                                  
   EAUG   =  370.280                                                            
   DEXC   =    -.079                                                            
   RMAX   =    3.066    core radius for proj-oper                               
   RAUG   =    1.300    factor for augmentation sphere                          
   RDEP   =    2.719    radius for radial grids                                 
   QCUT   =   -4.078; QGAM   =    8.155    optimization parameters              
                                                                                
   Description                                                                  
     l     E      TYP  RCUT    TYP  RCUT                                        
     2   .000     23  2.500                                                     
     2   .000     23  2.500                                                     
     0   .000     23  2.500                                                     
     0   .000     23  2.500                                                     
     1   .000     23  2.700                                                     
     1  2.000     23  2.700                                                     
     3   .000      7   .000                                                     
  local pseudopotential read in
  partial core-charges read in
  atomic valenz-charges read in
  non local Contribution for L=           2  read in
    real space projection operators read in
  non local Contribution for L=           2  read in
    real space projection operators read in
  non local Contribution for L=           0  read in
    real space projection operators read in
  non local Contribution for L=           0  read in
    real space projection operators read in
  non local Contribution for L=           1  read in
    real space projection operators read in
  non local Contribution for L=           1  read in
    real space projection operators read in
    PAW grid and wavefunctions read in
 
   number of l-projection  operators is LMAX  =           6
   number of lm-projection operators is LMMAX =          18
 
  PAW_PBE Re 17Jan2003                  :
 energy of atom  1       EATOM= -299.6589
 kinetic energy error for atom=    0.0019 (will be added to EATOM!!)
 
 
 POSCAR: Re                                      
  positions in direct lattice
  No initial velocities read in
 exchange correlation table for  LEXCH =        8
   RHO(1)=    0.500       N(1)  =     2000
   RHO(2)=  100.500       N(2)  =     4000

 VTST: version 3.2, (02/03/18)

 CHAIN: initializing optimizer
 
 OPT: Using VASP Dynamics algorithm
 CHAIN: Read ICHAIN            0
 
 POSCAR: Re                                      
  positions in direct lattice
  No initial velocities read in
 


--------------------------------------------------------------------------------------------------------


 ion  position               nearest neighbor table
   1  0.010  0.010  0.751-
 

IMPORTANT INFORMATION: All symmetrisations will be switched off!
NOSYMM: (Re-)initialisation of all symmetry stuff for point group C_1.

 
 

Automatic generation of k-mesh.
 generate k-points for:    1    1    1
Space group operators:
 irot       det(A)        alpha          n_x          n_y          n_z        tau_x        tau_y        tau_z
    1     1.000000     0.000000     1.000000     0.000000     0.000000     0.000000     0.000000     0.000000
 
 Subroutine IBZKPT returns following result:
 ===========================================
 
 Found      1 irreducible k-points:
 
 Following reciprocal coordinates:
            Coordinates               Weight
  0.000000  0.000000  0.000000      1.000000
 
 Following cartesian coordinates:
            Coordinates               Weight
  0.000000  0.000000  0.000000      1.000000
 


--------------------------------------------------------------------------------------------------------




 Dimension of arrays:
   k-points           NKPTS =      1   k-points in BZ     NKDIM =      1   number of bands    NBANDS=    256
   number of dos      NEDOS =    301   number of ions     NIONS =      1
   non local maximal  LDIM  =      6   non local SUM 2l+1 LMDIM =     18
   total plane-waves  NPLWV = ******
   max r-space proj   IRMAX =      1   max aug-charges    IRDMAX=  24263
   dimension x,y,z NGX =   112 NGY =  112 NGZ =  112
   dimension x,y,z NGXF=   224 NGYF=  224 NGZF=  224
   support grid    NGXF=   224 NGYF=  224 NGZF=  224
   ions per type =               1
   NGX,Y,Z   is equivalent  to a cutoff of  12.41, 12.41, 12.41 a.u.
   NGXF,Y,Z  is equivalent  to a cutoff of  24.83, 24.83, 24.83 a.u.

 SYSTEM =  Re                                      
 POSCAR =  Re                                      

 Startparameter for this run:
   NWRITE =      2    write-flag & timer
   PREC   = accura    normal or accurate (medium, high low for compatibility)
   ISTART =      0    job   : 0-new  1-cont  2-samecut
   ICHARG =      2    charge: 1-file 2-atom 10-const
   ISPIN  =      2    spin polarized calculation?
   LNONCOLLINEAR =      F non collinear calculations
   LSORBIT =      F    spin-orbit coupling
   INIWAV =      1    electr: 0-lowe 1-rand  2-diag
   LASPH  =      T    aspherical Exc in radial PAW
   METAGGA=      F    non-selfconsistent MetaGGA calc.

 Electronic Relaxation 1
   ENCUT  =  520.0 eV  38.22 Ry    6.18 a.u.  27.89 27.89 27.89*2*pi/ulx,y,z
   ENINI  =  520.0     initial cutoff
   ENAUG  =  370.3 eV  augmentation charge cutoff
   NELM   =    200;   NELMIN=  2; NELMDL= -5     # of ELM steps 
   EDIFF  = 0.1E-04   stopping-criterion for ELM
   LREAL  =      F    real-space projection
   NLSPLINE    = F    spline interpolate recip. space projectors
   LCOMPAT=      F    compatible to vasp.4.4
   GGA_COMPAT  = T    GGA compatible to vasp.4.4-vasp.4.6
   LMAXPAW     = -100 max onsite density
   LMAXMIX     =    2 max onsite mixed and CHGCAR
   VOSKOWN=      0    Vosko Wilk Nusair interpolation
   ROPT   =    0.00000
 Ionic relaxation
   EDIFFG = 0.1E-03   stopping-criterion for IOM
   NSW    =      0    number of steps for IOM
   NBLOCK =      1;   KBLOCK =      1    inner block; outer block 
   IBRION =     -1    ionic relax: 0-MD 1-quasi-New 2-CG
   NFREE  =      0    steps in history (QN), initial steepest desc. (CG)
   ISIF   =      0    stress and relaxation
   IWAVPR =     10    prediction:  0-non 1-charg 2-wave 3-comb
   ISYM   =      0    0-nonsym 1-usesym 2-fastsym
   LCORR  =      T    Harris-Foulkes like correction to forces

   POTIM  = 0.5000    time-step for ionic-motion
   TEIN   =    0.0    initial temperature
   TEBEG  =    0.0;   TEEND  =   0.0 temperature during run
   SMASS  =  -3.00    Nose mass-parameter (am)
   estimated Nose-frequenzy (Omega)   =  0.10E-29 period in steps =****** mass=  -0.514E-26a.u.
   SCALEE = 1.0000    scale energy and forces
   NPACO  =    256;   APACO  = 16.0  distance and # of slots for P.C.
   PSTRESS=    0.0 pullay stress

  Mass of Ions in am
   POMASS = 186.21
  Ionic Valenz
   ZVAL   =   7.00
  Atomic Wigner-Seitz radii
   RWIGS  =  -1.00
  virtual crystal weights 
   VCA    =   1.00
   NELECT =       7.0000    total number of electrons
   NUPDOWN=       5.0000    fix difference up-down

 DOS related values:
   EMIN   =  10.00;   EMAX   =-10.00  energy-range for DOS
   EFERMI =   0.00
   ISMEAR =     0;   SIGMA  =   0.05  broadening in eV -4-tet -1-fermi 0-gaus

 Electronic relaxation 2 (details)
   IALGO  =     58    algorithm
   LDIAG  =      T    sub-space diagonalisation (order eigenvalues)
   LSUBROT=      F    optimize rotation matrix (better conditioning)
   TURBO    =      0    0=normal 1=particle mesh
   IRESTART =      0    0=no restart 2=restart with 2 vectors
   NREBOOT  =      0    no. of reboots
   NMIN     =      0    reboot dimension
   EREF     =   0.00    reference energy to select bands
   IMIX   =      4    mixing-type and parameters
     AMIX     =   0.40;   BMIX     =  1.00
     AMIX_MAG =   1.60;   BMIX_MAG =  1.00
     AMIN     =   0.10
     WC   =   100.;   INIMIX=   1;  MIXPRE=   1;  MAXMIX= -45

 Intra band minimization:
   WEIMIN = 0.0000     energy-eigenvalue tresh-hold
   EBREAK =  0.98E-08  absolut break condition
   DEPER  =   0.30     relativ break condition  

   TIME   =   0.40     timestep for ELM

  volume/ion in A,a.u.               =    3375.00     22775.62
  Fermi-wavevector in a.u.,A,eV,Ry     =   0.208777  0.394532  0.593049  0.043588
  Thomas-Fermi vector in A             =   0.974306
 
 Write flags
   LWAVE        =      F    write WAVECAR
   LDOWNSAMPLE  =      F    k-point downsampling of WAVECAR
   LCHARG       =      F    write CHGCAR
   LVTOT        =      F    write LOCPOT, total local potential
   LVHAR        =      F    write LOCPOT, Hartree potential only
   LELF         =      F    write electronic localiz. function (ELF)
   LORBIT       =      0    0 simple, 1 ext, 2 COOP (PROOUT), +10 PAW based schemes


 Dipole corrections
   LMONO  =      F    monopole corrections only (constant potential shift)
   LDIPOL =      F    correct potential (dipole corrections)
   IDIPOL =      0    1-x, 2-y, 3-z, 4-all directions 
   EPSILON=  1.0000000 bulk dielectric constant

 Exchange correlation treatment:
   GGA     =    --    GGA type
   LEXCH   =     8    internal setting for exchange type
   VOSKOWN=      0    Vosko Wilk Nusair interpolation
   LHFCALC =     F    Hartree Fock is set to
   LHFONE  =     F    Hartree Fock one center treatment
   AEXX    =    0.0000 exact exchange contribution

 Linear response parameters
   LEPSILON=     F    determine dielectric tensor
   LRPA    =     F    only Hartree local field effects (RPA)
   LNABLA  =     F    use nabla operator in PAW spheres
   LVEL    =     F    velocity operator in full k-point grid
   LINTERFAST=   F  fast interpolation
   KINTER  =     0    interpolate to denser k-point grid
   CSHIFT  =0.1000    complex shift for real part using Kramers Kronig
   OMEGAMAX=  -1.0    maximum frequency
   DEG_THRESHOLD= 0.2000000E-02 threshold for treating states as degnerate
   RTIME   =   -0.100 relaxation time in fs
  (WPLASMAI=    0.000 imaginary part of plasma frequency in eV, 0.658/RTIME)
   DFIELD  = 0.0000000 0.0000000 0.0000000 field for delta impulse in time
 
 Orbital magnetization related:
   ORBITALMAG=     F  switch on orbital magnetization
   LCHIMAG   =     F  perturbation theory with respect to B field
   DQ        =  0.001000  dq finite difference perturbation B field
   LLRAUG    =     F  two centre corrections for induced B field



--------------------------------------------------------------------------------------------------------


 Static calculation
 charge density and potential will be updated during run
 spin polarized calculation
 Conjugate gradient for all bands (Freysoldt, et al. PRB 79, 241103 (2009))
 preconditioned conjugated gradient                                        
 perform sub-space diagonalisation
    before iterative eigenvector-optimisation
 modified Broyden-mixing scheme, WC =      100.0
 initial mixing is a Kerker type mixing with AMIX =  0.4000 and BMIX =      1.0000
 Hartree-type preconditioning will be used
 using additional bands          252
 reciprocal scheme for non local part
 use partial core corrections
 no Harris-corrections to forces 
 use gradient corrections 
 use of overlap-Matrix (Vanderbilt PP)
 Gauss-broadening in eV      SIGMA  =   0.05


--------------------------------------------------------------------------------------------------------


  energy-cutoff  :      520.00
  volume of cell :     3375.00
      direct lattice vectors                 reciprocal lattice vectors
    15.000000000  0.000000000  0.000000000     0.066666667  0.000000000  0.000000000
     0.000000000 15.000000000  0.000000000     0.000000000  0.066666667  0.000000000
     0.000000000  0.000000000 15.000000000     0.000000000  0.000000000  0.066666667

  length of vectors
    15.000000000 15.000000000 15.000000000     0.066666667  0.066666667  0.066666667


 
 k-points in units of 2pi/SCALE and weight: read from INCAR                         
   0.00000000  0.00000000  0.00000000       1.000
 
 k-points in reciprocal lattice and weights: read from INCAR                         
   0.00000000  0.00000000  0.00000000       1.000
 
 position of ions in fractional coordinates (direct lattice) 
   0.01000000  0.01000000  0.75100000
 
 position of ions in cartesian coordinates  (Angst):
   0.15000000  0.15000000 11.26500000
 


--------------------------------------------------------------------------------------------------------


 k-point  1 :   0.0000 0.0000 0.0000  plane waves:   90879

 maximum and minimum number of plane-waves per node :     90879    90879

 maximum number of plane-waves:     90879
 maximum index in each direction: 
   IXMAX=   27   IYMAX=   27   IZMAX=   27
   IXMIN=  -27   IYMIN=  -27   IZMIN=  -27


 serial   3D FFT for wavefunctions
 parallel 3D FFT for charge:
    minimum data exchange during FFTs selected (reduces bandwidth)


 total amount of memory used by VASP MPI-rank0   177231. kBytes
=======================================================================

   base      :      30000. kBytes
   nonl-proj :      14540. kBytes
   fftplans  :       7479. kBytes
   grid      :     116433. kBytes
   one-center:         31. kBytes
   wavefun   :       8748. kBytes
 
     INWAV:  cpu time    0.0000: real time    0.0000
 Broyden mixing: mesh for mixing (old mesh)
   NGX = 55   NGY = 55   NGZ = 55
  (NGX  =224   NGY  =224   NGZ  =224)
  gives a total of 166375 points

 initial charge density was supplied:
 charge density of overlapping atoms calculated
 number of electron       7.0000000 magnetization       5.0000000
 keeping initial charge density in first step


--------------------------------------------------------------------------------------------------------


 Maximum index for augmentation-charges          974 (set IRDMAX)


--------------------------------------------------------------------------------------------------------


 First call to EWALD:  gamma=   0.118
 Maximum number of real-space cells 3x 3x 3
 Maximum number of reciprocal cells 3x 3x 3

    FEWALD:  cpu time    0.0204: real time    0.0205


--------------------------------------- Iteration      1(   1)  ---------------------------------------


    POTLOK:  cpu time    2.4878: real time    2.5437
    SETDIJ:  cpu time    0.4098: real time    0.4293
    TRIAL :  cpu time    8.7408: real time    8.8458
    CORREC:  cpu time    0.0359: real time    0.0410
    --------------------------------------------
      LOOP:  cpu time   11.6831: real time   11.8711

 eigenvalue-minimisations  :  1024
 total energy-change (2. order) : 0.1240084E+02  (-0.2485011E+03)
 number of electron       7.0000000 magnetization       5.0000000
 augmentation part        7.0000000 magnetization       5.0000000

 Free energy of the ion-electron system (eV)
  ---------------------------------------------------
  alpha Z        PSCENC =         0.28007207
  Ewald energy   TEWEN  =       -66.73225068
  -Hartree energ DENC   =      -216.56821949
  -exchange      EXHF   =         0.00000000
  -V(xc)+E(xc)   XCENC  =       -47.34427159
  PAW double counting   =       249.07721237     -187.54034192
  entropy T*S    EENTRO =        -0.00000000
  eigenvalues    EBANDS =       -18.42839281
  atomic energy  EATOM  =       299.65703520
  ---------------------------------------------------
  free energy    TOTEN  =        12.40084314 eV

  energy without entropy =       12.40084314  energy(sigma->0) =       12.40084314


--------------------------------------------------------------------------------------------------------




--------------------------------------- Iteration      1(   2)  ---------------------------------------


    TRIAL :  cpu time   36.4193: real time   36.5682
    CORREC:  cpu time    0.1086: real time    0.1086
    --------------------------------------------
      LOOP:  cpu time   36.5779: real time   36.7305

 eigenvalue-minimisations  :  1536
 total energy-change (2. order) :-0.1707586E+02  (-0.1707586E+02)
 number of electron       7.0000000 magnetization       5.0000000
 augmentation part        7.0000000 magnetization       5.0000000

 Free energy of the ion-electron system (eV)
  ---------------------------------------------------
  alpha Z        PSCENC =         0.28007207
  Ewald energy   TEWEN  =       -66.73225068
  -Hartree energ DENC   =      -216.56821949
  -exchange      EXHF   =         0.00000000
  -V(xc)+E(xc)   XCENC  =       -47.34427159
  PAW double counting   =       249.07721237     -187.54034192
  entropy T*S    EENTRO =        -0.00000000
  eigenvalues    EBANDS =       -35.50425264
  atomic energy  EATOM  =       299.65703520
  ---------------------------------------------------
  free energy    TOTEN  =        -4.67501669 eV

  energy without entropy =       -4.67501669  energy(sigma->0) =       -4.67501669


--------------------------------------------------------------------------------------------------------




--------------------------------------- Iteration      1(   3)  ---------------------------------------


    TRIAL :  cpu time   10.7400: real time   10.7402
    CORREC:  cpu time    0.0418: real time    0.0418
    --------------------------------------------
      LOOP:  cpu time   10.7887: real time   10.8025

 eigenvalue-minimisations  :  1024
 total energy-change (2. order) :-0.4651704E-02  (-0.4651704E-02)
 number of electron       7.0000000 magnetization       5.0000000
 augmentation part        7.0000000 magnetization       5.0000000

 Free energy of the ion-electron system (eV)
  ---------------------------------------------------
  alpha Z        PSCENC =         0.28007207
  Ewald energy   TEWEN  =       -66.73225068
  -Hartree energ DENC   =      -216.56821949
  -exchange      EXHF   =         0.00000000
  -V(xc)+E(xc)   XCENC  =       -47.34427159
  PAW double counting   =       249.07721237     -187.54034192
  entropy T*S    EENTRO =        -0.00000000
  eigenvalues    EBANDS =       -35.50890435
  atomic energy  EATOM  =       299.65703520
  ---------------------------------------------------
  free energy    TOTEN  =        -4.67966839 eV

  energy without entropy =       -4.67966839  energy(sigma->0) =       -4.67966839


--------------------------------------------------------------------------------------------------------




--------------------------------------- Iteration      1(   4)  ---------------------------------------


    TRIAL :  cpu time   13.4624: real time   13.5013
    CORREC:  cpu time    0.0557: real time    0.0557
    --------------------------------------------
      LOOP:  cpu time   13.5259: real time   13.5656

 eigenvalue-minimisations  :  1536
 total energy-change (2. order) :-0.1424924E-04  (-0.1424923E-04)
 number of electron       7.0000000 magnetization       5.0000000
 augmentation part        7.0000000 magnetization       5.0000000

 Free energy of the ion-electron system (eV)
  ---------------------------------------------------
  alpha Z        PSCENC =         0.28007207
  Ewald energy   TEWEN  =       -66.73225068
  -Hartree energ DENC   =      -216.56821949
  -exchange      EXHF   =         0.00000000
  -V(xc)+E(xc)   XCENC  =       -47.34427159
  PAW double counting   =       249.07721237     -187.54034192
  entropy T*S    EENTRO =        -0.00000000
  eigenvalues    EBANDS =       -35.50891860
  atomic energy  EATOM  =       299.65703520
  ---------------------------------------------------
  free energy    TOTEN  =        -4.67968264 eV

  energy without entropy =       -4.67968264  energy(sigma->0) =       -4.67968264


--------------------------------------------------------------------------------------------------------




--------------------------------------- Iteration      1(   5)  ---------------------------------------


    TRIAL :  cpu time    9.0733: real time    9.0742
    CORREC:  cpu time    0.0421: real time    0.0421
    CHARGE:  cpu time    1.3821: real time    1.4023
    --------------------------------------------
      LOOP:  cpu time   10.5044: real time   10.5262

 eigenvalue-minimisations  :  1024
 total energy-change (2. order) :-0.2447779E-06  (-0.2447698E-06)
 number of electron       7.0000000 magnetization       5.0000000
 augmentation part        1.0231280 magnetization       1.1290707

 Free energy of the ion-electron system (eV)
  ---------------------------------------------------
  alpha Z        PSCENC =         0.28007207
  Ewald energy   TEWEN  =       -66.73225068
  -Hartree energ DENC   =      -216.56821949
  -exchange      EXHF   =         0.00000000
  -V(xc)+E(xc)   XCENC  =       -47.34427159
  PAW double counting   =       249.07721237     -187.54034192
  entropy T*S    EENTRO =        -0.00000000
  eigenvalues    EBANDS =       -35.50891884
  atomic energy  EATOM  =       299.65703520
  ---------------------------------------------------
  free energy    TOTEN  =        -4.67968289 eV

  energy without entropy =       -4.67968289  energy(sigma->0) =       -4.67968289


--------------------------------------------------------------------------------------------------------




--------------------------------------- Iteration      1(   6)  ---------------------------------------


    POTLOK:  cpu time    2.4961: real time    2.4961
    SETDIJ:  cpu time    0.4063: real time    0.4063
    TRIAL :  cpu time    3.7312: real time    4.0740
    CORREC:  cpu time    5.9773: real time    6.1468
    CHARGE:  cpu time    1.3992: real time    1.3993
    --------------------------------------------
      LOOP:  cpu time   14.0328: real time   14.5452

 eigenvalue-minimisations  :     0
 total energy-change (2. order) : 0.4573261E+00  (-0.8757991E-01)
 number of electron       7.0000000 magnetization       5.0000000
 augmentation part        1.0862411 magnetization       1.1940325

 Free energy of the ion-electron system (eV)
  ---------------------------------------------------
  alpha Z        PSCENC =         0.28007207
  Ewald energy   TEWEN  =       -66.73225068
  -Hartree energ DENC   =      -198.37472566
  -exchange      EXHF   =         0.00000000
  -V(xc)+E(xc)   XCENC  =       -47.13251025
  PAW double counting   =       222.05737247     -161.86176116
  entropy T*S    EENTRO =        -0.00000000
  eigenvalues    EBANDS =       -52.11558874
  atomic energy  EATOM  =       299.65703520
  ---------------------------------------------------
  free energy    TOTEN  =        -4.22235675 eV

  energy without entropy =       -4.22235675  energy(sigma->0) =       -4.22235675


--------------------------------------------------------------------------------------------------------




--------------------------------------- Iteration      1(   7)  ---------------------------------------


    POTLOK:  cpu time    2.4724: real time    2.4724
    SETDIJ:  cpu time    0.4081: real time    0.4081
    TRIAL :  cpu time    3.4925: real time    3.5858
    CORREC:  cpu time    5.9548: real time    6.0947
    CHARGE:  cpu time    1.3462: real time    1.3464
    --------------------------------------------
      LOOP:  cpu time   13.6961: real time   13.9295

 eigenvalue-minimisations  :     0
 total energy-change (2. order) :-0.8972450E-01  (-0.2358201E+00)
 number of electron       7.0000000 magnetization       5.0000000
 augmentation part        1.0902824 magnetization       1.2092388

 Free energy of the ion-electron system (eV)
  ---------------------------------------------------
  alpha Z        PSCENC =         0.28007207
  Ewald energy   TEWEN  =       -66.73225068
  -Hartree energ DENC   =      -200.41483861
  -exchange      EXHF   =         0.00000000
  -V(xc)+E(xc)   XCENC  =       -47.10029494
  PAW double counting   =       213.20528213     -153.00972591
  entropy T*S    EENTRO =        -0.00000000
  eigenvalues    EBANDS =       -50.19736051
  atomic energy  EATOM  =       299.65703520
  ---------------------------------------------------
  free energy    TOTEN  =        -4.31208125 eV

  energy without entropy =       -4.31208125  energy(sigma->0) =       -4.31208125


--------------------------------------------------------------------------------------------------------




--------------------------------------- Iteration      1(   8)  ---------------------------------------


    POTLOK:  cpu time    2.4762: real time    2.4765
    SETDIJ:  cpu time    0.4074: real time    0.4074
    TRIAL :  cpu time    3.5050: real time    3.5908
    CORREC:  cpu time    5.9973: real time    6.0649
    CHARGE:  cpu time    1.3565: real time    1.3567
    --------------------------------------------
      LOOP:  cpu time   13.7683: real time   13.9236

 eigenvalue-minimisations  :     0
 total energy-change (2. order) :-0.2359437E+00  (-0.1111430E-01)
 number of electron       7.0000000 magnetization       5.0000000
 augmentation part        1.0715347 magnetization       1.1899719

 Free energy of the ion-electron system (eV)
  ---------------------------------------------------
  alpha Z        PSCENC =         0.28007207
  Ewald energy   TEWEN  =       -66.73225068
  -Hartree energ DENC   =      -206.60891357
  -exchange      EXHF   =         0.00000000
  -V(xc)+E(xc)   XCENC  =       -46.86682912
  PAW double counting   =       232.89986874     -172.73831297
  entropy T*S    EENTRO =        -0.00000000
  eigenvalues    EBANDS =       -44.43869464
  atomic energy  EATOM  =       299.65703520
  ---------------------------------------------------
  free energy    TOTEN  =        -4.54802498 eV

  energy without entropy =       -4.54802498  energy(sigma->0) =       -4.54802498


--------------------------------------------------------------------------------------------------------




--------------------------------------- Iteration      1(   9)  ---------------------------------------


    POTLOK:  cpu time    2.5358: real time    2.5362
    SETDIJ:  cpu time    0.4082: real time    0.4082
    TRIAL :  cpu time    3.9176: real time    4.0468
    CORREC:  cpu time    6.1345: real time    6.2633
    CHARGE:  cpu time    1.3227: real time    1.3286
    --------------------------------------------
      LOOP:  cpu time   14.3501: real time   14.6145

 eigenvalue-minimisations  :     0
 total energy-change (2. order) :-0.1148471E-01  (-0.3901783E-01)
 number of electron       7.0000000 magnetization       5.0000000
 augmentation part        1.0910847 magnetization       1.2053634

 Free energy of the ion-electron system (eV)
  ---------------------------------------------------
  alpha Z        PSCENC =         0.28007207
  Ewald energy   TEWEN  =       -66.73225068
  -Hartree energ DENC   =      -206.59271780
  -exchange      EXHF   =         0.00000000
  -V(xc)+E(xc)   XCENC  =       -46.85121532
  PAW double counting   =       238.32310026     -178.15685789
  entropy T*S    EENTRO =        -0.00000000
  eigenvalues    EBANDS =       -44.48667554
  atomic energy  EATOM  =       299.65703520
  ---------------------------------------------------
  free energy    TOTEN  =        -4.55950969 eV

  energy without entropy =       -4.55950969  energy(sigma->0) =       -4.55950969


--------------------------------------------------------------------------------------------------------




--------------------------------------- Iteration      1(  10)  ---------------------------------------


    POTLOK:  cpu time    2.4673: real time    2.4897
    SETDIJ:  cpu time    0.4073: real time    0.4074
    TRIAL :  cpu time    3.4691: real time    3.5901
    CORREC:  cpu time    6.0106: real time    6.0966
    CHARGE:  cpu time    1.3834: real time    1.3835
    --------------------------------------------
      LOOP:  cpu time   13.7590: real time   13.9888

 eigenvalue-minimisations  :     0
 total energy-change (2. order) :-0.3904335E-01  (-0.1486878E-02)
 number of electron       7.0000000 magnetization       5.0000000
 augmentation part        1.0994474 magnetization       1.2135395

 Free energy of the ion-electron system (eV)
  ---------------------------------------------------
  alpha Z        PSCENC =         0.28007207
  Ewald energy   TEWEN  =       -66.73225068
  -Hartree energ DENC   =      -207.86994059
  -exchange      EXHF   =         0.00000000
  -V(xc)+E(xc)   XCENC  =       -46.79540461
  PAW double counting   =       238.74152397     -178.53613937
  entropy T*S    EENTRO =        -0.00000000
  eigenvalues    EBANDS =       -43.34344903
  atomic energy  EATOM  =       299.65703520
  ---------------------------------------------------
  free energy    TOTEN  =        -4.59855304 eV

  energy without entropy =       -4.59855304  energy(sigma->0) =       -4.59855304


--------------------------------------------------------------------------------------------------------




--------------------------------------- Iteration      1(  11)  ---------------------------------------


    POTLOK:  cpu time    2.5044: real time    2.5046
    SETDIJ:  cpu time    0.4069: real time    0.4069
    TRIAL :  cpu time    3.4250: real time    3.5293
    CORREC:  cpu time    6.0910: real time    6.1834
    CHARGE:  cpu time    1.3278: real time    1.3279
    --------------------------------------------
      LOOP:  cpu time   13.7723: real time   13.9694

 eigenvalue-minimisations  :     0
 total energy-change (2. order) :-0.1578948E-02  (-0.4635576E-02)
 number of electron       7.0000000 magnetization       5.0000000
 augmentation part        1.1037074 magnetization       1.2169240

 Free energy of the ion-electron system (eV)
  ---------------------------------------------------
  alpha Z        PSCENC =         0.28007207
  Ewald energy   TEWEN  =       -66.73225068
  -Hartree energ DENC   =      -208.06203843
  -exchange      EXHF   =         0.00000000
  -V(xc)+E(xc)   XCENC  =       -46.79147574
  PAW double counting   =       237.03959054     -176.83197435
  entropy T*S    EENTRO =        -0.00000000
  eigenvalues    EBANDS =       -43.15909061
  atomic energy  EATOM  =       299.65703520
  ---------------------------------------------------
  free energy    TOTEN  =        -4.60013199 eV

  energy without entropy =       -4.60013199  energy(sigma->0) =       -4.60013199


--------------------------------------------------------------------------------------------------------




--------------------------------------- Iteration      1(  12)  ---------------------------------------


    POTLOK:  cpu time    2.4643: real time    2.4646
    SETDIJ:  cpu time    0.4093: real time    0.4093
    TRIAL :  cpu time    3.5145: real time    3.5845
    CORREC:  cpu time    6.0336: real time    6.1342
    CHARGE:  cpu time    1.3281: real time    1.3287
    --------------------------------------------
      LOOP:  cpu time   13.7698: real time   13.9413

 eigenvalue-minimisations  :     0
 total energy-change (2. order) :-0.4525971E-02  (-0.6990264E-03)
 number of electron       7.0000000 magnetization       5.0000000
 augmentation part        1.0990417 magnetization       1.2121033

 Free energy of the ion-electron system (eV)
  ---------------------------------------------------
  alpha Z        PSCENC =         0.28007207
  Ewald energy   TEWEN  =       -66.73225068
  -Hartree energ DENC   =      -208.31421485
  -exchange      EXHF   =         0.00000000
  -V(xc)+E(xc)   XCENC  =       -46.77140948
  PAW double counting   =       236.29779231     -176.08475874
  entropy T*S    EENTRO =        -0.00000000
  eigenvalues    EBANDS =       -42.93692379
  atomic energy  EATOM  =       299.65703520
  ---------------------------------------------------
  free energy    TOTEN  =        -4.60465796 eV

  energy without entropy =       -4.60465796  energy(sigma->0) =       -4.60465796


--------------------------------------------------------------------------------------------------------




--------------------------------------- Iteration      1(  13)  ---------------------------------------


    POTLOK:  cpu time    2.5015: real time    2.5022
    SETDIJ:  cpu time    0.4057: real time    0.4058
    TRIAL :  cpu time    3.5473: real time    3.6544
    CORREC:  cpu time    6.0611: real time    6.1876
    CHARGE:  cpu time    1.3525: real time    1.3535
    --------------------------------------------
      LOOP:  cpu time   13.8878: real time   14.1242

 eigenvalue-minimisations  :     0
 total energy-change (2. order) :-0.7742206E-03  (-0.2065732E-03)
 number of electron       7.0000000 magnetization       5.0000000
 augmentation part        1.0963823 magnetization       1.2094372

 Free energy of the ion-electron system (eV)
  ---------------------------------------------------
  alpha Z        PSCENC =         0.28007207
  Ewald energy   TEWEN  =       -66.73225068
  -Hartree energ DENC   =      -208.26020072
  -exchange      EXHF   =         0.00000000
  -V(xc)+E(xc)   XCENC  =       -46.76804594
  PAW double counting   =       237.32864531     -177.11493084
  entropy T*S    EENTRO =        -0.00000000
  eigenvalues    EBANDS =       -42.99575658
  atomic energy  EATOM  =       299.65703520
  ---------------------------------------------------
  free energy    TOTEN  =        -4.60543218 eV

  energy without entropy =       -4.60543218  energy(sigma->0) =       -4.60543218


--------------------------------------------------------------------------------------------------------




--------------------------------------- Iteration      1(  14)  ---------------------------------------


    POTLOK:  cpu time    2.5325: real time    2.5325
    SETDIJ:  cpu time    0.4060: real time    0.4060
    TRIAL :  cpu time    3.5914: real time    3.6979
    CORREC:  cpu time    6.0403: real time    6.1249
    CHARGE:  cpu time    1.4231: real time    1.4747
    --------------------------------------------
      LOOP:  cpu time   14.0126: real time   14.2553

 eigenvalue-minimisations  :     0
 total energy-change (2. order) :-0.2110167E-03  (-0.4344683E-03)
 number of electron       7.0000000 magnetization       5.0000000
 augmentation part        1.0964164 magnetization       1.2095282

 Free energy of the ion-electron system (eV)
  ---------------------------------------------------
  alpha Z        PSCENC =         0.28007207
  Ewald energy   TEWEN  =       -66.73225068
  -Hartree energ DENC   =      -208.21093391
  -exchange      EXHF   =         0.00000000
  -V(xc)+E(xc)   XCENC  =       -46.76745940
  PAW double counting   =       237.87535585     -177.66140071
  entropy T*S    EENTRO =        -0.00000000
  eigenvalues    EBANDS =       -43.04606162
  atomic energy  EATOM  =       299.65703520
  ---------------------------------------------------
  free energy    TOTEN  =        -4.60564320 eV

  energy without entropy =       -4.60564320  energy(sigma->0) =       -4.60564320


--------------------------------------------------------------------------------------------------------




--------------------------------------- Iteration      1(  15)  ---------------------------------------


    POTLOK:  cpu time    2.5101: real time    2.5109
    SETDIJ:  cpu time    0.4071: real time    0.4071
    TRIAL :  cpu time    3.4796: real time    3.5559
    CORREC:  cpu time    6.0370: real time    6.1340
    CHARGE:  cpu time    1.3345: real time    1.3344
    --------------------------------------------
      LOOP:  cpu time   13.7894: real time   13.9636

 eigenvalue-minimisations  :     0
 total energy-change (2. order) :-0.4349860E-03  (-0.1098088E-03)
 number of electron       7.0000000 magnetization       5.0000000
 augmentation part        1.0983225 magnetization       1.2114586

 Free energy of the ion-electron system (eV)
  ---------------------------------------------------
  alpha Z        PSCENC =         0.28007207
  Ewald energy   TEWEN  =       -66.73225068
  -Hartree energ DENC   =      -208.20138700
  -exchange      EXHF   =         0.00000000
  -V(xc)+E(xc)   XCENC  =       -46.76604744
  PAW double counting   =       237.75449993     -177.53937196
  entropy T*S    EENTRO =        -0.00000000
  eigenvalues    EBANDS =       -43.05862830
  atomic energy  EATOM  =       299.65703520
  ---------------------------------------------------
  free energy    TOTEN  =        -4.60607819 eV

  energy without entropy =       -4.60607819  energy(sigma->0) =       -4.60607819


--------------------------------------------------------------------------------------------------------




--------------------------------------- Iteration      1(  16)  ---------------------------------------


    POTLOK:  cpu time    2.5015: real time    2.5015
    SETDIJ:  cpu time    0.4063: real time    0.4063
    TRIAL :  cpu time    3.4946: real time    3.5556
    CORREC:  cpu time    5.9954: real time    6.0806
    CHARGE:  cpu time    1.4198: real time    1.4198
    --------------------------------------------
      LOOP:  cpu time   13.8427: real time   13.9889

 eigenvalue-minimisations  :     0
 total energy-change (2. order) :-0.1112058E-03  (-0.3743539E-04)
 number of electron       7.0000000 magnetization       5.0000000
 augmentation part        1.0993177 magnetization       1.2124550

 Free energy of the ion-electron system (eV)
  ---------------------------------------------------
  alpha Z        PSCENC =         0.28007207
  Ewald energy   TEWEN  =       -66.73225068
  -Hartree energ DENC   =      -208.23472477
  -exchange      EXHF   =         0.00000000
  -V(xc)+E(xc)   XCENC  =       -46.76549763
  PAW double counting   =       237.30890709     -177.09340991
  entropy T*S    EENTRO =        -0.00000000
  eigenvalues    EBANDS =       -43.02632076
  atomic energy  EATOM  =       299.65703520
  ---------------------------------------------------
  free energy    TOTEN  =        -4.60618939 eV

  energy without entropy =       -4.60618939  energy(sigma->0) =       -4.60618939


--------------------------------------------------------------------------------------------------------




--------------------------------------- Iteration      1(  17)  ---------------------------------------


    POTLOK:  cpu time    2.5005: real time    2.5006
    SETDIJ:  cpu time    0.4069: real time    0.4069
    TRIAL :  cpu time    3.4983: real time    3.5794
    CORREC:  cpu time    6.1725: real time    6.2852
    CHARGE:  cpu time    1.5745: real time    1.6191
    --------------------------------------------
      LOOP:  cpu time   14.1805: real time   14.4190

 eigenvalue-minimisations  :     0
 total energy-change (2. order) :-0.3663419E-04  (-0.7832105E-04)
 number of electron       7.0000000 magnetization       5.0000000
 augmentation part        1.0991355 magnetization       1.2122384

 Free energy of the ion-electron system (eV)
  ---------------------------------------------------
  alpha Z        PSCENC =         0.28007207
  Ewald energy   TEWEN  =       -66.73225068
  -Hartree energ DENC   =      -208.25100598
  -exchange      EXHF   =         0.00000000
  -V(xc)+E(xc)   XCENC  =       -46.76525264
  PAW double counting   =       237.06520563     -176.84981227
  entropy T*S    EENTRO =        -0.00000000
  eigenvalues    EBANDS =       -43.01021736
  atomic energy  EATOM  =       299.65703520
  ---------------------------------------------------
  free energy    TOTEN  =        -4.60622603 eV

  energy without entropy =       -4.60622603  energy(sigma->0) =       -4.60622603


--------------------------------------------------------------------------------------------------------




--------------------------------------- Iteration      1(  18)  ---------------------------------------


    POTLOK:  cpu time    2.5139: real time    2.5140
    SETDIJ:  cpu time    0.4092: real time    0.4092
    TRIAL :  cpu time    3.6114: real time    3.7004
    CORREC:  cpu time    6.0274: real time    6.1352
    CHARGE:  cpu time    1.3947: real time    1.3947
    --------------------------------------------
      LOOP:  cpu time   13.9772: real time   14.1754

 eigenvalue-minimisations  :     0
 total energy-change (2. order) :-0.7845272E-04  (-0.3397069E-04)
 number of electron       7.0000000 magnetization       5.0000000
 augmentation part        1.0982623 magnetization       1.2113273

 Free energy of the ion-electron system (eV)
  ---------------------------------------------------
  alpha Z        PSCENC =         0.28007207
  Ewald energy   TEWEN  =       -66.73225068
  -Hartree energ DENC   =      -208.23949760
  -exchange      EXHF   =         0.00000000
  -V(xc)+E(xc)   XCENC  =       -46.76487553
  PAW double counting   =       237.02012316     -176.80538112
  entropy T*S    EENTRO =        -0.00000000
  eigenvalues    EBANDS =       -43.02152998
  atomic energy  EATOM  =       299.65703520
  ---------------------------------------------------
  free energy    TOTEN  =        -4.60630448 eV

  energy without entropy =       -4.60630448  energy(sigma->0) =       -4.60630448


--------------------------------------------------------------------------------------------------------




--------------------------------------- Iteration      1(  19)  ---------------------------------------


    POTLOK:  cpu time    2.4830: real time    2.4832
    SETDIJ:  cpu time    0.4062: real time    0.4062
    TRIAL :  cpu time    3.5194: real time    3.6235
    CORREC:  cpu time    6.0322: real time    6.1289
    CHARGE:  cpu time    1.3464: real time    1.3466
    --------------------------------------------
      LOOP:  cpu time   13.8074: real time   14.0087

 eigenvalue-minimisations  :     0
 total energy-change (2. order) :-0.3168680E-04  (-0.6963825E-05)
 number of electron       7.0000000 magnetization       5.0000000
 augmentation part        1.0981327 magnetization       1.2111675

 Free energy of the ion-electron system (eV)
  ---------------------------------------------------
  alpha Z        PSCENC =         0.28007207
  Ewald energy   TEWEN  =       -66.73225068
  -Hartree energ DENC   =      -208.21649698
  -exchange      EXHF   =         0.00000000
  -V(xc)+E(xc)   XCENC  =       -46.76488296
  PAW double counting   =       237.16706876     -176.95258554
  entropy T*S    EENTRO =        -0.00000000
  eigenvalues    EBANDS =       -43.04429602
  atomic energy  EATOM  =       299.65703520
  ---------------------------------------------------
  free energy    TOTEN  =        -4.60633617 eV

  energy without entropy =       -4.60633617  energy(sigma->0) =       -4.60633617


--------------------------------------------------------------------------------------------------------




--------------------------------------- Iteration      1(  20)  ---------------------------------------


    POTLOK:  cpu time    2.5781: real time    2.5784
    SETDIJ:  cpu time    0.4070: real time    0.4070
    TRIAL :  cpu time    3.5028: real time    3.5811
    CORREC:  cpu time    6.0152: real time    6.0785
    CHARGE:  cpu time    1.3250: real time    1.3251
    --------------------------------------------
      LOOP:  cpu time   13.8501: real time   13.9920

 eigenvalue-minimisations  :     0
 total energy-change (2. order) :-0.6688442E-05  (-0.1113240E-04)
 number of electron       7.0000000 magnetization       5.0000000
 augmentation part        1.0983287 magnetization       1.2112757

 Free energy of the ion-electron system (eV)
  ---------------------------------------------------
  alpha Z        PSCENC =         0.28007207
  Ewald energy   TEWEN  =       -66.73225068
  -Hartree energ DENC   =      -208.20807786
  -exchange      EXHF   =         0.00000000
  -V(xc)+E(xc)   XCENC  =       -46.76507498
  PAW double counting   =       237.18148636     -176.96690810
  entropy T*S    EENTRO =        -0.00000000
  eigenvalues    EBANDS =       -43.05262487
  atomic energy  EATOM  =       299.65703520
  ---------------------------------------------------
  free energy    TOTEN  =        -4.60634285 eV

  energy without entropy =       -4.60634285  energy(sigma->0) =       -4.60634285


--------------------------------------------------------------------------------------------------------




--------------------------------------- Iteration      1(  21)  ---------------------------------------


    POTLOK:  cpu time    2.4882: real time    2.4884
    SETDIJ:  cpu time    0.4635: real time    0.4635
    TRIAL :  cpu time    3.4807: real time    3.5681
    CORREC:  cpu time    6.1054: real time    6.1851
    CHARGE:  cpu time    1.4994: real time    1.4995
    --------------------------------------------
      LOOP:  cpu time   14.0572: real time   14.2252

 eigenvalue-minimisations  :     0
 total energy-change (2. order) :-0.1153716E-04  (-0.6247771E-05)
 number of electron       7.0000000 magnetization       5.0000000
 augmentation part        1.0982683 magnetization       1.2111657

 Free energy of the ion-electron system (eV)
  ---------------------------------------------------
  alpha Z        PSCENC =         0.28007207
  Ewald energy   TEWEN  =       -66.73225068
  -Hartree energ DENC   =      -208.19421747
  -exchange      EXHF   =         0.00000000
  -V(xc)+E(xc)   XCENC  =       -46.76571518
  PAW double counting   =       237.11404692     -176.89898008
  entropy T*S    EENTRO =        -0.00000000
  eigenvalues    EBANDS =       -43.06634517
  atomic energy  EATOM  =       299.65703520
  ---------------------------------------------------
  free energy    TOTEN  =        -4.60635439 eV

  energy without entropy =       -4.60635439  energy(sigma->0) =       -4.60635439


--------------------------------------------------------------------------------------------------------




--------------------------------------- Iteration      1(  22)  ---------------------------------------


    POTLOK:  cpu time    2.6409: real time    2.6472
    SETDIJ:  cpu time    0.4272: real time    0.4461
    TRIAL :  cpu time    3.4911: real time    3.5651
    CORREC:  cpu time    6.0671: real time    6.1633
    EDDIAG:  cpu time    1.7034: real time    1.7181
    CHARGE:  cpu time    1.3252: real time    1.3255
    --------------------------------------------
      LOOP:  cpu time   15.6824: real time   15.8931

 eigenvalue-minimisations  :     0
 total energy-change (2. order) :-0.6054705E-05  (-0.1237453E-05)
 number of electron       7.0000000 magnetization       5.0000000
 augmentation part        1.0982248 magnetization       1.2111212

 Free energy of the ion-electron system (eV)
  ---------------------------------------------------
  alpha Z        PSCENC =         0.28007207
  Ewald energy   TEWEN  =       -66.73225068
  -Hartree energ DENC   =      -208.18340382
  -exchange      EXHF   =         0.00000000
  -V(xc)+E(xc)   XCENC  =       -46.76609740
  PAW double counting   =       237.11441709     -176.89909489
  entropy T*S    EENTRO =        -0.00000000
  eigenvalues    EBANDS =       -43.07703801
  atomic energy  EATOM  =       299.65703520
  ---------------------------------------------------
  free energy    TOTEN  =        -4.60636045 eV

  energy without entropy =       -4.60636045  energy(sigma->0) =       -4.60636045


--------------------------------------------------------------------------------------------------------


  average scaling for gradient   0.5517


 average (electrostatic) potential at core
  the test charge radii are     1.1873
  (the norm of the test charge is              1.0000)
       1 -51.9992
 
 
 
 E-fermi :  -4.4794     XC(G=0):  -0.3478     alpha+bet : -0.0641


 spin component 1

 k-point     1 :       0.0000    0.0000    0.0000
  band No.  band energies     occupation 
      1      -6.4856      1.00000
      2      -6.3688      1.00000
      3      -6.3688      1.00000
      4      -6.3688      1.00000
      5      -6.3687      1.00000
      6      -6.3687      1.00000
      7      -1.4939      0.00000
      8      -1.4939      0.00000
      9      -1.4939      0.00000
     10      -0.0998      0.00000
     11       0.5960      0.00000
     12       0.6009      0.00000
     13       0.6009      0.00000
     14       0.7254      0.00000
     15       0.7254      0.00000
     16       0.7254      0.00000
     17       1.0838      0.00000
     18       1.0838      0.00000
     19       1.0838      0.00000
     20       1.2597      0.00000
     21       1.2597      0.00000
     22       1.3177      0.00000
     23       1.3177      0.00000
     24       1.3177      0.00000
     25       1.4175      0.00000
     26       1.4563      0.00000
     27       1.4563      0.00000
     28       1.4563      0.00000
     29       1.8234      0.00000
     30       1.8234      0.00000
     31       1.8234      0.00000
     32       1.8882      0.00000
     33       2.0474      0.00000
     34       2.0474      0.00000
     35       2.0474      0.00000
     36       2.1029      0.00000
     37       2.1833      0.00000
     38       2.1833      0.00000
     39       2.6617      0.00000
     40       2.6617      0.00000
     41       2.6617      0.00000
     42       2.7450      0.00000
     43       2.8614      0.00000
     44       2.8615      0.00000
     45       2.8615      0.00000
     46       2.9997      0.00000
     47       2.9997      0.00000
     48       3.0310      0.00000
     49       3.0310      0.00000
     50       3.0310      0.00000
     51       3.1697      0.00000
     52       3.1697      0.00000
     53       3.1697      0.00000
     54       3.2729      0.00000
     55       3.2729      0.00000
     56       3.2729      0.00000
     57       3.3091      0.00000
     58       3.3091      0.00000
     59       3.3540      0.00000
     60       3.3540      0.00000
     61       3.3540      0.00000
     62       3.3760      0.00000
     63       3.5552      0.00000
     64       3.5552      0.00000
     65       3.5552      0.00000
     66       3.5798      0.00000
     67       3.6099      0.00000
     68       3.6767      0.00000
     69       3.6767      0.00000
     70       3.6767      0.00000
     71       3.8980      0.00000
     72       3.8980      0.00000
     73       3.8980      0.00000
     74       3.9061      0.00000
     75       3.9062      0.00000
     76       3.9139      0.00000
     77       3.9139      0.00000
     78       3.9139      0.00000
     79       3.9489      0.00000
     80       3.9489      0.00000
     81       3.9489      0.00000
     82       3.9599      0.00000
     83       3.9599      0.00000
     84       3.9599      0.00000
     85       3.9832      0.00000
     86       3.9832      0.00000
     87       4.4577      0.00000
     88       4.4577      0.00000
     89       4.4577      0.00000
     90       4.6279      0.00000
     91       4.9936      0.00000
     92       4.9936      0.00000
     93       4.9936      0.00000
     94       5.0376      0.00000
     95       5.0377      0.00000
     96       5.0377      0.00000
     97       5.0633      0.00000
     98       5.0633      0.00000
     99       5.3277      0.00000
    100       5.3277      0.00000
    101       5.3277      0.00000
    102       5.4397      0.00000
    103       5.4670      0.00000
    104       5.5308      0.00000
    105       5.5308      0.00000
    106       5.5488      0.00000
    107       5.5489      0.00000
    108       5.5489      0.00000
    109       5.6185      0.00000
    110       5.6186      0.00000
    111       5.6186      0.00000
    112       5.7142      0.00000
    113       5.8533      0.00000
    114       5.8533      0.00000
    115       5.8533      0.00000
    116       5.9187      0.00000
    117       5.9187      0.00000
    118       5.9187      0.00000
    119       5.9226      0.00000
    120       5.9226      0.00000
    121       5.9549      0.00000
    122       5.9549      0.00000
    123       5.9549      0.00000
    124       5.9555      0.00000
    125       5.9555      0.00000
    126       5.9555      0.00000
    127       5.9661      0.00000
    128       5.9661      0.00000
    129       6.2498      0.00000
    130       6.2498      0.00000
    131       6.2498      0.00000
    132       6.3112      0.00000
    133       6.3490      0.00000
    134       6.3490      0.00000
    135       6.4107      0.00000
    136       6.4107      0.00000
    137       6.4107      0.00000
    138       6.4113      0.00000
    139       6.4113      0.00000
    140       6.4113      0.00000
    141       6.4348      0.00000
    142       6.4348      0.00000
    143       6.4348      0.00000
    144       6.4919      0.00000
    145       6.4919      0.00000
    146       6.4920      0.00000
    147       6.6559      0.00000
    148       6.6559      0.00000
    149       6.6578      0.00000
    150       6.6578      0.00000
    151       6.6578      0.00000
    152       6.6662      0.00000
    153       6.9931      0.00000
    154       6.9931      0.00000
    155       6.9931      0.00000
    156       7.0927      0.00000
    157       7.0993      0.00000
    158       7.1466      0.00000
    159       7.1466      0.00000
    160       7.1466      0.00000
    161       7.1480      0.00000
    162       7.1480      0.00000
    163       7.1480      0.00000
    164       7.1828      0.00000
    165       7.1829      0.00000
    166       7.1830      0.00000
    167       7.1914      0.00000
    168       7.1915      0.00000
    169       7.1916      0.00000
    170       7.2091      0.00000
    171       7.2091      0.00000
    172       7.2188      0.00000
    173       7.2188      0.00000
    174       7.2188      0.00000
    175       7.2346      0.00000
    176       7.2346      0.00000
    177       7.6342      0.00000
    178       7.6342      0.00000
    179       7.6342      0.00000
    180       7.7032      0.00000
    181       7.7224      0.00000
    182       7.8172      0.00000
    183       7.8174      0.00000
    184       7.8175      0.00000
    185       8.0138      0.00000
    186       8.0138      0.00000
    187       8.0138      0.00000
    188       8.0868      0.00000
    189       8.0868      0.00000
    190       8.0868      0.00000
    191       8.2126      0.00000
    192       8.2669      0.00000
    193       8.2671      0.00000
    194       8.3355      0.00000
    195       8.3368      0.00000
    196       8.3375      0.00000
    197       8.4851      0.00000
    198       8.4851      0.00000
    199       8.4852      0.00000
    200       8.5592      0.00000
    201       8.5592      0.00000
    202       8.5592      0.00000
    203       8.5850      0.00000
    204       8.5869      0.00000
    205       8.5881      0.00000
    206       8.6065      0.00000
    207       8.6068      0.00000
    208       8.6070      0.00000
    209       8.7433      0.00000
    210       8.8859      0.00000
    211       8.8859      0.00000
    212       8.8859      0.00000
    213       8.9976      0.00000
    214       9.0332      0.00000
    215       9.0332      0.00000
    216       9.0332      0.00000
    217       9.0383      0.00000
    218       9.0386      0.00000
    219       9.0399      0.00000
    220       9.0561      0.00000
    221       9.0561      0.00000
    222       9.0561      0.00000
    223       9.0933      0.00000
    224       9.0933      0.00000
    225       9.0933      0.00000
    226       9.1054      0.00000
    227       9.1054      0.00000
    228       9.2054      0.00000
    229       9.2062      0.00000
    230       9.2231      0.00000
    231       9.2452      0.00000
    232       9.2742      0.00000
    233       9.2743      0.00000
    234       9.2743      0.00000
    235       9.2823      0.00000
    236       9.2843      0.00000
    237       9.2883      0.00000
    238       9.2883      0.00000
    239       9.2883      0.00000
    240       9.2995      0.00000
    241       9.2995      0.00000
    242       9.2995      0.00000
    243       9.3071      0.00000
    244       9.3089      0.00000
    245       9.3100      0.00000
    246       9.3219      0.00000
    247       9.3219      0.00000
    248       9.3262      0.00000
    249       9.3440      0.00000
    250       9.3593      0.00000
    251       9.3593      0.00000
    252       9.3593      0.00000
    253       9.3680      0.00000
    254       9.3680      0.00000
    255       9.3680      0.00000
    256       9.3750      0.00000

 spin component 2

 k-point     1 :       0.0000    0.0000    0.0000
  band No.  band energies     occupation 
      1      -4.7475      1.00000
      2      -3.4210      0.00000
      3      -3.4210      0.00000
      4      -3.4209      0.00000
      5      -3.4209      0.00000
      6      -3.4209      0.00000
      7      -0.8227      0.00000
      8      -0.8227      0.00000
      9      -0.8227      0.00000
     10      -0.1125      0.00000
     11       0.5487      0.00000
     12       0.5487      0.00000
     13       0.6379      0.00000
     14       0.7406      0.00000
     15       0.7406      0.00000
     16       0.7406      0.00000
     17       1.0388      0.00000
     18       1.0388      0.00000
     19       1.0388      0.00000
     20       1.2342      0.00000
     21       1.2342      0.00000
     22       1.2611      0.00000
     23       1.2611      0.00000
     24       1.2611      0.00000
     25       1.4746      0.00000
     26       1.5147      0.00000
     27       1.5147      0.00000
     28       1.5147      0.00000
     29       1.8076      0.00000
     30       1.8076      0.00000
     31       1.8076      0.00000
     32       1.8114      0.00000
     33       2.0279      0.00000
     34       2.0279      0.00000
     35       2.0279      0.00000
     36       2.0960      0.00000
     37       2.2231      0.00000
     38       2.2231      0.00000
     39       2.6562      0.00000
     40       2.6562      0.00000
     41       2.6562      0.00000
     42       2.7348      0.00000
     43       2.9086      0.00000
     44       2.9086      0.00000
     45       2.9086      0.00000
     46       2.9714      0.00000
     47       2.9714      0.00000
     48       2.9714      0.00000
     49       3.0062      0.00000
     50       3.0062      0.00000
     51       3.1201      0.00000
     52       3.1201      0.00000
     53       3.1201      0.00000
     54       3.1955      0.00000
     55       3.1955      0.00000
     56       3.1955      0.00000
     57       3.2547      0.00000
     58       3.2547      0.00000
     59       3.3032      0.00000
     60       3.3032      0.00000
     61       3.3032      0.00000
     62       3.3335      0.00000
     63       3.5448      0.00000
     64       3.5613      0.00000
     65       3.5613      0.00000
     66       3.5613      0.00000
     67       3.6135      0.00000
     68       3.6665      0.00000
     69       3.6665      0.00000
     70       3.6665      0.00000
     71       3.8721      0.00000
     72       3.8721      0.00000
     73       3.8721      0.00000
     74       3.8843      0.00000
     75       3.8843      0.00000
     76       3.8843      0.00000
     77       3.8985      0.00000
     78       3.8986      0.00000
     79       3.8993      0.00000
     80       3.8993      0.00000
     81       3.8993      0.00000
     82       3.9059      0.00000
     83       3.9059      0.00000
     84       3.9059      0.00000
     85       3.9159      0.00000
     86       3.9159      0.00000
     87       4.5739      0.00000
     88       4.5739      0.00000
     89       4.5739      0.00000
     90       4.7309      0.00000
     91       4.9789      0.00000
     92       4.9789      0.00000
     93       4.9789      0.00000
     94       5.0485      0.00000
     95       5.0485      0.00000
     96       5.0570      0.00000
     97       5.0570      0.00000
     98       5.0570      0.00000
     99       5.3209      0.00000
    100       5.3209      0.00000
    101       5.3209      0.00000
    102       5.4345      0.00000
    103       5.4670      0.00000
    104       5.5463      0.00000
    105       5.5463      0.00000
    106       5.5463      0.00000
    107       5.5828      0.00000
    108       5.5828      0.00000
    109       5.6271      0.00000
    110       5.6271      0.00000
    111       5.6271      0.00000
    112       5.6597      0.00000
    113       5.8475      0.00000
    114       5.8475      0.00000
    115       5.8475      0.00000
    116       5.8871      0.00000
    117       5.8871      0.00000
    118       5.8871      0.00000
    119       5.8932      0.00000
    120       5.8932      0.00000
    121       5.8957      0.00000
    122       5.8957      0.00000
    123       5.8957      0.00000
    124       5.8975      0.00000
    125       5.8975      0.00000
    126       5.8975      0.00000
    127       5.9024      0.00000
    128       5.9024      0.00000
    129       6.2438      0.00000
    130       6.2438      0.00000
    131       6.2438      0.00000
    132       6.3004      0.00000
    133       6.3552      0.00000
    134       6.3552      0.00000
    135       6.3553      0.00000
    136       6.3597      0.00000
    137       6.3597      0.00000
    138       6.3597      0.00000
    139       6.3640      0.00000
    140       6.3640      0.00000
    141       6.3679      0.00000
    142       6.3680      0.00000
    143       6.3680      0.00000
    144       6.4427      0.00000
    145       6.4427      0.00000
    146       6.4427      0.00000
    147       6.6060      0.00000
    148       6.6060      0.00000
    149       6.6060      0.00000
    150       6.6072      0.00000
    151       6.6072      0.00000
    152       6.6108      0.00000
    153       7.0288      0.00000
    154       7.0288      0.00000
    155       7.0288      0.00000
    156       7.0888      0.00000
    157       7.1117      0.00000
    158       7.1305      0.00000
    159       7.1305      0.00000
    160       7.1305      0.00000
    161       7.1315      0.00000
    162       7.1315      0.00000
    163       7.1315      0.00000
    164       7.1508      0.00000
    165       7.1508      0.00000
    166       7.1508      0.00000
    167       7.1550      0.00000
    168       7.1550      0.00000
    169       7.1551      0.00000
    170       7.1622      0.00000
    171       7.1622      0.00000
    172       7.1746      0.00000
    173       7.1755      0.00000
    174       7.1771      0.00000
    175       7.1868      0.00000
    176       7.1880      0.00000
    177       7.6435      0.00000
    178       7.6435      0.00000
    179       7.6435      0.00000
    180       7.6945      0.00000
    181       7.7213      0.00000
    182       7.7937      0.00000
    183       7.7937      0.00000
    184       7.7938      0.00000
    185       8.0580      0.00000
    186       8.0580      0.00000
    187       8.0580      0.00000
    188       8.0795      0.00000
    189       8.0795      0.00000
    190       8.0795      0.00000
    191       8.2062      0.00000
    192       8.2543      0.00000
    193       8.2546      0.00000
    194       8.3396      0.00000
    195       8.3400      0.00000
    196       8.3402      0.00000
    197       8.4652      0.00000
    198       8.4652      0.00000
    199       8.4652      0.00000
    200       8.5100      0.00000
    201       8.5100      0.00000
    202       8.5100      0.00000
    203       8.5225      0.00000
    204       8.5225      0.00000
    205       8.5225      0.00000
    206       8.5351      0.00000
    207       8.5484      0.00000
    208       8.5496      0.00000
    209       8.7799      0.00000
    210       8.8844      0.00000
    211       8.8844      0.00000
    212       8.8844      0.00000
    213       9.0027      0.00000
    214       9.0036      0.00000
    215       9.0042      0.00000
    216       9.0042      0.00000
    217       9.0257      0.00000
    218       9.0257      0.00000
    219       9.0257      0.00000
    220       9.0396      0.00000
    221       9.0396      0.00000
    222       9.0396      0.00000
    223       9.0461      0.00000
    224       9.0461      0.00000
    225       9.0461      0.00000
    226       9.0476      0.00000
    227       9.0476      0.00000
    228       9.1510      0.00000
    229       9.1518      0.00000
    230       9.1701      0.00000
    231       9.1714      0.00000
    232       9.1734      0.00000
    233       9.2337      0.00000
    234       9.2337      0.00000
    235       9.2337      0.00000
    236       9.2389      0.00000
    237       9.2390      0.00000
    238       9.2452      0.00000
    239       9.2452      0.00000
    240       9.2452      0.00000
    241       9.2480      0.00000
    242       9.2481      0.00000
    243       9.2481      0.00000
    244       9.2538      0.00000
    245       9.2538      0.00000
    246       9.2539      0.00000
    247       9.2574      0.00000
    248       9.2574      0.00000
    249       9.3057      0.00000
    250       9.3114      0.00000
    251       9.3114      0.00000
    252       9.3114      0.00000
    253       9.3169      0.00000
    254       9.3169      0.00000
    255       9.3169      0.00000
    256       9.3218      0.00000


--------------------------------------------------------------------------------------------------------


 soft charge-density along one line, spin component           1
         0         1         2         3         4         5         6         7         8         9
 total charge-density along one line
 
 soft charge-density along one line, spin component           2
         0         1         2         3         4         5         6         7         8         9
 total charge-density along one line
 
 pseudopotential strength for first ion, spin component:           1
-10.729  -0.000  -0.000  -0.000   0.000  -0.122  -0.000  -0.000
 -0.000 -10.729   0.000   0.000  -0.000  -0.000  -0.122   0.000
 -0.000   0.000 -10.729   0.000  -0.000  -0.000   0.000  -0.122
 -0.000   0.000   0.000 -10.729   0.000   0.000   0.000   0.000
  0.000  -0.000  -0.000   0.000 -10.729  -0.000  -0.000  -0.000
 -0.122  -0.000  -0.000   0.000  -0.000   0.064   0.000   0.000
 -0.000  -0.122   0.000   0.000  -0.000   0.000   0.064   0.000
 -0.000   0.000  -0.122   0.000  -0.000   0.000   0.000   0.064
  0.000   0.000   0.000  -0.122   0.000   0.000   0.000  -0.000
 -0.000  -0.000  -0.000   0.000  -0.122  -0.000   0.000  -0.000
 -0.000  -0.000  -0.000  -0.000  -0.000   0.000  -0.000  -0.000
  0.000   0.000   0.000   0.000   0.000  -0.000   0.000   0.000
  0.000   0.000   0.000   0.000   0.000  -0.000  -0.000  -0.000
  0.000   0.000  -0.000   0.000   0.000  -0.000  -0.000   0.000
  0.000   0.000   0.000   0.000  -0.000  -0.000  -0.000  -0.000
 -0.000  -0.000  -0.000  -0.000  -0.000   0.000   0.000  -0.000
 -0.000  -0.000   0.000  -0.000  -0.000   0.000   0.000   0.000
 -0.000  -0.000  -0.000  -0.000   0.000   0.000   0.000  -0.000
 pseudopotential strength for first ion, spin component:           2
-10.251  -0.000  -0.000   0.000   0.000  -0.075   0.000  -0.000
 -0.000 -10.251   0.000   0.000  -0.000   0.000  -0.075   0.000
 -0.000   0.000 -10.251   0.000  -0.000  -0.000   0.000  -0.075
  0.000   0.000   0.000 -10.251   0.000  -0.000  -0.000   0.000
  0.000  -0.000  -0.000   0.000 -10.251   0.000  -0.000  -0.000
 -0.075   0.000  -0.000  -0.000   0.000   0.065   0.000  -0.000
  0.000  -0.075   0.000  -0.000  -0.000   0.000   0.065   0.000
 -0.000   0.000  -0.075   0.000  -0.000  -0.000   0.000   0.065
 -0.000  -0.000   0.000  -0.075   0.000  -0.000   0.000   0.000
  0.000  -0.000  -0.000   0.000  -0.075   0.000  -0.000  -0.000
 -0.000   0.000  -0.000  -0.000  -0.000  -0.000  -0.000  -0.000
  0.000  -0.000   0.000   0.000  -0.000   0.000  -0.000   0.000
  0.000   0.000   0.000   0.000   0.000  -0.000  -0.000  -0.000
  0.000   0.000  -0.000   0.000   0.000  -0.000  -0.000   0.000
  0.000   0.000   0.000   0.000  -0.000  -0.000  -0.000  -0.000
 -0.000  -0.000  -0.000  -0.000  -0.000   0.000   0.000  -0.000
 -0.000  -0.000   0.000  -0.000  -0.000   0.000   0.000   0.000
 -0.000  -0.000  -0.000  -0.000   0.000   0.000   0.000  -0.000
 total augmentation occupancy for first ion, spin component:           1
  1.082   0.000   0.000   0.000  -0.000   0.068  -0.000  -0.000  -0.000   0.000   0.000   0.000  -0.000  -0.000  -0.000  -0.000
  0.000   1.082  -0.000   0.000   0.000  -0.000   0.068   0.000  -0.000  -0.000   0.000   0.000  -0.000  -0.000  -0.000   0.000
  0.000  -0.000   1.082  -0.000   0.000   0.000  -0.000   0.071  -0.000  -0.000   0.000   0.000  -0.000   0.000  -0.000  -0.000
  0.000   0.000  -0.000   1.082  -0.000  -0.000  -0.000   0.000   0.068   0.000  -0.000  -0.000  -0.000  -0.000  -0.000  -0.000
 -0.000   0.000   0.000  -0.000   1.082   0.000   0.000  -0.000  -0.000   0.071   0.000   0.000  -0.000   0.000   0.000   0.000
  0.068  -0.000   0.000  -0.000   0.000   0.004  -0.000  -0.000  -0.000   0.000  -0.000  -0.000  -0.000  -0.000  -0.000  -0.000
 -0.000   0.068  -0.000  -0.000   0.000  -0.000   0.004   0.000  -0.000  -0.000  -0.000  -0.000  -0.000  -0.000  -0.000   0.000
 -0.000   0.000   0.071   0.000  -0.000  -0.000   0.000   0.005   0.000  -0.000  -0.000  -0.000  -0.000   0.000  -0.000  -0.000
 -0.000  -0.000  -0.000   0.068  -0.000  -0.000  -0.000   0.000   0.004   0.000   0.000   0.000  -0.000  -0.000  -0.000  -0.000
  0.000  -0.000  -0.000   0.000   0.071   0.000  -0.000  -0.000   0.000   0.005  -0.000  -0.000  -0.000   0.000   0.000   0.000
  0.000   0.000   0.000  -0.000   0.000  -0.000  -0.000  -0.000   0.000  -0.000   2.171   0.281   0.000   0.000   0.000   0.000
  0.000   0.000   0.000  -0.000   0.000  -0.000  -0.000  -0.000   0.000  -0.000   0.281   0.038   0.000   0.000   0.000   0.000
 -0.000  -0.000  -0.000  -0.000  -0.000  -0.000  -0.000  -0.000  -0.000  -0.000   0.000   0.000   0.000   0.000   0.000   0.000
 -0.000  -0.000   0.000  -0.000   0.000  -0.000  -0.000   0.000  -0.000   0.000   0.000   0.000   0.000   0.000   0.000   0.000
 -0.000  -0.000  -0.000  -0.000   0.000  -0.000  -0.000  -0.000  -0.000   0.000   0.000   0.000   0.000   0.000   0.000   0.000
 -0.000   0.000  -0.000  -0.000   0.000  -0.000   0.000  -0.000  -0.000   0.000   0.000   0.000   0.000   0.000   0.000   0.000
 -0.000   0.000  -0.000   0.000   0.000  -0.000   0.000  -0.000   0.000   0.000   0.000   0.000   0.000   0.000   0.000   0.000
  0.000   0.000   0.000  -0.000   0.000   0.000   0.000   0.000  -0.000   0.000   0.000   0.000  -0.000   0.000   0.000   0.000
 total augmentation occupancy for first ion, spin component:           2
  1.082   0.000   0.000   0.000  -0.000   0.068  -0.000  -0.000  -0.000   0.000  -0.000   0.000  -0.000  -0.000  -0.000  -0.000
  0.000   1.082  -0.000   0.000   0.000  -0.000   0.068   0.000  -0.000  -0.000  -0.000  -0.000  -0.000  -0.000  -0.000   0.000
  0.000  -0.000   1.082  -0.000   0.000   0.000  -0.000   0.071  -0.000  -0.000  -0.000   0.000  -0.000   0.000  -0.000  -0.000
  0.000   0.000  -0.000   1.082  -0.000  -0.000  -0.000   0.000   0.068   0.000   0.000  -0.000  -0.000  -0.000  -0.000  -0.000
 -0.000   0.000   0.000  -0.000   1.082   0.000   0.000  -0.000  -0.000   0.071  -0.000   0.000  -0.000   0.000   0.000   0.000
  0.068  -0.000   0.000  -0.000   0.000   0.004  -0.000  -0.000  -0.000   0.000   0.000   0.000  -0.000  -0.000  -0.000  -0.000
 -0.000   0.068  -0.000  -0.000   0.000  -0.000   0.004   0.000  -0.000  -0.000   0.000   0.000  -0.000  -0.000  -0.000   0.000
 -0.000   0.000   0.071   0.000  -0.000  -0.000   0.000   0.005   0.000  -0.000   0.000   0.000  -0.000   0.000  -0.000  -0.000
 -0.000  -0.000  -0.000   0.068  -0.000  -0.000  -0.000   0.000   0.004   0.000  -0.000  -0.000  -0.000  -0.000  -0.000  -0.000
  0.000  -0.000  -0.000   0.000   0.071   0.000  -0.000  -0.000   0.000   0.005   0.000   0.000  -0.000   0.000   0.000   0.000
 -0.000  -0.000  -0.000   0.000  -0.000   0.000   0.000   0.000  -0.000   0.000   0.241   0.080   0.000   0.000   0.000   0.000
  0.000  -0.000   0.000  -0.000   0.000   0.000   0.000   0.000  -0.000   0.000   0.080   0.016   0.000   0.000   0.000   0.000
 -0.000  -0.000  -0.000  -0.000  -0.000  -0.000  -0.000  -0.000  -0.000  -0.000   0.000   0.000   0.000  -0.000   0.000   0.000
 -0.000  -0.000   0.000  -0.000   0.000  -0.000  -0.000   0.000  -0.000   0.000   0.000   0.000  -0.000   0.000   0.000   0.000
 -0.000  -0.000  -0.000  -0.000   0.000  -0.000  -0.000  -0.000  -0.000   0.000   0.000   0.000   0.000   0.000   0.000   0.000
 -0.000   0.000  -0.000  -0.000   0.000  -0.000   0.000  -0.000  -0.000   0.000   0.000   0.000   0.000   0.000   0.000   0.000
 -0.000   0.000  -0.000   0.000   0.000  -0.000   0.000  -0.000   0.000   0.000   0.000   0.000   0.000   0.000   0.000   0.000
  0.000   0.000   0.000  -0.000   0.000   0.000   0.000   0.000  -0.000   0.000   0.000   0.000  -0.000   0.000   0.000   0.000


------------------------ aborting loop because EDIFF is reached ----------------------------------------


    FORLOC:  cpu time    0.0033: real time    0.0055
    FORNL :  cpu time    0.0459: real time    0.0606
    FORCOR:  cpu time    2.3981: real time    2.4058
    OFIELD:  cpu time    0.0007: real time    0.0022

 VOLUME and BASIS-vectors are now :
 -----------------------------------------------------------------------------
  energy-cutoff  :      520.00
  volume of cell :     3375.00
      direct lattice vectors                 reciprocal lattice vectors
    15.000000000  0.000000000  0.000000000     0.066666667  0.000000000  0.000000000
     0.000000000 15.000000000  0.000000000     0.000000000  0.066666667  0.000000000
     0.000000000  0.000000000 15.000000000     0.000000000  0.000000000  0.066666667

  length of vectors
    15.000000000 15.000000000 15.000000000     0.066666667  0.066666667  0.066666667


 FORCES acting on ions:
    Electron-Ion                     Ewald-Force                    Non-Local-Force
 -----------------------------------------------------------------------------------------------
   0.154E-06 0.300E-06 -.210E-06   -.602E-19 -.187E-16 -.115E-16   0.997E-04 0.984E-04 0.101E-03
 -----------------------------------------------------------------------------------------------
   -.535E-06 -.351E-06 -.849E-06   -.602E-19 -.187E-16 -.115E-16   0.997E-04 0.984E-04 0.101E-03
 
 
 POSITION                                       TOTAL-FORCE (eV/Angst)
 -----------------------------------------------------------------------------------
      0.15000      0.15000     11.26500         0.000099      0.000098      0.000100
 -----------------------------------------------------------------------------------
    total drift:                                0.000099      0.000098      0.000100


--------------------------------------------------------------------------------------------------------



  FREE ENERGIE OF THE ION-ELECTRON SYSTEM (eV)
  ---------------------------------------------------
  free  energy   TOTEN  =        -4.60636045 eV

  energy  without entropy=       -4.60636045  energy(sigma->0) =       -4.60636045
 


--------------------------------------------------------------------------------------------------------


    POTLOK:  cpu time    2.8812: real time    2.8985


--------------------------------------------------------------------------------------------------------


 stress matrix after NEB project (eV)
      0.00000      0.00000      0.00000
      0.00000      0.00000      0.00000
      0.00000      0.00000      0.00000
  FORCES: max atom, RMS     0.000172    0.000172
  FORCE total and by dimension    0.000172    0.000100
  Stress total and by dimension    0.000000    0.000000
     LOOP+:  cpu time  326.7033: real time  330.9332
    4ORBIT:  cpu time    0.0000: real time    0.0000

 total amount of memory used by VASP MPI-rank0   177231. kBytes
=======================================================================

   base      :      30000. kBytes
   nonl-proj :      14540. kBytes
   fftplans  :       7479. kBytes
   grid      :     116433. kBytes
   one-center:         31. kBytes
   wavefun   :       8748. kBytes
 
  
  
 General timing and accounting informations for this job:
 ========================================================
  
                  Total CPU time used (sec):      340.330
                            User time (sec):      331.900
                          System time (sec):        8.430
                         Elapsed time (sec):      347.586
  
                   Maximum memory used (kb):      447184.
                   Average memory used (kb):           0.
  
                          Minor page faults:        59623
                          Major page faults:            0
                 Voluntary context switches:         2517
