C  N  Sm                                
   1.00000000000000     
    12.3000001907000005    0.0000000000000000    0.0000000000000000
    -6.1500000954000003   10.6521126316999997    0.0000000000000000
     0.0000000000000000    0.0000000000000000   20.0000000000000000
   C    N    Sm
    44     4     1
Direct
  0.9994080220939525  0.0005919779060474  0.7427421228222921
  0.1320762194626732  0.0654329386370816  0.7435597855375952
  0.1987510703284637  0.9987545339763600  0.7437126145826137
  0.3311738184062944  0.0643677078274584  0.7469454251967795
  0.3986847124635322  0.9981111010287310  0.7466938290290421
  0.5320219171179607  0.0665544672513557  0.7479453160525925
  0.5995477562073456  0.0004780132749399  0.7465482512128278
  0.7325696426086455  0.0687302750721613  0.7465385625363135
  0.7996946031161007  0.0017002927349730  0.7450599301666173
  0.9326527570120857  0.0673472429879145  0.7439719526842380
  0.9982997072650269  0.2003053968838991  0.7450599301666173
  0.1314533338188389  0.2653764535663127  0.7463792293245665
  0.1977197328586100  0.1978773868282568  0.7467286741480532
  0.3300336594458118  0.2646336958620292  0.7525130067328879
  0.3979569467873701  0.1967022584090330  0.7525650512054300
  0.5944854192006626  0.2002119200470679  0.7528588539292216
  0.7297343302917462  0.2702656697082538  0.7523499303111878
  0.7972835463859289  0.2027164536140713  0.7482596073092513
  0.9312697249278385  0.2674303573913545  0.7465385625363135
  0.9995219867250601  0.4004522437926545  0.7465482512128278
  0.1338260591659229  0.4662376867789402  0.7466124546696329
  0.1999080684785910  0.3987090160535464  0.7478502331326358
  0.3335583838051865  0.4611509098940771  0.7528896989408020
  0.7997880799529321  0.4055145807993376  0.7528588539292216
  0.9334455327486444  0.4679780828820393  0.7479453160525925
  0.0018888989712691  0.6013152875364677  0.7466938290290421
  0.1350352798143437  0.6663890313652624  0.7455110906151996
  0.2020623337426659  0.5992552721030789  0.7468792919699527
  0.3360433689777681  0.6639566310222390  0.7485731085905701
  0.4036003089992463  0.5963996910007537  0.7524901862197356
  0.5388490901059230  0.6664416161948205  0.7528896989408020
  0.7353663041379711  0.6699663405541952  0.7525130067328879
  0.8032977415909669  0.6020430532126299  0.7525650512054300
  0.9356322921725416  0.6688261815937125  0.7469454251967795
  0.0012454660236400  0.8012489296715363  0.7437126145826137
  0.1339102657873024  0.8660897342126975  0.7430518000538162
  0.2006637687322989  0.7993362312677011  0.7444645225056832
  0.3336109686347447  0.8649647201856564  0.7455110906151996
  0.4007447278969209  0.7979376662573343  0.7468792919699527
  0.5337623132210596  0.8661739408340775  0.7466124546696329
  0.6012909839464535  0.8000919315214090  0.7478502331326358
  0.7346235464336873  0.8685466661811611  0.7463792293245665
  0.8021226131717434  0.8022802671413898  0.7467286741480532
  0.9345670613629184  0.8679237805373267  0.7435597855375952
  0.5262060004992323  0.2599130611565426  0.7591262342630170
  0.3932572110609803  0.3928628998972220  0.7591446312050908
  0.7400869388434641  0.4737939995007678  0.7591262342630170
  0.6071371001027781  0.6067427889390195  0.7591446312050908
  0.5667203850949198  0.4332796149050802  0.8229724406014858
 
  0.00000000E+00  0.00000000E+00  0.00000000E+00
  0.00000000E+00  0.00000000E+00  0.00000000E+00
  0.00000000E+00  0.00000000E+00  0.00000000E+00
  0.00000000E+00  0.00000000E+00  0.00000000E+00
  0.00000000E+00  0.00000000E+00  0.00000000E+00
  0.00000000E+00  0.00000000E+00  0.00000000E+00
  0.00000000E+00  0.00000000E+00  0.00000000E+00
  0.00000000E+00  0.00000000E+00  0.00000000E+00
  0.00000000E+00  0.00000000E+00  0.00000000E+00
  0.00000000E+00  0.00000000E+00  0.00000000E+00
  0.00000000E+00  0.00000000E+00  0.00000000E+00
  0.00000000E+00  0.00000000E+00  0.00000000E+00
  0.00000000E+00  0.00000000E+00  0.00000000E+00
  0.00000000E+00  0.00000000E+00  0.00000000E+00
  0.00000000E+00  0.00000000E+00  0.00000000E+00
  0.00000000E+00  0.00000000E+00  0.00000000E+00
  0.00000000E+00  0.00000000E+00  0.00000000E+00
  0.00000000E+00  0.00000000E+00  0.00000000E+00
  0.00000000E+00  0.00000000E+00  0.00000000E+00
  0.00000000E+00  0.00000000E+00  0.00000000E+00
  0.00000000E+00  0.00000000E+00  0.00000000E+00
  0.00000000E+00  0.00000000E+00  0.00000000E+00
  0.00000000E+00  0.00000000E+00  0.00000000E+00
  0.00000000E+00  0.00000000E+00  0.00000000E+00
  0.00000000E+00  0.00000000E+00  0.00000000E+00
  0.00000000E+00  0.00000000E+00  0.00000000E+00
  0.00000000E+00  0.00000000E+00  0.00000000E+00
  0.00000000E+00  0.00000000E+00  0.00000000E+00
  0.00000000E+00  0.00000000E+00  0.00000000E+00
  0.00000000E+00  0.00000000E+00  0.00000000E+00
  0.00000000E+00  0.00000000E+00  0.00000000E+00
  0.00000000E+00  0.00000000E+00  0.00000000E+00
  0.00000000E+00  0.00000000E+00  0.00000000E+00
  0.00000000E+00  0.00000000E+00  0.00000000E+00
  0.00000000E+00  0.00000000E+00  0.00000000E+00
  0.00000000E+00  0.00000000E+00  0.00000000E+00
  0.00000000E+00  0.00000000E+00  0.00000000E+00
  0.00000000E+00  0.00000000E+00  0.00000000E+00
  0.00000000E+00  0.00000000E+00  0.00000000E+00
  0.00000000E+00  0.00000000E+00  0.00000000E+00
  0.00000000E+00  0.00000000E+00  0.00000000E+00
  0.00000000E+00  0.00000000E+00  0.00000000E+00
  0.00000000E+00  0.00000000E+00  0.00000000E+00
  0.00000000E+00  0.00000000E+00  0.00000000E+00
  0.00000000E+00  0.00000000E+00  0.00000000E+00
  0.00000000E+00  0.00000000E+00  0.00000000E+00
  0.00000000E+00  0.00000000E+00  0.00000000E+00
  0.00000000E+00  0.00000000E+00  0.00000000E+00
  0.00000000E+00  0.00000000E+00  0.00000000E+00
