       N       E                     dE             d eps       ncg     rms          ort
DAV:   1     0.386011490514E+02    0.38601E+02   -0.31090E+03   256   0.273E+01
DAV:   2    -0.141323944817E+01   -0.40014E+02   -0.39972E+02   256   0.197E+00
DAV:   3    -0.146228365527E+01   -0.49044E-01   -0.48916E-01   256   0.273E-01
DAV:   4    -0.146235444372E+01   -0.70788E-04   -0.70788E-04   256   0.107E-02
DAV:   5    -0.146235444666E+01   -0.29435E-08   -0.28395E-08   256   0.663E-05
SDA:   6    -0.457769605170E+00    0.10046E+01   -0.28395E-08   256   0.287E+01 0.000E+00
CGA:   7    -0.100563471119E+01   -0.54787E+00   -0.43968E+00   256   0.894E+00 0.222E+01
CGA:   8    -0.112706926539E+01   -0.12143E+00   -0.58886E-01   256   0.315E+00 0.535E+00
CGA:   9    -0.120429944638E+01   -0.77230E-01   -0.78419E-01   256   0.367E+00-0.853E-02
CGA:  10    -0.123070013913E+01   -0.26401E-01   -0.26317E-01   256   0.108E-01 0.131E-02
CGA:  11    -0.123329771964E+01   -0.25976E-02   -0.25993E-02   256   0.227E-01-0.127E-04
CGA:  12    -0.123606036590E+01   -0.27626E-02   -0.27825E-02   256   0.635E-02-0.307E-04
CGA:  13    -0.123905672405E+01   -0.29964E-02    0.22726E-02   256   0.237E-01 0.967E-02
CGA:  14    -0.124912793156E+01   -0.10071E-01    0.16543E-01   256   0.920E-01 0.299E-01
CGA:  15    -0.128469785837E+01   -0.35570E-01    0.26724E+00   256   0.355E+00 0.964E-01
CGA:  16    -0.137673852389E+01   -0.92041E-01   -0.12956E+00   256   0.242E+01-0.146E+00
CGA:  17    -0.154962194426E+01   -0.17288E+00   -0.20745E+00   256   0.212E+00 0.179E+00
CGA:  18    -0.156750584306E+01   -0.17884E-01   -0.23351E-01   256   0.117E-01-0.206E-01
CGA:  19    -0.157066014468E+01   -0.31543E-02   -0.32638E-02   256   0.857E-02-0.821E-03
CGA:  20    -0.157252127152E+01   -0.18611E-02   -0.18484E-02   256   0.154E-02 0.218E-03
CGA:  21    -0.157328656976E+01   -0.76530E-03   -0.76612E-03   256   0.208E-02-0.460E-05
CGA:  22    -0.157372816188E+01   -0.44159E-03   -0.44113E-03   256   0.802E-04 0.119E-03
CGA:  23    -0.157378042614E+01   -0.52264E-04   -0.51839E-04   256   0.230E-04 0.108E-05
CGA:  24    -0.157379355672E+01   -0.13131E-04   -0.13358E-04   256   0.162E-04-0.648E-06
CGA:  25    -0.157379584418E+01   -0.22875E-05   -0.23578E-05   256   0.169E-05 0.745E-06
   1 F= -.15737958E+01 E0= -.15661194E+01  d E =-.153530E-01  mag=     3.0000
