       N       E                     dE             d eps       ncg     rms          rms(c)
DAV:   1     0.118835662176E+04    0.11884E+04   -0.85615E+04  4096   0.595E+02
DAV:   2    -0.401443873505E+03   -0.15898E+04   -0.15893E+04  6144   0.115E+02
DAV:   3    -0.483687310866E+03   -0.82243E+02   -0.82052E+02  8192   0.386E+01
DAV:   4    -0.483756561785E+03   -0.69251E-01   -0.69249E-01  4864   0.133E+00
DAV:   5    -0.483756843131E+03   -0.28135E-03   -0.28135E-03  8192   0.809E-02    0.651E+01
DAV:   6    -0.599600098512E+03   -0.11584E+03   -0.45755E+03  4096   0.637E+01    0.449E+01
DAV:   7    -0.481175905918E+03    0.11842E+03   -0.29524E+02  6144   0.228E+01    0.268E+01
DAV:   8    -0.453054570972E+03    0.28121E+02   -0.37927E+01  8192   0.151E+01    0.166E+01
DAV:   9    -0.474635808337E+03   -0.21581E+02   -0.47180E+02  7424   0.550E+01    0.725E+01
DAV:  10    -0.442839250272E+03    0.31797E+02   -0.66556E+02  4352   0.112E+01    0.792E+00
DAV:  11    -0.443090534341E+03   -0.25128E+00   -0.66661E-01  7168   0.214E+00    0.808E+00
DAV:  12    -0.441524230034E+03    0.15663E+01   -0.10011E+00  7680   0.567E+00    0.662E+00
DAV:  13    -0.440632837296E+03    0.89139E+00   -0.60171E+00  5888   0.725E+00    0.235E+00
DAV:  14    -0.440605353073E+03    0.27484E-01   -0.26739E-02  6912   0.458E-01    0.257E+00
DAV:  15    -0.440624996223E+03   -0.19643E-01   -0.28204E-02  8192   0.468E-01    0.369E+00
DAV:  16    -0.440737234049E+03   -0.11224E+00   -0.90185E-02  4608   0.949E-01    0.402E+00
DAV:  17    -0.440539876602E+03    0.19736E+00   -0.11122E-01  5888   0.107E+00    0.490E+00
DAV:  18    -0.440450516296E+03    0.89360E-01   -0.11677E-02  6400   0.262E-01    0.442E+00
DAV:  19    -0.440315904897E+03    0.13461E+00   -0.63751E-01  6656   0.170E+00    0.235E+00
DAV:  20    -0.440285542182E+03    0.30363E-01   -0.34715E-01  7680   0.129E+00    0.185E+00
DAV:  21    -0.440081862199E+03    0.20368E+00   -0.92449E-02  5632   0.989E-01    0.405E+00
DAV:  22    -0.440052258752E+03    0.29603E-01   -0.55275E-02  7424   0.525E-01    0.568E+00
DAV:  23    -0.439446553586E+03    0.60571E+00   -0.23134E-01  5888   0.126E+00    0.101E+01
DAV:  24    -0.439491643920E+03   -0.45090E-01   -0.48957E-03  6656   0.144E-01    0.982E+00
DAV:  25    -0.439442326878E+03    0.49317E-01   -0.20537E-03  7424   0.153E-01    0.101E+01
DAV:  26    -0.439811336326E+03   -0.36901E+00   -0.20535E-01  5376   0.108E+00    0.871E+00
DAV:  27    -0.440423790455E+03   -0.61245E+00   -0.22998E-01  7424   0.136E+00    0.417E+00
DAV:  28    -0.440549155052E+03   -0.12536E+00   -0.86411E-02  5632   0.101E+00    0.192E+00
DAV:  29    -0.440598605130E+03   -0.49450E-01   -0.60397E-02  6656   0.751E-01    0.788E-01
DAV:  30    -0.440612605747E+03   -0.14001E-01   -0.16303E-02  6400   0.238E-01    0.463E-01
DAV:  31    -0.440610761647E+03    0.18441E-02   -0.86963E-03  6144   0.289E-01    0.306E-01
DAV:  32    -0.440604816250E+03    0.59454E-02   -0.11210E-02  5632   0.334E-01    0.117E+00
DAV:  33    -0.440597029704E+03    0.77865E-02   -0.32677E-03  7424   0.180E-01    0.163E+00
DAV:  34    -0.440601403744E+03   -0.43740E-02   -0.15475E-03  6912   0.926E-02    0.148E+00
DAV:  35    -0.440612157581E+03   -0.10754E-01   -0.39858E-03  6656   0.162E-01    0.933E-01
DAV:  36    -0.440616849539E+03   -0.46920E-02   -0.13259E-03  6144   0.107E-01    0.570E-01
DAV:  37    -0.440619726270E+03   -0.28767E-02   -0.11241E-03  6656   0.936E-02    0.243E-01
DAV:  38    -0.440621028676E+03   -0.13024E-02   -0.56772E-04  5120   0.605E-02    0.359E-02
DAV:  39    -0.440621251404E+03   -0.22273E-03   -0.70598E-05  5888   0.172E-02    0.337E-02
DAV:  40    -0.440621282839E+03   -0.31435E-04   -0.15009E-05  6400   0.883E-03    0.445E-02
DAV:  41    -0.440621305267E+03   -0.22428E-04   -0.15370E-05  6144   0.123E-02    0.387E-02
DAV:  42    -0.440621342348E+03   -0.37081E-04   -0.14679E-05  6656   0.130E-02    0.188E-02
DAV:  43    -0.440621368182E+03   -0.25835E-04   -0.61497E-06  7424   0.751E-03    0.443E-03
DAV:  44    -0.440621381453E+03   -0.13271E-04   -0.94708E-07  6656   0.267E-03    0.278E-03
DAV:  45    -0.440621386172E+03   -0.47190E-05   -0.61701E-07  6400   0.242E-03
   1 F= -.44238854E+03 E0= -.44238829E+03  d E =-.442389E+03  mag=    -1.0004
