C  N  Cu
 1.0000000000000000
    12.3000000000000007    0.0000000000000000    0.0000000000000000
    -6.1499999999999977   10.6521124665485960    0.0000000000000000
     0.0000000000000000    0.0000000000000000   20.0000000000000000
 C   N   Cu 
  44   4   1
Direct
  0.9991760000000000  0.0008240000000000  0.7500010000000001
  0.1312730000000000  0.0645730000000000  0.7499860000000000
  0.1978960000000000  0.9979370000000000  0.7499860000000000
  0.3303080000000000  0.0628430000000000  0.7499730000000000
  0.3984890000000000  0.9974450000000000  0.7499930000000000
  0.5314590000000000  0.0669130000000000  0.7499910000000001
  0.5991760000000000  0.0006990000000000  0.7499890000000002
  0.7322660000000001  0.0695300000000000  0.7499990000000000
  0.7994700000000000  0.0025600000000000  0.7500030000000000
  0.9322590000000001  0.0677410000000000  0.7500030000000000
  0.9974400000000001  0.2005300000000000  0.7500030000000000
  0.1307470000000000  0.2651070000000000  0.7499930000000000
  0.1961910000000000  0.1969790000000000  0.7499730000000000
  0.3276340000000000  0.2617940000000000  0.7500110000000000
  0.3950790000000000  0.1943070000000000  0.7500100000000001
  0.5933150000000000  0.2017370000000000  0.7500450000000001
  0.7284450000000000  0.2715550000000000  0.7500210000000003
  0.7963640000000000  0.2036360000000000  0.7499980000000002
  0.9304700000000000  0.2677340000000000  0.7499990000000000
  0.9993010000000001  0.4008240000000000  0.7499890000000002
  0.1339780000000000  0.4658170000000000  0.7499910000000001
  0.2001840000000000  0.3980780000000000  0.7499930000000000
  0.3350340000000000  0.4599530000000000  0.7500470000000000
  0.7982629999999999  0.4066850000000000  0.7500450000000001
  0.9330870000000000  0.4685410000000000  0.7499910000000001
  0.0025550000000000  0.6015110000000000  0.7499930000000000
  0.1358820000000000  0.6661270000000000  0.7500019999999999
  0.2028510000000000  0.5989220000000000  0.7499990000000000
  0.3369800000000001  0.6630200000000001  0.7499980000000002
  0.4049080000000000  0.5950920000000000  0.7500210000000003
  0.5400470000000001  0.6649659999999999  0.7500470000000000
  0.7382060000000000  0.6723660000000000  0.7500110000000000
  0.8056930000000000  0.6049210000000000  0.7500100000000001
  0.9371570000000000  0.6696920000000000  0.7499730000000000
  0.0020630000000000  0.8021040000000000  0.7499860000000000
  0.1341680000000000  0.8658319999999999  0.7500010000000001
  0.2010700000000001  0.7989300000000001  0.7500030000000000
  0.3338730000000001  0.8641180000000002  0.7500019999999999
  0.4010780000000000  0.7971490000000000  0.7499990000000000
  0.5341830000000001  0.8660220000000001  0.7499910000000001
  0.6019220000000000  0.7998150000000001  0.7499930000000000
  0.7348930000000002  0.8692530000000001  0.7499930000000000
  0.8030210000000000  0.8038090000000000  0.7499730000000000
  0.9354270000000000  0.8687270000000000  0.7499860000000000
  0.5232690000000000  0.2600970000000000  0.7501340000000001
  0.3934340000000000  0.3899620000000000  0.7501330000000000
  0.7399030000000000  0.4767310000000001  0.7501340000000001
  0.6100380000000000  0.6065660000000000  0.7501330000000000
  0.5666679999999999  0.4333320000000000  0.7504570000000000
