       N       E                     dE             d eps       ncg     rms          rms(c)
DAV:   1    -0.477361168921E+03   -0.47736E+03   -0.14723E+02  8192   0.150E+01    0.321E+01
DAV:   2    -0.458061251398E+03    0.19300E+02   -0.37658E+02  6656   0.169E+01    0.201E+01
DAV:   3    -0.446719558901E+03    0.11342E+02   -0.44026E+01  6144   0.148E+01    0.100E+01
DAV:   4    -0.442582775499E+03    0.41368E+01   -0.14871E+01  6400   0.689E+00    0.487E+00
DAV:   5    -0.442556074001E+03    0.26701E-01   -0.18118E+00  7168   0.206E+00    0.233E+00
DAV:   6    -0.442976885660E+03   -0.42081E+00   -0.85884E-01  7168   0.132E+00    0.933E-01
DAV:   7    -0.443129017285E+03   -0.15213E+00   -0.12249E-01  7168   0.388E-01    0.487E-01
DAV:   8    -0.443201732333E+03   -0.72715E-01   -0.28884E-02  8192   0.247E-01    0.295E-01
DAV:   9    -0.443259771232E+03   -0.58039E-01   -0.23364E-02  6144   0.155E-01    0.211E-01
DAV:  10    -0.443294037591E+03   -0.34266E-01   -0.13896E-02  7680   0.123E-01    0.122E-01
DAV:  11    -0.443312839995E+03   -0.18802E-01   -0.68696E-03  6144   0.814E-02    0.679E-02
DAV:  12    -0.443324768418E+03   -0.11928E-01   -0.23474E-03  5632   0.408E-02    0.500E-02
DAV:  13    -0.443331287151E+03   -0.65187E-02   -0.54055E-04  6912   0.207E-02    0.263E-02
DAV:  14    -0.443336556203E+03   -0.52691E-02   -0.47750E-04  6656   0.203E-02    0.166E-02
DAV:  15    -0.443339861514E+03   -0.33053E-02   -0.33517E-04  5888   0.119E-02    0.126E-02
DAV:  16    -0.443341694755E+03   -0.18332E-02   -0.13209E-04  4608   0.999E-03    0.547E-03
DAV:  17    -0.443342500769E+03   -0.80601E-03   -0.29621E-05  5632   0.450E-03    0.349E-03
DAV:  18    -0.443342709358E+03   -0.20859E-03   -0.13382E-05  6656   0.262E-03    0.213E-03
DAV:  19    -0.443342839071E+03   -0.12971E-03   -0.77841E-06  5632   0.186E-03    0.116E-03
DAV:  20    -0.443342895513E+03   -0.56442E-04   -0.24106E-06  7168   0.861E-04    0.720E-04
DAV:  21    -0.443342923245E+03   -0.27732E-04   -0.44855E-07  6400   0.413E-04    0.522E-04
DAV:  22    -0.443342944787E+03   -0.21543E-04   -0.15904E-07  7680   0.286E-04    0.325E-04
DAV:  23    -0.443342952283E+03   -0.74951E-05   -0.14724E-07  7680   0.205E-04
   1 F= -.44523367E+03 E0= -.44523331E+03  d E =-.445234E+03  mag=     0.0004
