C  N  Na                                
   1.00000000000000     
    12.3000000000000007    0.0000000000000000    0.0000000000000000
    -6.1499999999999977   10.6521124665485960    0.0000000000000000
     0.0000000000000000    0.0000000000000000   20.0000000000000000
   C    N    Na
    44     4     1
Direct
  0.9994874658944964  0.0005126439549792  0.7431867261763426
  0.1319865385919587  0.0653883142078983  0.7435716397365348
  0.1986923272694128  0.9986891343268542  0.7435761543745366
  0.3314814548650050  0.0643557977812190  0.7461721957223704
  0.3987901403141918  0.9978961471044543  0.7464160833154154
  0.5314427302543708  0.0660591656502586  0.7483468349419798
  0.5992964248706140  0.0002617422975826  0.7472754699672661
  0.7321716844294138  0.0690862136401847  0.7473946167570441
  0.7996087328023722  0.0024538003761224  0.7455650806760920
  0.9323201193467334  0.0676797870975141  0.7445178474990403
  0.9975463414351461  0.2003913444101078  0.7455650947696008
  0.1312296584113360  0.2654829365269209  0.7463769952923874
  0.1977064477362847  0.1981654162102980  0.7461653816507984
  0.3300779896779551  0.2663128964161607  0.7519381152081765
  0.3996414002844285  0.1967365505883054  0.7519528725415343
  0.5929292553951833  0.2000899698159892  0.7533904920309653
  0.7290835242668056  0.2709164781509019  0.7533019770803254
  0.7963944312521852  0.2036056221267690  0.7492639969643403
  0.9309136804862986  0.2678282104490320  0.7473945157590006
  0.9997382794338471  0.4007035237650141  0.7472753403304059
  0.1336409478142938  0.4660078207576356  0.7472239249402655
  0.1994157579090663  0.3981154318457674  0.7482771554052365
  0.3334479396455412  0.4595643665240967  0.7533292300795410
  0.7999100400526187  0.4070706464724623  0.7533904009232205
  0.9339410302361790  0.4685571147708628  0.7483469012591186
  0.0021038760560946  0.6012097590859081  0.7464159470715719
  0.1357839979161372  0.6662999139208019  0.7455961568309156
  0.2024377159663987  0.5988721534330478  0.7473250056754625
  0.3369471077223354  0.6630529865710884  0.7491648137009097
  0.4042752711663969  0.5957246439800413  0.7532037007092169
  0.5404356582025523  0.6665521478523877  0.7533291989222575
  0.7336871800464518  0.6699220172188124  0.7519381269413717
  0.8032635202562362  0.6003585825123292  0.7519528527971852
  0.9356441447250901  0.6685185466418858  0.7461720755694881
  0.0013109628579810  0.8013077365894324  0.7435761459475523
  0.1338150485106666  0.8661848756675228  0.7431839822257134
  0.2009885139276354  0.7990114658568803  0.7445217072456148
  0.3337000972858517  0.8642158094200804  0.7455962734098316
  0.4011277322664695  0.7975622639763177  0.7473250247247251
  0.5339923662060206  0.8663591400469237  0.7472240159680711
  0.6018845919540781  0.8005842622657695  0.7482771376743792
  0.7345170899072324  0.8687704696521653  0.7463769586632231
  0.8018347212480421  0.8022936371183053  0.7461653657965975
  0.9346118674299421  0.8680135398663427  0.7435716508359816
  0.5251640463305118  0.2591648037476047  0.7580531294850950
  0.3925197708083927  0.3918264916639919  0.7580201415683482
  0.7408353188851787  0.4748360742506255  0.7580530435100750
  0.6081735137408895  0.6074801888805933  0.7580201425070944
  0.5666405439076949  0.4333594145137373  0.8187293588178215
 
  0.00000000E+00  0.00000000E+00  0.00000000E+00
  0.00000000E+00  0.00000000E+00  0.00000000E+00
  0.00000000E+00  0.00000000E+00  0.00000000E+00
  0.00000000E+00  0.00000000E+00  0.00000000E+00
  0.00000000E+00  0.00000000E+00  0.00000000E+00
  0.00000000E+00  0.00000000E+00  0.00000000E+00
  0.00000000E+00  0.00000000E+00  0.00000000E+00
  0.00000000E+00  0.00000000E+00  0.00000000E+00
  0.00000000E+00  0.00000000E+00  0.00000000E+00
  0.00000000E+00  0.00000000E+00  0.00000000E+00
  0.00000000E+00  0.00000000E+00  0.00000000E+00
  0.00000000E+00  0.00000000E+00  0.00000000E+00
  0.00000000E+00  0.00000000E+00  0.00000000E+00
  0.00000000E+00  0.00000000E+00  0.00000000E+00
  0.00000000E+00  0.00000000E+00  0.00000000E+00
  0.00000000E+00  0.00000000E+00  0.00000000E+00
  0.00000000E+00  0.00000000E+00  0.00000000E+00
  0.00000000E+00  0.00000000E+00  0.00000000E+00
  0.00000000E+00  0.00000000E+00  0.00000000E+00
  0.00000000E+00  0.00000000E+00  0.00000000E+00
  0.00000000E+00  0.00000000E+00  0.00000000E+00
  0.00000000E+00  0.00000000E+00  0.00000000E+00
  0.00000000E+00  0.00000000E+00  0.00000000E+00
  0.00000000E+00  0.00000000E+00  0.00000000E+00
  0.00000000E+00  0.00000000E+00  0.00000000E+00
  0.00000000E+00  0.00000000E+00  0.00000000E+00
  0.00000000E+00  0.00000000E+00  0.00000000E+00
  0.00000000E+00  0.00000000E+00  0.00000000E+00
  0.00000000E+00  0.00000000E+00  0.00000000E+00
  0.00000000E+00  0.00000000E+00  0.00000000E+00
  0.00000000E+00  0.00000000E+00  0.00000000E+00
  0.00000000E+00  0.00000000E+00  0.00000000E+00
  0.00000000E+00  0.00000000E+00  0.00000000E+00
  0.00000000E+00  0.00000000E+00  0.00000000E+00
  0.00000000E+00  0.00000000E+00  0.00000000E+00
  0.00000000E+00  0.00000000E+00  0.00000000E+00
  0.00000000E+00  0.00000000E+00  0.00000000E+00
  0.00000000E+00  0.00000000E+00  0.00000000E+00
  0.00000000E+00  0.00000000E+00  0.00000000E+00
  0.00000000E+00  0.00000000E+00  0.00000000E+00
  0.00000000E+00  0.00000000E+00  0.00000000E+00
  0.00000000E+00  0.00000000E+00  0.00000000E+00
  0.00000000E+00  0.00000000E+00  0.00000000E+00
  0.00000000E+00  0.00000000E+00  0.00000000E+00
  0.00000000E+00  0.00000000E+00  0.00000000E+00
  0.00000000E+00  0.00000000E+00  0.00000000E+00
  0.00000000E+00  0.00000000E+00  0.00000000E+00
  0.00000000E+00  0.00000000E+00  0.00000000E+00
  0.00000000E+00  0.00000000E+00  0.00000000E+00
