       N       E                     dE             d eps       ncg     rms          rms(c)
DAV:   1    -0.470427467335E+03   -0.47043E+03   -0.11521E+02  8192   0.120E+01    0.288E+01
DAV:   2    -0.447439678377E+03    0.22988E+02   -0.33645E+01  6144   0.785E+00    0.146E+01
DAV:   3    -0.439961915296E+03    0.74778E+01   -0.14374E+01  8192   0.466E+00    0.572E+00
DAV:   4    -0.439070375529E+03    0.89154E+00   -0.24326E+00  7936   0.186E+00    0.199E+00
DAV:   5    -0.438965837673E+03    0.10454E+00   -0.88631E-02  6656   0.382E-01    0.107E+00
DAV:   6    -0.438864988701E+03    0.10085E+00   -0.59852E-02  8192   0.315E-01    0.373E-01
DAV:   7    -0.438855709969E+03    0.92787E-02   -0.12640E-02  7168   0.125E-01    0.287E-01
DAV:   8    -0.438843035003E+03    0.12675E-01   -0.35875E-02  8192   0.181E-01    0.140E-01
DAV:   9    -0.438839476631E+03    0.35584E-02   -0.95366E-03  6144   0.911E-02    0.990E-02
DAV:  10    -0.438859370001E+03   -0.19893E-01   -0.31435E-03  6656   0.483E-02    0.625E-02
DAV:  11    -0.438879186528E+03   -0.19817E-01   -0.25010E-03  7424   0.425E-02    0.324E-02
DAV:  12    -0.438887303115E+03   -0.81166E-02   -0.78096E-04  7680   0.234E-02    0.214E-02
DAV:  13    -0.438891994906E+03   -0.46918E-02   -0.47495E-04  7680   0.173E-02    0.105E-02
DAV:  14    -0.438893787502E+03   -0.17926E-02   -0.14159E-04  5888   0.974E-03    0.577E-03
DAV:  15    -0.438894412086E+03   -0.62458E-03   -0.29789E-05  4864   0.478E-03    0.385E-03
DAV:  16    -0.438894702539E+03   -0.29045E-03   -0.19356E-05  5632   0.339E-03    0.234E-03
DAV:  17    -0.438894868619E+03   -0.16608E-03   -0.10823E-05  5888   0.218E-03    0.149E-03
DAV:  18    -0.438894952781E+03   -0.84162E-04   -0.36690E-06  5888   0.120E-03    0.102E-03
DAV:  19    -0.438895008150E+03   -0.55369E-04   -0.67703E-07  6144   0.716E-04    0.639E-04
DAV:  20    -0.438895043256E+03   -0.35106E-04   -0.31384E-07  6400   0.587E-04    0.361E-04
DAV:  21    -0.438895054204E+03   -0.10948E-04   -0.96684E-08  6656   0.425E-04    0.212E-04
DAV:  22    -0.438895058964E+03   -0.47601E-05   -0.42935E-08  5376   0.269E-04
   1 F= -.44061094E+03 E0= -.44060575E+03  d E =-.440611E+03  mag=     0.0002
       N       E                     dE             d eps       ncg     rms          rms(c)
DAV:   1    -0.438895706685E+03   -0.65248E-03   -0.63194E-02  6400   0.391E-01    0.509E-02
DAV:   2    -0.438895682219E+03    0.24466E-04   -0.57053E-04  7168   0.387E-02    0.284E-02
DAV:   3    -0.438895675415E+03    0.68039E-05   -0.50725E-05  5888   0.107E-02
   2 F= -.44061164E+03 E0= -.44060651E+03  d E =-.700553E-03  mag=     0.0001
       N       E                     dE             d eps       ncg     rms          rms(c)
DAV:   1    -0.438895964781E+03   -0.28256E-03   -0.17022E-02  6656   0.200E-01    0.267E-02
DAV:   2    -0.438895958037E+03    0.67440E-05   -0.15051E-04  5632   0.202E-02    0.151E-02
DAV:   3    -0.438895956784E+03    0.12523E-05   -0.15337E-05  7168   0.589E-03
   3 F= -.44061196E+03 E0= -.44060678E+03  d E =-.319325E-03  mag=     0.0001
       N       E                     dE             d eps       ncg     rms          rms(c)
DAV:   1    -0.438896287973E+03   -0.32994E-03   -0.49186E-02  4096   0.321E-01    0.381E-02
DAV:   2    -0.438896297604E+03   -0.96311E-05   -0.41890E-04  7680   0.309E-02    0.225E-02
DAV:   3    -0.438896297630E+03   -0.25887E-07   -0.31109E-05  5376   0.794E-03
   4 F= -.44061241E+03 E0= -.44060726E+03  d E =-.447975E-03  mag=     0.0000
       N       E                     dE             d eps       ncg     rms          rms(c)
DAV:   1    -0.438896480388E+03   -0.18278E-03   -0.33425E-02  5120   0.251E-01    0.300E-02
DAV:   2    -0.438896484550E+03   -0.41626E-05   -0.24878E-04  6656   0.229E-02    0.175E-02
DAV:   3    -0.438896486179E+03   -0.16285E-05   -0.19639E-05  6656   0.626E-03
   5 F= -.44061270E+03 E0= -.44060755E+03  d E =-.286049E-03  mag=     0.0000
       N       E                     dE             d eps       ncg     rms          rms(c)
DAV:   1    -0.438896620349E+03   -0.13580E-03   -0.28096E-02  4096   0.219E-01    0.256E-02
DAV:   2    -0.438896628532E+03   -0.81828E-05   -0.24079E-04  7680   0.209E-02    0.150E-02
DAV:   3    -0.438896630997E+03   -0.24653E-05   -0.15302E-05  5376   0.542E-03
   6 F= -.44061293E+03 E0= -.44060778E+03  d E =-.234994E-03  mag=     0.0000
       N       E                     dE             d eps       ncg     rms          rms(c)
DAV:   1    -0.438896757087E+03   -0.12855E-03   -0.36669E-02  4096   0.244E-01    0.287E-02
DAV:   2    -0.438896766435E+03   -0.93478E-05   -0.30094E-04  7680   0.228E-02    0.165E-02
DAV:   3    -0.438896769521E+03   -0.30864E-05   -0.20532E-05  5120   0.613E-03
   7 F= -.44061318E+03 E0= -.44060803E+03  d E =-.242961E-03  mag=     0.0000
       N       E                     dE             d eps       ncg     rms          rms(c)
DAV:   1    -0.438896898285E+03   -0.13185E-03   -0.53927E-02  4096   0.294E-01    0.349E-02
DAV:   2    -0.438896908868E+03   -0.10582E-04   -0.41857E-04  7680   0.266E-02    0.198E-02
DAV:   3    -0.438896913048E+03   -0.41802E-05   -0.32170E-05  5376   0.748E-03
   8 F= -.44061344E+03 E0= -.44060831E+03  d E =-.264544E-03  mag=     0.0000
       N       E                     dE             d eps       ncg     rms          rms(c)
DAV:   1    -0.438897018712E+03   -0.10984E-03   -0.44410E-02  4096   0.269E-01    0.326E-02
DAV:   2    -0.438897025334E+03   -0.66217E-05   -0.33181E-04  7424   0.241E-02    0.184E-02
DAV:   3    -0.438897030535E+03   -0.52013E-05   -0.29199E-05  5120   0.710E-03
   9 F= -.44061366E+03 E0= -.44060852E+03  d E =-.222360E-03  mag=     0.0000
