C  N  Na                                
   1.00000000000000     
    12.3000000000000007    0.0000000000000000    0.0000000000000000
    -6.1499999999999977   10.6521124665485960    0.0000000000000000
     0.0000000000000000    0.0000000000000000   20.0000000000000000
   C    N    Na
    44     4     1
Direct
  0.9995464037481467  0.0004535854145877  0.7434968929292368
  0.1320047802000404  0.0653370720976743  0.7437490688729645
  0.1986337321835997  0.9986220974582858  0.7438378060050813
  0.3314317178529914  0.0642996392018292  0.7463988770170860
  0.3988519957982181  0.9979854509038065  0.7463611484823649
  0.5315354065660381  0.0660551978781252  0.7483082298028780
  0.5993912772855172  0.0002749643893233  0.7470891680488021
  0.7322448598456596  0.0689723707278624  0.7472937664117809
  0.7996508874563961  0.0023485359552236  0.7455783506385193
  0.9324116799678371  0.0675883658608241  0.7446731511946743
  0.9976513956798264  0.2003490394268353  0.7455783588380496
  0.1313488040643014  0.2654846298300660  0.7463555657845292
  0.1976542057349885  0.1980701265877872  0.7462380752966499
  0.3299814014110562  0.2662327244336462  0.7520266194259121
  0.3995235391978602  0.1965948220893917  0.7521413439956454
  0.5929094450426812  0.2000399248386080  0.7533909913354735
  0.7291003448854823  0.2708996822842057  0.7533194866254057
  0.7964554342479228  0.2035446083040698  0.7491495622623007
  0.9310278541650525  0.2677554396600662  0.7472937673448862
  0.9997250600223564  0.4006087412959758  0.7470891676353375
  0.1335974335233787  0.4660342727921077  0.7470768897162804
  0.1993447588928927  0.3981475657446192  0.7481671241159032
  0.3332955362020735  0.4595897441457052  0.7533630358540339
  0.7999599799151837  0.4070905000539713  0.7533909944460621
  0.9339449825066669  0.4684646314081999  0.7483082315297902
  0.0020146881028719  0.6011481986340275  0.7463611301787152
  0.1356559136722365  0.6662549518183735  0.7455346056086392
  0.2022982697526572  0.5988830329115407  0.7471545672033461
  0.3368273309558746  0.6631728924676643  0.7491421390560074
  0.4041640376904048  0.5958360437276514  0.7533460885226552
  0.5404101457015367  0.6667042874584802  0.7533630473205410
  0.7337673392345362  0.6700185433373239  0.7520266097212603
  0.8034052076206063  0.6004764701372584  0.7521413333614332
  0.9357004664275672  0.6685681839180028  0.7463988665478917
  0.0013779398842225  0.8013663537244059  0.7438377809869907
  0.1338027839518945  0.8661971359770734  0.7433971687117853
  0.2009534952840522  0.7990470086146461  0.7446926970627332
  0.3337448078207824  0.8643438480507013  0.7455346221264569
  0.4011169999322508  0.7977014788180756  0.7471545816116304
  0.5339654741889280  0.8664023274510085  0.7470768865647133
  0.6018525755501736  0.8006554834418634  0.7481671157699645
  0.7345156021479344  0.8686512487848750  0.7463555560857815
  0.8019298571538273  0.8023458163928189  0.7462380555826611
  0.9346629640883574  0.8679952400310007  0.7437490618174033
  0.5250841647033893  0.2590778173481020  0.7578927466807522
  0.3923318012697030  0.3917755707155035  0.7578944704919093
  0.7409221520991122  0.4749158049564789  0.7578927385959188
  0.6082243956903322  0.6076682313026730  0.7578944614492757
  0.5666376706805779  0.4333622971976553  0.8180849953319100
 
  0.00000000E+00  0.00000000E+00  0.00000000E+00
  0.00000000E+00  0.00000000E+00  0.00000000E+00
  0.00000000E+00  0.00000000E+00  0.00000000E+00
  0.00000000E+00  0.00000000E+00  0.00000000E+00
  0.00000000E+00  0.00000000E+00  0.00000000E+00
  0.00000000E+00  0.00000000E+00  0.00000000E+00
  0.00000000E+00  0.00000000E+00  0.00000000E+00
  0.00000000E+00  0.00000000E+00  0.00000000E+00
  0.00000000E+00  0.00000000E+00  0.00000000E+00
  0.00000000E+00  0.00000000E+00  0.00000000E+00
  0.00000000E+00  0.00000000E+00  0.00000000E+00
  0.00000000E+00  0.00000000E+00  0.00000000E+00
  0.00000000E+00  0.00000000E+00  0.00000000E+00
  0.00000000E+00  0.00000000E+00  0.00000000E+00
  0.00000000E+00  0.00000000E+00  0.00000000E+00
  0.00000000E+00  0.00000000E+00  0.00000000E+00
  0.00000000E+00  0.00000000E+00  0.00000000E+00
  0.00000000E+00  0.00000000E+00  0.00000000E+00
  0.00000000E+00  0.00000000E+00  0.00000000E+00
  0.00000000E+00  0.00000000E+00  0.00000000E+00
  0.00000000E+00  0.00000000E+00  0.00000000E+00
  0.00000000E+00  0.00000000E+00  0.00000000E+00
  0.00000000E+00  0.00000000E+00  0.00000000E+00
  0.00000000E+00  0.00000000E+00  0.00000000E+00
  0.00000000E+00  0.00000000E+00  0.00000000E+00
  0.00000000E+00  0.00000000E+00  0.00000000E+00
  0.00000000E+00  0.00000000E+00  0.00000000E+00
  0.00000000E+00  0.00000000E+00  0.00000000E+00
  0.00000000E+00  0.00000000E+00  0.00000000E+00
  0.00000000E+00  0.00000000E+00  0.00000000E+00
  0.00000000E+00  0.00000000E+00  0.00000000E+00
  0.00000000E+00  0.00000000E+00  0.00000000E+00
  0.00000000E+00  0.00000000E+00  0.00000000E+00
  0.00000000E+00  0.00000000E+00  0.00000000E+00
  0.00000000E+00  0.00000000E+00  0.00000000E+00
  0.00000000E+00  0.00000000E+00  0.00000000E+00
  0.00000000E+00  0.00000000E+00  0.00000000E+00
  0.00000000E+00  0.00000000E+00  0.00000000E+00
  0.00000000E+00  0.00000000E+00  0.00000000E+00
  0.00000000E+00  0.00000000E+00  0.00000000E+00
  0.00000000E+00  0.00000000E+00  0.00000000E+00
  0.00000000E+00  0.00000000E+00  0.00000000E+00
  0.00000000E+00  0.00000000E+00  0.00000000E+00
  0.00000000E+00  0.00000000E+00  0.00000000E+00
  0.00000000E+00  0.00000000E+00  0.00000000E+00
  0.00000000E+00  0.00000000E+00  0.00000000E+00
  0.00000000E+00  0.00000000E+00  0.00000000E+00
  0.00000000E+00  0.00000000E+00  0.00000000E+00
  0.00000000E+00  0.00000000E+00  0.00000000E+00
