       N       E                     dE             d eps       ncg     rms          ort
SDA:   1    -0.334562194757E+03   -0.33456E+03    0.00000E+00  3328   0.141E+03 0.000E+00
CGA:   2    -0.394600194457E+03   -0.60038E+02   -0.63644E+02  3328   0.213E+03-0.127E+02
CGA:   3    -0.422064374665E+03   -0.27464E+02   -0.28822E+02  3328   0.603E+02 0.564E+01
CGA:   4    -0.432777988249E+03   -0.10714E+02   -0.10724E+02  3328   0.329E+02 0.811E-02
CGA:   5    -0.439391190621E+03   -0.66132E+01   -0.66196E+01  3328   0.151E+02 0.369E+00
CGA:   6    -0.442476826298E+03   -0.30856E+01   -0.30857E+01  3328   0.629E+01-0.197E-01
CGA:   7    -0.443707189857E+03   -0.12304E+01   -0.12300E+01  3328   0.270E+01-0.151E-01
CGA:   8    -0.444275377118E+03   -0.56819E+00   -0.56816E+00  3328   0.104E+01 0.398E-02
CGA:   9    -0.444507118821E+03   -0.23174E+00   -0.23173E+00  3328   0.386E+00 0.731E-03
CGA:  10    -0.444602976690E+03   -0.95858E-01   -0.95823E-01  3328   0.149E+00 0.767E-03
CGA:  11    -0.444641984096E+03   -0.39007E-01   -0.38985E-01  3328   0.622E-01 0.337E-03
CGA:  12    -0.444659814608E+03   -0.17831E-01   -0.17829E-01  3328   0.283E-01 0.587E-05
CGA:  13    -0.444667608746E+03   -0.77941E-02   -0.77917E-02  3328   0.131E-01 0.198E-04
CGA:  14    -0.444670824256E+03   -0.32155E-02   -0.32167E-02  3328   0.596E-02-0.378E-04
CGA:  15    -0.444672234700E+03   -0.14104E-02   -0.14107E-02  3328   0.223E-02-0.112E-04
CGA:  16    -0.444672851524E+03   -0.61682E-03   -0.61735E-03  3328   0.826E-03-0.828E-05
CGA:  17    -0.444673105965E+03   -0.25444E-03   -0.25465E-03  3328   0.376E-03-0.233E-05
CGA:  18    -0.444673220626E+03   -0.11466E-03   -0.11496E-03  3328   0.230E-03-0.367E-05
CGA:  19    -0.444673280649E+03   -0.60023E-04   -0.60074E-04  3328   0.133E-03-0.156E-05
CGA:  20    -0.444673323071E+03   -0.42422E-04   -0.42696E-04  3328   0.724E-04-0.297E-05
CGA:  21    -0.444673349299E+03   -0.26228E-04   -0.26440E-04  3328   0.460E-04-0.152E-05
CGA:  22    -0.444673364591E+03   -0.15292E-04   -0.15455E-04  3328   0.376E-04-0.163E-05
CGA:  23    -0.444673375092E+03   -0.10501E-04   -0.10525E-04  3328   0.252E-04-0.593E-06
CGA:  24    -0.444673384699E+03   -0.96075E-05   -0.97553E-05  3328   0.164E-04-0.105E-05
   1 F= -.44643399E+03 E0= -.44643052E+03  d E =-.694356E-02  mag=     3.0185
