       N       E                     dE             d eps       ncg     rms          rms(c)
DAV:   1     0.121131994585E+04    0.12113E+04   -0.86327E+04  4096   0.597E+02
DAV:   2    -0.393501637118E+03   -0.16048E+04   -0.16026E+04  6144   0.118E+02
DAV:   3    -0.469277241959E+03   -0.75776E+02   -0.75772E+02  7168   0.382E+01
DAV:   4    -0.469374296668E+03   -0.97055E-01   -0.97053E-01  6400   0.163E+00
DAV:   5    -0.469374582456E+03   -0.28579E-03   -0.28579E-03  6656   0.620E-02    0.277E+01
DAV:   6    -0.445203217895E+03    0.24171E+02   -0.33682E+01  7168   0.967E+00    0.141E+01
DAV:   7    -0.437251303340E+03    0.79519E+01   -0.23947E+01  8192   0.772E+00    0.345E+00
DAV:   8    -0.436962128032E+03    0.28918E+00   -0.89319E-01  7680   0.153E+00    0.185E+00
DAV:   9    -0.436824350457E+03    0.13778E+00   -0.26561E-01  7168   0.910E-01    0.411E-01
DAV:  10    -0.436794665218E+03    0.29685E-01   -0.48653E-02  6656   0.397E-01    0.289E-01
DAV:  11    -0.436778587887E+03    0.16077E-01   -0.16520E-02  7680   0.122E-01    0.186E-01
DAV:  12    -0.436779810543E+03   -0.12227E-02   -0.20188E-02  7168   0.112E-01    0.121E-01
DAV:  13    -0.436784603412E+03   -0.47929E-02   -0.44453E-03  8192   0.925E-02    0.742E-02
DAV:  14    -0.436791966738E+03   -0.73633E-02   -0.10943E-03  6656   0.439E-02    0.490E-02
DAV:  15    -0.436806773272E+03   -0.14807E-01   -0.19027E-03  7680   0.458E-02    0.215E-02
DAV:  16    -0.436810144362E+03   -0.33711E-02   -0.22028E-04  6144   0.174E-02    0.145E-02
DAV:  17    -0.436812942051E+03   -0.27977E-02   -0.26169E-04  7168   0.129E-02    0.745E-03
DAV:  18    -0.436814019437E+03   -0.10774E-02   -0.10637E-04  4864   0.899E-03    0.425E-03
DAV:  19    -0.436814363541E+03   -0.34410E-03   -0.24954E-05  8192   0.382E-03    0.248E-03
DAV:  20    -0.436814571863E+03   -0.20832E-03   -0.19026E-05  4608   0.322E-03    0.181E-03
DAV:  21    -0.436814682800E+03   -0.11094E-03   -0.11582E-05  8192   0.180E-03    0.108E-03
DAV:  22    -0.436814735198E+03   -0.52398E-04   -0.27375E-06  6400   0.895E-04    0.791E-04
DAV:  23    -0.436814777143E+03   -0.41945E-04   -0.15824E-06  8192   0.765E-04    0.479E-04
DAV:  24    -0.436814794673E+03   -0.17530E-04   -0.26819E-07  6656   0.487E-04    0.265E-04
DAV:  25    -0.436814803710E+03   -0.90372E-05   -0.13749E-07  7168   0.291E-04
   1 F= -.43861148E+03 E0= -.43861148E+03  d E =-.438611E+03  mag=     0.0000
