C  N  Cd
 1.0000000000000000
    12.3000000000000007    0.0000000000000000    0.0000000000000000
    -6.1499999999999977   10.6521124665485960    0.0000000000000000
     0.0000000000000000    0.0000000000000000   20.0000000000000000
 C   N   Cd 
  44   4   1
Direct
  0.9992170000000002  0.0007830000000000  0.7375290000000000
  0.1317670000000000  0.0652160000000000  0.7376160000000000
  0.1985060000000000  0.9984520000000001  0.7377570000000002
  0.3308750000000000  0.0636700000000000  0.7432090000000002
  0.3986280000000001  0.9976430000000001  0.7459070000000000
  0.5314870000000000  0.0661210000000000  0.7502400000000000
  0.5992980000000000  0.0003650000000000  0.7494150000000001
  0.7323900000000000  0.0692450000000000  0.7491100000000001
  0.7995450000000001  0.0024260000000000  0.7449120000000002
  0.9323330000000002  0.0676670000000000  0.7417930000000000
  0.9975740000000000  0.2004550000000000  0.7449120000000002
  0.1309650000000000  0.2653120000000000  0.7457090000000000
  0.1970150000000000  0.1975870000000000  0.7430380000000000
  0.3284310000000000  0.2635440000000000  0.7508310000000000
  0.3968700000000000  0.1951160000000000  0.7508850000000002
  0.5930730000000000  0.1998750000000000  0.7568810000000000
  0.7288900000000000  0.2711100000000000  0.7568220000000001
  0.7965950000000001  0.2034050000000000  0.7517310000000000
  0.9307550000000000  0.2676100000000000  0.7491100000000001
  0.9996350000000001  0.4007020000000001  0.7494150000000001
  0.1337040000000000  0.4659580000000000  0.7493760000000000
  0.1994630000000000  0.3981319999999999  0.7501250000000002
  0.3332350000000001  0.4597320000000000  0.7567880000000002
  0.8001250000000000  0.4069270000000000  0.7568810000000000
  0.9338780000000002  0.4685130000000000  0.7502400000000000
  0.0023570000000000  0.6013720000000000  0.7459070000000000
  0.1357520000000000  0.6662230000000000  0.7451440000000000
  0.2025860000000000  0.5990590000000000  0.7491500000000002
  0.3367550000000000  0.6632450000000000  0.7516590000000001
  0.4044600000000000  0.5955400000000000  0.7567200000000001
  0.5402680000000000  0.6667650000000001  0.7567880000000002
  0.7364560000000000  0.6715690000000000  0.7508310000000000
  0.8048840000000000  0.6031300000000001  0.7508850000000002
  0.9363300000000000  0.6691250000000000  0.7432090000000002
  0.0015480000000000  0.8014940000000000  0.7377570000000002
  0.1341010000000000  0.8658990000000000  0.7377690000000001
  0.2009880000000000  0.7990119999999999  0.7421040000000000
  0.3337770000000000  0.8642480000000000  0.7451440000000000
  0.4009410000000000  0.7974140000000000  0.7491500000000002
  0.5340420000000000  0.8662960000000000  0.7493760000000000
  0.6018680000000000  0.8005370000000001  0.7501250000000002
  0.7346880000000000  0.8690350000000001  0.7457090000000000
  0.8024130000000000  0.8029849999999999  0.7430380000000000
  0.9347839999999999  0.8682330000000000  0.7376160000000000
  0.5227720000000000  0.2572040000000000  0.7616260000000001
  0.3905340000000000  0.3894320000000000  0.7615790000000002
  0.7427960000000000  0.4772280000000000  0.7616260000000001
  0.6105680000000000  0.6094660000000000  0.7615790000000002
  0.5666660000000000  0.4333340000000001  0.8162780000000002
