       N       E                     dE             d eps       ncg     rms          ort
SDA:   1    -0.340833740052E+03   -0.34083E+03    0.00000E+00  3328   0.120E+03 0.000E+00
CGA:   2    -0.414022336818E+03   -0.73189E+02   -0.86954E+02  3328   0.725E+02-0.249E+02
CGA:   3    -0.430216019738E+03   -0.16194E+02   -0.16136E+02  3328   0.264E+02 0.520E+00
CGA:   4    -0.438737920640E+03   -0.85219E+01   -0.85047E+01  3328   0.960E+01 0.901E-01
CGA:   5    -0.441638248367E+03   -0.29003E+01   -0.29385E+01  3328   0.347E+01-0.369E+00
CGA:   6    -0.442606241204E+03   -0.96799E+00   -0.96468E+00  3328   0.110E+01 0.399E-01
CGA:   7    -0.442955567705E+03   -0.34933E+00   -0.34976E+00  3328   0.354E+00-0.343E-02
CGA:   8    -0.443072953751E+03   -0.11739E+00   -0.11749E+00  3328   0.121E+00-0.715E-03
CGA:   9    -0.443116961872E+03   -0.44008E-01   -0.43957E-01  3328   0.454E-01 0.370E-03
CGA:  10    -0.443133697394E+03   -0.16736E-01   -0.16732E-01  3328   0.153E-01 0.553E-05
CGA:  11    -0.443139211284E+03   -0.55139E-02   -0.55181E-02  3328   0.444E-02-0.382E-04
CGA:  12    -0.443140816076E+03   -0.16048E-02   -0.16059E-02  3328   0.129E-02-0.948E-05
CGA:  13    -0.443141309736E+03   -0.49366E-03   -0.49416E-03  3328   0.425E-03-0.423E-05
CGA:  14    -0.443141485525E+03   -0.17579E-03   -0.17620E-03  3328   0.155E-03-0.298E-05
CGA:  15    -0.443141550551E+03   -0.65026E-04   -0.65281E-04  3328   0.531E-04-0.180E-05
CGA:  16    -0.443141572219E+03   -0.21667E-04   -0.21776E-04  3328   0.162E-04-0.840E-06
CGA:  17    -0.443141578809E+03   -0.65910E-05   -0.66262E-05  3328   0.500E-05-0.287E-06
   1 F= -.44483944E+03 E0= -.44483463E+03  d E =-.961749E-02  mag=     0.0000
