       N       E                     dE             d eps       ncg     rms          rms(c)
DAV:   1     0.119161939643E+04    0.11916E+04   -0.86640E+04  4096   0.599E+02
DAV:   2    -0.393408278511E+03   -0.15850E+04   -0.15828E+04  6144   0.114E+02
DAV:   3    -0.470529947024E+03   -0.77122E+02   -0.77121E+02  8192   0.384E+01
DAV:   4    -0.470588438086E+03   -0.58491E-01   -0.58491E-01  4864   0.128E+00
DAV:   5    -0.470588666615E+03   -0.22853E-03   -0.22853E-03  8192   0.766E-02    0.277E+01
DAV:   6    -0.447082513771E+03    0.23506E+02   -0.32396E+01  6144   0.118E+01    0.141E+01
DAV:   7    -0.439232271579E+03    0.78502E+01   -0.21978E+01  8192   0.648E+00    0.328E+00
DAV:   8    -0.438930569179E+03    0.30170E+00   -0.64611E-01  7168   0.157E+00    0.173E+00
DAV:   9    -0.438775213974E+03    0.15536E+00   -0.11397E-01  7168   0.852E-01    0.345E-01
DAV:  10    -0.438750549008E+03    0.24665E-01   -0.12342E-02  6656   0.153E-01    0.253E-01
DAV:  11    -0.438734774143E+03    0.15775E-01   -0.41800E-02  8192   0.176E-01    0.125E-01
DAV:  12    -0.438738161211E+03   -0.33871E-02   -0.38026E-03  6656   0.653E-02    0.784E-02
DAV:  13    -0.438753703533E+03   -0.15542E-01   -0.14552E-03  7168   0.640E-02    0.442E-02
DAV:  14    -0.438764578544E+03   -0.10875E-01   -0.86228E-04  7168   0.295E-02    0.294E-02
DAV:  15    -0.438772314996E+03   -0.77365E-02   -0.71071E-04  7680   0.252E-02    0.148E-02
DAV:  16    -0.438774888580E+03   -0.25736E-02   -0.15572E-04  6400   0.109E-02    0.783E-03
DAV:  17    -0.438776100523E+03   -0.12119E-02   -0.81829E-05  5376   0.704E-03    0.423E-03
DAV:  18    -0.438776477778E+03   -0.37726E-03   -0.19590E-05  5888   0.375E-03    0.260E-03
DAV:  19    -0.438776683832E+03   -0.20605E-03   -0.88605E-06  4352   0.253E-03    0.160E-03
DAV:  20    -0.438776797956E+03   -0.11412E-03   -0.56610E-06  6656   0.185E-03    0.114E-03
DAV:  21    -0.438776837717E+03   -0.39761E-04   -0.92827E-07  5632   0.991E-04    0.875E-04
DAV:  22    -0.438776889590E+03   -0.51873E-04   -0.23730E-07  6656   0.633E-04    0.479E-04
DAV:  23    -0.438776910591E+03   -0.21001E-04   -0.85470E-08  6912   0.431E-04    0.285E-04
DAV:  24    -0.438776919302E+03   -0.87113E-05   -0.31376E-08  5632   0.239E-04
   1 F= -.44052932E+03 E0= -.44052906E+03  d E =-.440529E+03  mag=     0.0000
       N       E                     dE             d eps       ncg     rms          rms(c)
DAV:   1    -0.438776954667E+03   -0.44076E-04   -0.13625E-02  7680   0.178E-01    0.245E-02
DAV:   2    -0.438776945495E+03    0.91716E-05   -0.12150E-04  6144   0.257E-02    0.126E-02
DAV:   3    -0.438776942973E+03    0.25226E-05   -0.13307E-05  7168   0.684E-03
   2 F= -.44052939E+03 E0= -.44052913E+03  d E =-.704465E-04  mag=    -0.0000
