C  N  Zn
 1.0000000000000000
    12.3000000000000007    0.0000000000000000    0.0000000000000000
    -6.1499999999999977   10.6521124665485960    0.0000000000000000
     0.0000000000000000    0.0000000000000000   20.0000000000000000
 C   N   Zn 
  44   4   1
Direct
  0.9990950000000000  0.0009050000000000  0.7500000000000000
  0.1308500000000000  0.0641750000000000  0.7500000000000000
  0.1975020000000000  0.9975280000000000  0.7500000000000000
  0.3295920000000000  0.0619410000000000  0.7499980000000002
  0.3982860000000000  0.9969900000000000  0.7500000000000000
  0.5313300000000000  0.0661390000000000  0.7499990000000000
  0.5991680000000000  0.0004710000000000  0.7500000000000000
  0.7322470000000000  0.0696310000000000  0.7500000000000000
  0.7995110000000000  0.0028160000000000  0.7500000000000000
  0.9321800000000000  0.0678200000000000  0.7500000000000000
  0.9971840000000000  0.2004890000000000  0.7500000000000000
  0.1303150000000000  0.2649550000000000  0.7500000000000000
  0.1952940000000000  0.1962630000000000  0.7499980000000002
  0.3263380000000001  0.2610810000000000  0.7499950000000002
  0.3943910000000000  0.1930160000000000  0.7499950000000002
  0.5929640000000000  0.2004610000000000  0.7500019999999999
  0.7284140000000001  0.2715860000000000  0.7499990000000000
  0.7962890000000002  0.2037110000000000  0.7500000000000000
  0.9303690000000001  0.2677530000000000  0.7500000000000000
  0.9995290000000000  0.4008320000000000  0.7500000000000000
  0.1337910000000000  0.4658410000000000  0.7500000000000000
  0.1994630000000000  0.3979810000000000  0.7499990000000000
  0.3337950000000001  0.4596320000000000  0.7500019999999999
  0.7995390000000001  0.4070360000000000  0.7500019999999999
  0.9338610000000003  0.4686700000000000  0.7499990000000000
  0.0030100000000000  0.6017140000000000  0.7500000000000000
  0.1361450000000000  0.6661780000000000  0.7500000000000000
  0.2029650000000001  0.5989130000000000  0.7500000000000000
  0.3370310000000000  0.6629690000000000  0.7500000000000000
  0.4049290000000000  0.5950710000000000  0.7499990000000000
  0.5403680000000000  0.6662050000000000  0.7500019999999999
  0.7389190000000000  0.6736620000000000  0.7499950000000002
  0.8069840000000000  0.6056090000000000  0.7499950000000002
  0.9380600000000000  0.6704080000000000  0.7499980000000002
  0.0024720000000000  0.8024980000000000  0.7500000000000000
  0.1342460000000001  0.8657540000000001  0.7500000000000000
  0.2011480000000000  0.7988520000000001  0.7500000000000000
  0.3338220000000001  0.8638550000000002  0.7500000000000000
  0.4010870000000000  0.7970350000000000  0.7500000000000000
  0.5341590000000001  0.8662100000000000  0.7500000000000000
  0.6020190000000000  0.8005370000000001  0.7499990000000000
  0.7350450000000002  0.8696850000000000  0.7500000000000000
  0.8037370000000001  0.8047060000000001  0.7499980000000002
  0.9358250000000000  0.8691500000000000  0.7500000000000000
  0.5219440000000000  0.2572820000000000  0.7500120000000000
  0.3906129999999999  0.3886149999999999  0.7500120000000000
  0.7427180000000000  0.4780560000000000  0.7500120000000000
  0.6113850000000000  0.6093870000000000  0.7500120000000000
  0.5666670000000000  0.4333330000000000  0.7509790000000001
