C  N  Tl                                
   1.00000000000000     
    12.3000000000000007    0.0000000000000000    0.0000000000000000
    -6.1499999999999977   10.6521124665485960    0.0000000000000000
     0.0000000000000000    0.0000000000000000   20.0000000000000000
   C    N    Tl
    44     4     1
Direct
  0.9994576172181203  0.0005423893234057  0.7405860593719266
  0.1320265048413884  0.0654677419347790  0.7407151141681708
  0.1987506039741052  0.9987353678346023  0.7406241638304778
  0.3315079288245950  0.0643836895312702  0.7442042244182029
  0.3987885500031058  0.9979194976308656  0.7457660593612225
  0.5314026366158503  0.0662422734877890  0.7487768983742024
  0.5992669009259529  0.0003064106042067  0.7481906453481572
  0.7321766260288866  0.0691276125907668  0.7479454809964765
  0.7995642403833839  0.0024488797345551  0.7451000815950847
  0.9323061697712580  0.0676938321728928  0.7431645882259102
  0.9975511172000799  0.2004357599273824  0.7451000826694969
  0.1312631393323060  0.2655024753351504  0.7457856560763101
  0.1977378058585796  0.1982391212076082  0.7442955181941578
  0.3300894605901709  0.2660089735515759  0.7503664089187472
  0.3993373896405543  0.1967211273992828  0.7503350082495276
  0.5929106547085483  0.2003826124469047  0.7537422800171906
  0.7289608142677699  0.2710391863398527  0.7541554497556298
  0.7963660413290998  0.2036339575496140  0.7500080653737619
  0.9308723852976457  0.2678233744258477  0.7479454812529442
  0.9996935860644073  0.4007330997507369  0.7481906453061908
  0.1336998410927649  0.4659920969311142  0.7482604086388165
  0.1996247242873113  0.3980988116464507  0.7488248120864788
  0.3337647637237396  0.4595567119226436  0.7538319874918958
  0.7996173853935683  0.4070893452123764  0.7537422794571104
  0.9337577240749486  0.4685973643900125  0.7487768981542966
  0.0020805003735039  0.6012114516743405  0.7457660571892490
  0.1357898058681389  0.6662738099067316  0.7452704792585364
  0.2024836378360389  0.5988820149030986  0.7481510489204383
  0.3369719785790484  0.6630280191968790  0.7502779251008262
  0.4043983373808542  0.5956016623303967  0.7543533757957003
  0.5404432875707789  0.6662352334646873  0.7538319875646327
  0.7339910253909924  0.6699105374335603  0.7503664082421014
  0.8032788714077973  0.6006626096066888  0.7503350075711718
  0.9356163107964047  0.6684920746968469  0.7442042241480760
  0.0012646384723593  0.8012494027656412  0.7406241641047687
  0.1338480018735941  0.8661520054243650  0.7404857230198231
  0.2009957138114070  0.7990042881126530  0.7432860163682526
  0.3337261905155229  0.8642101917046514  0.7452704815917651
  0.4011179845481948  0.7975163591661891  0.7481510497001329
  0.5340079028670544  0.8663001551758602  0.7482604085246264
  0.6019011884306739  0.8003752725251009  0.7488248114579353
  0.7344975254455806  0.8687368577246345  0.7457856551013894
  0.8017608813546367  0.8022621934904310  0.7442955170425875
  0.9345322639979841  0.8679735013252724  0.7407151144258787
  0.5247600041312609  0.2595314289906388  0.7575201251461621
  0.3929124258764147  0.3914225615442608  0.7575880981793900
  0.7404685683063303  0.4752399943769848  0.7575201242169634
  0.6085774367628296  0.6070875704737428  0.7575880968218371
  0.5666729069544756  0.4333270911046694  0.8440908031754101
 
  0.00000000E+00  0.00000000E+00  0.00000000E+00
  0.00000000E+00  0.00000000E+00  0.00000000E+00
  0.00000000E+00  0.00000000E+00  0.00000000E+00
  0.00000000E+00  0.00000000E+00  0.00000000E+00
  0.00000000E+00  0.00000000E+00  0.00000000E+00
  0.00000000E+00  0.00000000E+00  0.00000000E+00
  0.00000000E+00  0.00000000E+00  0.00000000E+00
  0.00000000E+00  0.00000000E+00  0.00000000E+00
  0.00000000E+00  0.00000000E+00  0.00000000E+00
  0.00000000E+00  0.00000000E+00  0.00000000E+00
  0.00000000E+00  0.00000000E+00  0.00000000E+00
  0.00000000E+00  0.00000000E+00  0.00000000E+00
  0.00000000E+00  0.00000000E+00  0.00000000E+00
  0.00000000E+00  0.00000000E+00  0.00000000E+00
  0.00000000E+00  0.00000000E+00  0.00000000E+00
  0.00000000E+00  0.00000000E+00  0.00000000E+00
  0.00000000E+00  0.00000000E+00  0.00000000E+00
  0.00000000E+00  0.00000000E+00  0.00000000E+00
  0.00000000E+00  0.00000000E+00  0.00000000E+00
  0.00000000E+00  0.00000000E+00  0.00000000E+00
  0.00000000E+00  0.00000000E+00  0.00000000E+00
  0.00000000E+00  0.00000000E+00  0.00000000E+00
  0.00000000E+00  0.00000000E+00  0.00000000E+00
  0.00000000E+00  0.00000000E+00  0.00000000E+00
  0.00000000E+00  0.00000000E+00  0.00000000E+00
  0.00000000E+00  0.00000000E+00  0.00000000E+00
  0.00000000E+00  0.00000000E+00  0.00000000E+00
  0.00000000E+00  0.00000000E+00  0.00000000E+00
  0.00000000E+00  0.00000000E+00  0.00000000E+00
  0.00000000E+00  0.00000000E+00  0.00000000E+00
  0.00000000E+00  0.00000000E+00  0.00000000E+00
  0.00000000E+00  0.00000000E+00  0.00000000E+00
  0.00000000E+00  0.00000000E+00  0.00000000E+00
  0.00000000E+00  0.00000000E+00  0.00000000E+00
  0.00000000E+00  0.00000000E+00  0.00000000E+00
  0.00000000E+00  0.00000000E+00  0.00000000E+00
  0.00000000E+00  0.00000000E+00  0.00000000E+00
  0.00000000E+00  0.00000000E+00  0.00000000E+00
  0.00000000E+00  0.00000000E+00  0.00000000E+00
  0.00000000E+00  0.00000000E+00  0.00000000E+00
  0.00000000E+00  0.00000000E+00  0.00000000E+00
  0.00000000E+00  0.00000000E+00  0.00000000E+00
  0.00000000E+00  0.00000000E+00  0.00000000E+00
  0.00000000E+00  0.00000000E+00  0.00000000E+00
  0.00000000E+00  0.00000000E+00  0.00000000E+00
  0.00000000E+00  0.00000000E+00  0.00000000E+00
  0.00000000E+00  0.00000000E+00  0.00000000E+00
  0.00000000E+00  0.00000000E+00  0.00000000E+00
  0.00000000E+00  0.00000000E+00  0.00000000E+00
