       N       E                     dE             d eps       ncg     rms          rms(c)
DAV:   1    -0.469791064469E+03   -0.46979E+03   -0.11471E+02  8192   0.129E+01    0.279E+01
DAV:   2    -0.446934773185E+03    0.22856E+02   -0.33371E+01  7680   0.763E+00    0.143E+01
DAV:   3    -0.439119117542E+03    0.78157E+01   -0.18689E+01  6144   0.548E+00    0.410E+00
DAV:   4    -0.438856939404E+03    0.26218E+00   -0.14027E+00  8192   0.148E+00    0.191E+00
DAV:   5    -0.438832474057E+03    0.24465E-01   -0.81983E-02  5632   0.371E-01    0.925E-01
DAV:   6    -0.438788078777E+03    0.44395E-01   -0.38159E-02  8192   0.254E-01    0.321E-01
DAV:   7    -0.438792323672E+03   -0.42449E-02   -0.95362E-03  7168   0.108E-01    0.240E-01
DAV:   8    -0.438800368490E+03   -0.80448E-02   -0.28034E-02  8192   0.167E-01    0.128E-01
DAV:   9    -0.438801700257E+03   -0.13318E-02   -0.63109E-03  5376   0.869E-02    0.884E-02
DAV:  10    -0.438812265484E+03   -0.10565E-01   -0.22005E-03  7680   0.426E-02    0.596E-02
DAV:  11    -0.438823462793E+03   -0.11197E-01   -0.90365E-04  6400   0.277E-02    0.321E-02
DAV:  12    -0.438831694476E+03   -0.82317E-02   -0.70919E-04  8192   0.220E-02    0.192E-02
DAV:  13    -0.438835396317E+03   -0.37018E-02   -0.27883E-04  6656   0.132E-02    0.117E-02
DAV:  14    -0.438837260077E+03   -0.18638E-02   -0.14621E-04  6656   0.897E-03    0.597E-03
DAV:  15    -0.438838067024E+03   -0.80695E-03   -0.58599E-05  4864   0.530E-03    0.352E-03
DAV:  16    -0.438838388079E+03   -0.32105E-03   -0.20119E-05  5120   0.280E-03    0.228E-03
DAV:  17    -0.438838603521E+03   -0.21544E-03   -0.17349E-05  6144   0.235E-03    0.133E-03
DAV:  18    -0.438838674891E+03   -0.71370E-04   -0.38547E-06  7680   0.110E-03    0.959E-04
DAV:  19    -0.438838721035E+03   -0.46144E-04   -0.11905E-06  7680   0.642E-04    0.620E-04
DAV:  20    -0.438838751577E+03   -0.30543E-04   -0.60752E-07  6144   0.422E-04    0.369E-04
DAV:  21    -0.438838763685E+03   -0.12108E-04   -0.15643E-07  7936   0.253E-04    0.223E-04
DAV:  22    -0.438838768926E+03   -0.52408E-05   -0.44454E-08  5632   0.158E-04
   1 F= -.44067131E+03 E0= -.44066510E+03  d E =-.440671E+03  mag=     0.0002
       N       E                     dE             d eps       ncg     rms          rms(c)
DAV:   1    -0.438839184666E+03   -0.42098E-03   -0.54411E-02  8192   0.364E-01    0.540E-02
DAV:   2    -0.438839138671E+03    0.45995E-04   -0.49815E-04  4864   0.399E-02    0.293E-02
DAV:   3    -0.438839126236E+03    0.12435E-04   -0.72650E-05  8192   0.130E-02    0.803E-03
DAV:   4    -0.438839126587E+03   -0.35077E-06   -0.68536E-06  4608   0.387E-03
   2 F= -.44067159E+03 E0= -.44066537E+03  d E =-.280944E-03  mag=     0.0001
       N       E                     dE             d eps       ncg     rms          rms(c)
DAV:   1    -0.438839342271E+03   -0.21604E-03   -0.12522E-02  8192   0.174E-01    0.261E-02
DAV:   2    -0.438839330064E+03    0.12208E-04   -0.12715E-04  5632   0.195E-02    0.137E-02
DAV:   3    -0.438839327308E+03    0.27557E-05   -0.13891E-05  8192   0.587E-03
   3 F= -.44067179E+03 E0= -.44066560E+03  d E =-.200219E-03  mag=     0.0000
