C  N  Tl                                
   1.00000000000000     
    12.3000000000000007    0.0000000000000000    0.0000000000000000
    -6.1499999999999977   10.6521124665485960    0.0000000000000000
     0.0000000000000000    0.0000000000000000   20.0000000000000000
   C    N    Tl
    44     4     1
Direct
  0.9994319959901139  0.0005680147423876  0.7406124257599674
  0.1319924673585956  0.0654497139150057  0.7407212192508288
  0.1987665164867617  0.9987237208122329  0.7406193124971704
  0.3315016545020525  0.0643871010220644  0.7442111155213607
  0.3987626350680095  0.9978926592568726  0.7457578386115080
  0.5313822297979410  0.0662302577325551  0.7487939890008726
  0.5992760119994716  0.0003050618700247  0.7481963788288410
  0.7321811293937951  0.0690937289904076  0.7479329831017835
  0.7995908292983284  0.0024665979654625  0.7450948041398994
  0.9323123691129843  0.0676876354713584  0.7431560285217313
  0.9975333988057171  0.2004091679834499  0.7450948045721701
  0.1312772893814368  0.2655107108687214  0.7457905376791854
  0.1977548739207357  0.1982550794942655  0.7443252103263539
  0.3300383760360419  0.2659361044420591  0.7503763812726378
  0.3992725903550076  0.1966478036562413  0.7503580799719213
  0.5929350567049275  0.2003730546037959  0.7537389323652418
  0.7289806946359767  0.2710193101394152  0.7541614701945940
  0.7963479500413562  0.2036520517525180  0.7499936775163019
  0.9309062684312648  0.2678188723382740  0.7479329828999062
  0.9996949323079869  0.4007239887179917  0.7481963780286681
  0.1336933162145556  0.4659882436579065  0.7482781551638280
  0.1996015495686889  0.3980713582568193  0.7488374815622869
  0.3337370519471766  0.4595942238964734  0.7538237557648725
  0.7996269496970624  0.4070649464379983  0.7537389312958048
  0.9337697347393357  0.4686177664681120  0.7487939896622471
  0.0021073383185031  0.6012373656237169  0.7457578362755839
  0.1357688114644695  0.6662922708128215  0.7452641442081765
  0.2024888936412244  0.5988757959412967  0.7481427048650341
  0.3369479145339228  0.6630520863348990  0.7502770449824553
  0.4044089886259906  0.5955910154530832  0.7543523628679130
  0.5404057798722978  0.6662629522706668  0.7538237559273044
  0.7340638934657353  0.6699616191364884  0.7503763809596087
  0.8033521935146429  0.6007274078643281  0.7503580789918627
  0.9356128989999479  0.6684983448257900  0.7442111152311092
  0.0012762890218986  0.8012334942259776  0.7406193114829106
  0.1338509457076660  0.8661490676856342  0.7404706838370461
  0.2009874721967996  0.7990125328379748  0.7432960596374634
  0.3337077273545463  0.8642311854897196  0.7452641455788865
  0.4011242034168103  0.7975111021752553  0.7481427052531388
  0.5340117540752988  0.8663066749390338  0.7482781544680021
  0.6019286378006057  0.8003984423352658  0.7488374809416041
  0.7344892884959573  0.8687227065906912  0.7457905376793423
  0.8017449181847895  0.8022451250436043  0.7443252078117460
  0.9345502975321254  0.8680075444247269  0.7407212191095367
  0.5247600411723050  0.2595026234029951  0.7574696484814579
  0.3928899409660565  0.3914224715079584  0.7575491537906108
  0.7404973699944566  0.4752399535660941  0.7574696479254442
  0.6085775224205801  0.6071100521540039  0.7575491522826721
  0.5666710074280494  0.4333289908655588  0.8441136039011203
 
  0.00000000E+00  0.00000000E+00  0.00000000E+00
  0.00000000E+00  0.00000000E+00  0.00000000E+00
  0.00000000E+00  0.00000000E+00  0.00000000E+00
  0.00000000E+00  0.00000000E+00  0.00000000E+00
  0.00000000E+00  0.00000000E+00  0.00000000E+00
  0.00000000E+00  0.00000000E+00  0.00000000E+00
  0.00000000E+00  0.00000000E+00  0.00000000E+00
  0.00000000E+00  0.00000000E+00  0.00000000E+00
  0.00000000E+00  0.00000000E+00  0.00000000E+00
  0.00000000E+00  0.00000000E+00  0.00000000E+00
  0.00000000E+00  0.00000000E+00  0.00000000E+00
  0.00000000E+00  0.00000000E+00  0.00000000E+00
  0.00000000E+00  0.00000000E+00  0.00000000E+00
  0.00000000E+00  0.00000000E+00  0.00000000E+00
  0.00000000E+00  0.00000000E+00  0.00000000E+00
  0.00000000E+00  0.00000000E+00  0.00000000E+00
  0.00000000E+00  0.00000000E+00  0.00000000E+00
  0.00000000E+00  0.00000000E+00  0.00000000E+00
  0.00000000E+00  0.00000000E+00  0.00000000E+00
  0.00000000E+00  0.00000000E+00  0.00000000E+00
  0.00000000E+00  0.00000000E+00  0.00000000E+00
  0.00000000E+00  0.00000000E+00  0.00000000E+00
  0.00000000E+00  0.00000000E+00  0.00000000E+00
  0.00000000E+00  0.00000000E+00  0.00000000E+00
  0.00000000E+00  0.00000000E+00  0.00000000E+00
  0.00000000E+00  0.00000000E+00  0.00000000E+00
  0.00000000E+00  0.00000000E+00  0.00000000E+00
  0.00000000E+00  0.00000000E+00  0.00000000E+00
  0.00000000E+00  0.00000000E+00  0.00000000E+00
  0.00000000E+00  0.00000000E+00  0.00000000E+00
  0.00000000E+00  0.00000000E+00  0.00000000E+00
  0.00000000E+00  0.00000000E+00  0.00000000E+00
  0.00000000E+00  0.00000000E+00  0.00000000E+00
  0.00000000E+00  0.00000000E+00  0.00000000E+00
  0.00000000E+00  0.00000000E+00  0.00000000E+00
  0.00000000E+00  0.00000000E+00  0.00000000E+00
  0.00000000E+00  0.00000000E+00  0.00000000E+00
  0.00000000E+00  0.00000000E+00  0.00000000E+00
  0.00000000E+00  0.00000000E+00  0.00000000E+00
  0.00000000E+00  0.00000000E+00  0.00000000E+00
  0.00000000E+00  0.00000000E+00  0.00000000E+00
  0.00000000E+00  0.00000000E+00  0.00000000E+00
  0.00000000E+00  0.00000000E+00  0.00000000E+00
  0.00000000E+00  0.00000000E+00  0.00000000E+00
  0.00000000E+00  0.00000000E+00  0.00000000E+00
  0.00000000E+00  0.00000000E+00  0.00000000E+00
  0.00000000E+00  0.00000000E+00  0.00000000E+00
  0.00000000E+00  0.00000000E+00  0.00000000E+00
  0.00000000E+00  0.00000000E+00  0.00000000E+00
