       N       E                     dE             d eps       ncg     rms          ort
SDA:   1    -0.332898101089E+03   -0.33290E+03    0.00000E+00  3328   0.129E+03 0.000E+00
CGA:   2    -0.408467380673E+03   -0.75569E+02   -0.83569E+02  3328   0.704E+02-0.155E+02
CGA:   3    -0.426507565043E+03   -0.18040E+02   -0.17894E+02  3328   0.251E+02 0.126E+01
CGA:   4    -0.434106653274E+03   -0.75991E+01   -0.75927E+01  3328   0.124E+02 0.113E-01
CGA:   5    -0.436695396329E+03   -0.25887E+01   -0.25920E+01  3328   0.449E+01 0.137E-01
CGA:   6    -0.437839353139E+03   -0.11440E+01   -0.11439E+01  3328   0.155E+01-0.343E-02
CGA:   7    -0.438241564404E+03   -0.40221E+00   -0.40214E+00  3328   0.506E+00 0.135E-02
CGA:   8    -0.438379376809E+03   -0.13781E+00   -0.13780E+00  3328   0.167E+00 0.178E-03
CGA:   9    -0.438428069776E+03   -0.48693E-01   -0.48702E-01  3328   0.603E-01-0.177E-03
CGA:  10    -0.438447783450E+03   -0.19714E-01   -0.19725E-01  3328   0.236E-01-0.114E-03
CGA:  11    -0.438455811053E+03   -0.80276E-02   -0.80341E-02  3328   0.870E-02-0.598E-04
CGA:  12    -0.438458747722E+03   -0.29367E-02   -0.29398E-02  3328   0.280E-02-0.300E-04
CGA:  13    -0.438459689296E+03   -0.94157E-03   -0.94245E-03  3328   0.864E-03-0.864E-05
CGA:  14    -0.438459998192E+03   -0.30890E-03   -0.30915E-03  3328   0.298E-03-0.222E-05
CGA:  15    -0.438460114858E+03   -0.11667E-03   -0.11690E-03  3328   0.118E-03-0.180E-05
CGA:  16    -0.438460163872E+03   -0.49014E-04   -0.49255E-04  3328   0.475E-04-0.160E-05
CGA:  17    -0.438460183189E+03   -0.19317E-04   -0.19469E-04  3328   0.175E-04-0.106E-05
CGA:  18    -0.438460190314E+03   -0.71251E-05   -0.72115E-05  3328   0.651E-05-0.607E-06
   1 F= -.44024046E+03 E0= -.44023420E+03  d E =-.125095E-01  mag=     0.0000
