C  N  Rh                                
   1.00000000000000     
    12.3000000000000007    0.0000000000000000    0.0000000000000000
    -6.1499999999999977   10.6521124665485960    0.0000000000000000
     0.0000000000000000    0.0000000000000000   20.0000000000000000
   C    N    Rh
    44     4     1
Direct
  0.9990004668704761  0.0009995355350461  0.7474623654230874
  0.1305260309861298  0.0638595828242913  0.7481016086036871
  0.1971811396789275  0.9972067010409164  0.7480961349087148
  0.3292895165183020  0.0613351166167186  0.7501466103409622
  0.3982659527142715  0.9965162742763606  0.7499555580550801
  0.5307819501800378  0.0662012101392516  0.7511891759798113
  0.5989967773553821  0.0004102996382331  0.7503603686137361
  0.7318278661479246  0.0699078986153464  0.7499932451955175
  0.7993436007936610  0.0033352433471141  0.7489266115785302
  0.9318931422408769  0.0681068592020851  0.7480860465360731
  0.9966647552627346  0.2006563997539887  0.7489266117843165
  0.1298236984885012  0.2649239149158237  0.7499808821237834
  0.1946620530851376  0.1959624785749489  0.7501562762204378
  0.3248584646302438  0.2596607230777904  0.7532163722846194
  0.3929764068291326  0.1915481795962732  0.7532165054412278
  0.5924407480721975  0.2004813239899146  0.7534776443772750
  0.7280399055823729  0.2719600939356739  0.7530621355140122
  0.7957371377089233  0.2042628615360010  0.7508634883149969
  0.9300921003002449  0.2681721343149304  0.7499932463289596
  0.9995897002188472  0.4010032229808231  0.7503603694744646
  0.1337531282680208  0.4656743309075984  0.7503512094516172
  0.1995349760456120  0.3974342309992345  0.7511961719488448
  0.3338337271020089  0.4591015628881607  0.7534591304616323
  0.7995186760807478  0.4075592514342437  0.7534776445741898
  0.9337987891946997  0.4692180488548858  0.7511891763741791
  0.0034837240268096  0.6017340462701731  0.7499555583973048
  0.1366450962613027  0.6660177216920288  0.7488583119487721
  0.2032465113567115  0.5985001326070205  0.7499303563867430
  0.3375955519786533  0.6624044473839532  0.7508022834238459
  0.4053143394530364  0.5946856609050293  0.7530334773853140
  0.5408984377664885  0.6661662734284043  0.7534591303780190
  0.7403392767487973  0.6751415349478913  0.7532163725658568
  0.8084518197527495  0.6070235926116404  0.7532165053806191
  0.9386648827317139  0.6707104835680556  0.7501466108268909
  0.0027933003363280  0.8028188615275965  0.7480961351681098
  0.1343288754622092  0.8656711263237407  0.7474469502694646
  0.2014341037122722  0.7985658971048446  0.7480372506069836
  0.3339822783466275  0.8633549021551704  0.7488583113753721
  0.4014998676493481  0.7967534874941788  0.7499303568034088
  0.5343256693517678  0.8662468715328173  0.7503512097774613
  0.6025657687994774  0.8004650239079272  0.7511961724549140
  0.7350760844464989  0.8701763000811462  0.7499808827025966
  0.8040375218226166  0.8053379465035324  0.7501562764329029
  0.9361404185929029  0.8694739709377092  0.7481016087821012
  0.5208409731752909  0.2572138061700948  0.7556399296136832
  0.3905573296419436  0.3875123024748722  0.7556279709664030
  0.7427861943505975  0.4791590265983972  0.7556399295234624
  0.6124876977741867  0.6094426707400107  0.7556279710535370
  0.5666675661062409  0.4333324340381338  0.7584478478664881
 
  0.00000000E+00  0.00000000E+00  0.00000000E+00
  0.00000000E+00  0.00000000E+00  0.00000000E+00
  0.00000000E+00  0.00000000E+00  0.00000000E+00
  0.00000000E+00  0.00000000E+00  0.00000000E+00
  0.00000000E+00  0.00000000E+00  0.00000000E+00
  0.00000000E+00  0.00000000E+00  0.00000000E+00
  0.00000000E+00  0.00000000E+00  0.00000000E+00
  0.00000000E+00  0.00000000E+00  0.00000000E+00
  0.00000000E+00  0.00000000E+00  0.00000000E+00
  0.00000000E+00  0.00000000E+00  0.00000000E+00
  0.00000000E+00  0.00000000E+00  0.00000000E+00
  0.00000000E+00  0.00000000E+00  0.00000000E+00
  0.00000000E+00  0.00000000E+00  0.00000000E+00
  0.00000000E+00  0.00000000E+00  0.00000000E+00
  0.00000000E+00  0.00000000E+00  0.00000000E+00
  0.00000000E+00  0.00000000E+00  0.00000000E+00
  0.00000000E+00  0.00000000E+00  0.00000000E+00
  0.00000000E+00  0.00000000E+00  0.00000000E+00
  0.00000000E+00  0.00000000E+00  0.00000000E+00
  0.00000000E+00  0.00000000E+00  0.00000000E+00
  0.00000000E+00  0.00000000E+00  0.00000000E+00
  0.00000000E+00  0.00000000E+00  0.00000000E+00
  0.00000000E+00  0.00000000E+00  0.00000000E+00
  0.00000000E+00  0.00000000E+00  0.00000000E+00
  0.00000000E+00  0.00000000E+00  0.00000000E+00
  0.00000000E+00  0.00000000E+00  0.00000000E+00
  0.00000000E+00  0.00000000E+00  0.00000000E+00
  0.00000000E+00  0.00000000E+00  0.00000000E+00
  0.00000000E+00  0.00000000E+00  0.00000000E+00
  0.00000000E+00  0.00000000E+00  0.00000000E+00
  0.00000000E+00  0.00000000E+00  0.00000000E+00
  0.00000000E+00  0.00000000E+00  0.00000000E+00
  0.00000000E+00  0.00000000E+00  0.00000000E+00
  0.00000000E+00  0.00000000E+00  0.00000000E+00
  0.00000000E+00  0.00000000E+00  0.00000000E+00
  0.00000000E+00  0.00000000E+00  0.00000000E+00
  0.00000000E+00  0.00000000E+00  0.00000000E+00
  0.00000000E+00  0.00000000E+00  0.00000000E+00
  0.00000000E+00  0.00000000E+00  0.00000000E+00
  0.00000000E+00  0.00000000E+00  0.00000000E+00
  0.00000000E+00  0.00000000E+00  0.00000000E+00
  0.00000000E+00  0.00000000E+00  0.00000000E+00
  0.00000000E+00  0.00000000E+00  0.00000000E+00
  0.00000000E+00  0.00000000E+00  0.00000000E+00
  0.00000000E+00  0.00000000E+00  0.00000000E+00
  0.00000000E+00  0.00000000E+00  0.00000000E+00
  0.00000000E+00  0.00000000E+00  0.00000000E+00
  0.00000000E+00  0.00000000E+00  0.00000000E+00
  0.00000000E+00  0.00000000E+00  0.00000000E+00
