       N       E                     dE             d eps       ncg     rms          rms(c)
DAV:   1    -0.477970721520E+03   -0.47797E+03   -0.15233E+02  8192   0.150E+01    0.334E+01
DAV:   2    -0.468592532061E+03    0.93782E+01   -0.50632E+02  6656   0.288E+01    0.308E+01
DAV:   3    -0.449553545838E+03    0.19039E+02   -0.95583E+01  4096   0.366E+01    0.136E+01
DAV:   4    -0.443664528075E+03    0.58890E+01   -0.46819E+01  7424   0.165E+01    0.146E+01
DAV:   5    -0.442360487507E+03    0.13040E+01   -0.43515E+01  7680   0.739E+00    0.507E+00
DAV:   6    -0.443027946645E+03   -0.66746E+00   -0.10565E+00  6912   0.144E+00    0.344E+00
DAV:   7    -0.443251646855E+03   -0.22370E+00   -0.77500E-01  6144   0.123E+00    0.208E+00
DAV:   8    -0.443471737993E+03   -0.22009E+00   -0.29591E-01  5888   0.706E-01    0.941E-01
DAV:   9    -0.443606796604E+03   -0.13506E+00   -0.20592E-02  8192   0.194E-01    0.715E-01
DAV:  10    -0.443894972850E+03   -0.28818E+00   -0.21338E-01  7424   0.403E-01    0.102E+00
DAV:  11    -0.443993821522E+03   -0.98849E-01   -0.11543E-01  6400   0.486E-01    0.482E-01
DAV:  12    -0.444003350010E+03   -0.95285E-02   -0.72063E-03  7168   0.126E-01    0.438E-01
DAV:  13    -0.444013607017E+03   -0.10257E-01   -0.13360E-02  5888   0.135E-01    0.179E-01
DAV:  14    -0.444021987816E+03   -0.83808E-02   -0.26394E-03  7168   0.647E-02    0.178E-01
DAV:  15    -0.444030033788E+03   -0.80460E-02   -0.20073E-03  6912   0.627E-02    0.718E-02
DAV:  16    -0.444035226408E+03   -0.51926E-02   -0.14028E-03  5888   0.393E-02    0.315E-02
DAV:  17    -0.444037272233E+03   -0.20458E-02   -0.24099E-04  6400   0.124E-02    0.229E-02
DAV:  18    -0.444038535475E+03   -0.12632E-02   -0.14232E-04  5888   0.114E-02    0.122E-02
DAV:  19    -0.444039902455E+03   -0.13670E-02   -0.11209E-04  5120   0.821E-03    0.821E-03
DAV:  20    -0.444041298339E+03   -0.13959E-02   -0.13948E-04  5376   0.702E-03    0.832E-03
DAV:  21    -0.444041717241E+03   -0.41890E-03   -0.22103E-05  4864   0.456E-03    0.286E-03
DAV:  22    -0.444041856169E+03   -0.13893E-03   -0.62430E-06  5376   0.252E-03    0.173E-03
DAV:  23    -0.444041917862E+03   -0.61693E-04   -0.30315E-06  6912   0.156E-03    0.179E-03
DAV:  24    -0.444041959812E+03   -0.41950E-04   -0.16197E-06  7424   0.123E-03    0.575E-04
DAV:  25    -0.444041975502E+03   -0.15690E-04   -0.29401E-07  6656   0.546E-04    0.460E-04
DAV:  26    -0.444041987588E+03   -0.12085E-04   -0.14803E-07  6912   0.386E-04    0.316E-04
DAV:  27    -0.444041993168E+03   -0.55802E-05   -0.75789E-08  6144   0.274E-04
   1 F= -.44580527E+03 E0= -.44579071E+03  d E =-.445805E+03  mag=     0.3962
       N       E                     dE             d eps       ncg     rms          rms(c)
DAV:   1    -0.444042061341E+03   -0.73753E-04   -0.17936E-02  6144   0.235E-01    0.282E-02
DAV:   2    -0.444042090825E+03   -0.29484E-04   -0.54680E-04  7680   0.365E-02    0.282E-02
DAV:   3    -0.444042090057E+03    0.76866E-06   -0.94794E-05  5120   0.200E-02
   2 F= -.44580541E+03 E0= -.44579092E+03  d E =-.135142E-03  mag=     0.3963
       N       E                     dE             d eps       ncg     rms          rms(c)
DAV:   1    -0.444042170893E+03   -0.80068E-04   -0.44801E-03  7680   0.118E-01    0.142E-02
DAV:   2    -0.444042175420E+03   -0.45268E-05   -0.10201E-04  8192   0.136E-02    0.810E-03
DAV:   3    -0.444042174309E+03    0.11103E-05   -0.39811E-06  6912   0.411E-03
   3 F= -.44580548E+03 E0= -.44579096E+03  d E =-.717934E-04  mag=     0.3966
       N       E                     dE             d eps       ncg     rms          rms(c)
DAV:   1    -0.444042236247E+03   -0.60827E-04   -0.62816E-03  5376   0.136E-01    0.153E-02
DAV:   2    -0.444042260186E+03   -0.23940E-04   -0.30656E-04  7168   0.179E-02    0.961E-03
DAV:   3    -0.444042262561E+03   -0.23747E-05   -0.90712E-06  6912   0.623E-03
   4 F= -.44580557E+03 E0= -.44579106E+03  d E =-.859225E-04  mag=     0.3967
       N       E                     dE             d eps       ncg     rms          rms(c)
DAV:   1    -0.444042371316E+03   -0.11113E-03   -0.41105E-02  5888   0.343E-01    0.364E-02
DAV:   2    -0.444042457871E+03   -0.86555E-04   -0.12057E-03  6656   0.366E-02    0.209E-02
DAV:   3    -0.444042455736E+03    0.21355E-05   -0.26775E-05  7680   0.102E-02
   5 F= -.44580576E+03 E0= -.44579126E+03  d E =-.191773E-03  mag=     0.3970
