C  N  Rh                                
   1.00000000000000     
    12.3000000000000007    0.0000000000000000    0.0000000000000000
    -6.1499999999999977   10.6521124665485960    0.0000000000000000
     0.0000000000000000    0.0000000000000000   20.0000000000000000
   C    N    Rh
    44     4     1
Direct
  0.9989940000000033  0.0010059999999967  0.7474440000000016
  0.1305199999999971  0.0638580000000033  0.7481399999999994
  0.1971800000000030  0.9972050000000010  0.7481420000000014
  0.3292829999999967  0.0613189999999975  0.7501949999999979
  0.3982560000000035  0.9965070000000011  0.7499529999999979
  0.5307779999999980  0.0661950000000004  0.7511790000000005
  0.5989920000000026  0.0004130000000018  0.7503290000000007
  0.7318229999999986  0.0699189999999987  0.7499409999999997
  0.7993370000000013  0.0033450000000030  0.7488590000000030
  0.9318880000000007  0.0681119999999993  0.7480010000000021
  0.9966549999999970  0.2006629999999987  0.7488590000000030
  0.1298099999999991  0.2649120000000025  0.7499749999999992
  0.1946470000000033  0.1959540000000004  0.7502080000000007
  0.3248699999999971  0.2596670000000003  0.7532709999999980
  0.3929830000000010  0.1915580000000006  0.7532730000000001
  0.5924290000000028  0.2004810000000035  0.7534869999999998
  0.7280289999999994  0.2719710000000006  0.7530580000000029
  0.7957219999999978  0.2042780000000022  0.7508300000000006
  0.9300810000000013  0.2681770000000014  0.7499409999999997
  0.9995869999999982  0.4010079999999974  0.7503290000000007
  0.1337529999999987  0.4656700000000029  0.7503150000000005
  0.1995239999999967  0.3974240000000009  0.7511780000000030
  0.3338329999999985  0.4590850000000017  0.7534629999999964
  0.7995190000000036  0.4075709999999972  0.7534869999999998
  0.9338049999999996  0.4692220000000020  0.7511790000000005
  0.0034929999999989  0.6017439999999965  0.7499529999999979
  0.1366569999999996  0.6660159999999991  0.7488000000000028
  0.2032609999999977  0.5985030000000009  0.7498750000000030
  0.3376120000000000  0.6623880000000000  0.7507710000000003
  0.4053279999999972  0.5946720000000028  0.7530349999999970
  0.5409149999999983  0.6661670000000015  0.7534629999999964
  0.7403329999999997  0.6751300000000029  0.7532709999999980
  0.8084419999999994  0.6070169999999990  0.7532730000000001
  0.9386810000000025  0.6707170000000033  0.7501949999999979
  0.0027949999999990  0.8028199999999970  0.7481420000000014
  0.1343310000000031  0.8656689999999969  0.7474410000000020
  0.2014339999999990  0.7985660000000010  0.7479680000000002
  0.3339840000000009  0.8633430000000004  0.7488000000000028
  0.4014969999999991  0.7967390000000023  0.7498750000000030
  0.5343299999999971  0.8662470000000013  0.7503150000000005
  0.6025759999999991  0.8004760000000033  0.7511780000000030
  0.7350879999999975  0.8701900000000009  0.7499749999999992
  0.8040459999999996  0.8053529999999967  0.7502080000000007
  0.9361419999999967  0.8694800000000029  0.7481399999999994
  0.5208220000000026  0.2571609999999964  0.7556769999999986
  0.3905079999999970  0.3874899999999997  0.7556599999999989
  0.7428390000000036  0.4791779999999974  0.7556769999999986
  0.6125100000000003  0.6094920000000030  0.7556599999999989
  0.5666719999999970  0.4333280000000030  0.7586140000000015
 
  0.00000000E+00  0.00000000E+00  0.00000000E+00
  0.00000000E+00  0.00000000E+00  0.00000000E+00
  0.00000000E+00  0.00000000E+00  0.00000000E+00
  0.00000000E+00  0.00000000E+00  0.00000000E+00
  0.00000000E+00  0.00000000E+00  0.00000000E+00
  0.00000000E+00  0.00000000E+00  0.00000000E+00
  0.00000000E+00  0.00000000E+00  0.00000000E+00
  0.00000000E+00  0.00000000E+00  0.00000000E+00
  0.00000000E+00  0.00000000E+00  0.00000000E+00
  0.00000000E+00  0.00000000E+00  0.00000000E+00
  0.00000000E+00  0.00000000E+00  0.00000000E+00
  0.00000000E+00  0.00000000E+00  0.00000000E+00
  0.00000000E+00  0.00000000E+00  0.00000000E+00
  0.00000000E+00  0.00000000E+00  0.00000000E+00
  0.00000000E+00  0.00000000E+00  0.00000000E+00
  0.00000000E+00  0.00000000E+00  0.00000000E+00
  0.00000000E+00  0.00000000E+00  0.00000000E+00
  0.00000000E+00  0.00000000E+00  0.00000000E+00
  0.00000000E+00  0.00000000E+00  0.00000000E+00
  0.00000000E+00  0.00000000E+00  0.00000000E+00
  0.00000000E+00  0.00000000E+00  0.00000000E+00
  0.00000000E+00  0.00000000E+00  0.00000000E+00
  0.00000000E+00  0.00000000E+00  0.00000000E+00
  0.00000000E+00  0.00000000E+00  0.00000000E+00
  0.00000000E+00  0.00000000E+00  0.00000000E+00
  0.00000000E+00  0.00000000E+00  0.00000000E+00
  0.00000000E+00  0.00000000E+00  0.00000000E+00
  0.00000000E+00  0.00000000E+00  0.00000000E+00
  0.00000000E+00  0.00000000E+00  0.00000000E+00
  0.00000000E+00  0.00000000E+00  0.00000000E+00
  0.00000000E+00  0.00000000E+00  0.00000000E+00
  0.00000000E+00  0.00000000E+00  0.00000000E+00
  0.00000000E+00  0.00000000E+00  0.00000000E+00
  0.00000000E+00  0.00000000E+00  0.00000000E+00
  0.00000000E+00  0.00000000E+00  0.00000000E+00
  0.00000000E+00  0.00000000E+00  0.00000000E+00
  0.00000000E+00  0.00000000E+00  0.00000000E+00
  0.00000000E+00  0.00000000E+00  0.00000000E+00
  0.00000000E+00  0.00000000E+00  0.00000000E+00
  0.00000000E+00  0.00000000E+00  0.00000000E+00
  0.00000000E+00  0.00000000E+00  0.00000000E+00
  0.00000000E+00  0.00000000E+00  0.00000000E+00
  0.00000000E+00  0.00000000E+00  0.00000000E+00
  0.00000000E+00  0.00000000E+00  0.00000000E+00
  0.00000000E+00  0.00000000E+00  0.00000000E+00
  0.00000000E+00  0.00000000E+00  0.00000000E+00
  0.00000000E+00  0.00000000E+00  0.00000000E+00
  0.00000000E+00  0.00000000E+00  0.00000000E+00
  0.00000000E+00  0.00000000E+00  0.00000000E+00
