C  N  Pd                                
   1.00000000000000     
    12.3000000000000007    0.0000000000000000    0.0000000000000000
    -6.1499999999999977   10.6521124665485960    0.0000000000000000
     0.0000000000000000    0.0000000000000000   20.0000000000000000
   C    N    Pd
    44     4     1
Direct
  0.9989970000000028  0.0010029999999972  0.7477659999999986
  0.1306799999999981  0.0640110000000007  0.7483739999999983
  0.1973419999999990  0.9973499999999973  0.7483739999999983
  0.3293439999999990  0.0614750000000015  0.7503170000000026
  0.3982150000000004  0.9968130000000031  0.7502070000000032
  0.5311689999999984  0.0662969999999987  0.7513420000000011
  0.5991160000000022  0.0005680000000012  0.7506169999999983
  0.7321820000000017  0.0697329999999994  0.7501829999999998
  0.7994410000000016  0.0029570000000021  0.7491800000000026
  0.9320980000000034  0.0679019999999966  0.7483610000000027
  0.9970429999999979  0.2005589999999984  0.7491800000000026
  0.1301429999999968  0.2648849999999996  0.7502070000000032
  0.1948039999999978  0.1960130000000007  0.7503170000000026
  0.3255130000000008  0.2595880000000008  0.7529380000000003
  0.3929180000000017  0.1921820000000025  0.7529380000000003
  0.5930600000000013  0.2007819999999967  0.7531809999999979
  0.7283649999999966  0.2716350000000034  0.7527809999999988
  0.7962160000000011  0.2037839999999989  0.7509009999999989
  0.9302670000000006  0.2678179999999983  0.7501829999999998
  0.9994319999999988  0.4008839999999978  0.7506169999999983
  0.1338980000000021  0.4657849999999968  0.7506169999999983
  0.1996279999999970  0.3978389999999976  0.7513420000000011
  0.3341130000000021  0.4597300000000004  0.7531809999999979
  0.7992180000000033  0.4069399999999987  0.7531809999999979
  0.9337030000000013  0.4688310000000016  0.7513420000000011
  0.0031869999999969  0.6017849999999996  0.7502070000000032
  0.1362870000000029  0.6661110000000008  0.7491800000000026
  0.2030620000000027  0.5988520000000008  0.7501829999999998
  0.3371139999999997  0.6628860000000003  0.7509009999999989
  0.4049639999999997  0.5950360000000003  0.7527809999999988
  0.5402699999999996  0.6658869999999979  0.7531809999999979
  0.7404119999999992  0.6744869999999992  0.7529380000000003
  0.8078179999999975  0.6070819999999983  0.7529380000000003
  0.9385249999999985  0.6706560000000010  0.7503170000000026
  0.0026500000000027  0.8026580000000010  0.7483739999999983
  0.1343329999999980  0.8656670000000020  0.7477659999999986
  0.2012319999999974  0.7987680000000026  0.7483610000000027
  0.3338889999999992  0.8637129999999971  0.7491800000000026
  0.4011479999999992  0.7969379999999973  0.7501829999999998
  0.5342150000000032  0.8661019999999979  0.7506169999999983
  0.6021610000000024  0.8003720000000030  0.7513420000000011
  0.7351150000000004  0.8698570000000032  0.7502070000000032
  0.8039869999999993  0.8051960000000022  0.7503170000000026
  0.9359889999999993  0.8693200000000019  0.7483739999999983
  0.5212930000000000  0.2568509999999975  0.7549169999999989
  0.3901830000000004  0.3879650000000012  0.7549169999999989
  0.7431490000000025  0.4787070000000000  0.7549169999999989
  0.6120349999999988  0.6098169999999996  0.7549169999999989
  0.5666650000000004  0.4333349999999996  0.7563630000000003
 
  0.00000000E+00  0.00000000E+00  0.00000000E+00
  0.00000000E+00  0.00000000E+00  0.00000000E+00
  0.00000000E+00  0.00000000E+00  0.00000000E+00
  0.00000000E+00  0.00000000E+00  0.00000000E+00
  0.00000000E+00  0.00000000E+00  0.00000000E+00
  0.00000000E+00  0.00000000E+00  0.00000000E+00
  0.00000000E+00  0.00000000E+00  0.00000000E+00
  0.00000000E+00  0.00000000E+00  0.00000000E+00
  0.00000000E+00  0.00000000E+00  0.00000000E+00
  0.00000000E+00  0.00000000E+00  0.00000000E+00
  0.00000000E+00  0.00000000E+00  0.00000000E+00
  0.00000000E+00  0.00000000E+00  0.00000000E+00
  0.00000000E+00  0.00000000E+00  0.00000000E+00
  0.00000000E+00  0.00000000E+00  0.00000000E+00
  0.00000000E+00  0.00000000E+00  0.00000000E+00
  0.00000000E+00  0.00000000E+00  0.00000000E+00
  0.00000000E+00  0.00000000E+00  0.00000000E+00
  0.00000000E+00  0.00000000E+00  0.00000000E+00
  0.00000000E+00  0.00000000E+00  0.00000000E+00
  0.00000000E+00  0.00000000E+00  0.00000000E+00
  0.00000000E+00  0.00000000E+00  0.00000000E+00
  0.00000000E+00  0.00000000E+00  0.00000000E+00
  0.00000000E+00  0.00000000E+00  0.00000000E+00
  0.00000000E+00  0.00000000E+00  0.00000000E+00
  0.00000000E+00  0.00000000E+00  0.00000000E+00
  0.00000000E+00  0.00000000E+00  0.00000000E+00
  0.00000000E+00  0.00000000E+00  0.00000000E+00
  0.00000000E+00  0.00000000E+00  0.00000000E+00
  0.00000000E+00  0.00000000E+00  0.00000000E+00
  0.00000000E+00  0.00000000E+00  0.00000000E+00
  0.00000000E+00  0.00000000E+00  0.00000000E+00
  0.00000000E+00  0.00000000E+00  0.00000000E+00
  0.00000000E+00  0.00000000E+00  0.00000000E+00
  0.00000000E+00  0.00000000E+00  0.00000000E+00
  0.00000000E+00  0.00000000E+00  0.00000000E+00
  0.00000000E+00  0.00000000E+00  0.00000000E+00
  0.00000000E+00  0.00000000E+00  0.00000000E+00
  0.00000000E+00  0.00000000E+00  0.00000000E+00
  0.00000000E+00  0.00000000E+00  0.00000000E+00
  0.00000000E+00  0.00000000E+00  0.00000000E+00
  0.00000000E+00  0.00000000E+00  0.00000000E+00
  0.00000000E+00  0.00000000E+00  0.00000000E+00
  0.00000000E+00  0.00000000E+00  0.00000000E+00
  0.00000000E+00  0.00000000E+00  0.00000000E+00
  0.00000000E+00  0.00000000E+00  0.00000000E+00
  0.00000000E+00  0.00000000E+00  0.00000000E+00
  0.00000000E+00  0.00000000E+00  0.00000000E+00
  0.00000000E+00  0.00000000E+00  0.00000000E+00
  0.00000000E+00  0.00000000E+00  0.00000000E+00
