       N       E                     dE             d eps       ncg     rms          ort
DAV:   1     0.103625656778E+04    0.10363E+04   -0.87560E+04  3328   0.669E+02
DAV:   2    -0.367986837199E+03   -0.14042E+04   -0.14038E+04  3328   0.102E+02
DAV:   3    -0.441518691551E+03   -0.73532E+02   -0.73532E+02  3328   0.360E+01
DAV:   4    -0.442256132172E+03   -0.73744E+00   -0.73744E+00  3328   0.386E+00
DAV:   5    -0.442256251118E+03   -0.11895E-03   -0.11895E-03  3328   0.605E-02
SDA:   6    -0.442256251118E+03   -0.72760E-11   -0.11895E-03  3328   0.177E-05 0.000E+00
   1 F= -.44403916E+03 E0= -.44403776E+03  d E =-.281133E-02  mag=     0.0000
