C  N  Ca                                
   1.00000000000000     
    12.3000000000000007    0.0000000000000000    0.0000000000000000
    -6.1499999999999977   10.6521124665485960    0.0000000000000000
     0.0000000000000000    0.0000000000000000   20.0000000000000000
   C    N    Ca
    44     4     1
Direct
  0.9994177528089608  0.0005822141959223  0.7403212532921902
  0.1320775211199408  0.0653528491804756  0.7408174599248873
  0.1986904473803174  0.9987365149776873  0.7407928731360944
  0.3313321796547192  0.0645287018982259  0.7451051667551569
  0.3987673739743146  0.9981648430559050  0.7457908144584003
  0.5318742861022080  0.0663758258085620  0.7485279269560086
  0.5994339146736115  0.0004100043607345  0.7472269415741654
  0.7326502185244281  0.0688567269885716  0.7474245399947985
  0.7997121372272942  0.0019233113313262  0.7447725900156381
  0.9326123749333861  0.0673876253001416  0.7429432279781064
  0.9980766285456304  0.2002878427235893  0.7447725889192545
  0.1314869746341077  0.2654514328253030  0.7458121809541752
  0.1978480969774201  0.1980077547959050  0.7451348499512980
  0.3296725566701800  0.2645458629421921  0.7526259850706354
  0.3978639913041909  0.1963573517754663  0.7526483588122280
  0.5938546281595838  0.2001732798962536  0.7550327577321941
  0.7295392553758033  0.2704606912759981  0.7548943960373072
  0.7971003990382185  0.2028995369276331  0.7498646821526657
  0.9311432323649671  0.2673497675026024  0.7474245397175900
  0.9995899805145958  0.4005660676827617  0.7472269407162001
  0.1337749708844387  0.4661395001317852  0.7472210184772758
  0.1997252661459237  0.3985585533669225  0.7485144584039121
  0.3335268162460297  0.4605250707523401  0.7550501321114730
  0.7998267011685849  0.4061453084010122  0.7550327587274414
  0.9336241690255380  0.4681256750236584  0.7485279270223855
  0.0018351568882514  0.6012325976700541  0.7457908072361444
  0.1352482335786079  0.6663766710839160  0.7447239525187114
  0.2022000559337422  0.5993309208950660  0.7473664473388495
  0.3362290770589686  0.6637709325224448  0.7498582845448625
  0.4037870158066058  0.5962130036867843  0.7549693795377200
  0.5394749416674784  0.6664731554196135  0.7550501310290453
  0.7354541277641325  0.6703273666544757  0.7526259730916498
  0.8036426317830638  0.6021359521063273  0.7526483497069472
  0.9354712839908742  0.6686677594917980  0.7451051607315028
  0.0012634712886863  0.8013095094085777  0.7407928719379315
  0.1339340837190606  0.8660658979330436  0.7402977781936410
  0.2007315231613185  0.7992684902272416  0.7429354273419913
  0.3336233190010530  0.8647517676686670  0.7447239585782666
  0.4006691021842426  0.7977999674616164  0.7473664498190619
  0.5338605067492510  0.8662250167849133  0.7472210196598794
  0.6014414675614976  0.8002747201667206  0.7485144583767349
  0.7345485838527459  0.8685129722510306  0.7458121816501179
  0.8019922490590609  0.8021518436187011  0.7451348463776398
  0.9346471613087001  0.8679224501336570  0.7408174614662856
  0.5253395074780876  0.2590243302348732  0.7615079966523880
  0.3923552545923119  0.3920142986839898  0.7615004278486955
  0.7409756529294315  0.4746604242556099  0.7615079904003238
  0.6079856912000512  0.6076446915892691  0.7615004165181398
  0.5666590279883746  0.4333409469306602  0.8197248605519929
 
  0.00000000E+00  0.00000000E+00  0.00000000E+00
  0.00000000E+00  0.00000000E+00  0.00000000E+00
  0.00000000E+00  0.00000000E+00  0.00000000E+00
  0.00000000E+00  0.00000000E+00  0.00000000E+00
  0.00000000E+00  0.00000000E+00  0.00000000E+00
  0.00000000E+00  0.00000000E+00  0.00000000E+00
  0.00000000E+00  0.00000000E+00  0.00000000E+00
  0.00000000E+00  0.00000000E+00  0.00000000E+00
  0.00000000E+00  0.00000000E+00  0.00000000E+00
  0.00000000E+00  0.00000000E+00  0.00000000E+00
  0.00000000E+00  0.00000000E+00  0.00000000E+00
  0.00000000E+00  0.00000000E+00  0.00000000E+00
  0.00000000E+00  0.00000000E+00  0.00000000E+00
  0.00000000E+00  0.00000000E+00  0.00000000E+00
  0.00000000E+00  0.00000000E+00  0.00000000E+00
  0.00000000E+00  0.00000000E+00  0.00000000E+00
  0.00000000E+00  0.00000000E+00  0.00000000E+00
  0.00000000E+00  0.00000000E+00  0.00000000E+00
  0.00000000E+00  0.00000000E+00  0.00000000E+00
  0.00000000E+00  0.00000000E+00  0.00000000E+00
  0.00000000E+00  0.00000000E+00  0.00000000E+00
  0.00000000E+00  0.00000000E+00  0.00000000E+00
  0.00000000E+00  0.00000000E+00  0.00000000E+00
  0.00000000E+00  0.00000000E+00  0.00000000E+00
  0.00000000E+00  0.00000000E+00  0.00000000E+00
  0.00000000E+00  0.00000000E+00  0.00000000E+00
  0.00000000E+00  0.00000000E+00  0.00000000E+00
  0.00000000E+00  0.00000000E+00  0.00000000E+00
  0.00000000E+00  0.00000000E+00  0.00000000E+00
  0.00000000E+00  0.00000000E+00  0.00000000E+00
  0.00000000E+00  0.00000000E+00  0.00000000E+00
  0.00000000E+00  0.00000000E+00  0.00000000E+00
  0.00000000E+00  0.00000000E+00  0.00000000E+00
  0.00000000E+00  0.00000000E+00  0.00000000E+00
  0.00000000E+00  0.00000000E+00  0.00000000E+00
  0.00000000E+00  0.00000000E+00  0.00000000E+00
  0.00000000E+00  0.00000000E+00  0.00000000E+00
  0.00000000E+00  0.00000000E+00  0.00000000E+00
  0.00000000E+00  0.00000000E+00  0.00000000E+00
  0.00000000E+00  0.00000000E+00  0.00000000E+00
  0.00000000E+00  0.00000000E+00  0.00000000E+00
  0.00000000E+00  0.00000000E+00  0.00000000E+00
  0.00000000E+00  0.00000000E+00  0.00000000E+00
  0.00000000E+00  0.00000000E+00  0.00000000E+00
  0.00000000E+00  0.00000000E+00  0.00000000E+00
  0.00000000E+00  0.00000000E+00  0.00000000E+00
  0.00000000E+00  0.00000000E+00  0.00000000E+00
  0.00000000E+00  0.00000000E+00  0.00000000E+00
  0.00000000E+00  0.00000000E+00  0.00000000E+00
