       N       E                     dE             d eps       ncg     rms          rms(c)
DAV:   1    -0.474253215920E+03   -0.47425E+03   -0.12161E+02  8192   0.121E+01    0.281E+01
DAV:   2    -0.450398595732E+03    0.23855E+02   -0.36005E+01  7680   0.735E+00    0.143E+01
DAV:   3    -0.442261925703E+03    0.81367E+01   -0.18530E+01  8192   0.504E+00    0.390E+00
DAV:   4    -0.441582500159E+03    0.67943E+00   -0.14395E+00  8192   0.142E+00    0.182E+00
DAV:   5    -0.441325452153E+03    0.25705E+00   -0.16441E-01  8192   0.551E-01    0.428E-01
DAV:   6    -0.441276667017E+03    0.48785E-01   -0.22910E-02  8192   0.163E-01    0.314E-01
DAV:   7    -0.441242698111E+03    0.33969E-01   -0.57293E-02  8192   0.230E-01    0.170E-01
DAV:   8    -0.441243978155E+03   -0.12800E-02   -0.12652E-02  8192   0.113E-01    0.895E-02
DAV:   9    -0.441267240496E+03   -0.23262E-01   -0.24928E-03  5632   0.435E-02    0.470E-02
DAV:  10    -0.441286691759E+03   -0.19451E-01   -0.29365E-03  8192   0.422E-02    0.253E-02
DAV:  11    -0.441293586525E+03   -0.68948E-02   -0.94410E-04  6656   0.223E-02    0.902E-03
DAV:  12    -0.441294645241E+03   -0.10587E-02   -0.73035E-05  5632   0.706E-03    0.571E-03
DAV:  13    -0.441295107294E+03   -0.46205E-03   -0.20532E-05  5120   0.390E-03    0.386E-03
DAV:  14    -0.441295469232E+03   -0.36194E-03   -0.34265E-05  5120   0.384E-03    0.211E-03
DAV:  15    -0.441295585462E+03   -0.11623E-03   -0.63466E-06  6656   0.176E-03    0.161E-03
DAV:  16    -0.441295661483E+03   -0.76021E-04   -0.14940E-06  6400   0.106E-03    0.113E-03
DAV:  17    -0.441295727436E+03   -0.65953E-04   -0.76246E-07  5632   0.721E-04    0.574E-04
DAV:  18    -0.441295749344E+03   -0.21908E-04   -0.12118E-07  6656   0.386E-04    0.381E-04
DAV:  19    -0.441295760592E+03   -0.11248E-04   -0.75377E-08  5632   0.243E-04    0.192E-04
DAV:  20    -0.441295764732E+03   -0.41401E-05   -0.54013E-08  6144   0.172E-04
   1 F= -.44300594E+03 E0= -.44300548E+03  d E =-.443006E+03  mag=     0.0000
       N       E                     dE             d eps       ncg     rms          rms(c)
DAV:   1    -0.441296041888E+03   -0.28130E-03   -0.27171E-02  7680   0.259E-01    0.367E-02
DAV:   2    -0.441296022267E+03    0.19621E-04   -0.27135E-04  6144   0.272E-02    0.193E-02
DAV:   3    -0.441296019499E+03    0.27675E-05   -0.22261E-05  6656   0.737E-03
   2 F= -.44300618E+03 E0= -.44300574E+03  d E =-.239064E-03  mag=    -0.0000
       N       E                     dE             d eps       ncg     rms          rms(c)
DAV:   1    -0.441296148644E+03   -0.12638E-03   -0.66321E-03  8192   0.128E-01    0.178E-02
DAV:   2    -0.441296144192E+03    0.44515E-05   -0.58578E-05  5632   0.133E-02
   3 F= -.44300629E+03 E0= -.44300584E+03  d E =-.112109E-03  mag=    -0.0000
