C  N  Ca                                
   1.00000000000000     
    12.3000000000000007    0.0000000000000000    0.0000000000000000
    -6.1499999999999977   10.6521124665485960    0.0000000000000000
     0.0000000000000000    0.0000000000000000   20.0000000000000000
   C    N    Ca
    44     4     1
Direct
  0.9994050847752609  0.0005948199345238  0.7403479966598367
  0.1320550051440090  0.0653366169687791  0.7408068086985539
  0.1986912776802692  0.9987220270930904  0.7408001775650499
  0.3313332981847757  0.0645454154485660  0.7450964397365050
  0.3987496832474887  0.9981353438935558  0.7457856718637185
  0.5318495048236566  0.0664026264237178  0.7485277201678456
  0.5994538515739412  0.0004243828648309  0.7471962294641086
  0.7326549488922729  0.0688213676124208  0.7474181672387401
  0.7997272708640226  0.0019276242284913  0.7448011680558223
  0.9326150182082529  0.0673850308945292  0.7429487910931035
  0.9980722711006469  0.2002727134436580  0.7448011669104559
  0.1315029986536036  0.2654602361459338  0.7458138190391541
  0.1978618247045821  0.1980092025332762  0.7451294534136571
  0.3297179230997528  0.2645785098517979  0.7525982895635610
  0.3979110697885613  0.1963761803194659  0.7526486958735086
  0.5938466173379774  0.2002102578121523  0.7550238828983367
  0.7295215954722210  0.2704783302803598  0.7548852585221694
  0.7970965923884920  0.2029033235173765  0.7498702625409296
  0.9311785980278904  0.2673450738583908  0.7474181668290449
  0.9995756471099806  0.4005461070719811  0.7471962263921310
  0.1337795609294400  0.4661436175689140  0.7472255094581239
  0.1997593910381187  0.3985615593929666  0.7484962361297153
  0.3335402752413060  0.4605159955665598  0.7550454801643669
  0.7997896900597595  0.4061533244442653  0.7550238877770272
  0.9335973744150121  0.4681504154542661  0.7485277205745390
  0.0018646619047321  0.6012503429759541  0.7457856624644186
  0.1352469440524710  0.6663816422519920  0.7447361066739969
  0.2021616360726540  0.5993374006572650  0.7473412069022393
  0.3362035942977439  0.6637964120584526  0.7498610759133897
  0.4037932571417213  0.5962068183602762  0.7549681523179081
  0.5394840300107552  0.6664596656083315  0.7550454815732842
  0.7354214033705464  0.6702820054802751  0.7525982769521533
  0.8036238007901260  0.6020887362400865  0.7526486941554776
  0.9354545054481354  0.6686665618728819  0.7450964387885891
  0.0012779526803729  0.8013087268064001  0.7408001738549654
  0.1339475052710711  0.8660524967713783  0.7402945084911827
  0.2007484860268676  0.7992515673552323  0.7429804040494333
  0.3336183316587334  0.8647530572418392  0.7447361116206730
  0.4006626162780478  0.7978384001428670  0.7473412086434174
  0.5338563647971536  0.8662204138480567  0.7472255088119582
  0.6014384909194186  0.8002405853974862  0.7484962353006884
  0.7345397858195092  0.8684969265867390  0.7458138219224801
  0.8019908144362450  0.8021381544428482  0.7451294481426176
  0.9346634495750042  0.8679449798865621  0.7408068101483496
  0.5253478010798357  0.2590563462389959  0.7615297623950473
  0.3923725198073463  0.3920169752017353  0.7615232658874592
  0.7409437011068702  0.4746522424768310  0.7615297470125970
  0.6079830155251587  0.6076274198166876  0.7615232568250760
  0.5666599591681708  0.4333400196569750  0.8197584145225830
 
  0.00000000E+00  0.00000000E+00  0.00000000E+00
  0.00000000E+00  0.00000000E+00  0.00000000E+00
  0.00000000E+00  0.00000000E+00  0.00000000E+00
  0.00000000E+00  0.00000000E+00  0.00000000E+00
  0.00000000E+00  0.00000000E+00  0.00000000E+00
  0.00000000E+00  0.00000000E+00  0.00000000E+00
  0.00000000E+00  0.00000000E+00  0.00000000E+00
  0.00000000E+00  0.00000000E+00  0.00000000E+00
  0.00000000E+00  0.00000000E+00  0.00000000E+00
  0.00000000E+00  0.00000000E+00  0.00000000E+00
  0.00000000E+00  0.00000000E+00  0.00000000E+00
  0.00000000E+00  0.00000000E+00  0.00000000E+00
  0.00000000E+00  0.00000000E+00  0.00000000E+00
  0.00000000E+00  0.00000000E+00  0.00000000E+00
  0.00000000E+00  0.00000000E+00  0.00000000E+00
  0.00000000E+00  0.00000000E+00  0.00000000E+00
  0.00000000E+00  0.00000000E+00  0.00000000E+00
  0.00000000E+00  0.00000000E+00  0.00000000E+00
  0.00000000E+00  0.00000000E+00  0.00000000E+00
  0.00000000E+00  0.00000000E+00  0.00000000E+00
  0.00000000E+00  0.00000000E+00  0.00000000E+00
  0.00000000E+00  0.00000000E+00  0.00000000E+00
  0.00000000E+00  0.00000000E+00  0.00000000E+00
  0.00000000E+00  0.00000000E+00  0.00000000E+00
  0.00000000E+00  0.00000000E+00  0.00000000E+00
  0.00000000E+00  0.00000000E+00  0.00000000E+00
  0.00000000E+00  0.00000000E+00  0.00000000E+00
  0.00000000E+00  0.00000000E+00  0.00000000E+00
  0.00000000E+00  0.00000000E+00  0.00000000E+00
  0.00000000E+00  0.00000000E+00  0.00000000E+00
  0.00000000E+00  0.00000000E+00  0.00000000E+00
  0.00000000E+00  0.00000000E+00  0.00000000E+00
  0.00000000E+00  0.00000000E+00  0.00000000E+00
  0.00000000E+00  0.00000000E+00  0.00000000E+00
  0.00000000E+00  0.00000000E+00  0.00000000E+00
  0.00000000E+00  0.00000000E+00  0.00000000E+00
  0.00000000E+00  0.00000000E+00  0.00000000E+00
  0.00000000E+00  0.00000000E+00  0.00000000E+00
  0.00000000E+00  0.00000000E+00  0.00000000E+00
  0.00000000E+00  0.00000000E+00  0.00000000E+00
  0.00000000E+00  0.00000000E+00  0.00000000E+00
  0.00000000E+00  0.00000000E+00  0.00000000E+00
  0.00000000E+00  0.00000000E+00  0.00000000E+00
  0.00000000E+00  0.00000000E+00  0.00000000E+00
  0.00000000E+00  0.00000000E+00  0.00000000E+00
  0.00000000E+00  0.00000000E+00  0.00000000E+00
  0.00000000E+00  0.00000000E+00  0.00000000E+00
  0.00000000E+00  0.00000000E+00  0.00000000E+00
  0.00000000E+00  0.00000000E+00  0.00000000E+00
