       N       E                     dE             d eps       ncg     rms          ort
DAV:   1     0.103346226479E+04    0.10335E+04   -0.87021E+04  3328   0.666E+02
DAV:   2    -0.369840427823E+03   -0.14033E+04   -0.14029E+04  3328   0.992E+01
DAV:   3    -0.444353792931E+03   -0.74513E+02   -0.74491E+02  3328   0.359E+01
DAV:   4    -0.445146248966E+03   -0.79246E+00   -0.79241E+00  3328   0.411E+00
DAV:   5    -0.445146380345E+03   -0.13138E-03   -0.13138E-03  3328   0.640E-02
SDA:   6    -0.445146380345E+03    0.00000E+00   -0.13138E-03  3328   0.205E-05 0.000E+00
   1 F= -.44694331E+03 E0= -.44693814E+03  d E =-.103492E-01  mag=     0.4020
