C  N  Ir                                
   1.00000000000000     
    12.3000000000000007    0.0000000000000000    0.0000000000000000
    -6.1499999999999977   10.6521124665485960    0.0000000000000000
     0.0000000000000000    0.0000000000000000   20.0000000000000000
   C    N    Ir
    44     4     1
Direct
  0.9989004301336308  0.0010995706168231  0.7478492526508447
  0.1302402355227557  0.0635774756328047  0.7484032756231898
  0.1969160338273426  0.9969302021761166  0.7484028884453693
  0.3289070841087920  0.0608020822921773  0.7502403466021761
  0.3981683518388124  0.9962544033520828  0.7499490106990834
  0.5306782734980331  0.0662813029241249  0.7509588718977511
  0.5989249660514631  0.0004377303007317  0.7500410528347459
  0.7317789510126786  0.0700812369904185  0.7499465266609064
  0.7992933481476925  0.0034737516802537  0.7490551738022901
  0.9318174898833078  0.0681825111924041  0.7484063479249770
  0.9965262477995864  0.2007066516747926  0.7490551738090971
  0.1295779233727217  0.2648349689510354  0.7499489853468475
  0.1941454119408021  0.1955814914806098  0.7502434157228137
  0.3238673586905136  0.2584049872034129  0.7531229592772775
  0.3917249979369544  0.1905445782549648  0.7531247862849995
  0.5923757940425176  0.2005137615636912  0.7533056124627819
  0.7278174432238274  0.2721825567969915  0.7529681371670520
  0.7956362625466369  0.2043637370636020  0.7508874472153195
  0.9299187628162997  0.2682210491986936  0.7499465268924936
  0.9995622696726585  0.4010750342329956  0.7500410529645123
  0.1337608458839199  0.4656013800135668  0.7500420783093560
  0.1996076621191634  0.3973283445854960  0.7509606552714061
  0.3338591791897016  0.4590452879335203  0.7533065157856882
  0.7994862385900419  0.4076242059282720  0.7533056123670079
  0.9337186969251192  0.4693217262132094  0.7509588720171720
  0.0037455961536139  0.6018316476016565  0.7499490107745999
  0.1367946438920740  0.6659719102132087  0.7490497549269080
  0.2034136582275536  0.5984481371723831  0.7499452720144788
  0.3376828353266603  0.6623171644157964  0.7508825248833730
  0.4055301594997900  0.5944698405131135  0.7529711819191149
  0.5409547122077782  0.6661408210659587  0.7533065157694665
  0.7415950126368287  0.6761326411156290  0.7531229592414945
  0.8094554216017542  0.6082750018883090  0.7531247863598338
  0.9391979172852274  0.6710929154469625  0.7502403468242136
  0.0030697983595971  0.8030839665373506  0.7484028883652414
  0.1344362996914654  0.8655637009762955  0.7478477983211604
  0.2015168611584599  0.7984831396254464  0.7484181432994390
  0.3340280897992969  0.8632053558123189  0.7490497547376194
  0.4015518629089740  0.7965863414677443  0.7499452720946493
  0.5343986201305029  0.8662391539752576  0.7500420783693613
  0.6026716553269438  0.8003923378654889  0.7509606553782362
  0.7351650303145476  0.8704220760201054  0.7499489854759602
  0.8044185081041419  0.8058545876433811  0.7502434157257412
  0.9364225248066305  0.8697597651765534  0.7484032755672985
  0.5201291875485055  0.2572151196337202  0.7554805479399960
  0.3905455988138939  0.3867981033953640  0.7554803830406769
  0.7427848808378812  0.4798708127055775  0.7554805478529545
  0.6132018966765429  0.6094544013945722  0.7554803830687575
  0.5666669699163691  0.4333330300850022  0.7577579400142653
 
  0.00000000E+00  0.00000000E+00  0.00000000E+00
  0.00000000E+00  0.00000000E+00  0.00000000E+00
  0.00000000E+00  0.00000000E+00  0.00000000E+00
  0.00000000E+00  0.00000000E+00  0.00000000E+00
  0.00000000E+00  0.00000000E+00  0.00000000E+00
  0.00000000E+00  0.00000000E+00  0.00000000E+00
  0.00000000E+00  0.00000000E+00  0.00000000E+00
  0.00000000E+00  0.00000000E+00  0.00000000E+00
  0.00000000E+00  0.00000000E+00  0.00000000E+00
  0.00000000E+00  0.00000000E+00  0.00000000E+00
  0.00000000E+00  0.00000000E+00  0.00000000E+00
  0.00000000E+00  0.00000000E+00  0.00000000E+00
  0.00000000E+00  0.00000000E+00  0.00000000E+00
  0.00000000E+00  0.00000000E+00  0.00000000E+00
  0.00000000E+00  0.00000000E+00  0.00000000E+00
  0.00000000E+00  0.00000000E+00  0.00000000E+00
  0.00000000E+00  0.00000000E+00  0.00000000E+00
  0.00000000E+00  0.00000000E+00  0.00000000E+00
  0.00000000E+00  0.00000000E+00  0.00000000E+00
  0.00000000E+00  0.00000000E+00  0.00000000E+00
  0.00000000E+00  0.00000000E+00  0.00000000E+00
  0.00000000E+00  0.00000000E+00  0.00000000E+00
  0.00000000E+00  0.00000000E+00  0.00000000E+00
  0.00000000E+00  0.00000000E+00  0.00000000E+00
  0.00000000E+00  0.00000000E+00  0.00000000E+00
  0.00000000E+00  0.00000000E+00  0.00000000E+00
  0.00000000E+00  0.00000000E+00  0.00000000E+00
  0.00000000E+00  0.00000000E+00  0.00000000E+00
  0.00000000E+00  0.00000000E+00  0.00000000E+00
  0.00000000E+00  0.00000000E+00  0.00000000E+00
  0.00000000E+00  0.00000000E+00  0.00000000E+00
  0.00000000E+00  0.00000000E+00  0.00000000E+00
  0.00000000E+00  0.00000000E+00  0.00000000E+00
  0.00000000E+00  0.00000000E+00  0.00000000E+00
  0.00000000E+00  0.00000000E+00  0.00000000E+00
  0.00000000E+00  0.00000000E+00  0.00000000E+00
  0.00000000E+00  0.00000000E+00  0.00000000E+00
  0.00000000E+00  0.00000000E+00  0.00000000E+00
  0.00000000E+00  0.00000000E+00  0.00000000E+00
  0.00000000E+00  0.00000000E+00  0.00000000E+00
  0.00000000E+00  0.00000000E+00  0.00000000E+00
  0.00000000E+00  0.00000000E+00  0.00000000E+00
  0.00000000E+00  0.00000000E+00  0.00000000E+00
  0.00000000E+00  0.00000000E+00  0.00000000E+00
  0.00000000E+00  0.00000000E+00  0.00000000E+00
  0.00000000E+00  0.00000000E+00  0.00000000E+00
  0.00000000E+00  0.00000000E+00  0.00000000E+00
  0.00000000E+00  0.00000000E+00  0.00000000E+00
  0.00000000E+00  0.00000000E+00  0.00000000E+00
