       N       E                     dE             d eps       ncg     rms          ort
DAV:   1     0.273298061036E+02    0.27330E+02   -0.37190E+03   256   0.313E+01
DAV:   2    -0.149501254997E-01   -0.27345E+02   -0.27345E+02   256   0.414E+00
DAV:   3    -0.680582721446E-01   -0.53108E-01   -0.53108E-01   256   0.271E-01
DAV:   4    -0.683064897744E-01   -0.24822E-03   -0.24822E-03   256   0.190E-02
DAV:   5    -0.683064984252E-01   -0.86508E-08   -0.87410E-08   256   0.101E-04
SDA:   6    -0.683272686884E-01   -0.20770E-04   -0.87410E-08   256   0.248E-04 0.000E+00
CGA:   7    -0.683313121891E-01   -0.40435E-05   -0.41878E-05   256   0.546E-05 0.459E-05
   1 F= -.68331312E-01 E0= -.68331312E-01  d E =-.815540E-19
