       N       E                     dE             d eps       ncg     rms          ort
DAV:   1     0.203553875844E+01    0.20355E+01   -0.45296E+03   256   0.361E+01
DAV:   2    -0.277929679387E+01   -0.48148E+01   -0.48148E+01   256   0.339E+00
DAV:   3    -0.278156803453E+01   -0.22712E-02   -0.22712E-02   256   0.799E-02
DAV:   4    -0.278159593254E+01   -0.27898E-04   -0.27898E-04   256   0.964E-03
DAV:   5    -0.278159596562E+01   -0.33086E-07   -0.33095E-07   256   0.237E-04
SDA:   6    -0.396419635446E+01   -0.11826E+01   -0.33095E-07   256   0.721E+01 0.000E+00
CGA:   7    -0.454032072544E+01   -0.57612E+00   -0.57981E+00   256   0.219E+00 0.128E-01
CGA:   8    -0.457637037300E+01   -0.36050E-01   -0.36030E-01   256   0.111E+00-0.205E-03
CGA:   9    -0.460501447901E+01   -0.28644E-01   -0.28753E-01   256   0.632E-01-0.138E-02
CGA:  10    -0.461778773307E+01   -0.12773E-01   -0.12783E-01   256   0.194E-01-0.649E-03
CGA:  11    -0.462187029666E+01   -0.40826E-02   -0.40840E-02   256   0.596E-02-0.457E-04
CGA:  12    -0.462320025376E+01   -0.13300E-02   -0.13302E-02   256   0.192E-02-0.132E-04
CGA:  13    -0.462368458880E+01   -0.48434E-03   -0.48505E-03   256   0.701E-03-0.120E-04
CGA:  14    -0.462386086782E+01   -0.17628E-03   -0.17640E-03   256   0.292E-03-0.250E-05
CGA:  15    -0.462393450750E+01   -0.73640E-04   -0.73701E-04   256   0.103E-03-0.128E-05
CGA:  16    -0.462396129955E+01   -0.26792E-04   -0.26816E-04   256   0.384E-04-0.424E-06
CGA:  17    -0.462397139499E+01   -0.10095E-04   -0.10134E-04   256   0.142E-04-0.696E-06
CGA:  18    -0.462397475881E+01   -0.33638E-05   -0.33817E-05   256   0.545E-05-0.581E-06
   1 F= -.46239748E+01 E0= -.46239748E+01  d E =-.688177E-14  mag=     6.0000
