C  N  Y                                 
   1.00000000000000     
    12.3000000000000007    0.0000000000000000    0.0000000000000000
    -6.1499999999999977   10.6521124665485960    0.0000000000000000
     0.0000000000000000    0.0000000000000000   20.0000000000000000
   C    N    Y 
    44     4     1
Direct
  0.9993463662202932  0.0006536421189877  0.7451045990670059
  0.1319370177346082  0.0654306324196072  0.7458704841763184
  0.1987503925833632  0.9986190305858578  0.7458749021887009
  0.3307032462201684  0.0638055898339472  0.7481460638006323
  0.3985493326226928  0.9978617000677725  0.7471300521027816
  0.5321815683280040  0.0667509964383024  0.7476738585033412
  0.5996880759369808  0.0006155910746691  0.7460716686218621
  0.7324573530211947  0.0687015149883129  0.7463332208039152
  0.7996513125355637  0.0014567727621156  0.7458119603193366
  0.9327076940985858  0.0672922768215914  0.7454576138472305
  0.9985432473613035  0.2003487860040687  0.7458119595958923
  0.1311838066205094  0.2652302947156972  0.7471272359786091
  0.1971416762214162  0.1973615872912842  0.7481395020498041
  0.3295116976596702  0.2637037602973881  0.7529195900530997
  0.3970216210183090  0.1961961422735844  0.7529213741916098
  0.5948975070813881  0.2000324656916147  0.7519765830426921
  0.7297365262091650  0.2702635231083185  0.7511739858262703
  0.7974320469643648  0.2025680806238659  0.7476766225583917
  0.9312985986599408  0.2675431331789412  0.7463332210809582
  0.9993843821830858  0.4003117571203482  0.7460716649450433
  0.1339619181642259  0.4663829411534893  0.7460755326187533
  0.2000814137967684  0.3988363956033760  0.7476741762119929
  0.3333718866417369  0.4615627112808524  0.7519733880055626
  0.7999674407463834  0.4051024212186760  0.7519765838475778
  0.9332488762160335  0.4678187682771681  0.7476738633152697
  0.0021383093140449  0.6014507683353144  0.7471300531074574
  0.1347994578238284  0.6663140312634996  0.7458204437525602
  0.2020371029628089  0.5991202761009993  0.7463350225556822
  0.3358913144716262  0.6641086982432480  0.7476806422689807
  0.4035957783738706  0.5964042287027930  0.7511684379812714
  0.5384372877833793  0.6666280969544873  0.7519733882898343
  0.7362962349162552  0.6704882914957747  0.7529195900703268
  0.8038038535104142  0.6029783844570754  0.7529213745114608
  0.9361944200590350  0.6692967497220812  0.7481460635627594
  0.0013809747920118  0.8012496110709775  0.7458749021782269
  0.1339914840264102  0.8660085062926089  0.7451052956767711
  0.2006180385599631  0.7993819744159618  0.7454559500529536
  0.3336859488946943  0.8652005112408144  0.7458204433149730
  0.4008797510306598  0.7979629693656393  0.7463350224528525
  0.5336172495468277  0.8660380794528322  0.7460755334451785
  0.6011635756544208  0.7999185321115779  0.7476741765090898
  0.7347696956059990  0.8688161923542248  0.7471272361981248
  0.8026384245992428  0.8028583324193531  0.7481395014971669
  0.9345693560865943  0.8680629780582074  0.7458704842573978
  0.5260585609656687  0.2600233128051905  0.7581842797405923
  0.3933535712356940  0.3927293431440604  0.7581847026844640
  0.7399767005551905  0.4739414375787689  0.7581842792705588
  0.6072706568487262  0.6066464288748954  0.7581847015130608
  0.5666652475368698  0.4333347505897909  0.8116927683556416
 
  0.00000000E+00  0.00000000E+00  0.00000000E+00
  0.00000000E+00  0.00000000E+00  0.00000000E+00
  0.00000000E+00  0.00000000E+00  0.00000000E+00
  0.00000000E+00  0.00000000E+00  0.00000000E+00
  0.00000000E+00  0.00000000E+00  0.00000000E+00
  0.00000000E+00  0.00000000E+00  0.00000000E+00
  0.00000000E+00  0.00000000E+00  0.00000000E+00
  0.00000000E+00  0.00000000E+00  0.00000000E+00
  0.00000000E+00  0.00000000E+00  0.00000000E+00
  0.00000000E+00  0.00000000E+00  0.00000000E+00
  0.00000000E+00  0.00000000E+00  0.00000000E+00
  0.00000000E+00  0.00000000E+00  0.00000000E+00
  0.00000000E+00  0.00000000E+00  0.00000000E+00
  0.00000000E+00  0.00000000E+00  0.00000000E+00
  0.00000000E+00  0.00000000E+00  0.00000000E+00
  0.00000000E+00  0.00000000E+00  0.00000000E+00
  0.00000000E+00  0.00000000E+00  0.00000000E+00
  0.00000000E+00  0.00000000E+00  0.00000000E+00
  0.00000000E+00  0.00000000E+00  0.00000000E+00
  0.00000000E+00  0.00000000E+00  0.00000000E+00
  0.00000000E+00  0.00000000E+00  0.00000000E+00
  0.00000000E+00  0.00000000E+00  0.00000000E+00
  0.00000000E+00  0.00000000E+00  0.00000000E+00
  0.00000000E+00  0.00000000E+00  0.00000000E+00
  0.00000000E+00  0.00000000E+00  0.00000000E+00
  0.00000000E+00  0.00000000E+00  0.00000000E+00
  0.00000000E+00  0.00000000E+00  0.00000000E+00
  0.00000000E+00  0.00000000E+00  0.00000000E+00
  0.00000000E+00  0.00000000E+00  0.00000000E+00
  0.00000000E+00  0.00000000E+00  0.00000000E+00
  0.00000000E+00  0.00000000E+00  0.00000000E+00
  0.00000000E+00  0.00000000E+00  0.00000000E+00
  0.00000000E+00  0.00000000E+00  0.00000000E+00
  0.00000000E+00  0.00000000E+00  0.00000000E+00
  0.00000000E+00  0.00000000E+00  0.00000000E+00
  0.00000000E+00  0.00000000E+00  0.00000000E+00
  0.00000000E+00  0.00000000E+00  0.00000000E+00
  0.00000000E+00  0.00000000E+00  0.00000000E+00
  0.00000000E+00  0.00000000E+00  0.00000000E+00
  0.00000000E+00  0.00000000E+00  0.00000000E+00
  0.00000000E+00  0.00000000E+00  0.00000000E+00
  0.00000000E+00  0.00000000E+00  0.00000000E+00
  0.00000000E+00  0.00000000E+00  0.00000000E+00
  0.00000000E+00  0.00000000E+00  0.00000000E+00
  0.00000000E+00  0.00000000E+00  0.00000000E+00
  0.00000000E+00  0.00000000E+00  0.00000000E+00
  0.00000000E+00  0.00000000E+00  0.00000000E+00
  0.00000000E+00  0.00000000E+00  0.00000000E+00
  0.00000000E+00  0.00000000E+00  0.00000000E+00
