       N       E                     dE             d eps       ncg     rms          rms(c)
DAV:   1     0.119042566944E+04    0.11904E+04   -0.87129E+04  4096   0.596E+02
DAV:   2    -0.401947663591E+03   -0.15924E+04   -0.15909E+04  6144   0.114E+02
DAV:   3    -0.480742392499E+03   -0.78795E+02   -0.78785E+02  7680   0.377E+01
DAV:   4    -0.480952471403E+03   -0.21008E+00   -0.20971E+00  4864   0.181E+00
DAV:   5    -0.480953303779E+03   -0.83238E-03   -0.83238E-03  7680   0.105E-01    0.287E+01
DAV:   6    -0.454747381316E+03    0.26206E+02   -0.41768E+01  7680   0.827E+00    0.143E+01
DAV:   7    -0.446488715988E+03    0.82587E+01   -0.19864E+01  8192   0.541E+00    0.459E+00
DAV:   8    -0.445719297015E+03    0.76942E+00   -0.17716E+00  8192   0.155E+00    0.214E+00
DAV:   9    -0.445514168466E+03    0.20513E+00   -0.23854E-01  8192   0.549E-01    0.860E-01
DAV:  10    -0.445439509290E+03    0.74659E-01   -0.36041E-02  8192   0.214E-01    0.429E-01
DAV:  11    -0.445407622076E+03    0.31887E-01   -0.47300E-02  8192   0.200E-01    0.309E-01
DAV:  12    -0.445397732029E+03    0.98900E-02   -0.19688E-02  8192   0.155E-01    0.196E-01
DAV:  13    -0.445399612988E+03   -0.18810E-02   -0.14704E-02  7936   0.127E-01    0.118E-01
DAV:  14    -0.445405776431E+03   -0.61634E-02   -0.50745E-03  6400   0.598E-02    0.739E-02
DAV:  15    -0.445419103470E+03   -0.13327E-01   -0.11786E-03  6144   0.297E-02    0.544E-02
DAV:  16    -0.445434090459E+03   -0.14987E-01   -0.18443E-03  7168   0.340E-02    0.263E-02
DAV:  17    -0.445441049914E+03   -0.69595E-02   -0.82635E-04  7680   0.208E-02    0.160E-02
DAV:  18    -0.445443460052E+03   -0.24101E-02   -0.20875E-04  6656   0.105E-02    0.981E-03
DAV:  19    -0.445444745430E+03   -0.12854E-02   -0.13909E-04  5632   0.822E-03    0.472E-03
DAV:  20    -0.445445164171E+03   -0.41874E-03   -0.41952E-05  5376   0.427E-03    0.331E-03
DAV:  21    -0.445445390470E+03   -0.22630E-03   -0.24736E-05  6144   0.279E-03    0.206E-03
DAV:  22    -0.445445506969E+03   -0.11650E-03   -0.98615E-06  6656   0.155E-03    0.151E-03
DAV:  23    -0.445445580377E+03   -0.73408E-04   -0.31398E-06  6144   0.915E-04    0.968E-04
DAV:  24    -0.445445619674E+03   -0.39297E-04   -0.62222E-07  5888   0.458E-04    0.561E-04
DAV:  25    -0.445445644093E+03   -0.24419E-04   -0.23898E-07  6656   0.334E-04    0.313E-04
DAV:  26    -0.445445651885E+03   -0.77927E-05   -0.55612E-08  6144   0.173E-04
   1 F= -.44717771E+03 E0= -.44715931E+03  d E =-.447178E+03  mag=     0.0001
       N       E                     dE             d eps       ncg     rms          rms(c)
DAV:   1    -0.445445784584E+03   -0.14049E-03   -0.18632E-02  6400   0.209E-01    0.294E-02
DAV:   2    -0.445445773210E+03    0.11374E-04   -0.22337E-04  6912   0.249E-02    0.156E-02
DAV:   3    -0.445445770524E+03    0.26862E-05   -0.16319E-05  7680   0.615E-03
   2 F= -.44717787E+03 E0= -.44715945E+03  d E =-.157424E-03  mag=     0.0001
