       N       E                     dE             d eps       ncg     rms          ort
SDA:   1    -0.340235341016E+03   -0.34024E+03    0.00000E+00  3328   0.128E+03 0.000E+00
CGA:   2    -0.416897136001E+03   -0.76662E+02   -0.72474E+02  3328   0.447E+02 0.723E+01
CGA:   3    -0.433887105612E+03   -0.16990E+02   -0.16856E+02  3328   0.199E+02 0.703E+00
CGA:   4    -0.440263975928E+03   -0.63769E+01   -0.64077E+01  3328   0.716E+01-0.404E+00
CGA:   5    -0.442201552493E+03   -0.19376E+01   -0.19385E+01  3328   0.211E+01-0.280E-01
CGA:   6    -0.442824788243E+03   -0.62324E+00   -0.62377E+00  3328   0.619E+00-0.705E-02
CGA:   7    -0.443013689020E+03   -0.18890E+00   -0.18932E+00  3328   0.171E+00-0.423E-02
CGA:   8    -0.443067917588E+03   -0.54229E-01   -0.54280E-01  3328   0.474E-01-0.496E-03
CGA:   9    -0.443084719944E+03   -0.16802E-01   -0.16801E-01  3328   0.153E-01 0.739E-05
CGA:  10    -0.443090606808E+03   -0.58869E-02   -0.58853E-02  3328   0.507E-02 0.674E-05
CGA:  11    -0.443092585221E+03   -0.19784E-02   -0.19796E-02  3328   0.145E-02-0.931E-05
CGA:  12    -0.443093138033E+03   -0.55281E-03   -0.55321E-03  3328   0.371E-03-0.272E-05
CGA:  13    -0.443093282210E+03   -0.14418E-03   -0.14422E-03  3328   0.947E-04-0.296E-06
CGA:  14    -0.443093321652E+03   -0.39442E-04   -0.39471E-04  3328   0.273E-04-0.207E-06
CGA:  15    -0.443093333568E+03   -0.11916E-04   -0.11970E-04  3328   0.860E-05-0.349E-06
CGA:  16    -0.443093337314E+03   -0.37464E-05   -0.37917E-05  3328   0.277E-05-0.287E-06
   1 F= -.44480116E+03 E0= -.44478828E+03  d E =-.257539E-01  mag=    -0.0000
