C  N  Al                                
   1.00000000000000     
    12.3000000000000007    0.0000000000000000    0.0000000000000000
    -6.1499999999999977   10.6521124665485960    0.0000000000000000
     0.0000000000000000    0.0000000000000000   20.0000000000000000
   C    N    Al
    44     4     1
Direct
  0.9990689999999987  0.0009310000000013  0.7500009999999975
  0.1311820000000026  0.0646490000000028  0.7499940000000009
  0.1979639999999989  0.9978729999999985  0.7499940000000009
  0.3298520000000025  0.0623950000000022  0.7499809999999982
  0.3982170000000025  0.9971389999999971  0.7500009999999975
  0.5317429999999987  0.0680750000000003  0.7499930000000035
  0.5993899999999996  0.0010740000000027  0.7499899999999968
  0.7318390000000008  0.0695869999999985  0.7499990000000025
  0.7992619999999988  0.0021050000000002  0.7500039999999970
  0.9322530000000029  0.0677469999999971  0.7500009999999975
  0.9978949999999998  0.2007380000000012  0.7500039999999970
  0.1304930000000013  0.2648900000000012  0.7500009999999975
  0.1957570000000004  0.1965289999999982  0.7499809999999982
  0.3271000000000015  0.2605289999999982  0.7499910000000014
  0.3938610000000011  0.1937550000000030  0.7499910000000014
  0.5936030000000017  0.2021250000000023  0.7500410000000031
  0.7281430000000029  0.2718569999999971  0.7500130000000027
  0.7963760000000022  0.2036239999999978  0.7499960000000030
  0.9304130000000015  0.2681609999999992  0.7499990000000025
  0.9989259999999973  0.4006100000000004  0.7499899999999968
  0.1344040000000035  0.4660640000000029  0.7499899999999968
  0.2013850000000019  0.3983819999999980  0.7499930000000035
  0.3354339999999993  0.4602560000000011  0.7500399999999985
  0.7978749999999977  0.4063969999999983  0.7500410000000031
  0.9319249999999997  0.4682579999999987  0.7499930000000035
  0.0028610000000029  0.6017829999999975  0.7500009999999975
  0.1354329999999990  0.6659440000000032  0.7500039999999970
  0.2029020000000017  0.5985110000000020  0.7499990000000025
  0.3369539999999986  0.6630460000000014  0.7499960000000030
  0.4052020000000027  0.5947979999999973  0.7500130000000027
  0.5397439999999989  0.6645660000000007  0.7500399999999985
  0.7394710000000018  0.6728999999999985  0.7499910000000014
  0.8062449999999970  0.6061389999999989  0.7499910000000014
  0.9376049999999978  0.6701479999999975  0.7499809999999982
  0.0021270000000015  0.8020360000000011  0.7499940000000009
  0.1342690000000033  0.8657309999999967  0.7500009999999975
  0.2010700000000014  0.7989299999999986  0.7500009999999975
  0.3340559999999968  0.8645670000000010  0.7500039999999970
  0.4014889999999980  0.7970979999999983  0.7499990000000025
  0.5339359999999971  0.8655959999999965  0.7499899999999968
  0.6016180000000020  0.7986149999999981  0.7499930000000035
  0.7351099999999988  0.8695069999999987  0.7500009999999975
  0.8034710000000018  0.8042429999999996  0.7499809999999982
  0.9353509999999972  0.8688179999999974  0.7499940000000009
  0.5228880000000018  0.2630630000000025  0.7501359999999977
  0.3963859999999997  0.3895600000000030  0.7501370000000023
  0.7369369999999975  0.4771119999999982  0.7501359999999977
  0.6104399999999970  0.6036140000000003  0.7501370000000023
  0.5666659999999979  0.4333340000000021  0.7504610000000014
 
  0.00000000E+00  0.00000000E+00  0.00000000E+00
  0.00000000E+00  0.00000000E+00  0.00000000E+00
  0.00000000E+00  0.00000000E+00  0.00000000E+00
  0.00000000E+00  0.00000000E+00  0.00000000E+00
  0.00000000E+00  0.00000000E+00  0.00000000E+00
  0.00000000E+00  0.00000000E+00  0.00000000E+00
  0.00000000E+00  0.00000000E+00  0.00000000E+00
  0.00000000E+00  0.00000000E+00  0.00000000E+00
  0.00000000E+00  0.00000000E+00  0.00000000E+00
  0.00000000E+00  0.00000000E+00  0.00000000E+00
  0.00000000E+00  0.00000000E+00  0.00000000E+00
  0.00000000E+00  0.00000000E+00  0.00000000E+00
  0.00000000E+00  0.00000000E+00  0.00000000E+00
  0.00000000E+00  0.00000000E+00  0.00000000E+00
  0.00000000E+00  0.00000000E+00  0.00000000E+00
  0.00000000E+00  0.00000000E+00  0.00000000E+00
  0.00000000E+00  0.00000000E+00  0.00000000E+00
  0.00000000E+00  0.00000000E+00  0.00000000E+00
  0.00000000E+00  0.00000000E+00  0.00000000E+00
  0.00000000E+00  0.00000000E+00  0.00000000E+00
  0.00000000E+00  0.00000000E+00  0.00000000E+00
  0.00000000E+00  0.00000000E+00  0.00000000E+00
  0.00000000E+00  0.00000000E+00  0.00000000E+00
  0.00000000E+00  0.00000000E+00  0.00000000E+00
  0.00000000E+00  0.00000000E+00  0.00000000E+00
  0.00000000E+00  0.00000000E+00  0.00000000E+00
  0.00000000E+00  0.00000000E+00  0.00000000E+00
  0.00000000E+00  0.00000000E+00  0.00000000E+00
  0.00000000E+00  0.00000000E+00  0.00000000E+00
  0.00000000E+00  0.00000000E+00  0.00000000E+00
  0.00000000E+00  0.00000000E+00  0.00000000E+00
  0.00000000E+00  0.00000000E+00  0.00000000E+00
  0.00000000E+00  0.00000000E+00  0.00000000E+00
  0.00000000E+00  0.00000000E+00  0.00000000E+00
  0.00000000E+00  0.00000000E+00  0.00000000E+00
  0.00000000E+00  0.00000000E+00  0.00000000E+00
  0.00000000E+00  0.00000000E+00  0.00000000E+00
  0.00000000E+00  0.00000000E+00  0.00000000E+00
  0.00000000E+00  0.00000000E+00  0.00000000E+00
  0.00000000E+00  0.00000000E+00  0.00000000E+00
  0.00000000E+00  0.00000000E+00  0.00000000E+00
  0.00000000E+00  0.00000000E+00  0.00000000E+00
  0.00000000E+00  0.00000000E+00  0.00000000E+00
  0.00000000E+00  0.00000000E+00  0.00000000E+00
  0.00000000E+00  0.00000000E+00  0.00000000E+00
  0.00000000E+00  0.00000000E+00  0.00000000E+00
  0.00000000E+00  0.00000000E+00  0.00000000E+00
  0.00000000E+00  0.00000000E+00  0.00000000E+00
  0.00000000E+00  0.00000000E+00  0.00000000E+00
