C  N  W                                 
   1.00000000000000     
    12.3000000000000007    0.0000000000000000    0.0000000000000000
    -6.1499999999999977   10.6521124665485960    0.0000000000000000
     0.0000000000000000    0.0000000000000000   20.0000000000000000
   C    N    W 
    44     4     1
Direct
  0.9990651431846160  0.0009348691860751  0.7367453956668157
  0.1315217030167659  0.0648902081624101  0.7376880145785663
  0.1982078953282524  0.9982044060837865  0.7376843770536752
  0.3302028531847796  0.0628972629754614  0.7443851182265107
  0.3983534204271422  0.9973976304064323  0.7461056238278019
  0.5318560172696820  0.0672677550813390  0.7502951559680540
  0.5994517099792418  0.0006436627389377  0.7484731360648382
  0.7322779941633897  0.0692150876657180  0.7477890027273020
  0.7994023009021092  0.0019475213498197  0.7439782162260613
  0.9323791974455702  0.0676207947482510  0.7406573507775036
  0.9980524669181889  0.2005977136252000  0.7439782179928542
  0.1307135302757914  0.2650297033222415  0.7461216081970932
  0.1962233131801909  0.1968669788302577  0.7444006226112592
  0.3263829554054567  0.2596192897855971  0.7535361189961236
  0.3929470735338541  0.1930655525130476  0.7535360445643136
  0.5941918369167780  0.2000337356283168  0.7575912341773119
  0.7290061939009362  0.2709937185822042  0.7565985941216624
  0.7968956398394553  0.2031043078311257  0.7503106852911827
  0.9307848557840686  0.2677219668459330  0.7477890039346633
  0.9993563064383650  0.4005482768234145  0.7484731373038755
  0.1339987599121457  0.4661361742947889  0.7484667482057574
  0.2006043138222324  0.3985150358831291  0.7503057020644235
  0.3333828867801003  0.4608652116268104  0.7575983938207642
  0.7999661705180330  0.4058080445863794  0.7575912294677210
  0.9327321671297923  0.4681439144567463  0.7502951560152411
  0.0026023226729777  0.6016465281192467  0.7461056258614036
  0.1352651944968954  0.6660573639429970  0.7439523719156469
  0.2025490256650784  0.5989437030405966  0.7477697036461350
  0.3364356872778558  0.6635643172503833  0.7503004671612530
  0.4043296706995818  0.5956703242852228  0.7566118614926722
  0.5391347940276887  0.6666171191421881  0.7575983927763019
  0.7403807090927756  0.6736170343328709  0.7535361186142566
  0.8069344460118586  0.6070528941397910  0.7535360434921117
  0.9371027230879179  0.6697971401959251  0.7443851206596932
  0.0017955942800327  0.8017920932448135  0.7376843795134320
  0.1342671885834790  0.8657328241479618  0.7367392391826897
  0.2009503576287628  0.7990496000021068  0.7406482319199199
  0.3339426211937919  0.8647347847113309  0.7439523714870617
  0.4010562824316892  0.7974509504725944  0.7477697036620867
  0.5338638209913071  0.8660012290408190  0.7484667474196982
  0.6014849676370133  0.7993956718860247  0.7503057014076475
  0.7349702963291236  0.8692864563204736  0.7461216080394806
  0.8031330333967333  0.8037766752908411  0.7444006233658200
  0.9351097957395069  0.8684783037424495  0.7376880157584935
  0.5221124540271163  0.2582541506799032  0.7671180944855536
  0.3915857769339155  0.3887829198638855  0.7671165705827505
  0.7417458171599307  0.4778875040153281  0.7671180878546977
  0.6112170815369993  0.6084142215942094  0.7671165697410984
  0.5666626338410836  0.4333373675046275  0.7945644620786965
 
  0.00000000E+00  0.00000000E+00  0.00000000E+00
  0.00000000E+00  0.00000000E+00  0.00000000E+00
  0.00000000E+00  0.00000000E+00  0.00000000E+00
  0.00000000E+00  0.00000000E+00  0.00000000E+00
  0.00000000E+00  0.00000000E+00  0.00000000E+00
  0.00000000E+00  0.00000000E+00  0.00000000E+00
  0.00000000E+00  0.00000000E+00  0.00000000E+00
  0.00000000E+00  0.00000000E+00  0.00000000E+00
  0.00000000E+00  0.00000000E+00  0.00000000E+00
  0.00000000E+00  0.00000000E+00  0.00000000E+00
  0.00000000E+00  0.00000000E+00  0.00000000E+00
  0.00000000E+00  0.00000000E+00  0.00000000E+00
  0.00000000E+00  0.00000000E+00  0.00000000E+00
  0.00000000E+00  0.00000000E+00  0.00000000E+00
  0.00000000E+00  0.00000000E+00  0.00000000E+00
  0.00000000E+00  0.00000000E+00  0.00000000E+00
  0.00000000E+00  0.00000000E+00  0.00000000E+00
  0.00000000E+00  0.00000000E+00  0.00000000E+00
  0.00000000E+00  0.00000000E+00  0.00000000E+00
  0.00000000E+00  0.00000000E+00  0.00000000E+00
  0.00000000E+00  0.00000000E+00  0.00000000E+00
  0.00000000E+00  0.00000000E+00  0.00000000E+00
  0.00000000E+00  0.00000000E+00  0.00000000E+00
  0.00000000E+00  0.00000000E+00  0.00000000E+00
  0.00000000E+00  0.00000000E+00  0.00000000E+00
  0.00000000E+00  0.00000000E+00  0.00000000E+00
  0.00000000E+00  0.00000000E+00  0.00000000E+00
  0.00000000E+00  0.00000000E+00  0.00000000E+00
  0.00000000E+00  0.00000000E+00  0.00000000E+00
  0.00000000E+00  0.00000000E+00  0.00000000E+00
  0.00000000E+00  0.00000000E+00  0.00000000E+00
  0.00000000E+00  0.00000000E+00  0.00000000E+00
  0.00000000E+00  0.00000000E+00  0.00000000E+00
  0.00000000E+00  0.00000000E+00  0.00000000E+00
  0.00000000E+00  0.00000000E+00  0.00000000E+00
  0.00000000E+00  0.00000000E+00  0.00000000E+00
  0.00000000E+00  0.00000000E+00  0.00000000E+00
  0.00000000E+00  0.00000000E+00  0.00000000E+00
  0.00000000E+00  0.00000000E+00  0.00000000E+00
  0.00000000E+00  0.00000000E+00  0.00000000E+00
  0.00000000E+00  0.00000000E+00  0.00000000E+00
  0.00000000E+00  0.00000000E+00  0.00000000E+00
  0.00000000E+00  0.00000000E+00  0.00000000E+00
  0.00000000E+00  0.00000000E+00  0.00000000E+00
  0.00000000E+00  0.00000000E+00  0.00000000E+00
  0.00000000E+00  0.00000000E+00  0.00000000E+00
  0.00000000E+00  0.00000000E+00  0.00000000E+00
  0.00000000E+00  0.00000000E+00  0.00000000E+00
  0.00000000E+00  0.00000000E+00  0.00000000E+00
