       N       E                     dE             d eps       ncg     rms          ort
SDA:   1    -0.338170828360E+03   -0.33817E+03    0.00000E+00  3328   0.143E+03 0.000E+00
CGA:   2    -0.410358245346E+03   -0.72187E+02   -0.69486E+02  3328   0.919E+02 0.877E+01
CGA:   3    -0.430519215276E+03   -0.20161E+02   -0.20210E+02  3328   0.397E+02 0.265E+01
CGA:   4    -0.440287302647E+03   -0.97681E+01   -0.97566E+01  3328   0.198E+02 0.808E-01
CGA:   5    -0.444546474429E+03   -0.42592E+01   -0.42591E+01  3328   0.810E+01-0.179E+00
CGA:   6    -0.446316195870E+03   -0.17697E+01   -0.17691E+01  3328   0.261E+01 0.550E-01
CGA:   7    -0.446949320335E+03   -0.63312E+00   -0.63293E+00  3328   0.100E+01 0.178E-02
CGA:   8    -0.447186491730E+03   -0.23717E+00   -0.23718E+00  3328   0.308E+00-0.307E-03
CGA:   9    -0.447267899543E+03   -0.81408E-01   -0.81459E-01  3328   0.981E-01-0.757E-03
CGA:  10    -0.447295551404E+03   -0.27652E-01   -0.27647E-01  3328   0.349E-01 0.477E-04
CGA:  11    -0.447306404249E+03   -0.10853E-01   -0.10843E-01  3328   0.140E-01 0.752E-04
CGA:  12    -0.447310938595E+03   -0.45343E-02   -0.45432E-02  3328   0.548E-02-0.824E-04
CGA:  13    -0.447312696500E+03   -0.17579E-02   -0.17582E-02  3328   0.180E-02-0.328E-05
CGA:  14    -0.447313281540E+03   -0.58504E-03   -0.58585E-03  3328   0.541E-03-0.801E-05
CGA:  15    -0.447313466534E+03   -0.18499E-03   -0.18487E-03  3328   0.169E-03 0.133E-05
CGA:  16    -0.447313531561E+03   -0.65027E-04   -0.65175E-04  3328   0.638E-04-0.107E-05
CGA:  17    -0.447313556542E+03   -0.24981E-04   -0.24876E-04  3328   0.275E-04 0.733E-06
CGA:  18    -0.447313566969E+03   -0.10427E-04   -0.10546E-04  3328   0.134E-04-0.100E-05
CGA:  19    -0.447313570991E+03   -0.40214E-05   -0.40051E-05  3328   0.497E-05 0.378E-06
   1 F= -.44914293E+03 E0= -.44913881E+03  d E =-.824607E-02  mag=     2.1455
