       N       E                     dE             d eps       ncg     rms          ort
DAV:   1     0.692020961056E+02    0.69202E+02   -0.48735E+03   256   0.445E+01
DAV:   2    -0.108284132493E+01   -0.70285E+02   -0.70251E+02   256   0.738E+00
DAV:   3    -0.244997291517E+01   -0.13671E+01   -0.13670E+01   256   0.123E+00
DAV:   4    -0.248514635220E+01   -0.35173E-01   -0.35173E-01   256   0.115E-01
DAV:   5    -0.248518193362E+01   -0.35581E-04   -0.35581E-04   256   0.536E-03
SDA:   6     0.537436465619E+02    0.56229E+02   -0.35581E-04   256   0.252E+03 0.000E+00
CGA:   7     0.756944466164E+01   -0.46174E+02   -0.14994E+02   256   0.226E+02 0.615E+02
CGA:   8     0.717965367821E+01   -0.38979E+00   -0.31277E+00   256   0.181E+02 0.256E+02
CGA:   9     0.696425058472E+01   -0.21540E+00   -0.13814E+00   256   0.156E+02 0.171E+02
CGA:  10     0.673182897419E+01   -0.23242E+00   -0.13630E+00   256   0.130E+02 0.145E+02
CGA:  11     0.312631365797E+01   -0.36055E+01   -0.21510E+00   256   0.173E+01 0.304E+01
CGA:  12     0.208949066473E+01   -0.10368E+01    0.32340E+00   256   0.206E+02-0.264E+01
CGA:  13    -0.198240396735E-01   -0.21093E+01   -0.21355E+01   256   0.166E+01-0.339E+01
CGA:  14    -0.454973115680E+01   -0.45299E+01    0.11462E-01   256   0.443E+00 0.333E+00
CGA:  15    -0.465986669174E+01   -0.11014E+00   -0.12510E+00   256   0.219E+00-0.116E+00
CGA:  16    -0.471440510688E+01   -0.54538E-01   -0.53859E-01   256   0.594E-01 0.364E-02
CGA:  17    -0.473091402782E+01   -0.16509E-01   -0.16461E-01   256   0.307E-01 0.427E-03
CGA:  18    -0.474024488737E+01   -0.93309E-02   -0.93037E-02   256   0.130E-01 0.221E-03
CGA:  19    -0.474562681320E+01   -0.53819E-02   -0.53693E-02   256   0.124E-01 0.571E-04
CGA:  20    -0.475142917878E+01   -0.58024E-02   -0.57779E-02   256   0.101E-01 0.822E-04
CGA:  21    -0.475638769710E+01   -0.49585E-02   -0.49563E-02   256   0.646E-02 0.208E-05
CGA:  22    -0.475867448171E+01   -0.22868E-02   -0.22864E-02   256   0.292E-02 0.117E-04
CGA:  23    -0.475973865291E+01   -0.10642E-02   -0.10618E-02   256   0.123E-02 0.304E-04
CGA:  24    -0.476029658486E+01   -0.55793E-03   -0.55362E-03   256   0.757E-03 0.127E-04
CGA:  25    -0.476060251232E+01   -0.30593E-03   -0.31136E-03   256   0.449E-03-0.400E-05
CGA:  26    -0.476078211011E+01   -0.17960E-03   -0.17329E-03   256   0.245E-03 0.529E-04
CGA:  27    -0.476086162613E+01   -0.79516E-04   -0.78823E-04   256   0.171E-03 0.286E-04
CGA:  28    -0.476091316673E+01   -0.51541E-04   -0.51418E-04   256   0.122E-03 0.148E-04
CGA:  29    -0.476095055914E+01   -0.37392E-04   -0.37389E-04   256   0.550E-04 0.476E-05
CGA:  30    -0.476096994622E+01   -0.19387E-04   -0.19290E-04   256   0.364E-04 0.289E-05
CGA:  31    -0.476098283471E+01   -0.12888E-04   -0.12702E-04   256   0.231E-04 0.399E-05
CGA:  32    -0.476099167240E+01   -0.88377E-05   -0.86475E-05   256   0.178E-04 0.315E-05
   1 F= -.47609917E+01 E0= -.47609917E+01  d E =-.966300E-18  mag=     4.0000
