C  N  Tb                                
   1.00000000000000     
    12.3000000000000007    0.0000000000000000    0.0000000000000000
    -6.1499999999999977   10.6521124665485960    0.0000000000000000
     0.0000000000000000    0.0000000000000000   20.0000000000000000
   C    N    Tb
    44     4     1
Direct
  0.9993936328419183  0.0006068418446352  0.7437139790377106
  0.1321180201968958  0.0655643944656624  0.7442255193333432
  0.1989131013783806  0.9987660791280387  0.7443228670276315
  0.3309530494770782  0.0641054683449285  0.7471967438282722
  0.3986507203907722  0.9980290955998450  0.7470851670817311
  0.5322669694766354  0.0669206914981364  0.7482581814939787
  0.5997367579827513  0.0006379065735820  0.7470631930427570
  0.7324862100980986  0.0686524564303776  0.7472371354169638
  0.7996731688483074  0.0013806499173862  0.7459930068234818
  0.9327647180215463  0.0672351793945573  0.7450462040985225
  0.9986179651147937  0.2003265421789694  0.7459932157232788
  0.1313461373424029  0.2652935394496665  0.7469741640118757
  0.1974453802535538  0.1976153381989219  0.7470513101298667
  0.3298852147105265  0.2640229809704455  0.7520764049667402
  0.3973289815612588  0.1965755222965103  0.7521171647798612
  0.5949451307241644  0.2002504206375766  0.7523990810689795
  0.7297400933654250  0.2702582226156029  0.7519630258406321
  0.7974678317541457  0.2025339654965750  0.7486340501171437
  0.9313466399638691  0.2675134730586599  0.7472375301870984
  0.9993619046444310  0.4002635275669290  0.7470639330017680
  0.1339801786900257  0.4664057089590830  0.7471246035766125
  0.2002282055240509  0.3989025855763131  0.7482791051137505
  0.3335646211131127  0.4616194021101673  0.7524933429862919
  0.7997504610023677  0.4050530515044433  0.7523955777454753
  0.9330787033251082  0.4677330356805581  0.7482586677611763
  0.0019700999436056  0.6013496272418990  0.7470848350555729
  0.1346946185212551  0.6663162361713693  0.7462178228644544
  0.2019684622095092  0.5991410909382230  0.7474227970992120
  0.3358287380454261  0.6641700873085835  0.7488884011993426
  0.4035524171631656  0.5964462286909792  0.7521229963241771
  0.5383788808603301  0.6664342287503997  0.7524898471993231
  0.7359766948334195  0.6701128005625517  0.7520733764607715
  0.8034254720152219  0.6026707945427077  0.7521141339816976
  0.9358947145943946  0.6690489972444467  0.7471962977005251
  0.0012344468613564  0.8010885433710052  0.7443232984647942
  0.1339619148951206  0.8660391615699822  0.7438601572344561
  0.2005981936830275  0.7994005776530037  0.7452959665765143
  0.3336837235209694  0.8653039658404901  0.7462182393296154
  0.4008583475583564  0.7980299072416266  0.7474230702170593
  0.5335937702633807  0.8660196869833453  0.7471257140501000
  0.6010968738537026  0.7997712131428693  0.7482802804595345
  0.7347062019205413  0.8686524492451180  0.7469752396515236
  0.8023846167755760  0.8025541895476063  0.7470538988187303
  0.9344354658039188  0.8678827185130037  0.7442270304841900
  0.5263541478560159  0.2607940453271111  0.7580323538848256
  0.3940996937268358  0.3930369394501915  0.7580752444123411
  0.7392050317522364  0.4736435507182544  0.7580227288499555
  0.6069614964041492  0.6058990115096873  0.7580654601423020
  0.5666811791368895  0.4333388689379642  0.8122086353440191
 
  0.00000000E+00  0.00000000E+00  0.00000000E+00
  0.00000000E+00  0.00000000E+00  0.00000000E+00
  0.00000000E+00  0.00000000E+00  0.00000000E+00
  0.00000000E+00  0.00000000E+00  0.00000000E+00
  0.00000000E+00  0.00000000E+00  0.00000000E+00
  0.00000000E+00  0.00000000E+00  0.00000000E+00
  0.00000000E+00  0.00000000E+00  0.00000000E+00
  0.00000000E+00  0.00000000E+00  0.00000000E+00
  0.00000000E+00  0.00000000E+00  0.00000000E+00
  0.00000000E+00  0.00000000E+00  0.00000000E+00
  0.00000000E+00  0.00000000E+00  0.00000000E+00
  0.00000000E+00  0.00000000E+00  0.00000000E+00
  0.00000000E+00  0.00000000E+00  0.00000000E+00
  0.00000000E+00  0.00000000E+00  0.00000000E+00
  0.00000000E+00  0.00000000E+00  0.00000000E+00
  0.00000000E+00  0.00000000E+00  0.00000000E+00
  0.00000000E+00  0.00000000E+00  0.00000000E+00
  0.00000000E+00  0.00000000E+00  0.00000000E+00
  0.00000000E+00  0.00000000E+00  0.00000000E+00
  0.00000000E+00  0.00000000E+00  0.00000000E+00
  0.00000000E+00  0.00000000E+00  0.00000000E+00
  0.00000000E+00  0.00000000E+00  0.00000000E+00
  0.00000000E+00  0.00000000E+00  0.00000000E+00
  0.00000000E+00  0.00000000E+00  0.00000000E+00
  0.00000000E+00  0.00000000E+00  0.00000000E+00
  0.00000000E+00  0.00000000E+00  0.00000000E+00
  0.00000000E+00  0.00000000E+00  0.00000000E+00
  0.00000000E+00  0.00000000E+00  0.00000000E+00
  0.00000000E+00  0.00000000E+00  0.00000000E+00
  0.00000000E+00  0.00000000E+00  0.00000000E+00
  0.00000000E+00  0.00000000E+00  0.00000000E+00
  0.00000000E+00  0.00000000E+00  0.00000000E+00
  0.00000000E+00  0.00000000E+00  0.00000000E+00
  0.00000000E+00  0.00000000E+00  0.00000000E+00
  0.00000000E+00  0.00000000E+00  0.00000000E+00
  0.00000000E+00  0.00000000E+00  0.00000000E+00
  0.00000000E+00  0.00000000E+00  0.00000000E+00
  0.00000000E+00  0.00000000E+00  0.00000000E+00
  0.00000000E+00  0.00000000E+00  0.00000000E+00
  0.00000000E+00  0.00000000E+00  0.00000000E+00
  0.00000000E+00  0.00000000E+00  0.00000000E+00
  0.00000000E+00  0.00000000E+00  0.00000000E+00
  0.00000000E+00  0.00000000E+00  0.00000000E+00
  0.00000000E+00  0.00000000E+00  0.00000000E+00
  0.00000000E+00  0.00000000E+00  0.00000000E+00
  0.00000000E+00  0.00000000E+00  0.00000000E+00
  0.00000000E+00  0.00000000E+00  0.00000000E+00
  0.00000000E+00  0.00000000E+00  0.00000000E+00
  0.00000000E+00  0.00000000E+00  0.00000000E+00
