       N       E                     dE             d eps       ncg     rms          rms(c)
DAV:   1    -0.477908169807E+03   -0.47791E+03   -0.13620E+02  8192   0.590E+01    0.312E+01
DAV:   2    -0.462345879140E+03    0.15562E+02   -0.97176E+01  4352   0.217E+01    0.191E+01
DAV:   3    -0.486092022470E+03   -0.23746E+02   -0.40057E+02  5632   0.125E+02    0.675E+01
DAV:   4    -0.450383192955E+03    0.35709E+02   -0.86328E+01  7680   0.115E+02    0.983E+00
DAV:   5    -0.449570887219E+03    0.81231E+00   -0.11351E+01  8192   0.210E+01    0.801E+00
DAV:   6    -0.450363715910E+03   -0.79283E+00   -0.16567E+00  8192   0.222E+01    0.597E+00
DAV:   7    -0.450075637433E+03    0.28808E+00   -0.21334E+00  8192   0.186E+01    0.437E+00
DAV:   8    -0.451093608804E+03   -0.10180E+01   -0.15071E+00  4352   0.331E+00    0.527E+00
DAV:   9    -0.451243604296E+03   -0.15000E+00   -0.33253E-01  8192   0.914E+00    0.415E+00
DAV:  10    -0.451261850306E+03   -0.18246E-01   -0.47841E-01  8192   0.126E+01    0.285E+00
DAV:  11    -0.451146800096E+03    0.11505E+00   -0.31303E-01  6656   0.113E+01    0.182E+00
DAV:  12    -0.451058548901E+03    0.88251E-01   -0.17850E-01  8192   0.874E+00    0.115E+00
DAV:  13    -0.451016482451E+03    0.42066E-01   -0.24180E-01  6656   0.937E+00    0.337E-01
DAV:  14    -0.451030735960E+03   -0.14254E-01   -0.99978E-02  7936   0.452E+00    0.540E-01
DAV:  15    -0.451048446136E+03   -0.17710E-01   -0.45103E-02  7680   0.143E+00    0.101E+00
DAV:  16    -0.451045111773E+03    0.33344E-02   -0.78115E-03  6912   0.136E+00    0.938E-01
DAV:  17    -0.451040188376E+03    0.49234E-02   -0.37744E-02  7424   0.188E+00    0.419E-01
DAV:  18    -0.451043566567E+03   -0.33782E-02   -0.64154E-03  7168   0.447E-01    0.317E-01
DAV:  19    -0.451047981964E+03   -0.44154E-02   -0.58999E-03  8192   0.596E-01    0.166E-01
DAV:  20    -0.451053365757E+03   -0.53838E-02   -0.20598E-03  4864   0.205E-01    0.113E-01
DAV:  21    -0.451057664466E+03   -0.42987E-02   -0.22540E-03  6400   0.506E-01    0.285E-02
DAV:  22    -0.451059412728E+03   -0.17483E-02   -0.71896E-04  6400   0.358E-01    0.286E-02
DAV:  23    -0.451059837818E+03   -0.42509E-03   -0.98354E-05  7424   0.783E-02    0.286E-02
DAV:  24    -0.451059988500E+03   -0.15068E-03   -0.14561E-05  4608   0.283E-02    0.248E-02
DAV:  25    -0.451060279225E+03   -0.29073E-03   -0.82452E-05  7168   0.124E-01    0.642E-03
DAV:  26    -0.451060461820E+03   -0.18259E-03   -0.37617E-05  7424   0.867E-02    0.581E-03
DAV:  27    -0.451060525300E+03   -0.63480E-04   -0.78775E-06  7936   0.223E-02    0.833E-03
DAV:  28    -0.451060542645E+03   -0.17345E-04   -0.36977E-06  8192   0.282E-02    0.438E-03
DAV:  29    -0.451060563930E+03   -0.21285E-04   -0.21487E-06  7936   0.217E-02    0.140E-03
DAV:  30    -0.451060578231E+03   -0.14301E-04   -0.70282E-07  7424   0.920E-03    0.372E-04
DAV:  31    -0.451060584626E+03   -0.63945E-05   -0.11454E-07  7424   0.141E-03
   1 F= -.45287243E+03 E0= -.45285598E+03  d E =-.452872E+03  mag=     5.6797
       N       E                     dE             d eps       ncg     rms          rms(c)
DAV:   1    -0.451061087941E+03   -0.50971E-03   -0.47132E-02  7680   0.342E-01    0.507E-02
DAV:   2    -0.451061052619E+03    0.35321E-04   -0.48993E-04  6400   0.436E-02    0.259E-02
DAV:   3    -0.451061043634E+03    0.89857E-05   -0.41158E-05  7936   0.146E-02
   2 F= -.45287289E+03 E0= -.45285646E+03  d E =-.459459E-03  mag=     5.6794
       N       E                     dE             d eps       ncg     rms          rms(c)
DAV:   1    -0.451061239393E+03   -0.18677E-03   -0.11072E-02  6912   0.166E-01    0.233E-02
DAV:   2    -0.451061235498E+03    0.38952E-05   -0.11467E-04  7936   0.187E-02    0.126E-02
DAV:   3    -0.451061232940E+03    0.25575E-05   -0.73775E-06  7424   0.672E-03
   3 F= -.45287307E+03 E0= -.45285664E+03  d E =-.175072E-03  mag=     5.6794
