C  N  Tb                                
   1.00000000000000     
    12.3000000000000007    0.0000000000000000    0.0000000000000000
    -6.1499999999999977   10.6521124665485960    0.0000000000000000
     0.0000000000000000    0.0000000000000000   20.0000000000000000
   C    N    Tb
    44     4     1
Direct
  0.9994212959273649  0.0005794247765333  0.7437531093705532
  0.1321817132477499  0.0656053236247623  0.7442330315597954
  0.1989577293242219  0.9988013695413209  0.7443352914588249
  0.3309832245541585  0.0641446626126386  0.7471648900746063
  0.3987094997055363  0.9981259116853912  0.7470637284361695
  0.5322932693362302  0.0669294009944187  0.7482345874596554
  0.5997352894887905  0.0006168306218490  0.7470485816499537
  0.7324565583739442  0.0686688568380081  0.7472531689467022
  0.7996411600993113  0.0013473208205167  0.7459932779657474
  0.9327935260460410  0.0672055858700455  0.7450528834067012
  0.9986518067113698  0.2003591793939535  0.7459938666027586
  0.1314213749058146  0.2653228972734366  0.7469849635804553
  0.1974822001669621  0.1976265237242795  0.7469993004457640
  0.3298851518376260  0.2639983517482782  0.7520593369960596
  0.3973188589047227  0.1965554517204229  0.7521183356814103
  0.5949327687698323  0.2002703153397155  0.7523999491585618
  0.7297138921658144  0.2702843850345354  0.7519741225672978
  0.7973991736307429  0.2026005509607235  0.7486180401739359
  0.9313304894854074  0.2675438908126437  0.7472534029724641
  0.9993826698939579  0.4002653227484848  0.7470501015444713
  0.1339687046016808  0.4663960125037799  0.7471303395413913
  0.2002512185279075  0.3989232768683592  0.7482487062369593
  0.3335764704146039  0.4616520389551196  0.7525071556094506
  0.7997294659261034  0.4050653324144201  0.7523959860263201
  0.9330699272883414  0.4677066734077997  0.7482364116653607
  0.0018737310622511  0.6012903155056186  0.7470633767414018
  0.1346145562115480  0.6662774865959435  0.7462291234927295
  0.2019587363240656  0.5991119717868154  0.7474111836707906
  0.3358630749390600  0.6641360003292373  0.7489053908132579
  0.4035510128198975  0.5964465441827882  0.7521364888484421
  0.5383453597801782  0.6664235123030033  0.7525032148318680
  0.7360068920435199  0.6701077112613685  0.7520563173700024
  0.8034452030713956  0.6026820434409276  0.7521159904801533
  0.9358523478982224  0.6690215334729910  0.7471641980914590
  0.0011981548373422  0.8010420703104585  0.7443353512291039
  0.1339502138738058  0.8660497983166300  0.7438655985533449
  0.2006090952262328  0.7993897275006958  0.7453200009206460
  0.3337224679608823  0.8653839464929133  0.7462297909823844
  0.4008881620315384  0.7980399735097170  0.7474113050334312
  0.5336043043227870  0.8660308798630213  0.7471317691531545
  0.6010761523338995  0.7997481874769389  0.7482506192433510
  0.7346766221942576  0.8685785448726071  0.7469856446920992
  0.8023737014246667  0.8025186109734990  0.7470026288646656
  0.9343945158035487  0.8678185408567731  0.7442341823609209
  0.5263392077890139  0.2607693308694444  0.7580619657513266
  0.3940708766213661  0.3930241383236688  0.7581078128412297
  0.7392304921072035  0.4736590640824926  0.7580518984139348
  0.6069732789643240  0.6059290205759394  0.7580977612400275
  0.5666834010247755  0.4333371568050455  0.8122268172488998
 
  0.00000000E+00  0.00000000E+00  0.00000000E+00
  0.00000000E+00  0.00000000E+00  0.00000000E+00
  0.00000000E+00  0.00000000E+00  0.00000000E+00
  0.00000000E+00  0.00000000E+00  0.00000000E+00
  0.00000000E+00  0.00000000E+00  0.00000000E+00
  0.00000000E+00  0.00000000E+00  0.00000000E+00
  0.00000000E+00  0.00000000E+00  0.00000000E+00
  0.00000000E+00  0.00000000E+00  0.00000000E+00
  0.00000000E+00  0.00000000E+00  0.00000000E+00
  0.00000000E+00  0.00000000E+00  0.00000000E+00
  0.00000000E+00  0.00000000E+00  0.00000000E+00
  0.00000000E+00  0.00000000E+00  0.00000000E+00
  0.00000000E+00  0.00000000E+00  0.00000000E+00
  0.00000000E+00  0.00000000E+00  0.00000000E+00
  0.00000000E+00  0.00000000E+00  0.00000000E+00
  0.00000000E+00  0.00000000E+00  0.00000000E+00
  0.00000000E+00  0.00000000E+00  0.00000000E+00
  0.00000000E+00  0.00000000E+00  0.00000000E+00
  0.00000000E+00  0.00000000E+00  0.00000000E+00
  0.00000000E+00  0.00000000E+00  0.00000000E+00
  0.00000000E+00  0.00000000E+00  0.00000000E+00
  0.00000000E+00  0.00000000E+00  0.00000000E+00
  0.00000000E+00  0.00000000E+00  0.00000000E+00
  0.00000000E+00  0.00000000E+00  0.00000000E+00
  0.00000000E+00  0.00000000E+00  0.00000000E+00
  0.00000000E+00  0.00000000E+00  0.00000000E+00
  0.00000000E+00  0.00000000E+00  0.00000000E+00
  0.00000000E+00  0.00000000E+00  0.00000000E+00
  0.00000000E+00  0.00000000E+00  0.00000000E+00
  0.00000000E+00  0.00000000E+00  0.00000000E+00
  0.00000000E+00  0.00000000E+00  0.00000000E+00
  0.00000000E+00  0.00000000E+00  0.00000000E+00
  0.00000000E+00  0.00000000E+00  0.00000000E+00
  0.00000000E+00  0.00000000E+00  0.00000000E+00
  0.00000000E+00  0.00000000E+00  0.00000000E+00
  0.00000000E+00  0.00000000E+00  0.00000000E+00
  0.00000000E+00  0.00000000E+00  0.00000000E+00
  0.00000000E+00  0.00000000E+00  0.00000000E+00
  0.00000000E+00  0.00000000E+00  0.00000000E+00
  0.00000000E+00  0.00000000E+00  0.00000000E+00
  0.00000000E+00  0.00000000E+00  0.00000000E+00
  0.00000000E+00  0.00000000E+00  0.00000000E+00
  0.00000000E+00  0.00000000E+00  0.00000000E+00
  0.00000000E+00  0.00000000E+00  0.00000000E+00
  0.00000000E+00  0.00000000E+00  0.00000000E+00
  0.00000000E+00  0.00000000E+00  0.00000000E+00
  0.00000000E+00  0.00000000E+00  0.00000000E+00
  0.00000000E+00  0.00000000E+00  0.00000000E+00
  0.00000000E+00  0.00000000E+00  0.00000000E+00
