       N       E                     dE             d eps       ncg     rms          ort
DAV:   1     0.106269108589E+04    0.10627E+04   -0.90798E+04  3328   0.687E+02
DAV:   2    -0.365418575966E+03   -0.14281E+04   -0.14277E+04  3328   0.102E+02
DAV:   3    -0.443223699388E+03   -0.77805E+02   -0.77794E+02  3328   0.373E+01
DAV:   4    -0.444036727697E+03   -0.81303E+00   -0.81299E+00  3328   0.496E+00
DAV:   5    -0.444036976575E+03   -0.24888E-03   -0.24888E-03  3328   0.956E-02
SDA:   6    -0.444036976575E+03    0.00000E+00   -0.24888E-03  3328   0.325E-05 0.000E+00
   1 F= -.44580028E+03 E0= -.44579620E+03  d E =-.815234E-02  mag=     0.0879
