C  N  Rh                                
   1.00000000000000     
    12.3000000000000007    0.0000000000000000    0.0000000000000000
    -6.1499999999999977   10.6521124665485960    0.0000000000000000
     0.0000000000000000    0.0000000000000000   20.0000000000000000
   C    N    Rh
    44     4     1
Direct
  0.9990004668704771  0.0009995355350441  0.7474623654230896
  0.1305260309861325  0.0638595828242927  0.7481016086036902
  0.1971811396789249  0.9972067010409162  0.7480961349087139
  0.3292895165183012  0.0613351166167178  0.7501466103409626
  0.3982659527142687  0.9965162742763596  0.7499555580550776
  0.5307819501800353  0.0662012101392548  0.7511891759798104
  0.5989967773553815  0.0004102996382329  0.7503603686137339
  0.7318278661479241  0.0699078986153481  0.7499932451955189
  0.7993436007936623  0.0033352433471165  0.7489266115785327
  0.9318931422408738  0.0681068592020821  0.7480860465360735
  0.9966647552627350  0.2006563997539885  0.7489266117843130
  0.1298236984885008  0.2649239149158262  0.7499808821237863
  0.1946620530851391  0.1959624785749483  0.7501562762204372
  0.3248584646302461  0.2596607230777934  0.7532163722846192
  0.3929764068291348  0.1915481795962748  0.7532165054412303
  0.5924407480721996  0.2004813239899121  0.7534776443772770
  0.7280399055823707  0.2719600939356752  0.7530621355140141
  0.7957371377089260  0.2042628615360016  0.7508634883149981
  0.9300921003002429  0.2681721343149306  0.7499932463289625
  0.9995897002188485  0.4010032229808260  0.7503603694744641
  0.1337531282680189  0.4656743309075964  0.7503512094516154
  0.1995349760456122  0.3974342309992380  0.7511961719488482
  0.3338337271020109  0.4591015628881578  0.7534591304616356
  0.7995186760807513  0.4075592514342432  0.7534776445741898
  0.9337987891946966  0.4692180488548843  0.7511891763741758
  0.0034837240268075  0.6017340462701739  0.7499555583973034
  0.1366450962613044  0.6660177216920289  0.7488583119487728
  0.2032465113567099  0.5985001326070218  0.7499303563867414
  0.3375955519786515  0.6624044473839561  0.7508022834238446
  0.4053143394530352  0.5946856609050286  0.7530334773853156
  0.5408984377664865  0.6661662734284022  0.7534591303780189
  0.7403392767487986  0.6751415349478904  0.7532163725658592
  0.8084518197527473  0.6070235926116396  0.7532165053806210
  0.9386648827317146  0.6707104835680582  0.7501466108268886
  0.0027933003363287  0.8028188615275980  0.7480961351681117
  0.1343288754622094  0.8656711263237398  0.7474469502694632
  0.2014341037122733  0.7985658971048437  0.7480372506069841
  0.3339822783466246  0.8633549021551730  0.7488583113753720
  0.4014998676493491  0.7967534874941791  0.7499303568034108
  0.5343256693517660  0.8662468715328160  0.7503512097774632
  0.6025657687994794  0.8004650239079254  0.7511961724549110
  0.7350760844464972  0.8701763000811482  0.7499808827025944
  0.8040375218226146  0.8053379465035349  0.7501562764329037
  0.9361404185929061  0.8694739709377117  0.7481016087821004
  0.5208409731752894  0.2572138061700926  0.7556399296136860
  0.3905573296419433  0.3875123024748746  0.7556279709664011
  0.7427861943506002  0.4791590265983956  0.7556399295234613
  0.6124876977741849  0.6094426707400089  0.7556279710535350
  0.5666675661062399  0.4333324340381353  0.7584478478664849
 
  0.00000000E+00  0.00000000E+00  0.00000000E+00
  0.00000000E+00  0.00000000E+00  0.00000000E+00
  0.00000000E+00  0.00000000E+00  0.00000000E+00
  0.00000000E+00  0.00000000E+00  0.00000000E+00
  0.00000000E+00  0.00000000E+00  0.00000000E+00
  0.00000000E+00  0.00000000E+00  0.00000000E+00
  0.00000000E+00  0.00000000E+00  0.00000000E+00
  0.00000000E+00  0.00000000E+00  0.00000000E+00
  0.00000000E+00  0.00000000E+00  0.00000000E+00
  0.00000000E+00  0.00000000E+00  0.00000000E+00
  0.00000000E+00  0.00000000E+00  0.00000000E+00
  0.00000000E+00  0.00000000E+00  0.00000000E+00
  0.00000000E+00  0.00000000E+00  0.00000000E+00
  0.00000000E+00  0.00000000E+00  0.00000000E+00
  0.00000000E+00  0.00000000E+00  0.00000000E+00
  0.00000000E+00  0.00000000E+00  0.00000000E+00
  0.00000000E+00  0.00000000E+00  0.00000000E+00
  0.00000000E+00  0.00000000E+00  0.00000000E+00
  0.00000000E+00  0.00000000E+00  0.00000000E+00
  0.00000000E+00  0.00000000E+00  0.00000000E+00
  0.00000000E+00  0.00000000E+00  0.00000000E+00
  0.00000000E+00  0.00000000E+00  0.00000000E+00
  0.00000000E+00  0.00000000E+00  0.00000000E+00
  0.00000000E+00  0.00000000E+00  0.00000000E+00
  0.00000000E+00  0.00000000E+00  0.00000000E+00
  0.00000000E+00  0.00000000E+00  0.00000000E+00
  0.00000000E+00  0.00000000E+00  0.00000000E+00
  0.00000000E+00  0.00000000E+00  0.00000000E+00
  0.00000000E+00  0.00000000E+00  0.00000000E+00
  0.00000000E+00  0.00000000E+00  0.00000000E+00
  0.00000000E+00  0.00000000E+00  0.00000000E+00
  0.00000000E+00  0.00000000E+00  0.00000000E+00
  0.00000000E+00  0.00000000E+00  0.00000000E+00
  0.00000000E+00  0.00000000E+00  0.00000000E+00
  0.00000000E+00  0.00000000E+00  0.00000000E+00
  0.00000000E+00  0.00000000E+00  0.00000000E+00
  0.00000000E+00  0.00000000E+00  0.00000000E+00
  0.00000000E+00  0.00000000E+00  0.00000000E+00
  0.00000000E+00  0.00000000E+00  0.00000000E+00
  0.00000000E+00  0.00000000E+00  0.00000000E+00
  0.00000000E+00  0.00000000E+00  0.00000000E+00
  0.00000000E+00  0.00000000E+00  0.00000000E+00
  0.00000000E+00  0.00000000E+00  0.00000000E+00
  0.00000000E+00  0.00000000E+00  0.00000000E+00
  0.00000000E+00  0.00000000E+00  0.00000000E+00
  0.00000000E+00  0.00000000E+00  0.00000000E+00
  0.00000000E+00  0.00000000E+00  0.00000000E+00
  0.00000000E+00  0.00000000E+00  0.00000000E+00
  0.00000000E+00  0.00000000E+00  0.00000000E+00
