       N       E                     dE             d eps       ncg     rms          ort
SDA:   1    -0.338380829443E+03   -0.33838E+03    0.00000E+00  3328   0.120E+03 0.000E+00
CGA:   2    -0.409311627102E+03   -0.70931E+02   -0.91680E+02  3328   0.831E+02-0.325E+02
CGA:   3    -0.425390808883E+03   -0.16079E+02   -0.16015E+02  3328   0.309E+02 0.978E+00
CGA:   4    -0.435273064883E+03   -0.98823E+01   -0.98431E+01  3328   0.116E+02 0.249E+00
CGA:   5    -0.438802657425E+03   -0.35296E+01   -0.35292E+01  3328   0.418E+01-0.525E-01
CGA:   6    -0.440057600367E+03   -0.12549E+01   -0.12520E+01  3328   0.142E+01 0.399E-01
CGA:   7    -0.440504961782E+03   -0.44736E+00   -0.44681E+00  3328   0.477E+00 0.673E-02
CGA:   8    -0.440667342371E+03   -0.16238E+00   -0.16256E+00  3328   0.173E+00-0.149E-02
CGA:   9    -0.440730374445E+03   -0.63032E-01   -0.63094E-01  3328   0.668E-01-0.434E-03
CGA:  10    -0.440754416666E+03   -0.24042E-01   -0.24049E-01  3328   0.228E-01-0.618E-04
CGA:  11    -0.440762433600E+03   -0.80169E-02   -0.80212E-02  3328   0.691E-02-0.411E-04
CGA:  12    -0.440764919400E+03   -0.24858E-02   -0.24872E-02  3328   0.220E-02-0.128E-04
CGA:  13    -0.440765770825E+03   -0.85143E-03   -0.85228E-03  3328   0.814E-03-0.727E-05
CGA:  14    -0.440766105340E+03   -0.33452E-03   -0.33521E-03  3328   0.319E-03-0.517E-05
CGA:  15    -0.440766235100E+03   -0.12976E-03   -0.13009E-03  3328   0.111E-03-0.249E-05
CGA:  16    -0.440766278638E+03   -0.43538E-04   -0.43621E-04  3328   0.347E-04-0.729E-06
CGA:  17    -0.440766292379E+03   -0.13741E-04   -0.13752E-04  3328   0.114E-04-0.876E-07
CGA:  18    -0.440766297126E+03   -0.47476E-05   -0.47339E-05  3328   0.413E-05 0.122E-06
   1 F= -.44247652E+03 E0= -.44247177E+03  d E =-.948892E-02  mag=     0.0000
