C  N  Mg                                
   1.00000000000000     
    12.3000000000000007    0.0000000000000000    0.0000000000000000
    -6.1499999999999977   10.6521124665485960    0.0000000000000000
     0.0000000000000000    0.0000000000000000   20.0000000000000000
   C    N    Mg
    44     4     1
Direct
  0.9992140000000020  0.0007859999999980  0.7500000000000000
  0.1311239999999998  0.0643999999999991  0.7500000000000000
  0.1977210000000014  0.9978040000000021  0.7500000000000000
  0.3299530000000033  0.0625280000000004  0.7500000000000000
  0.3984189999999970  0.9972920000000016  0.7500000000000000
  0.5315549999999973  0.0659229999999980  0.7500000000000000
  0.5993220000000008  0.0003699999999967  0.7500000000000000
  0.7324430000000035  0.0692659999999989  0.7500000000000000
  0.7996570000000034  0.0025199999999970  0.7500000000000000
  0.9323679999999968  0.0676320000000032  0.7500000000000000
  0.9974800000000030  0.2003429999999966  0.7500000000000000
  0.1306319999999985  0.2650829999999971  0.7500000000000000
  0.1958750000000009  0.1966239999999999  0.7500000000000000
  0.3272059999999968  0.2620900000000006  0.7500000000000000
  0.3954009999999997  0.1938760000000030  0.7500000000000000
  0.5934469999999976  0.1999459999999971  0.7500000000000000
  0.7289749999999984  0.2710250000000016  0.7500000000000000
  0.7966940000000022  0.2033059999999978  0.7500000000000000
  0.9307340000000011  0.2675569999999965  0.7500000000000000
  0.9996300000000033  0.4006779999999992  0.7500000000000000
  0.1336870000000019  0.4659970000000015  0.7500000000000000
  0.1992540000000034  0.3982010000000002  0.7500000000000000
  0.3332989999999967  0.4600960000000001  0.7500000000000000
  0.8000540000000029  0.4065530000000024  0.7500000000000000
  0.9340770000000020  0.4684450000000027  0.7500000000000000
  0.0027079999999984  0.6015810000000030  0.7500000000000000
  0.1358379999999997  0.6663399999999982  0.7500000000000000
  0.2025849999999991  0.5991270000000029  0.7500000000000000
  0.3366350000000011  0.6633649999999989  0.7500000000000000
  0.4043640000000011  0.5956359999999989  0.7500000000000000
  0.5399039999999999  0.6667010000000033  0.7500000000000000
  0.7379099999999994  0.6727940000000032  0.7500000000000000
  0.8061239999999970  0.6045990000000003  0.7500000000000000
  0.9374719999999996  0.6700469999999967  0.7500000000000000
  0.0021959999999979  0.8022789999999986  0.7500000000000000
  0.1341170000000034  0.8658829999999966  0.7500000000000000
  0.2009510000000034  0.7990489999999966  0.7500000000000000
  0.3336600000000018  0.8641620000000003  0.7500000000000000
  0.4008729999999971  0.7974150000000009  0.7500000000000000
  0.5340029999999985  0.8663129999999981  0.7500000000000000
  0.6017989999999998  0.8007459999999966  0.7500000000000000
  0.7349170000000029  0.8693680000000015  0.7500000000000000
  0.8033760000000001  0.8041249999999991  0.7500000000000000
  0.9356000000000009  0.8688760000000002  0.7500000000000000
  0.5234549999999984  0.2575429999999983  0.7500000000000000
  0.3908849999999973  0.3901269999999997  0.7500000000000000
  0.7424570000000017  0.4765450000000016  0.7500000000000000
  0.6098730000000003  0.6091150000000027  0.7500000000000000
  0.5666659999999979  0.4333340000000021  0.7509999999999977
 
  0.00000000E+00  0.00000000E+00  0.00000000E+00
  0.00000000E+00  0.00000000E+00  0.00000000E+00
  0.00000000E+00  0.00000000E+00  0.00000000E+00
  0.00000000E+00  0.00000000E+00  0.00000000E+00
  0.00000000E+00  0.00000000E+00  0.00000000E+00
  0.00000000E+00  0.00000000E+00  0.00000000E+00
  0.00000000E+00  0.00000000E+00  0.00000000E+00
  0.00000000E+00  0.00000000E+00  0.00000000E+00
  0.00000000E+00  0.00000000E+00  0.00000000E+00
  0.00000000E+00  0.00000000E+00  0.00000000E+00
  0.00000000E+00  0.00000000E+00  0.00000000E+00
  0.00000000E+00  0.00000000E+00  0.00000000E+00
  0.00000000E+00  0.00000000E+00  0.00000000E+00
  0.00000000E+00  0.00000000E+00  0.00000000E+00
  0.00000000E+00  0.00000000E+00  0.00000000E+00
  0.00000000E+00  0.00000000E+00  0.00000000E+00
  0.00000000E+00  0.00000000E+00  0.00000000E+00
  0.00000000E+00  0.00000000E+00  0.00000000E+00
  0.00000000E+00  0.00000000E+00  0.00000000E+00
  0.00000000E+00  0.00000000E+00  0.00000000E+00
  0.00000000E+00  0.00000000E+00  0.00000000E+00
  0.00000000E+00  0.00000000E+00  0.00000000E+00
  0.00000000E+00  0.00000000E+00  0.00000000E+00
  0.00000000E+00  0.00000000E+00  0.00000000E+00
  0.00000000E+00  0.00000000E+00  0.00000000E+00
  0.00000000E+00  0.00000000E+00  0.00000000E+00
  0.00000000E+00  0.00000000E+00  0.00000000E+00
  0.00000000E+00  0.00000000E+00  0.00000000E+00
  0.00000000E+00  0.00000000E+00  0.00000000E+00
  0.00000000E+00  0.00000000E+00  0.00000000E+00
  0.00000000E+00  0.00000000E+00  0.00000000E+00
  0.00000000E+00  0.00000000E+00  0.00000000E+00
  0.00000000E+00  0.00000000E+00  0.00000000E+00
  0.00000000E+00  0.00000000E+00  0.00000000E+00
  0.00000000E+00  0.00000000E+00  0.00000000E+00
  0.00000000E+00  0.00000000E+00  0.00000000E+00
  0.00000000E+00  0.00000000E+00  0.00000000E+00
  0.00000000E+00  0.00000000E+00  0.00000000E+00
  0.00000000E+00  0.00000000E+00  0.00000000E+00
  0.00000000E+00  0.00000000E+00  0.00000000E+00
  0.00000000E+00  0.00000000E+00  0.00000000E+00
  0.00000000E+00  0.00000000E+00  0.00000000E+00
  0.00000000E+00  0.00000000E+00  0.00000000E+00
  0.00000000E+00  0.00000000E+00  0.00000000E+00
  0.00000000E+00  0.00000000E+00  0.00000000E+00
  0.00000000E+00  0.00000000E+00  0.00000000E+00
  0.00000000E+00  0.00000000E+00  0.00000000E+00
  0.00000000E+00  0.00000000E+00  0.00000000E+00
  0.00000000E+00  0.00000000E+00  0.00000000E+00
