C  N  Os                                
   1.00000000000000     
    12.3000000000000007    0.0000000000000000    0.0000000000000000
    -6.1499999999999977   10.6521124665485960    0.0000000000000000
     0.0000000000000000    0.0000000000000000   20.0000000000000000
   C    N    Os
    44     4     1
Direct
  0.9989251996691777  0.0010749656666568  0.7433325036924390
  0.1304381569340540  0.0637019102351034  0.7438340914934531
  0.1970300181509025  0.9970817856486736  0.7437547820447455
  0.3290232164430210  0.0610606700088959  0.7477981443396923
  0.3982205636703988  0.9964279365732697  0.7486752120208630
  0.5309598884897175  0.0666143079000563  0.7513053790352494
  0.5990146836872919  0.0004715340265726  0.7503323299041459
  0.7318585535860456  0.0699680162266512  0.7498894694377792
  0.7992679509044384  0.0031322257064824  0.7476591848154323
  0.9319386106609713  0.0680622059826017  0.7457450603230490
  0.9968672426639237  0.2007306803209663  0.7476597619296389
  0.1297623552410206  0.2648828868551367  0.7488857631450730
  0.1944128796243345  0.1956824662711260  0.7479481675845850
  0.3237868183844788  0.2578023950580093  0.7537520620344065
  0.3910664321067463  0.1904160627363315  0.7537174750927639
  0.5926892174278051  0.2003416910104381  0.7556549033312235
  0.7279569641870248  0.2720425600565180  0.7550978489639900
  0.7958692397565159  0.2041311434627187  0.7513519396507732
  0.9300324064260689  0.2681416955000511  0.7498894323433212
  0.9995282393979960  0.4009849486292504  0.7503312572383096
  0.1337818078356235  0.4656886577150176  0.7503253002293609
  0.1999303251410813  0.3976303051023438  0.7514051215676077
  0.3336845796275865  0.4593795465199423  0.7557363474585764
  0.7996577223431878  0.4073103127566347  0.7556548131747634
  0.9333856022856885  0.4690399776405868  0.7513042151406986
  0.0035703936050596  0.6017785528012914  0.7486745673332298
  0.1364517340214468  0.6659358182375998  0.7473841924668694
  0.2032837470228779  0.5985373359826676  0.7497461091775444
  0.3374356021083562  0.6625639811936804  0.7512857858677237
  0.4053577977122844  0.5946424756622332  0.7551630158095600
  0.5406208889132295  0.6663158692869712  0.7557365861895842
  0.7421980855859168  0.6762138130653155  0.7537527096298633
  0.8095839680246704  0.6089336654341841  0.7537181503284662
  0.9389398536389906  0.6709773008234226  0.7477985807667042
  0.0029182591842757  0.8029699636639837  0.7437550692312612
  0.1344322447591127  0.8655681412580191  0.7431574884851139
  0.2014106494752173  0.7985882221624773  0.7454604456934827
  0.3340634358602914  0.8635474290066976  0.7473849910461763
  0.4014622674373896  0.7967156601639458  0.7497468553442777
  0.5343115670806063  0.8662186107131566  0.7503264521692100
  0.6023700768431492  0.8000702531773363  0.7514062627172933
  0.7351173607931404  0.8702381553261859  0.7488866935724584
  0.8043180128977283  0.8055873636834678  0.7479489405375858
  0.9362985311897514  0.8695622132239226  0.7438340984616907
  0.5202091048792676  0.2578118842062693  0.7608692798465568
  0.3911002409461902  0.3868980390188493  0.7609209358231724
  0.7421884611769565  0.4797912722365941  0.7608696413747302
  0.6131024501542530  0.6089002235527036  0.7609213235069999
  0.5667565920447253  0.4332438685089992  0.7712112586285040
 
  0.00000000E+00  0.00000000E+00  0.00000000E+00
  0.00000000E+00  0.00000000E+00  0.00000000E+00
  0.00000000E+00  0.00000000E+00  0.00000000E+00
  0.00000000E+00  0.00000000E+00  0.00000000E+00
  0.00000000E+00  0.00000000E+00  0.00000000E+00
  0.00000000E+00  0.00000000E+00  0.00000000E+00
  0.00000000E+00  0.00000000E+00  0.00000000E+00
  0.00000000E+00  0.00000000E+00  0.00000000E+00
  0.00000000E+00  0.00000000E+00  0.00000000E+00
  0.00000000E+00  0.00000000E+00  0.00000000E+00
  0.00000000E+00  0.00000000E+00  0.00000000E+00
  0.00000000E+00  0.00000000E+00  0.00000000E+00
  0.00000000E+00  0.00000000E+00  0.00000000E+00
  0.00000000E+00  0.00000000E+00  0.00000000E+00
  0.00000000E+00  0.00000000E+00  0.00000000E+00
  0.00000000E+00  0.00000000E+00  0.00000000E+00
  0.00000000E+00  0.00000000E+00  0.00000000E+00
  0.00000000E+00  0.00000000E+00  0.00000000E+00
  0.00000000E+00  0.00000000E+00  0.00000000E+00
  0.00000000E+00  0.00000000E+00  0.00000000E+00
  0.00000000E+00  0.00000000E+00  0.00000000E+00
  0.00000000E+00  0.00000000E+00  0.00000000E+00
  0.00000000E+00  0.00000000E+00  0.00000000E+00
  0.00000000E+00  0.00000000E+00  0.00000000E+00
  0.00000000E+00  0.00000000E+00  0.00000000E+00
  0.00000000E+00  0.00000000E+00  0.00000000E+00
  0.00000000E+00  0.00000000E+00  0.00000000E+00
  0.00000000E+00  0.00000000E+00  0.00000000E+00
  0.00000000E+00  0.00000000E+00  0.00000000E+00
  0.00000000E+00  0.00000000E+00  0.00000000E+00
  0.00000000E+00  0.00000000E+00  0.00000000E+00
  0.00000000E+00  0.00000000E+00  0.00000000E+00
  0.00000000E+00  0.00000000E+00  0.00000000E+00
  0.00000000E+00  0.00000000E+00  0.00000000E+00
  0.00000000E+00  0.00000000E+00  0.00000000E+00
  0.00000000E+00  0.00000000E+00  0.00000000E+00
  0.00000000E+00  0.00000000E+00  0.00000000E+00
  0.00000000E+00  0.00000000E+00  0.00000000E+00
  0.00000000E+00  0.00000000E+00  0.00000000E+00
  0.00000000E+00  0.00000000E+00  0.00000000E+00
  0.00000000E+00  0.00000000E+00  0.00000000E+00
  0.00000000E+00  0.00000000E+00  0.00000000E+00
  0.00000000E+00  0.00000000E+00  0.00000000E+00
  0.00000000E+00  0.00000000E+00  0.00000000E+00
  0.00000000E+00  0.00000000E+00  0.00000000E+00
  0.00000000E+00  0.00000000E+00  0.00000000E+00
  0.00000000E+00  0.00000000E+00  0.00000000E+00
  0.00000000E+00  0.00000000E+00  0.00000000E+00
  0.00000000E+00  0.00000000E+00  0.00000000E+00
