       N       E                     dE             d eps       ncg     rms          rms(c)
DAV:   1    -0.482353812205E+03   -0.48235E+03   -0.18299E+02  8192   0.126E+01    0.333E+01
DAV:   2    -0.470331058526E+03    0.12023E+02   -0.52543E+02  5376   0.135E+01    0.226E+01
DAV:   3    -0.447219901942E+03    0.23111E+02   -0.62556E+01  8192   0.158E+01    0.110E+01
DAV:   4    -0.447215940024E+03    0.39619E-02   -0.57688E+01  7680   0.605E+00    0.151E+01
DAV:   5    -0.445289964573E+03    0.19260E+01   -0.86450E+01  7424   0.451E+00    0.587E+00
DAV:   6    -0.445350928340E+03   -0.60964E-01   -0.95710E-01  6144   0.114E+00    0.394E+00
DAV:   7    -0.445481043876E+03   -0.13012E+00   -0.42183E-01  8192   0.604E-01    0.283E+00
DAV:   8    -0.445563761286E+03   -0.82717E-01   -0.32665E-01  7936   0.547E-01    0.183E+00
DAV:   9    -0.445561094564E+03    0.26667E-02   -0.28518E-01  6912   0.571E-01    0.964E-01
DAV:  10    -0.445484765450E+03    0.76329E-01   -0.49241E-02  6656   0.259E-01    0.532E-01
DAV:  11    -0.445511773382E+03   -0.27008E-01   -0.54467E-02  7168   0.198E-01    0.253E-01
DAV:  12    -0.445618364489E+03   -0.10659E+00   -0.80334E-02  5888   0.245E-01    0.458E-01
DAV:  13    -0.445752045785E+03   -0.13368E+00   -0.32100E-02  5888   0.135E-01    0.282E-01
DAV:  14    -0.445780240178E+03   -0.28194E-01   -0.60465E-03  7424   0.713E-02    0.177E-01
DAV:  15    -0.445825746969E+03   -0.45507E-01   -0.49540E-03  6400   0.493E-02    0.115E-01
DAV:  16    -0.445848902000E+03   -0.23155E-01   -0.47489E-03  7424   0.538E-02    0.288E-02
DAV:  17    -0.445852079049E+03   -0.31770E-02   -0.45004E-04  5632   0.171E-02    0.156E-02
DAV:  18    -0.445854226347E+03   -0.21473E-02   -0.40297E-04  6912   0.973E-03    0.103E-02
DAV:  19    -0.445854875480E+03   -0.64913E-03   -0.11288E-04  5888   0.497E-03    0.919E-03
DAV:  20    -0.445855462640E+03   -0.58716E-03   -0.18350E-04  4608   0.537E-03    0.992E-03
DAV:  21    -0.445855813541E+03   -0.35090E-03   -0.16129E-04  4864   0.472E-03    0.986E-03
DAV:  22    -0.445855954329E+03   -0.14079E-03   -0.85221E-05  6144   0.323E-03    0.989E-03
DAV:  23    -0.445856033299E+03   -0.78970E-04   -0.31275E-04  5888   0.558E-03    0.117E-02
DAV:  24    -0.445856021918E+03    0.11382E-04   -0.22014E-03  5376   0.146E-02    0.505E-03
DAV:  25    -0.445856127800E+03   -0.10588E-03   -0.71958E-05  5120   0.372E-03    0.101E-02
DAV:  26    -0.445856093966E+03    0.33835E-04   -0.71047E-04  8192   0.817E-03    0.583E-03
DAV:  27    -0.445856096687E+03   -0.27210E-05   -0.33858E-04  4096   0.609E-03    0.577E-03
DAV:  28    -0.445856098887E+03   -0.22006E-05   -0.83506E-04  8192   0.914E-03    0.412E-03
DAV:  29    -0.445856112594E+03   -0.13707E-04   -0.46076E-04  6144   0.709E-03    0.360E-03
DAV:  30    -0.445856115642E+03   -0.30482E-05   -0.10583E-03  6912   0.102E-02    0.399E-03
DAV:  31    -0.445856120580E+03   -0.49381E-05   -0.28344E-05  7424   0.285E-03
   1 F= -.44771738E+03 E0= -.44770818E+03  d E =-.447717E+03  mag=     0.4967
       N       E                     dE             d eps       ncg     rms          rms(c)
DAV:   1    -0.445857207149E+03   -0.10915E-02   -0.98705E-02  7424   0.450E-01    0.715E-02
DAV:   2    -0.445857183951E+03    0.23197E-04   -0.96421E-04  5376   0.494E-02    0.393E-02
DAV:   3    -0.445857190541E+03   -0.65895E-05   -0.20889E-04  7168   0.172E-02    0.231E-02
DAV:   4    -0.445857192840E+03   -0.22995E-05   -0.14832E-04  5120   0.981E-03    0.138E-02
DAV:   5    -0.445857196548E+03   -0.37082E-05   -0.53690E-05  7424   0.463E-03
   2 F= -.44771836E+03 E0= -.44770912E+03  d E =-.977735E-03  mag=     0.4958
       N       E                     dE             d eps       ncg     rms          rms(c)
DAV:   1    -0.445857458253E+03   -0.26541E-03   -0.22319E-02  5120   0.225E-01    0.324E-02
DAV:   2    -0.445857457396E+03    0.85753E-06   -0.25388E-04  7424   0.247E-02    0.197E-02
DAV:   3    -0.445857462388E+03   -0.49923E-05   -0.89200E-05  5376   0.778E-03
   3 F= -.44771871E+03 E0= -.44770948E+03  d E =-.355886E-03  mag=     0.4956
       N       E                     dE             d eps       ncg     rms          rms(c)
DAV:   1    -0.445857829928E+03   -0.37253E-03   -0.27653E-02  6144   0.234E-01    0.337E-02
DAV:   2    -0.445857830886E+03   -0.95888E-06   -0.20488E-04  5888   0.217E-02    0.212E-02
DAV:   3    -0.445857839330E+03   -0.84436E-05   -0.16044E-04  7936   0.843E-03    0.124E-02
DAV:   4    -0.445857846914E+03   -0.75839E-05   -0.60003E-05  4864   0.417E-03
   4 F= -.44771907E+03 E0= -.44770981E+03  d E =-.357967E-03  mag=     0.4952
       N       E                     dE             d eps       ncg     rms          rms(c)
DAV:   1    -0.445858067937E+03   -0.22861E-03   -0.30126E-02  7424   0.236E-01    0.341E-02
DAV:   2    -0.445858066416E+03    0.15207E-05   -0.16559E-04  4864   0.184E-02    0.216E-02
DAV:   3    -0.445858077721E+03   -0.11304E-04   -0.21964E-04  6912   0.852E-03    0.137E-02
DAV:   4    -0.445858086705E+03   -0.89843E-05   -0.68138E-05  6656   0.410E-03
   5 F= -.44771937E+03 E0= -.44771009E+03  d E =-.296089E-03  mag=     0.4946
       N       E                     dE             d eps       ncg     rms          rms(c)
DAV:   1    -0.445858261413E+03   -0.18369E-03   -0.17510E-02  6656   0.177E-01    0.267E-02
DAV:   2    -0.445858266269E+03   -0.48561E-05   -0.14394E-04  5632   0.145E-02    0.187E-02
DAV:   3    -0.445858279784E+03   -0.13515E-04   -0.20962E-04  7936   0.717E-03    0.159E-02
DAV:   4    -0.445858287408E+03   -0.76242E-05   -0.84437E-05  6144   0.476E-03
   6 F= -.44771959E+03 E0= -.44771028E+03  d E =-.220096E-03  mag=     0.4938
       N       E                     dE             d eps       ncg     rms          rms(c)
DAV:   1    -0.445858485537E+03   -0.20575E-03   -0.28572E-02  5120   0.224E-01    0.320E-02
DAV:   2    -0.445858490947E+03   -0.54093E-05   -0.20622E-04  5120   0.190E-02    0.218E-02
DAV:   3    -0.445858504988E+03   -0.14042E-04   -0.25680E-04  7936   0.836E-03    0.172E-02
DAV:   4    -0.445858512431E+03   -0.74428E-05   -0.94781E-05  6144   0.541E-03
   7 F= -.44771985E+03 E0= -.44771049E+03  d E =-.261666E-03  mag=     0.4925
       N       E                     dE             d eps       ncg     rms          rms(c)
DAV:   1    -0.445858835343E+03   -0.33035E-03   -0.82846E-02  5120   0.381E-01    0.512E-02
DAV:   2    -0.445858833835E+03    0.15080E-05   -0.42745E-04  5888   0.311E-02    0.319E-02
DAV:   3    -0.445858846257E+03   -0.12422E-04   -0.32944E-04  7424   0.122E-02    0.207E-02
DAV:   4    -0.445858853719E+03   -0.74623E-05   -0.13018E-04  7680   0.767E-03    0.144E-02
DAV:   5    -0.445858860622E+03   -0.69029E-05   -0.66604E-05  6400   0.341E-03
   8 F= -.44772025E+03 E0= -.44771082E+03  d E =-.406542E-03  mag=     0.4900
       N       E                     dE             d eps       ncg     rms          rms(c)
DAV:   1    -0.445859197826E+03   -0.34411E-03   -0.10623E-01  4096   0.430E-01    0.569E-02
DAV:   2    -0.445859199070E+03   -0.12435E-05   -0.58988E-04  5888   0.388E-02    0.348E-02
DAV:   3    -0.445859200805E+03   -0.17350E-05   -0.25343E-04  5376   0.128E-02    0.202E-02
DAV:   4    -0.445859207725E+03   -0.69196E-05   -0.13468E-04  7680   0.856E-03    0.130E-02
DAV:   5    -0.445859211716E+03   -0.39909E-05   -0.35425E-05  6912   0.315E-03
   9 F= -.44772068E+03 E0= -.44771113E+03  d E =-.422354E-03  mag=     0.4870
       N       E                     dE             d eps       ncg     rms          rms(c)
DAV:   1    -0.445859559033E+03   -0.35131E-03   -0.12963E-01  4096   0.475E-01    0.620E-02
DAV:   2    -0.445859556976E+03    0.20569E-05   -0.64212E-04  5888   0.419E-02    0.369E-02
DAV:   3    -0.445859554586E+03    0.23905E-05   -0.18398E-04  4352   0.130E-02    0.177E-02
DAV:   4    -0.445859563794E+03   -0.92082E-05   -0.89763E-05  7680   0.787E-03
  10 F= -.44772110E+03 E0= -.44771148E+03  d E =-.421706E-03  mag=     0.4849
