C  N  Os                                
   1.00000000000000     
    12.3000000000000007    0.0000000000000000    0.0000000000000000
    -6.1499999999999977   10.6521124665485960    0.0000000000000000
     0.0000000000000000    0.0000000000000000   20.0000000000000000
   C    N    Os
    44     4     1
Direct
  0.9989036334733062  0.0010987894046738  0.7435788253170893
  0.1303761820675178  0.0636091772487617  0.7441748867564855
  0.1969912170369285  0.9970615024170232  0.7440764287059602
  0.3289933154261924  0.0611102188725302  0.7479746079211700
  0.3982116401488660  0.9964811668016053  0.7488497149132216
  0.5310072487911677  0.0666046211290218  0.7513070399457878
  0.5989766259972672  0.0003457232142980  0.7503696555987363
  0.7318271493494889  0.0698374943150214  0.7497044893248194
  0.7992034722817879  0.0030782121178883  0.7476014457490724
  0.9318882335299870  0.0681100667078691  0.7457398058181249
  0.9969147556296837  0.2007943316636882  0.7475995345877925
  0.1297464217150936  0.2648286431859304  0.7491348151089168
  0.1942503613417545  0.1954925674457731  0.7481768633779112
  0.3235619893298867  0.2576318243509904  0.7537480688991554
  0.3910049865290244  0.1903936109264504  0.7537661688667900
  0.5926954436396397  0.2003976207124921  0.7554357700706054
  0.7279813927737470  0.2720214191847808  0.7549562226905520
  0.7959146208452423  0.2040861967371675  0.7512083265218399
  0.9301609673409792  0.2681743884025116  0.7497025848496528
  0.9996503955913989  0.4010242859394034  0.7503699310747390
  0.1338779159154382  0.4656464802495546  0.7504373844962103
  0.1999593270872992  0.3975710407848737  0.7516222797705326
  0.3336563061529680  0.4593534889478810  0.7555366276942457
  0.7996035396974823  0.4073074226540346  0.7554355376079025
  0.9333946313727474  0.4689948552900000  0.7513072001682057
  0.0035186487197488  0.6017892863284087  0.7488494621709983
  0.1364044404663568  0.6659076295543008  0.7473810605931569
  0.2033492190254724  0.5984796962326171  0.7496800546789614
  0.3374694197581724  0.6625310810451018  0.7511453935564676
  0.4053534168063867  0.5946473036473454  0.7548891457937171
  0.5406457994490154  0.6663423934680205  0.7555388058883832
  0.7423682303259699  0.6764372013190229  0.7537497248676349
  0.8096069644596713  0.6089960090113812  0.7537657528260407
  0.9388900579097754  0.6710072466195899  0.7479738968973132
  0.0029393300044539  0.8030096935788191  0.7440761222717881
  0.1343641119516040  0.8656353370943031  0.7432082584624865
  0.2013556766592447  0.7986443656024377  0.7453365883572787
  0.3340936091307734  0.8635943587431016  0.7473812854940424
  0.4015257081423464  0.7966509589716034  0.7496843632737344
  0.5343571095342844  0.8661241476923027  0.7504371096070964
  0.6024296327914010  0.8000339111852053  0.7516237618928099
  0.7351626390402383  0.8702469427619544  0.7491284967180769
  0.8045097030397366  0.8057470396703876  0.7481788361273043
  0.9363937277205421  0.8696258081646132  0.7441768186437226
  0.5201679793988208  0.2578400749056310  0.7606060480524319
  0.3910514515429075  0.3868136627551410  0.7606098642929247
  0.7421618473028631  0.4798342989843796  0.7606054446304250
  0.6131860758943849  0.6089494809848630  0.7606102086848696
  0.5665334278609214  0.4334679229752632  0.7705492803828237
 
  0.00000000E+00  0.00000000E+00  0.00000000E+00
  0.00000000E+00  0.00000000E+00  0.00000000E+00
  0.00000000E+00  0.00000000E+00  0.00000000E+00
  0.00000000E+00  0.00000000E+00  0.00000000E+00
  0.00000000E+00  0.00000000E+00  0.00000000E+00
  0.00000000E+00  0.00000000E+00  0.00000000E+00
  0.00000000E+00  0.00000000E+00  0.00000000E+00
  0.00000000E+00  0.00000000E+00  0.00000000E+00
  0.00000000E+00  0.00000000E+00  0.00000000E+00
  0.00000000E+00  0.00000000E+00  0.00000000E+00
  0.00000000E+00  0.00000000E+00  0.00000000E+00
  0.00000000E+00  0.00000000E+00  0.00000000E+00
  0.00000000E+00  0.00000000E+00  0.00000000E+00
  0.00000000E+00  0.00000000E+00  0.00000000E+00
  0.00000000E+00  0.00000000E+00  0.00000000E+00
  0.00000000E+00  0.00000000E+00  0.00000000E+00
  0.00000000E+00  0.00000000E+00  0.00000000E+00
  0.00000000E+00  0.00000000E+00  0.00000000E+00
  0.00000000E+00  0.00000000E+00  0.00000000E+00
  0.00000000E+00  0.00000000E+00  0.00000000E+00
  0.00000000E+00  0.00000000E+00  0.00000000E+00
  0.00000000E+00  0.00000000E+00  0.00000000E+00
  0.00000000E+00  0.00000000E+00  0.00000000E+00
  0.00000000E+00  0.00000000E+00  0.00000000E+00
  0.00000000E+00  0.00000000E+00  0.00000000E+00
  0.00000000E+00  0.00000000E+00  0.00000000E+00
  0.00000000E+00  0.00000000E+00  0.00000000E+00
  0.00000000E+00  0.00000000E+00  0.00000000E+00
  0.00000000E+00  0.00000000E+00  0.00000000E+00
  0.00000000E+00  0.00000000E+00  0.00000000E+00
  0.00000000E+00  0.00000000E+00  0.00000000E+00
  0.00000000E+00  0.00000000E+00  0.00000000E+00
  0.00000000E+00  0.00000000E+00  0.00000000E+00
  0.00000000E+00  0.00000000E+00  0.00000000E+00
  0.00000000E+00  0.00000000E+00  0.00000000E+00
  0.00000000E+00  0.00000000E+00  0.00000000E+00
  0.00000000E+00  0.00000000E+00  0.00000000E+00
  0.00000000E+00  0.00000000E+00  0.00000000E+00
  0.00000000E+00  0.00000000E+00  0.00000000E+00
  0.00000000E+00  0.00000000E+00  0.00000000E+00
  0.00000000E+00  0.00000000E+00  0.00000000E+00
  0.00000000E+00  0.00000000E+00  0.00000000E+00
  0.00000000E+00  0.00000000E+00  0.00000000E+00
  0.00000000E+00  0.00000000E+00  0.00000000E+00
  0.00000000E+00  0.00000000E+00  0.00000000E+00
  0.00000000E+00  0.00000000E+00  0.00000000E+00
  0.00000000E+00  0.00000000E+00  0.00000000E+00
  0.00000000E+00  0.00000000E+00  0.00000000E+00
  0.00000000E+00  0.00000000E+00  0.00000000E+00
