       N       E                     dE             d eps       ncg     rms          rms(c)
DAV:   1    -0.480778151108E+03   -0.48078E+03   -0.15486E+02  8192   0.173E+01    0.295E+01
DAV:   2    -0.452917767524E+03    0.27860E+02   -0.45663E+01  6912   0.101E+01    0.144E+01
DAV:   3    -0.444775814002E+03    0.81420E+01   -0.21141E+01  8192   0.631E+00    0.522E+00
DAV:   4    -0.443948066941E+03    0.82775E+00   -0.16537E+00  8192   0.185E+00    0.222E+00
DAV:   5    -0.443754390623E+03    0.19368E+00   -0.25764E-01  7680   0.821E-01    0.107E+00
DAV:   6    -0.443679427175E+03    0.74963E-01   -0.39202E-02  7680   0.252E-01    0.554E-01
DAV:   7    -0.443631845998E+03    0.47581E-01   -0.28457E-02  8192   0.207E-01    0.296E-01
DAV:   8    -0.443627892872E+03    0.39531E-02   -0.11418E-02  7168   0.128E-01    0.225E-01
DAV:   9    -0.443618234636E+03    0.96582E-02   -0.26058E-02  8192   0.150E-01    0.103E-01
DAV:  10    -0.443627256982E+03   -0.90223E-02   -0.31140E-03  4352   0.527E-02    0.772E-02
DAV:  11    -0.443647936837E+03   -0.20680E-01   -0.26238E-03  7168   0.443E-02    0.447E-02
DAV:  12    -0.443661885015E+03   -0.13948E-01   -0.18393E-03  6912   0.351E-02    0.232E-02
DAV:  13    -0.443666034230E+03   -0.41492E-02   -0.31533E-04  6912   0.149E-02    0.159E-02
DAV:  14    -0.443668990860E+03   -0.29566E-02   -0.31276E-04  5888   0.133E-02    0.953E-03
DAV:  15    -0.443669779614E+03   -0.78875E-03   -0.83601E-05  6144   0.877E-03    0.935E-03
DAV:  16    -0.443669903671E+03   -0.12406E-03   -0.50124E-06  5376   0.256E-03    0.876E-03
DAV:  17    -0.443670407350E+03   -0.50368E-03   -0.14042E-04  4864   0.116E-02    0.533E-03
DAV:  18    -0.443670528759E+03   -0.12141E-03   -0.44002E-05  6656   0.641E-03    0.384E-03
DAV:  19    -0.443670610655E+03   -0.81896E-04   -0.26965E-05  6656   0.520E-03    0.275E-03
DAV:  20    -0.443670676947E+03   -0.66292E-04   -0.38500E-05  5376   0.558E-03    0.190E-03
DAV:  21    -0.443670719729E+03   -0.42781E-04   -0.98405E-06  6400   0.311E-03    0.144E-03
DAV:  22    -0.443670736487E+03   -0.16758E-04   -0.45670E-06  5888   0.120E-03    0.912E-04
DAV:  23    -0.443670743109E+03   -0.66220E-05   -0.13391E-06  8192   0.721E-04
   1 F= -.44539445E+03 E0= -.44537159E+03  d E =-.445394E+03  mag=     0.0018
       N       E                     dE             d eps       ncg     rms          rms(c)
DAV:   1    -0.443671497754E+03   -0.76127E-03   -0.70913E-02  7424   0.410E-01    0.567E-02
DAV:   2    -0.443671457938E+03    0.39816E-04   -0.68051E-04  7680   0.446E-02    0.308E-02
DAV:   3    -0.443671452897E+03    0.50406E-05   -0.66247E-05  6656   0.136E-02
   2 F= -.44539520E+03 E0= -.44537241E+03  d E =-.747637E-03  mag=     0.0026
       N       E                     dE             d eps       ncg     rms          rms(c)
DAV:   1    -0.443671776418E+03   -0.31848E-03   -0.18264E-02  7936   0.216E-01    0.277E-02
DAV:   2    -0.443671760553E+03    0.15865E-04   -0.13643E-04  6912   0.206E-02    0.155E-02
DAV:   3    -0.443671745060E+03    0.15493E-04   -0.19501E-05  7424   0.653E-03    0.435E-03
DAV:   4    -0.443671732451E+03    0.12609E-04   -0.33254E-06  7168   0.233E-03    0.258E-03
DAV:   5    -0.443671720812E+03    0.11639E-04   -0.10961E-06  7424   0.696E-04    0.259E-03
DAV:   6    -0.443671716318E+03    0.44940E-05   -0.16132E-07  5120   0.242E-04
   3 F= -.44539546E+03 E0= -.44537265E+03  d E =-.261983E-03  mag=     0.0040
       N       E                     dE             d eps       ncg     rms          rms(c)
DAV:   1    -0.443672092052E+03   -0.37124E-03   -0.31064E-02  6400   0.289E-01    0.306E-02
DAV:   2    -0.443672070817E+03    0.21235E-04   -0.17077E-04  6912   0.231E-02    0.173E-02
DAV:   3    -0.443672052155E+03    0.18662E-04   -0.28214E-05  7168   0.794E-03    0.612E-03
DAV:   4    -0.443672037872E+03    0.14283E-04   -0.63974E-06  6912   0.367E-03    0.363E-03
DAV:   5    -0.443672020393E+03    0.17479E-04   -0.24674E-06  7168   0.106E-03    0.361E-03
DAV:   6    -0.443672010168E+03    0.10225E-04   -0.90989E-07  5120   0.572E-04    0.378E-03
DAV:   7    -0.443672035195E+03   -0.25027E-04   -0.57575E-06  6400   0.146E-03    0.363E-03
DAV:   8    -0.443672087711E+03   -0.52516E-04   -0.37047E-05  7168   0.322E-03    0.240E-03
DAV:   9    -0.443672118057E+03   -0.30347E-04   -0.17832E-05  7168   0.192E-03    0.231E-03
DAV:  10    -0.443672120797E+03   -0.27393E-05   -0.13872E-07  5120   0.398E-04
   4 F= -.44539587E+03 E0= -.44537305E+03  d E =-.412825E-03  mag=    -0.0003
       N       E                     dE             d eps       ncg     rms          rms(c)
DAV:   1    -0.443672436403E+03   -0.31835E-03   -0.29115E-02  7168   0.284E-01    0.283E-02
DAV:   2    -0.443672426425E+03    0.99782E-05   -0.13411E-04  7680   0.207E-02    0.157E-02
DAV:   3    -0.443672425436E+03    0.98904E-06   -0.22557E-05  7168   0.804E-03
   5 F= -.44539619E+03 E0= -.44537339E+03  d E =-.318602E-03  mag=    -0.0003
