       N       E                     dE             d eps       ncg     rms          rms(c)
DAV:   1    -0.483490343872E+03   -0.48349E+03   -0.17500E+02  8192   0.129E+01    0.300E+01
DAV:   2    -0.454151535398E+03    0.29339E+02   -0.53896E+01  7936   0.845E+00    0.144E+01
DAV:   3    -0.447383342235E+03    0.67682E+01   -0.28210E+01  6656   0.511E+00    0.950E+00
DAV:   4    -0.446931667999E+03    0.45167E+00   -0.37609E+01  7168   0.292E+00    0.512E+00
DAV:   5    -0.445651603718E+03    0.12801E+01   -0.42572E+00  7680   0.184E+00    0.256E+00
DAV:   6    -0.445826464320E+03   -0.17486E+00   -0.32856E-01  7936   0.430E-01    0.214E+00
DAV:   7    -0.444964571952E+03    0.86189E+00   -0.40601E+00  6144   0.105E+00    0.137E+00
DAV:   8    -0.444281949943E+03    0.68262E+00   -0.49818E-01  5376   0.543E-01    0.717E-01
DAV:   9    -0.445212218809E+03   -0.93027E+00   -0.47615E-01  5120   0.505E-01    0.466E-01
DAV:  10    -0.445665042066E+03   -0.45282E+00   -0.16817E-01  4608   0.327E-01    0.233E-01
DAV:  11    -0.445895880856E+03   -0.23084E+00   -0.16209E-01  5632   0.302E-01    0.137E-01
DAV:  12    -0.446007115235E+03   -0.11123E+00   -0.92311E-02  6656   0.204E-01    0.135E-01
DAV:  13    -0.446046343705E+03   -0.39228E-01   -0.12893E-02  5376   0.805E-02    0.781E-02
DAV:  14    -0.446063968121E+03   -0.17624E-01   -0.51837E-03  8192   0.472E-02    0.663E-02
DAV:  15    -0.446068666845E+03   -0.46987E-02   -0.59210E-04  6656   0.232E-02    0.496E-02
DAV:  16    -0.446071854624E+03   -0.31878E-02   -0.49438E-04  7168   0.176E-02    0.223E-02
DAV:  17    -0.446073501124E+03   -0.16465E-02   -0.14223E-04  6656   0.872E-03    0.159E-02
DAV:  18    -0.446075310248E+03   -0.18091E-02   -0.11344E-04  6912   0.671E-03    0.726E-03
DAV:  19    -0.446076495884E+03   -0.11856E-02   -0.79679E-05  6144   0.499E-03    0.545E-03
DAV:  20    -0.446077083559E+03   -0.58768E-03   -0.28192E-05  5888   0.292E-03    0.325E-03
DAV:  21    -0.446077528106E+03   -0.44455E-03   -0.22196E-05  6400   0.244E-03    0.163E-03
DAV:  22    -0.446077647852E+03   -0.11975E-03   -0.39558E-06  8192   0.104E-03    0.121E-03
DAV:  23    -0.446077765532E+03   -0.11768E-03   -0.75647E-06  7680   0.109E-03    0.819E-04
DAV:  24    -0.446077815423E+03   -0.49891E-04   -0.17204E-06  7424   0.520E-04    0.654E-04
DAV:  25    -0.446077854206E+03   -0.38783E-04   -0.17865E-06  6912   0.447E-04    0.300E-04
DAV:  26    -0.446077865274E+03   -0.11068E-04   -0.26945E-07  5888   0.234E-04    0.139E-04
DAV:  27    -0.446077870672E+03   -0.53978E-05   -0.55735E-08  5888   0.129E-04
   1 F= -.44782276E+03 E0= -.44779714E+03  d E =-.447823E+03  mag=     0.9315
       N       E                     dE             d eps       ncg     rms          rms(c)
DAV:   1    -0.446078083378E+03   -0.21810E-03   -0.27062E-02  7424   0.257E-01    0.373E-02
DAV:   2    -0.446078047389E+03    0.35989E-04   -0.30241E-04  7424   0.285E-02    0.201E-02
DAV:   3    -0.446078050529E+03   -0.31400E-05   -0.32322E-05  6912   0.763E-03
   2 F= -.44782294E+03 E0= -.44779731E+03  d E =-.180934E-03  mag=     0.9315
       N       E                     dE             d eps       ncg     rms          rms(c)
DAV:   1    -0.446078160296E+03   -0.11291E-03   -0.59074E-03  5888   0.119E-01    0.157E-02
DAV:   2    -0.446078157818E+03    0.24775E-05   -0.65169E-05  7680   0.134E-02
   3 F= -.44782304E+03 E0= -.44779743E+03  d E =-.101722E-03  mag=     0.9317
