C  N  Zr                                
   1.00000000000000     
    12.3000000000000007    0.0000000000000000    0.0000000000000000
    -6.1499999999999977   10.6521124665485960    0.0000000000000000
     0.0000000000000000    0.0000000000000000   20.0000000000000000
   C    N    Zr
    44     4     1
Direct
  0.9993937386513029  0.0006062508463196  0.7498822885666323
  0.1320009360558565  0.0654566914155679  0.7503772589695288
  0.1988190882596056  0.9986843268551229  0.7503636800172354
  0.3307981076082048  0.0638499314230132  0.7503024522478099
  0.3985970025527259  0.9979919671957502  0.7484957289921405
  0.5323145309957241  0.0668924023234310  0.7473198357882476
  0.5997880312879486  0.0005996214742805  0.7464111466853194
  0.7324971432581557  0.0684837743574353  0.7468896314197276
  0.7996597916382954  0.0012664722392829  0.7478714635493141
  0.9327972475952959  0.0672027517877112  0.7487587835233641
  0.9987335305313242  0.2003402112520549  0.7478714655115855
  0.1313608625207001  0.2652890289114780  0.7485146168218069
  0.1971430080960861  0.1974515272412714  0.7502670339111711
  0.3297724821186542  0.2637439865653642  0.7513587133321177
  0.3970405623876788  0.1964184687601452  0.7514279830042747
  0.5955056890025857  0.2002043132079563  0.7490097431695329
  0.7299940552041934  0.2700059461342611  0.7482146018398625
  0.7976576713657724  0.2023423344325218  0.7470919377595319
  0.9315162351254935  0.2675028674934157  0.7468896319696571
  0.9994003907345863  0.4002119806684060  0.7464111455001845
  0.1339264036062885  0.4664654246794739  0.7463941022194023
  0.2002678143462245  0.3989973965790755  0.7472912755006945
  0.3335718442459679  0.4622628877243743  0.7490277411655911
  0.7997956882474173  0.4044943135965218  0.7490097440773261
  0.9331076028783630  0.4676854736054956  0.7473198350113520
  0.0020080347178694  0.6014030010627860  0.7484957230685596
  0.1345967694003097  0.6663606921715544  0.7478745509128534
  0.2018267802922385  0.5991785288010409  0.7468505676857861
  0.3356742248124935  0.6643257831691624  0.7471004606607025
  0.4033363741293689  0.5966636277078984  0.7482638191765035
  0.5377371132869396  0.6664281562015014  0.7490277416128800
  0.7362560067980762  0.6702275102459005  0.7513587099176590
  0.8035815233915907  0.6029594308801914  0.7514279795370393
  0.9361500606037186  0.6692018854791658  0.7503024512525103
  0.0013156626826969  0.8011809016945053  0.7503636764879003
  0.1339592174920280  0.8660407728915646  0.7498499747785888
  0.2005443590477307  0.7994556419875795  0.7487243317845375
  0.3336393134970921  0.8654032351903370  0.7478745545940706
  0.4008214828493111  0.7981732296990169  0.7468505695677098
  0.5335345880248766  0.8660736099134509  0.7463941023000851
  0.6010026079291578  0.7997321907071082  0.7472912734631763
  0.7347109748685792  0.8686391398579594  0.7485146167499797
  0.8025484657018095  0.8028569841126139  0.7502670307894855
  0.9345432974643911  0.8679990518696378  0.7503772593274473
  0.5268237409250243  0.2610232540805782  0.7531415379247379
  0.3943747132914845  0.3935101674623147  0.7531292057020599
  0.7389767350207951  0.4731762494414916  0.7531415393924806
  0.6064898248844099  0.6056252780377031  0.7531292078359832
  0.5666776705735600  0.4333223265652042  0.7984762749238393
 
  0.00000000E+00  0.00000000E+00  0.00000000E+00
  0.00000000E+00  0.00000000E+00  0.00000000E+00
  0.00000000E+00  0.00000000E+00  0.00000000E+00
  0.00000000E+00  0.00000000E+00  0.00000000E+00
  0.00000000E+00  0.00000000E+00  0.00000000E+00
  0.00000000E+00  0.00000000E+00  0.00000000E+00
  0.00000000E+00  0.00000000E+00  0.00000000E+00
  0.00000000E+00  0.00000000E+00  0.00000000E+00
  0.00000000E+00  0.00000000E+00  0.00000000E+00
  0.00000000E+00  0.00000000E+00  0.00000000E+00
  0.00000000E+00  0.00000000E+00  0.00000000E+00
  0.00000000E+00  0.00000000E+00  0.00000000E+00
  0.00000000E+00  0.00000000E+00  0.00000000E+00
  0.00000000E+00  0.00000000E+00  0.00000000E+00
  0.00000000E+00  0.00000000E+00  0.00000000E+00
  0.00000000E+00  0.00000000E+00  0.00000000E+00
  0.00000000E+00  0.00000000E+00  0.00000000E+00
  0.00000000E+00  0.00000000E+00  0.00000000E+00
  0.00000000E+00  0.00000000E+00  0.00000000E+00
  0.00000000E+00  0.00000000E+00  0.00000000E+00
  0.00000000E+00  0.00000000E+00  0.00000000E+00
  0.00000000E+00  0.00000000E+00  0.00000000E+00
  0.00000000E+00  0.00000000E+00  0.00000000E+00
  0.00000000E+00  0.00000000E+00  0.00000000E+00
  0.00000000E+00  0.00000000E+00  0.00000000E+00
  0.00000000E+00  0.00000000E+00  0.00000000E+00
  0.00000000E+00  0.00000000E+00  0.00000000E+00
  0.00000000E+00  0.00000000E+00  0.00000000E+00
  0.00000000E+00  0.00000000E+00  0.00000000E+00
  0.00000000E+00  0.00000000E+00  0.00000000E+00
  0.00000000E+00  0.00000000E+00  0.00000000E+00
  0.00000000E+00  0.00000000E+00  0.00000000E+00
  0.00000000E+00  0.00000000E+00  0.00000000E+00
  0.00000000E+00  0.00000000E+00  0.00000000E+00
  0.00000000E+00  0.00000000E+00  0.00000000E+00
  0.00000000E+00  0.00000000E+00  0.00000000E+00
  0.00000000E+00  0.00000000E+00  0.00000000E+00
  0.00000000E+00  0.00000000E+00  0.00000000E+00
  0.00000000E+00  0.00000000E+00  0.00000000E+00
  0.00000000E+00  0.00000000E+00  0.00000000E+00
  0.00000000E+00  0.00000000E+00  0.00000000E+00
  0.00000000E+00  0.00000000E+00  0.00000000E+00
  0.00000000E+00  0.00000000E+00  0.00000000E+00
  0.00000000E+00  0.00000000E+00  0.00000000E+00
  0.00000000E+00  0.00000000E+00  0.00000000E+00
  0.00000000E+00  0.00000000E+00  0.00000000E+00
  0.00000000E+00  0.00000000E+00  0.00000000E+00
  0.00000000E+00  0.00000000E+00  0.00000000E+00
  0.00000000E+00  0.00000000E+00  0.00000000E+00
