C  N  Ce                                
   1.00000000000000     
    12.3000000000000007    0.0000000000000000    0.0000000000000000
    -6.1499999999999977   10.6521124665485960    0.0000000000000000
     0.0000000000000000    0.0000000000000000   20.0000000000000000
   C    N    Ce
    44     4     1
Direct
  0.9994500455367429  0.0005764348643056  0.7493041726809661
  0.1321215798959993  0.0655434357145345  0.7499853192701843
  0.1989520494254804  0.9987894932006626  0.7499331076521232
  0.3310390450366488  0.0641715408877923  0.7501593923451111
  0.3986000648831537  0.9981939736814767  0.7477996929190188
  0.5325134766625709  0.0667304142799144  0.7464017389241629
  0.5999253639277584  0.0005633610201467  0.7453947682300318
  0.7327497829587553  0.0682089749262900  0.7459991140180429
  0.7998380765031770  0.0010664436507853  0.7470211674261835
  0.9328962978121754  0.0670950743508047  0.7479493223890034
  0.9989318348518426  0.2001513572172701  0.7470157077370736
  0.1315629597795799  0.2652661129951293  0.7479358898514687
  0.1974916800529702  0.1976493518589396  0.7501631162099445
  0.3305228566817048  0.2645726393435412  0.7520358313286220
  0.3979187299396135  0.1971884038990626  0.7521266608255540
  0.5956604551175965  0.1997045036771138  0.7487493440797945
  0.7303717649952512  0.2696424963247768  0.7479923375316890
  0.7980123281204606  0.2019927113698979  0.7463747589582225
  0.9317853085673196  0.2672417992902074  0.7459977646553203
  0.9994445718683761  0.4000758476981506  0.7453737050928726
  0.1336857682996071  0.4665348363993558  0.7453952141654839
  0.2000112288537285  0.3991721391722282  0.7464968657032498
  0.3330087855587716  0.4623780020745025  0.7487682818897810
  0.8002853126134282  0.4043737299647209  0.7488102305186997
  0.9332694044058167  0.4674890644899449  0.7463788910961104
  0.0018231114577533  0.6014016973060782  0.7477834619784263
  0.1344178874054363  0.6665077326408035  0.7469406268849262
  0.2015343369964898  0.5993699726383932  0.7458621949927654
  0.3353552990754999  0.6646570946762961  0.7462745152036666
  0.4030062809112566  0.5970263669868440  0.7479775303072288
  0.5376710910298088  0.6669854084835207  0.7488044688485266
  0.7354693866997972  0.6695353925883487  0.7521033274147474
  0.8028232753962015  0.6021022639523681  0.7521575722595107
  0.9358374062680233  0.6689630359063886  0.7501234150074541
  0.0012214630911195  0.8010483179940244  0.7499241854560343
  0.1339419365467842  0.8660745423622216  0.7491443383951225
  0.2004607384696594  0.7995550743462482  0.7478022465213839
  0.3334998647316991  0.8656084106231785  0.7469371696839702
  0.4006291344786028  0.7984795172748758  0.7458587041487600
  0.5334655684904102  0.8663293183820093  0.7453763048056307
  0.6008353400991414  0.8000084376704653  0.7464760215003763
  0.7347205198828540  0.8684478972580049  0.7479315231503582
  0.8023755425174287  0.8025338818127569  0.7501289609325624
  0.9344826027039624  0.8679046790617814  0.7499720883496630
  0.5276764452768462  0.2605895131790490  0.7546131214084350
  0.3939072607130390  0.3943602376625258  0.7545915617396151
  0.7393600773424129  0.4723370240234266  0.7547541025510850
  0.6057304244667202  0.6061267388432465  0.7546722658878551
  0.5662932336004969  0.4330893019755934  0.8152288970731977
 
  0.00000000E+00  0.00000000E+00  0.00000000E+00
  0.00000000E+00  0.00000000E+00  0.00000000E+00
  0.00000000E+00  0.00000000E+00  0.00000000E+00
  0.00000000E+00  0.00000000E+00  0.00000000E+00
  0.00000000E+00  0.00000000E+00  0.00000000E+00
  0.00000000E+00  0.00000000E+00  0.00000000E+00
  0.00000000E+00  0.00000000E+00  0.00000000E+00
  0.00000000E+00  0.00000000E+00  0.00000000E+00
  0.00000000E+00  0.00000000E+00  0.00000000E+00
  0.00000000E+00  0.00000000E+00  0.00000000E+00
  0.00000000E+00  0.00000000E+00  0.00000000E+00
  0.00000000E+00  0.00000000E+00  0.00000000E+00
  0.00000000E+00  0.00000000E+00  0.00000000E+00
  0.00000000E+00  0.00000000E+00  0.00000000E+00
  0.00000000E+00  0.00000000E+00  0.00000000E+00
  0.00000000E+00  0.00000000E+00  0.00000000E+00
  0.00000000E+00  0.00000000E+00  0.00000000E+00
  0.00000000E+00  0.00000000E+00  0.00000000E+00
  0.00000000E+00  0.00000000E+00  0.00000000E+00
  0.00000000E+00  0.00000000E+00  0.00000000E+00
  0.00000000E+00  0.00000000E+00  0.00000000E+00
  0.00000000E+00  0.00000000E+00  0.00000000E+00
  0.00000000E+00  0.00000000E+00  0.00000000E+00
  0.00000000E+00  0.00000000E+00  0.00000000E+00
  0.00000000E+00  0.00000000E+00  0.00000000E+00
  0.00000000E+00  0.00000000E+00  0.00000000E+00
  0.00000000E+00  0.00000000E+00  0.00000000E+00
  0.00000000E+00  0.00000000E+00  0.00000000E+00
  0.00000000E+00  0.00000000E+00  0.00000000E+00
  0.00000000E+00  0.00000000E+00  0.00000000E+00
  0.00000000E+00  0.00000000E+00  0.00000000E+00
  0.00000000E+00  0.00000000E+00  0.00000000E+00
  0.00000000E+00  0.00000000E+00  0.00000000E+00
  0.00000000E+00  0.00000000E+00  0.00000000E+00
  0.00000000E+00  0.00000000E+00  0.00000000E+00
  0.00000000E+00  0.00000000E+00  0.00000000E+00
  0.00000000E+00  0.00000000E+00  0.00000000E+00
  0.00000000E+00  0.00000000E+00  0.00000000E+00
  0.00000000E+00  0.00000000E+00  0.00000000E+00
  0.00000000E+00  0.00000000E+00  0.00000000E+00
  0.00000000E+00  0.00000000E+00  0.00000000E+00
  0.00000000E+00  0.00000000E+00  0.00000000E+00
  0.00000000E+00  0.00000000E+00  0.00000000E+00
  0.00000000E+00  0.00000000E+00  0.00000000E+00
  0.00000000E+00  0.00000000E+00  0.00000000E+00
  0.00000000E+00  0.00000000E+00  0.00000000E+00
  0.00000000E+00  0.00000000E+00  0.00000000E+00
  0.00000000E+00  0.00000000E+00  0.00000000E+00
  0.00000000E+00  0.00000000E+00  0.00000000E+00
