C  N  Cd                                
   1.00000000000000     
    12.3000000000000007    0.0000000000000000    0.0000000000000000
    -6.1499999999999977   10.6521124665485960    0.0000000000000000
     0.0000000000000000    0.0000000000000000   20.0000000000000000
   C    N    Cd
    44     4     1
Direct
  0.9992170000000016  0.0007829999999984  0.7375290000000021
  0.1317670000000035  0.0652159999999995  0.7376160000000027
  0.1985060000000018  0.9984520000000003  0.7377570000000020
  0.3308749999999989  0.0636700000000019  0.7432090000000002
  0.3986280000000022  0.9976429999999965  0.7459070000000025
  0.5314869999999985  0.0661210000000025  0.7502399999999980
  0.5992979999999974  0.0003650000000022  0.7494149999999991
  0.7323900000000023  0.0692450000000022  0.7491100000000017
  0.7995450000000019  0.0024259999999998  0.7449119999999994
  0.9323329999999999  0.0676670000000001  0.7417930000000013
  0.9975740000000002  0.2004549999999981  0.7449119999999994
  0.1309650000000033  0.2653120000000015  0.7457089999999980
  0.1970150000000004  0.1975869999999986  0.7430379999999985
  0.3284310000000019  0.2635440000000031  0.7508309999999980
  0.3968699999999998  0.1951159999999987  0.7508849999999967
  0.5930729999999969  0.1998749999999987  0.7568809999999999
  0.7288899999999998  0.2711100000000002  0.7568219999999997
  0.7965950000000035  0.2034049999999965  0.7517309999999995
  0.9307549999999978  0.2676099999999977  0.7491100000000017
  0.9996349999999978  0.4007020000000026  0.7494149999999991
  0.1337040000000016  0.4659580000000005  0.7493759999999980
  0.1994630000000015  0.3981319999999968  0.7501249999999970
  0.3332350000000019  0.4597320000000025  0.7567880000000002
  0.8001250000000013  0.4069270000000031  0.7568809999999999
  0.9338780000000000  0.4685130000000015  0.7502399999999980
  0.0023570000000035  0.6013719999999978  0.7459070000000025
  0.1357519999999965  0.6662230000000022  0.7451440000000034
  0.2025859999999966  0.5990589999999969  0.7491500000000002
  0.3367549999999966  0.6632450000000034  0.7516590000000036
  0.4044600000000003  0.5955399999999997  0.7567200000000014
  0.5402679999999975  0.6667649999999981  0.7567880000000002
  0.7364559999999969  0.6715689999999981  0.7508309999999980
  0.8048840000000013  0.6031300000000002  0.7508849999999967
  0.9363299999999981  0.6691250000000011  0.7432090000000002
  0.0015479999999997  0.8014939999999982  0.7377570000000020
  0.1341010000000011  0.8658989999999989  0.7377690000000001
  0.2009880000000024  0.7990119999999976  0.7421039999999977
  0.3337769999999978  0.8642480000000035  0.7451440000000034
  0.4009410000000031  0.7974140000000034  0.7491500000000002
  0.5340419999999995  0.8662959999999984  0.7493759999999980
  0.6018680000000032  0.8005369999999985  0.7501249999999970
  0.7346879999999985  0.8690349999999967  0.7457089999999980
  0.8024130000000014  0.8029849999999996  0.7430379999999985
  0.9347840000000005  0.8682330000000036  0.7376160000000027
  0.5227720000000033  0.2572040000000015  0.7616259999999997
  0.3905340000000024  0.3894319999999993  0.7615789999999976
  0.7427959999999985  0.4772279999999967  0.7616259999999997
  0.6105680000000007  0.6094659999999976  0.7615789999999976
  0.5666659999999979  0.4333340000000021  0.8162779999999970
 
  0.00000000E+00  0.00000000E+00  0.00000000E+00
  0.00000000E+00  0.00000000E+00  0.00000000E+00
  0.00000000E+00  0.00000000E+00  0.00000000E+00
  0.00000000E+00  0.00000000E+00  0.00000000E+00
  0.00000000E+00  0.00000000E+00  0.00000000E+00
  0.00000000E+00  0.00000000E+00  0.00000000E+00
  0.00000000E+00  0.00000000E+00  0.00000000E+00
  0.00000000E+00  0.00000000E+00  0.00000000E+00
  0.00000000E+00  0.00000000E+00  0.00000000E+00
  0.00000000E+00  0.00000000E+00  0.00000000E+00
  0.00000000E+00  0.00000000E+00  0.00000000E+00
  0.00000000E+00  0.00000000E+00  0.00000000E+00
  0.00000000E+00  0.00000000E+00  0.00000000E+00
  0.00000000E+00  0.00000000E+00  0.00000000E+00
  0.00000000E+00  0.00000000E+00  0.00000000E+00
  0.00000000E+00  0.00000000E+00  0.00000000E+00
  0.00000000E+00  0.00000000E+00  0.00000000E+00
  0.00000000E+00  0.00000000E+00  0.00000000E+00
  0.00000000E+00  0.00000000E+00  0.00000000E+00
  0.00000000E+00  0.00000000E+00  0.00000000E+00
  0.00000000E+00  0.00000000E+00  0.00000000E+00
  0.00000000E+00  0.00000000E+00  0.00000000E+00
  0.00000000E+00  0.00000000E+00  0.00000000E+00
  0.00000000E+00  0.00000000E+00  0.00000000E+00
  0.00000000E+00  0.00000000E+00  0.00000000E+00
  0.00000000E+00  0.00000000E+00  0.00000000E+00
  0.00000000E+00  0.00000000E+00  0.00000000E+00
  0.00000000E+00  0.00000000E+00  0.00000000E+00
  0.00000000E+00  0.00000000E+00  0.00000000E+00
  0.00000000E+00  0.00000000E+00  0.00000000E+00
  0.00000000E+00  0.00000000E+00  0.00000000E+00
  0.00000000E+00  0.00000000E+00  0.00000000E+00
  0.00000000E+00  0.00000000E+00  0.00000000E+00
  0.00000000E+00  0.00000000E+00  0.00000000E+00
  0.00000000E+00  0.00000000E+00  0.00000000E+00
  0.00000000E+00  0.00000000E+00  0.00000000E+00
  0.00000000E+00  0.00000000E+00  0.00000000E+00
  0.00000000E+00  0.00000000E+00  0.00000000E+00
  0.00000000E+00  0.00000000E+00  0.00000000E+00
  0.00000000E+00  0.00000000E+00  0.00000000E+00
  0.00000000E+00  0.00000000E+00  0.00000000E+00
  0.00000000E+00  0.00000000E+00  0.00000000E+00
  0.00000000E+00  0.00000000E+00  0.00000000E+00
  0.00000000E+00  0.00000000E+00  0.00000000E+00
  0.00000000E+00  0.00000000E+00  0.00000000E+00
  0.00000000E+00  0.00000000E+00  0.00000000E+00
  0.00000000E+00  0.00000000E+00  0.00000000E+00
  0.00000000E+00  0.00000000E+00  0.00000000E+00
  0.00000000E+00  0.00000000E+00  0.00000000E+00
