       N       E                     dE             d eps       ncg     rms          ort
SDA:   1    -0.327618235735E+03   -0.32762E+03    0.00000E+00  3328   0.135E+03 0.000E+00
CGA:   2    -0.406773374456E+03   -0.79155E+02   -0.87892E+02  3328   0.705E+02-0.194E+02
CGA:   3    -0.424364863901E+03   -0.17591E+02   -0.17462E+02  3328   0.246E+02 0.124E+01
CGA:   4    -0.432806847251E+03   -0.84420E+01   -0.84458E+01  3328   0.901E+01-0.739E-01
CGA:   5    -0.435450339363E+03   -0.26435E+01   -0.26545E+01  3328   0.310E+01-0.126E+00
CGA:   6    -0.436331539537E+03   -0.88120E+00   -0.88197E+00  3328   0.899E+00-0.108E-01
CGA:   7    -0.436607556587E+03   -0.27602E+00   -0.27608E+00  3328   0.261E+00-0.389E-03
CGA:   8    -0.436692702392E+03   -0.85146E-01   -0.85151E-01  3328   0.831E-01-0.565E-04
CGA:   9    -0.436722708625E+03   -0.30006E-01   -0.29988E-01  3328   0.288E-01 0.119E-03
CGA:  10    -0.436733666751E+03   -0.10958E-01   -0.10962E-01  3328   0.965E-02-0.315E-04
CGA:  11    -0.436737276610E+03   -0.36099E-02   -0.36128E-02  3328   0.286E-02-0.228E-04
CGA:  12    -0.436738334693E+03   -0.10581E-02   -0.10596E-02  3328   0.793E-03-0.124E-04
CGA:  13    -0.436738636496E+03   -0.30180E-03   -0.30182E-03  3328   0.225E-03 0.400E-07
CGA:  14    -0.436738729338E+03   -0.92842E-04   -0.93007E-04  3328   0.738E-04-0.121E-05
CGA:  15    -0.436738761301E+03   -0.31963E-04   -0.32175E-04  3328   0.257E-04-0.135E-05
CGA:  16    -0.436738772182E+03   -0.10881E-04   -0.10885E-04  3328   0.803E-05-0.281E-07
CGA:  17    -0.436738775714E+03   -0.35327E-05   -0.36135E-05  3328   0.250E-05-0.517E-06
   1 F= -.43853546E+03 E0= -.43853122E+03  d E =-.847283E-02  mag=    -0.0000
