C  N  Ga                                
   1.00000000000000     
    12.3000000000000007    0.0000000000000000    0.0000000000000000
    -6.1499999999999977   10.6521124665485960    0.0000000000000000
     0.0000000000000000    0.0000000000000000   20.0000000000000000
   C    N    Ga
    44     4     1
Direct
  0.9989875710482181  0.0010123012376440  0.7499996158048958
  0.1308619849687105  0.0643941333362577  0.7499933427873415
  0.1977179821905182  0.9975396374484333  0.7499932349098515
  0.3292968960774800  0.0616750277732763  0.7499830599706314
  0.3981021519272900  0.9968211680179664  0.7499997251793999
  0.5316019209219149  0.0674169436391239  0.7499970133618490
  0.5993955394010584  0.0009182497097981  0.7499904608712669
  0.7318673817339842  0.0696652412393348  0.7499983362057350
  0.7993139338030346  0.0023584228786930  0.7500021666911678
  0.9321962672634498  0.0678036209178430  0.7500012171218415
  0.9976414835598888  0.2006859360202782  0.7500021744988032
  0.1301133947705324  0.2647419315394899  0.7499993705733559
  0.1949535609489317  0.1959396384482730  0.7499828164587186
  0.3260861177532561  0.2597758965709929  0.7499714458254516
  0.3930855479994264  0.1928027140646549  0.7499718937853146
  0.5935080806767346  0.2012740004893274  0.7500346704277163
  0.7281442712521837  0.2718555725124716  0.7500168235065914
  0.7963408411311264  0.2036590544563381  0.7499998845872398
  0.9303346396073664  0.2681324534898550  0.7499983430831350
  0.9990815964032294  0.4006043198704745  0.7499904581842927
  0.1342678352859608  0.4660253377945409  0.7499900335554344
  0.2007487176219200  0.3982232927620402  0.7499957841238398
  0.3346090706717817  0.4601804168434498  0.7500365187416733
  0.7987260089347501  0.4064918914563762  0.7500346713006252
  0.9325833493372997  0.4683984201782394  0.7499970005083014
  0.0031794798617568  0.6018982949206091  0.7499996417787500
  0.1356531989866667  0.6659457003383622  0.7500024111715149
  0.2029724360931198  0.5984942404953202  0.7499982984235274
  0.3369877873181295  0.6630120939555297  0.7499997182830214
  0.4051850858979904  0.5948148425350084  0.7500172975013228
  0.5398195304643068  0.6653908654359384  0.7500365155091586
  0.7402240543550178  0.6739137937668858  0.7499714381809213
  0.8071972691898566  0.6069142843766357  0.7499718896813761
  0.9383251562704729  0.6707031143947901  0.7499830482393932
  0.0024602053410376  0.8022818780476086  0.7499932276631540
  0.1343532063826132  0.8656466667398561  0.7499995296483419
  0.2011537783839898  0.7988463241104284  0.7500011863657434
  0.3340545269273747  0.8643473433848570  0.7500024285842741
  0.4015056156320611  0.7970275602040857  0.7499983054093278
  0.5339745662008895  0.8657321269462912  0.7499900353309101
  0.6017766306280521  0.7992512069491369  0.7499957759155080
  0.7352579671108046  0.8698865129601998  0.7499993607098574
  0.8040602853573091  0.8050463496617084  0.7499828073486086
  0.9356057839347827  0.8691378978748716  0.7499933392514322
  0.5213878003625254  0.2599712513100485  0.7500833060697332
  0.3932722668770054  0.3880679576004553  0.7500837180263247
  0.7400286213070970  0.4786120777091440  0.7500833120212462
  0.6119319913732539  0.6067276655200899  0.7500837189957679
  0.5666566104538333  0.4333433280669325  0.7507456278263192
 
  0.00000000E+00  0.00000000E+00  0.00000000E+00
  0.00000000E+00  0.00000000E+00  0.00000000E+00
  0.00000000E+00  0.00000000E+00  0.00000000E+00
  0.00000000E+00  0.00000000E+00  0.00000000E+00
  0.00000000E+00  0.00000000E+00  0.00000000E+00
  0.00000000E+00  0.00000000E+00  0.00000000E+00
  0.00000000E+00  0.00000000E+00  0.00000000E+00
  0.00000000E+00  0.00000000E+00  0.00000000E+00
  0.00000000E+00  0.00000000E+00  0.00000000E+00
  0.00000000E+00  0.00000000E+00  0.00000000E+00
  0.00000000E+00  0.00000000E+00  0.00000000E+00
  0.00000000E+00  0.00000000E+00  0.00000000E+00
  0.00000000E+00  0.00000000E+00  0.00000000E+00
  0.00000000E+00  0.00000000E+00  0.00000000E+00
  0.00000000E+00  0.00000000E+00  0.00000000E+00
  0.00000000E+00  0.00000000E+00  0.00000000E+00
  0.00000000E+00  0.00000000E+00  0.00000000E+00
  0.00000000E+00  0.00000000E+00  0.00000000E+00
  0.00000000E+00  0.00000000E+00  0.00000000E+00
  0.00000000E+00  0.00000000E+00  0.00000000E+00
  0.00000000E+00  0.00000000E+00  0.00000000E+00
  0.00000000E+00  0.00000000E+00  0.00000000E+00
  0.00000000E+00  0.00000000E+00  0.00000000E+00
  0.00000000E+00  0.00000000E+00  0.00000000E+00
  0.00000000E+00  0.00000000E+00  0.00000000E+00
  0.00000000E+00  0.00000000E+00  0.00000000E+00
  0.00000000E+00  0.00000000E+00  0.00000000E+00
  0.00000000E+00  0.00000000E+00  0.00000000E+00
  0.00000000E+00  0.00000000E+00  0.00000000E+00
  0.00000000E+00  0.00000000E+00  0.00000000E+00
  0.00000000E+00  0.00000000E+00  0.00000000E+00
  0.00000000E+00  0.00000000E+00  0.00000000E+00
  0.00000000E+00  0.00000000E+00  0.00000000E+00
  0.00000000E+00  0.00000000E+00  0.00000000E+00
  0.00000000E+00  0.00000000E+00  0.00000000E+00
  0.00000000E+00  0.00000000E+00  0.00000000E+00
  0.00000000E+00  0.00000000E+00  0.00000000E+00
  0.00000000E+00  0.00000000E+00  0.00000000E+00
  0.00000000E+00  0.00000000E+00  0.00000000E+00
  0.00000000E+00  0.00000000E+00  0.00000000E+00
  0.00000000E+00  0.00000000E+00  0.00000000E+00
  0.00000000E+00  0.00000000E+00  0.00000000E+00
  0.00000000E+00  0.00000000E+00  0.00000000E+00
  0.00000000E+00  0.00000000E+00  0.00000000E+00
  0.00000000E+00  0.00000000E+00  0.00000000E+00
  0.00000000E+00  0.00000000E+00  0.00000000E+00
  0.00000000E+00  0.00000000E+00  0.00000000E+00
  0.00000000E+00  0.00000000E+00  0.00000000E+00
  0.00000000E+00  0.00000000E+00  0.00000000E+00
