       N       E                     dE             d eps       ncg     rms          ort
DAV:   1     0.147630599849E+02    0.14763E+02   -0.43962E+03   256   0.375E+01
DAV:   2    -0.143262900962E+00   -0.14906E+02   -0.14906E+02   256   0.451E+00
DAV:   3    -0.164706218030E+00   -0.21443E-01   -0.21443E-01   256   0.188E-01
DAV:   4    -0.164775750187E+00   -0.69532E-04   -0.69532E-04   256   0.138E-02
DAV:   5    -0.164775767811E+00   -0.17624E-07   -0.17621E-07   256   0.181E-04
SDA:   6    -0.164650641405E+00    0.12513E-03   -0.17621E-07   256   0.745E-03 0.000E+00
CGA:   7    -0.164739390942E+00   -0.88750E-04   -0.88953E-04   256   0.131E-04 0.290E-05
CGA:   8    -0.164744933785E+00   -0.55428E-05   -0.53439E-05   256   0.566E-05 0.949E-06
   1 F= -.16474493E+00 E0= -.16474493E+00  d E =-.179725E-12
