 vasp.5.4.4.18Apr17-6-g9f103f2a35 (build Nov 21 2023 15:34:30) complex          
  
 executed on             LinuxIFC date 2026.09.21  18:52:40
 running on  256 total cores
 distrk:  each k-point on  256 cores,    1 groups
 distr:  one band on NCORES_PER_BAND=   1 cores,  256 groups


--------------------------------------------------------------------------------------------------------


 INCAR:
 POTCAR:   PAW_PBE Zn 06Sep2000                   

 ----------------------------------------------------------------------------- 
|                                                                             |
|           W    W    AA    RRRRR   N    N  II  N    N   GGGG   !!!           |
|           W    W   A  A   R    R  NN   N  II  NN   N  G    G  !!!           |
|           W    W  A    A  R    R  N N  N  II  N N  N  G       !!!           |
|           W WW W  AAAAAA  RRRRR   N  N N  II  N  N N  G  GGG   !            |
|           WW  WW  A    A  R   R   N   NN  II  N   NN  G    G                |
|           W    W  A    A  R    R  N    N  II  N    N   GGGG   !!!           |
|                                                                             |
|      For optimal performance we recommend to set                            |
|        NCORE= 4 - approx SQRT( number of cores)                             |
|      NCORE specifies how many cores store one orbital (NPAR=cpu/NCORE).     |
|      This setting can  greatly improve the performance of VASP for DFT.     |
|      The default,   NCORE=1            might be grossly inefficient         |
|      on modern multi-core architectures or massively parallel machines.     |
|      Do your own testing !!!!                                               |
|      Unfortunately you need to use the default for GW and RPA calculations. |
|      (for HF NCORE is supported but not extensively tested yet)             |
|                                                                             |
 ----------------------------------------------------------------------------- 

 POTCAR:   PAW_PBE Zn 06Sep2000                   
   VRHFIN =Zn: d10 p2                                                           
   LEXCH  = PE                                                                  
   EATOM  =  1749.0928 eV,  128.5547 Ry                                         
                                                                                
   TITEL  = PAW_PBE Zn 06Sep2000                                                
   LULTRA =        F    use ultrasoft PP ?                                      
   IUNSCR =        1    unscreen: 0-lin 1-nonlin 2-no                           
   RPACOR =    2.000    partial core radius                                     
   POMASS =   65.390; ZVAL   =   12.000    mass and valenz                      
   RCORE  =    2.300    outmost cutoff radius                                   
   RWIGS  =    2.400; RWIGS  =    1.270    wigner-seitz radius (au A)           
   ENMAX  =  276.727; ENMIN  =  207.545 eV                                      
   RCLOC  =    1.828    cutoff for local pot                                    
   LCOR   =        T    correct aug charges                                     
   LPAW   =        T    paw PP                                                  
   EAUG   =  575.892                                                            
   DEXC   =    -.003                                                            
   RMAX   =    2.772    core radius for proj-oper                               
   RAUG   =    1.300    factor for augmentation sphere                          
   RDEP   =    2.324    radius for radial grids                                 
   QCUT   =   -4.510; QGAM   =    9.020    optimization parameters              
                                                                                
   Description                                                                  
     l     E      TYP  RCUT    TYP  RCUT                                        
     2   .000     23  2.300                                                     
     2   .000     23  2.300                                                     
     0   .000     23  2.300                                                     
     0   .000     23  2.300                                                     
     1  -.200     23  2.300                                                     
     1   .000     23  2.300                                                     
     3   .000      7   .000                                                     
  local pseudopotential read in
  partial core-charges read in
  atomic valenz-charges read in
  non local Contribution for L=           2  read in
    real space projection operators read in
  non local Contribution for L=           2  read in
    real space projection operators read in
  non local Contribution for L=           0  read in
    real space projection operators read in
  non local Contribution for L=           0  read in
    real space projection operators read in
  non local Contribution for L=           1  read in
    real space projection operators read in
  non local Contribution for L=           1  read in
    real space projection operators read in
    PAW grid and wavefunctions read in
 
   number of l-projection  operators is LMAX  =           6
   number of lm-projection operators is LMMAX =          18
 
 PAW_PBE Zn 06Sep2000                   :
 energy of atom  1       EATOM=-1749.0928
 kinetic energy error for atom=    0.0029 (will be added to EATOM!!)
 
 
 POSCAR: Zn                                      
  positions in direct lattice
  No initial velocities read in
 exchange correlation table for  LEXCH =        8
   RHO(1)=    0.500       N(1)  =     2000
   RHO(2)=  100.500       N(2)  =     4000

 VTST: version 3.2, (02/03/18)

 CHAIN: initializing optimizer
 
 OPT: Using VASP Dynamics algorithm
 CHAIN: Read ICHAIN            0
 
 POSCAR: Zn                                      
  positions in direct lattice
  No initial velocities read in
 


--------------------------------------------------------------------------------------------------------


 ion  position               nearest neighbor table
   1  0.010  0.010  0.751-
 

IMPORTANT INFORMATION: All symmetrisations will be switched off!
NOSYMM: (Re-)initialisation of all symmetry stuff for point group C_1.

 
 

Automatic generation of k-mesh.
 generate k-points for:    1    1    1
Space group operators:
 irot       det(A)        alpha          n_x          n_y          n_z        tau_x        tau_y        tau_z
    1     1.000000     0.000000     1.000000     0.000000     0.000000     0.000000     0.000000     0.000000
 
 Subroutine IBZKPT returns following result:
 ===========================================
 
 Found      1 irreducible k-points:
 
 Following reciprocal coordinates:
            Coordinates               Weight
  0.000000  0.000000  0.000000      1.000000
 
 Following cartesian coordinates:
            Coordinates               Weight
  0.000000  0.000000  0.000000      1.000000
 


--------------------------------------------------------------------------------------------------------




 Dimension of arrays:
   k-points           NKPTS =      1   k-points in BZ     NKDIM =      1   number of bands    NBANDS=    256
   number of dos      NEDOS =    301   number of ions     NIONS =      1
   non local maximal  LDIM  =      6   non local SUM 2l+1 LMDIM =     18
   total plane-waves  NPLWV = ******
   max r-space proj   IRMAX =      1   max aug-charges    IRDMAX=  12606
   dimension x,y,z NGX =   112 NGY =  112 NGZ =  112
   dimension x,y,z NGXF=   224 NGYF=  224 NGZF=  224
   support grid    NGXF=   224 NGYF=  224 NGZF=  224
   ions per type =               1
   NGX,Y,Z   is equivalent  to a cutoff of  12.41, 12.41, 12.41 a.u.
   NGXF,Y,Z  is equivalent  to a cutoff of  24.83, 24.83, 24.83 a.u.

 SYSTEM =  Zn                                      
 POSCAR =  Zn                                      

 Startparameter for this run:
   NWRITE =      2    write-flag & timer
   PREC   = accura    normal or accurate (medium, high low for compatibility)
   ISTART =      0    job   : 0-new  1-cont  2-samecut
   ICHARG =      2    charge: 1-file 2-atom 10-const
   ISPIN  =      1    spin polarized calculation?
   LNONCOLLINEAR =      F non collinear calculations
   LSORBIT =      F    spin-orbit coupling
   INIWAV =      1    electr: 0-lowe 1-rand  2-diag
   LASPH  =      T    aspherical Exc in radial PAW
   METAGGA=      F    non-selfconsistent MetaGGA calc.

 Electronic Relaxation 1
   ENCUT  =  520.0 eV  38.22 Ry    6.18 a.u.  27.89 27.89 27.89*2*pi/ulx,y,z
   ENINI  =  520.0     initial cutoff
   ENAUG  =  575.9 eV  augmentation charge cutoff
   NELM   =    200;   NELMIN=  2; NELMDL= -5     # of ELM steps 
   EDIFF  = 0.1E-04   stopping-criterion for ELM
   LREAL  =      F    real-space projection
   NLSPLINE    = F    spline interpolate recip. space projectors
   LCOMPAT=      F    compatible to vasp.4.4
   GGA_COMPAT  = T    GGA compatible to vasp.4.4-vasp.4.6
   LMAXPAW     = -100 max onsite density
   LMAXMIX     =    2 max onsite mixed and CHGCAR
   VOSKOWN=      0    Vosko Wilk Nusair interpolation
   ROPT   =    0.00000
 Ionic relaxation
   EDIFFG = 0.1E-03   stopping-criterion for IOM
   NSW    =      0    number of steps for IOM
   NBLOCK =      1;   KBLOCK =      1    inner block; outer block 
   IBRION =     -1    ionic relax: 0-MD 1-quasi-New 2-CG
   NFREE  =      0    steps in history (QN), initial steepest desc. (CG)
   ISIF   =      0    stress and relaxation
   IWAVPR =     10    prediction:  0-non 1-charg 2-wave 3-comb
   ISYM   =      0    0-nonsym 1-usesym 2-fastsym
   LCORR  =      T    Harris-Foulkes like correction to forces

   POTIM  = 0.5000    time-step for ionic-motion
   TEIN   =    0.0    initial temperature
   TEBEG  =    0.0;   TEEND  =   0.0 temperature during run
   SMASS  =  -3.00    Nose mass-parameter (am)
   estimated Nose-frequenzy (Omega)   =  0.10E-29 period in steps =****** mass=  -0.514E-26a.u.
   SCALEE = 1.0000    scale energy and forces
   NPACO  =    256;   APACO  = 16.0  distance and # of slots for P.C.
   PSTRESS=    0.0 pullay stress

  Mass of Ions in am
   POMASS =  65.39
  Ionic Valenz
   ZVAL   =  12.00
  Atomic Wigner-Seitz radii
   RWIGS  =  -1.00
  virtual crystal weights 
   VCA    =   1.00
   NELECT =      12.0000    total number of electrons
   NUPDOWN=      -1.0000    fix difference up-down

 DOS related values:
   EMIN   =  10.00;   EMAX   =-10.00  energy-range for DOS
   EFERMI =   0.00
   ISMEAR =     0;   SIGMA  =   0.05  broadening in eV -4-tet -1-fermi 0-gaus

 Electronic relaxation 2 (details)
   IALGO  =     58    algorithm
   LDIAG  =      T    sub-space diagonalisation (order eigenvalues)
   LSUBROT=      F    optimize rotation matrix (better conditioning)
   TURBO    =      0    0=normal 1=particle mesh
   IRESTART =      0    0=no restart 2=restart with 2 vectors
   NREBOOT  =      0    no. of reboots
   NMIN     =      0    reboot dimension
   EREF     =   0.00    reference energy to select bands
   IMIX   =      4    mixing-type and parameters
     AMIX     =   0.40;   BMIX     =  1.00
     AMIX_MAG =   1.60;   BMIX_MAG =  1.00
     AMIN     =   0.10
     WC   =   100.;   INIMIX=   1;  MIXPRE=   1;  MAXMIX= -45

 Intra band minimization:
   WEIMIN = 0.0000     energy-eigenvalue tresh-hold
   EBREAK =  0.98E-08  absolut break condition
   DEPER  =   0.30     relativ break condition  

   TIME   =   0.40     timestep for ELM

  volume/ion in A,a.u.               =    3375.00     22775.62
  Fermi-wavevector in a.u.,A,eV,Ry     =   0.249868  0.472182  0.849466  0.062434
  Thomas-Fermi vector in A             =   1.065882
 
 Write flags
   LWAVE        =      F    write WAVECAR
   LDOWNSAMPLE  =      F    k-point downsampling of WAVECAR
   LCHARG       =      F    write CHGCAR
   LVTOT        =      F    write LOCPOT, total local potential
   LVHAR        =      F    write LOCPOT, Hartree potential only
   LELF         =      F    write electronic localiz. function (ELF)
   LORBIT       =      0    0 simple, 1 ext, 2 COOP (PROOUT), +10 PAW based schemes


 Dipole corrections
   LMONO  =      F    monopole corrections only (constant potential shift)
   LDIPOL =      F    correct potential (dipole corrections)
   IDIPOL =      0    1-x, 2-y, 3-z, 4-all directions 
   EPSILON=  1.0000000 bulk dielectric constant

 Exchange correlation treatment:
   GGA     =    --    GGA type
   LEXCH   =     8    internal setting for exchange type
   VOSKOWN=      0    Vosko Wilk Nusair interpolation
   LHFCALC =     F    Hartree Fock is set to
   LHFONE  =     F    Hartree Fock one center treatment
   AEXX    =    0.0000 exact exchange contribution

 Linear response parameters
   LEPSILON=     F    determine dielectric tensor
   LRPA    =     F    only Hartree local field effects (RPA)
   LNABLA  =     F    use nabla operator in PAW spheres
   LVEL    =     F    velocity operator in full k-point grid
   LINTERFAST=   F  fast interpolation
   KINTER  =     0    interpolate to denser k-point grid
   CSHIFT  =0.1000    complex shift for real part using Kramers Kronig
   OMEGAMAX=  -1.0    maximum frequency
   DEG_THRESHOLD= 0.2000000E-02 threshold for treating states as degnerate
   RTIME   =   -0.100 relaxation time in fs
  (WPLASMAI=    0.000 imaginary part of plasma frequency in eV, 0.658/RTIME)
   DFIELD  = 0.0000000 0.0000000 0.0000000 field for delta impulse in time
 
 Orbital magnetization related:
   ORBITALMAG=     F  switch on orbital magnetization
   LCHIMAG   =     F  perturbation theory with respect to B field
   DQ        =  0.001000  dq finite difference perturbation B field
   LLRAUG    =     F  two centre corrections for induced B field



--------------------------------------------------------------------------------------------------------


 Static calculation
 charge density and potential will be updated during run
 non-spin polarized calculation
 Conjugate gradient for all bands (Freysoldt, et al. PRB 79, 241103 (2009))
 preconditioned conjugated gradient                                        
 perform sub-space diagonalisation
    before iterative eigenvector-optimisation
 modified Broyden-mixing scheme, WC =      100.0
 initial mixing is a Kerker type mixing with AMIX =  0.4000 and BMIX =      1.0000
 Hartree-type preconditioning will be used
 using additional bands          250
 reciprocal scheme for non local part
 use partial core corrections
 no Harris-corrections to forces 
 use gradient corrections 
 use of overlap-Matrix (Vanderbilt PP)
 Gauss-broadening in eV      SIGMA  =   0.05


--------------------------------------------------------------------------------------------------------


  energy-cutoff  :      520.00
  volume of cell :     3375.00
      direct lattice vectors                 reciprocal lattice vectors
    15.000000000  0.000000000  0.000000000     0.066666667  0.000000000  0.000000000
     0.000000000 15.000000000  0.000000000     0.000000000  0.066666667  0.000000000
     0.000000000  0.000000000 15.000000000     0.000000000  0.000000000  0.066666667

  length of vectors
    15.000000000 15.000000000 15.000000000     0.066666667  0.066666667  0.066666667


 
 k-points in units of 2pi/SCALE and weight: read from INCAR                         
   0.00000000  0.00000000  0.00000000       1.000
 
 k-points in reciprocal lattice and weights: read from INCAR                         
   0.00000000  0.00000000  0.00000000       1.000
 
 position of ions in fractional coordinates (direct lattice) 
   0.01000000  0.01000000  0.75100000
 
 position of ions in cartesian coordinates  (Angst):
   0.15000000  0.15000000 11.26500000
 


--------------------------------------------------------------------------------------------------------


 k-point  1 :   0.0000 0.0000 0.0000  plane waves:   90879

 maximum and minimum number of plane-waves per node :     90879    90879

 maximum number of plane-waves:     90879
 maximum index in each direction: 
   IXMAX=   27   IYMAX=   27   IZMAX=   27
   IXMIN=  -27   IYMIN=  -27   IZMIN=  -27


 serial   3D FFT for wavefunctions
 parallel 3D FFT for charge:
    minimum data exchange during FFTs selected (reduces bandwidth)


 total amount of memory used by VASP MPI-rank0   115228. kBytes
=======================================================================

   base      :      30000. kBytes
   nonl-proj :      14540. kBytes
   fftplans  :       7479. kBytes
   grid      :      58820. kBytes
   one-center:         15. kBytes
   wavefun   :       4374. kBytes
 
     INWAV:  cpu time    0.0000: real time    0.0000
 Broyden mixing: mesh for mixing (old mesh)
   NGX = 55   NGY = 55   NGZ = 55
  (NGX  =224   NGY  =224   NGZ  =224)
  gives a total of 166375 points

 initial charge density was supplied:
 charge density of overlapping atoms calculated
 number of electron      12.0000000 magnetization 
 keeping initial charge density in first step


--------------------------------------------------------------------------------------------------------


 Maximum index for augmentation-charges          619 (set IRDMAX)


--------------------------------------------------------------------------------------------------------


 First call to EWALD:  gamma=   0.118
 Maximum number of real-space cells 3x 3x 3
 Maximum number of reciprocal cells 3x 3x 3

    FEWALD:  cpu time    0.0120: real time    0.0120


--------------------------------------- Iteration      1(   1)  ---------------------------------------


    POTLOK:  cpu time    1.2125: real time    1.2446
    SETDIJ:  cpu time    0.1522: real time    0.1702
    TRIAL :  cpu time    4.3708: real time    4.4076
    CORREC:  cpu time    0.0134: real time    0.0216
    --------------------------------------------
      LOOP:  cpu time    5.7530: real time    5.8541

 eigenvalue-minimisations  :   512
 total energy-change (2. order) : 0.1476306E+02  (-0.4396200E+03)
 number of electron      12.0000000 magnetization 
 augmentation part       12.0000000 magnetization 

 Free energy of the ion-electron system (eV)
  ---------------------------------------------------
  alpha Z        PSCENC =         0.46885753
  Ewald energy   TEWEN  =      -196.11110405
  -Hartree energ DENC   =     -1318.03922949
  -exchange      EXHF   =         0.00000000
  -V(xc)+E(xc)   XCENC  =        55.45434090
  PAW double counting   =      1322.44981307    -1500.02162206
  entropy T*S    EENTRO =        -0.00000000
  eigenvalues    EBANDS =       -98.52789002
  atomic energy  EATOM  =      1749.08989411
  ---------------------------------------------------
  free energy    TOTEN  =        14.76305998 eV

  energy without entropy =       14.76305998  energy(sigma->0) =       14.76305998


--------------------------------------------------------------------------------------------------------




--------------------------------------- Iteration      1(   2)  ---------------------------------------


    TRIAL :  cpu time   11.0250: real time   11.0710
    CORREC:  cpu time    0.1229: real time    0.1229
    --------------------------------------------
      LOOP:  cpu time   11.1541: real time   11.2736

 eigenvalue-minimisations  :   768
 total energy-change (2. order) :-0.1490632E+02  (-0.1490632E+02)
 number of electron      12.0000000 magnetization 
 augmentation part       12.0000000 magnetization 

 Free energy of the ion-electron system (eV)
  ---------------------------------------------------
  alpha Z        PSCENC =         0.46885753
  Ewald energy   TEWEN  =      -196.11110405
  -Hartree energ DENC   =     -1318.03922949
  -exchange      EXHF   =         0.00000000
  -V(xc)+E(xc)   XCENC  =        55.45434090
  PAW double counting   =      1322.44981307    -1500.02162206
  entropy T*S    EENTRO =        -0.00000000
  eigenvalues    EBANDS =      -113.43421291
  atomic energy  EATOM  =      1749.08989411
  ---------------------------------------------------
  free energy    TOTEN  =        -0.14326290 eV

  energy without entropy =       -0.14326290  energy(sigma->0) =       -0.14326290


--------------------------------------------------------------------------------------------------------




--------------------------------------- Iteration      1(   3)  ---------------------------------------


    TRIAL :  cpu time   12.6076: real time   12.6159
    CORREC:  cpu time    0.0758: real time    0.0758
    --------------------------------------------
      LOOP:  cpu time   12.6925: real time   12.7010

 eigenvalue-minimisations  :   512
 total energy-change (2. order) :-0.2144332E-01  (-0.2144332E-01)
 number of electron      12.0000000 magnetization 
 augmentation part       12.0000000 magnetization 

 Free energy of the ion-electron system (eV)
  ---------------------------------------------------
  alpha Z        PSCENC =         0.46885753
  Ewald energy   TEWEN  =      -196.11110405
  -Hartree energ DENC   =     -1318.03922949
  -exchange      EXHF   =         0.00000000
  -V(xc)+E(xc)   XCENC  =        55.45434090
  PAW double counting   =      1322.44981307    -1500.02162206
  entropy T*S    EENTRO =        -0.00000000
  eigenvalues    EBANDS =      -113.45565623
  atomic energy  EATOM  =      1749.08989411
  ---------------------------------------------------
  free energy    TOTEN  =        -0.16470622 eV

  energy without entropy =       -0.16470622  energy(sigma->0) =       -0.16470622


--------------------------------------------------------------------------------------------------------




--------------------------------------- Iteration      1(   4)  ---------------------------------------


    TRIAL :  cpu time   15.8425: real time   15.8508
    CORREC:  cpu time    0.1655: real time    0.1655
    --------------------------------------------
      LOOP:  cpu time   16.0373: real time   16.0456

 eigenvalue-minimisations  :   768
 total energy-change (2. order) :-0.6953216E-04  (-0.6953216E-04)
 number of electron      12.0000000 magnetization 
 augmentation part       12.0000000 magnetization 

 Free energy of the ion-electron system (eV)
  ---------------------------------------------------
  alpha Z        PSCENC =         0.46885753
  Ewald energy   TEWEN  =      -196.11110405
  -Hartree energ DENC   =     -1318.03922949
  -exchange      EXHF   =         0.00000000
  -V(xc)+E(xc)   XCENC  =        55.45434090
  PAW double counting   =      1322.44981307    -1500.02162206
  entropy T*S    EENTRO =        -0.00000000
  eigenvalues    EBANDS =      -113.45572576
  atomic energy  EATOM  =      1749.08989411
  ---------------------------------------------------
  free energy    TOTEN  =        -0.16477575 eV

  energy without entropy =       -0.16477575  energy(sigma->0) =       -0.16477575


--------------------------------------------------------------------------------------------------------




--------------------------------------- Iteration      1(   5)  ---------------------------------------


    TRIAL :  cpu time    5.0339: real time    5.0374
    CORREC:  cpu time    0.0181: real time    0.0181
    CHARGE:  cpu time    0.6772: real time    0.6981
    --------------------------------------------
      LOOP:  cpu time    5.7755: real time    5.7999

 eigenvalue-minimisations  :   512
 total energy-change (2. order) :-0.1762373E-07  (-0.1762065E-07)
 number of electron      12.0000004 magnetization 
 augmentation part        7.9486037 magnetization 

 Free energy of the ion-electron system (eV)
  ---------------------------------------------------
  alpha Z        PSCENC =         0.46885753
  Ewald energy   TEWEN  =      -196.11110405
  -Hartree energ DENC   =     -1318.03922949
  -exchange      EXHF   =         0.00000000
  -V(xc)+E(xc)   XCENC  =        55.45434090
  PAW double counting   =      1322.44981307    -1500.02162206
  entropy T*S    EENTRO =        -0.00000000
  eigenvalues    EBANDS =      -113.45572578
  atomic energy  EATOM  =      1749.08989411
  ---------------------------------------------------
  free energy    TOTEN  =        -0.16477577 eV

  energy without entropy =       -0.16477577  energy(sigma->0) =       -0.16477577


--------------------------------------------------------------------------------------------------------




--------------------------------------- Iteration      1(   6)  ---------------------------------------


    POTLOK:  cpu time    1.2520: real time    1.2526
    SETDIJ:  cpu time    0.1356: real time    0.1356
    TRIAL :  cpu time    1.9024: real time    2.1904
    CORREC:  cpu time    3.0098: real time    3.0723
    CHARGE:  cpu time    0.6475: real time    0.6492
    --------------------------------------------
      LOOP:  cpu time    6.9658: real time    7.3187

 eigenvalue-minimisations  :     0
 total energy-change (2. order) : 0.1251264E-03  (-0.8895309E-04)
 number of electron      12.0000004 magnetization 
 augmentation part        7.9467641 magnetization 

 Free energy of the ion-electron system (eV)
  ---------------------------------------------------
  alpha Z        PSCENC =         0.46885753
  Ewald energy   TEWEN  =      -196.11110405
  -Hartree energ DENC   =     -1318.54400299
  -exchange      EXHF   =         0.00000000
  -V(xc)+E(xc)   XCENC  =        55.47649255
  PAW double counting   =      1322.91078858    -1500.73987763
  entropy T*S    EENTRO =        -0.00000000
  eigenvalues    EBANDS =      -112.71569874
  atomic energy  EATOM  =      1749.08989411
  ---------------------------------------------------
  free energy    TOTEN  =        -0.16465064 eV

  energy without entropy =       -0.16465064  energy(sigma->0) =       -0.16465064


--------------------------------------------------------------------------------------------------------




--------------------------------------- Iteration      1(   7)  ---------------------------------------


    POTLOK:  cpu time    1.2548: real time    1.2557
    SETDIJ:  cpu time    0.1368: real time    0.1368
    TRIAL :  cpu time    1.7336: real time    1.7762
    CORREC:  cpu time    2.9297: real time    2.9694
    CHARGE:  cpu time    0.6620: real time    0.6750
    --------------------------------------------
      LOOP:  cpu time    6.7367: real time    6.8329

 eigenvalue-minimisations  :     0
 total energy-change (2. order) :-0.8874954E-04  (-0.5343859E-05)
 number of electron      12.0000004 magnetization 
 augmentation part        7.9467575 magnetization 

 Free energy of the ion-electron system (eV)
  ---------------------------------------------------
  alpha Z        PSCENC =         0.46885753
  Ewald energy   TEWEN  =      -196.11110405
  -Hartree energ DENC   =     -1318.24073982
  -exchange      EXHF   =         0.00000000
  -V(xc)+E(xc)   XCENC  =        55.46396308
  PAW double counting   =      1322.59469122    -1500.28142556
  entropy T*S    EENTRO =        -0.00000000
  eigenvalues    EBANDS =      -113.14887591
  atomic energy  EATOM  =      1749.08989411
  ---------------------------------------------------
  free energy    TOTEN  =        -0.16473939 eV

  energy without entropy =       -0.16473939  energy(sigma->0) =       -0.16473939


--------------------------------------------------------------------------------------------------------




--------------------------------------- Iteration      1(   8)  ---------------------------------------


    POTLOK:  cpu time    1.3936: real time    1.4274
    SETDIJ:  cpu time    0.1347: real time    0.1348
    TRIAL :  cpu time    1.9079: real time    1.9732
    CORREC:  cpu time    3.1140: real time    3.1500
    EDDIAG:  cpu time    0.8375: real time    0.8553
    CHARGE:  cpu time    0.6507: real time    0.6509
    --------------------------------------------
      LOOP:  cpu time    8.0549: real time    8.2094

 eigenvalue-minimisations  :     0
 total energy-change (2. order) :-0.5542843E-05  (-0.2643114E-05)
 number of electron      12.0000004 magnetization 
 augmentation part        7.9468366 magnetization 

 Free energy of the ion-electron system (eV)
  ---------------------------------------------------
  alpha Z        PSCENC =         0.46885753
  Ewald energy   TEWEN  =      -196.11110405
  -Hartree energ DENC   =     -1318.21004186
  -exchange      EXHF   =         0.00000000
  -V(xc)+E(xc)   XCENC  =        55.46289574
  PAW double counting   =      1322.55997483    -1500.23664779
  entropy T*S    EENTRO =        -0.00000000
  eigenvalues    EBANDS =      -113.18857343
  atomic energy  EATOM  =      1749.08989411
  ---------------------------------------------------
  free energy    TOTEN  =        -0.16474493 eV

  energy without entropy =       -0.16474493  energy(sigma->0) =       -0.16474493


--------------------------------------------------------------------------------------------------------


  average scaling for gradient   1.0362


 average (electrostatic) potential at core
  the test charge radii are     0.9521
  (the norm of the test charge is              1.0000)
       1 -42.6704
 
 
 
 E-fermi :  -5.6782     XC(G=0):  -0.2742     alpha+bet : -0.0336


 k-point     1 :       0.0000    0.0000    0.0000
  band No.  band energies     occupation 
      1     -10.1329      2.00000
      2     -10.1329      2.00000
      3     -10.1329      2.00000
      4     -10.1329      2.00000
      5     -10.1329      2.00000
      6      -5.9322      2.00000
      7      -1.0812      0.00000
      8      -1.0812      0.00000
      9      -1.0812      0.00000
     10      -0.1151      0.00000
     11       0.5677      0.00000
     12       0.5865      0.00000
     13       0.5865      0.00000
     14       0.6952      0.00000
     15       0.6952      0.00000
     16       0.6952      0.00000
     17       1.1042      0.00000
     18       1.1042      0.00000
     19       1.1042      0.00000
     20       1.2436      0.00000
     21       1.2436      0.00000
     22       1.2933      0.00000
     23       1.2933      0.00000
     24       1.2933      0.00000
     25       1.3704      0.00000
     26       1.4168      0.00000
     27       1.4168      0.00000
     28       1.4168      0.00000
     29       1.8086      0.00000
     30       1.8086      0.00000
     31       1.8086      0.00000
     32       1.8883      0.00000
     33       2.0235      0.00000
     34       2.0235      0.00000
     35       2.0235      0.00000
     36       2.0590      0.00000
     37       2.2000      0.00000
     38       2.2000      0.00000
     39       2.6470      0.00000
     40       2.6470      0.00000
     41       2.6470      0.00000
     42       2.7047      0.00000
     43       2.8423      0.00000
     44       2.8423      0.00000
     45       2.8423      0.00000
     46       2.9687      0.00000
     47       2.9687      0.00000
     48       3.0968      0.00000
     49       3.0968      0.00000
     50       3.0968      0.00000
     51       3.1877      0.00000
     52       3.1877      0.00000
     53       3.1877      0.00000
     54       3.2592      0.00000
     55       3.2592      0.00000
     56       3.2592      0.00000
     57       3.2859      0.00000
     58       3.2859      0.00000
     59       3.3210      0.00000
     60       3.3210      0.00000
     61       3.3210      0.00000
     62       3.3388      0.00000
     63       3.5037      0.00000
     64       3.5037      0.00000
     65       3.5037      0.00000
     66       3.5586      0.00000
     67       3.6474      0.00000
     68       3.6474      0.00000
     69       3.6474      0.00000
     70       3.6745      0.00000
     71       3.8638      0.00000
     72       3.8638      0.00000
     73       3.8911      0.00000
     74       3.8911      0.00000
     75       3.8911      0.00000
     76       3.9068      0.00000
     77       3.9068      0.00000
     78       3.9068      0.00000
     79       3.9309      0.00000
     80       3.9309      0.00000
     81       3.9309      0.00000
     82       3.9377      0.00000
     83       3.9377      0.00000
     84       3.9377      0.00000
     85       3.9568      0.00000
     86       3.9568      0.00000
     87       4.3254      0.00000
     88       4.3254      0.00000
     89       4.3254      0.00000
     90       4.4977      0.00000
     91       4.9492      0.00000
     92       4.9492      0.00000
     93       4.9492      0.00000
     94       4.9940      0.00000
     95       4.9940      0.00000
     96       5.0816      0.00000
     97       5.0816      0.00000
     98       5.0816      0.00000
     99       5.3624      0.00000
    100       5.3624      0.00000
    101       5.3624      0.00000
    102       5.4336      0.00000
    103       5.4354      0.00000
    104       5.4355      0.00000
    105       5.5649      0.00000
    106       5.5649      0.00000
    107       5.5649      0.00000
    108       5.5874      0.00000
    109       5.6480      0.00000
    110       5.6480      0.00000
    111       5.6481      0.00000
    112       5.7560      0.00000
    113       5.8733      0.00000
    114       5.8733      0.00000
    115       5.8733      0.00000
    116       5.9030      0.00000
    117       5.9030      0.00000
    118       5.9030      0.00000
    119       5.9045      0.00000
    120       5.9045      0.00000
    121       5.9350      0.00000
    122       5.9350      0.00000
    123       5.9350      0.00000
    124       5.9411      0.00000
    125       5.9411      0.00000
    126       5.9411      0.00000
    127       5.9454      0.00000
    128       5.9454      0.00000
    129       6.2034      0.00000
    130       6.2034      0.00000
    131       6.2034      0.00000
    132       6.2621      0.00000
    133       6.2663      0.00000
    134       6.2663      0.00000
    135       6.4443      0.00000
    136       6.4443      0.00000
    137       6.4443      0.00000
    138       6.4448      0.00000
    139       6.4448      0.00000
    140       6.4448      0.00000
    141       6.4638      0.00000
    142       6.4638      0.00000
    143       6.4638      0.00000
    144       6.4736      0.00000
    145       6.4736      0.00000
    146       6.4736      0.00000
    147       6.6304      0.00000
    148       6.6304      0.00000
    149       6.6341      0.00000
    150       6.6341      0.00000
    151       6.6341      0.00000
    152       6.6409      0.00000
    153       6.9037      0.00000
    154       6.9037      0.00000
    155       6.9037      0.00000
    156       7.0137      0.00000
    157       7.0840      0.00000
    158       7.0840      0.00000
    159       7.0840      0.00000
    160       7.1261      0.00000
    161       7.1261      0.00000
    162       7.1646      0.00000
    163       7.1646      0.00000
    164       7.1646      0.00000
    165       7.1668      0.00000
    166       7.1715      0.00000
    167       7.1715      0.00000
    168       7.1715      0.00000
    169       7.1847      0.00000
    170       7.1847      0.00000
    171       7.1847      0.00000
    172       7.2182      0.00000
    173       7.2182      0.00000
    174       7.2182      0.00000
    175       7.2290      0.00000
    176       7.2290      0.00000
    177       7.5736      0.00000
    178       7.5736      0.00000
    179       7.5736      0.00000
    180       7.6785      0.00000
    181       7.7234      0.00000
    182       7.7234      0.00000
    183       7.7234      0.00000
    184       7.7740      0.00000
    185       8.0252      0.00000
    186       8.0252      0.00000
    187       8.0252      0.00000
    188       8.1379      0.00000
    189       8.1718      0.00000
    190       8.1718      0.00000
    191       8.1718      0.00000
    192       8.1795      0.00000
    193       8.1795      0.00000
    194       8.2222      0.00000
    195       8.2222      0.00000
    196       8.2222      0.00000
    197       8.5348      0.00000
    198       8.5348      0.00000
    199       8.5348      0.00000
    200       8.5367      0.00000
    201       8.5367      0.00000
    202       8.5637      0.00000
    203       8.5637      0.00000
    204       8.5637      0.00000
    205       8.5802      0.00000
    206       8.5802      0.00000
    207       8.5802      0.00000
    208       8.5936      0.00000
    209       8.8390      0.00000
    210       8.8390      0.00000
    211       8.8390      0.00000
    212       8.9043      0.00000
    213       8.9043      0.00000
    214       8.9043      0.00000
    215       8.9079      0.00000
    216       8.9299      0.00000
    217       9.0485      0.00000
    218       9.0485      0.00000
    219       9.0808      0.00000
    220       9.0808      0.00000
    221       9.0808      0.00000
    222       9.0916      0.00000
    223       9.0916      0.00000
    224       9.0916      0.00000
    225       9.1100      0.00000
    226       9.1100      0.00000
    227       9.1100      0.00000
    228       9.1208      0.00000
    229       9.1208      0.00000
    230       9.1208      0.00000
    231       9.1302      0.00000
    232       9.1302      0.00000
    233       9.2508      0.00000
    234       9.2508      0.00000
    235       9.2649      0.00000
    236       9.2649      0.00000
    237       9.2649      0.00000
    238       9.2708      0.00000
    239       9.2708      0.00000
    240       9.2708      0.00000
    241       9.2798      0.00000
    242       9.2798      0.00000
    243       9.2798      0.00000
    244       9.2872      0.00000
    245       9.2872      0.00000
    246       9.2872      0.00000
    247       9.2972      0.00000
    248       9.2972      0.00000
    249       9.3154      0.00000
    250       9.3269      0.00000
    251       9.3269      0.00000
    252       9.3269      0.00000
    253       9.3347      0.00000
    254       9.3347      0.00000
    255       9.3347      0.00000
    256       9.3403      0.00000


--------------------------------------------------------------------------------------------------------


 soft charge-density along one line, spin component           1
         0         1         2         3         4         5         6         7         8         9
 total charge-density along one line
 
 pseudopotential strength for first ion, spin component:           1
-15.073  -0.000  -0.000  -0.000   0.000   4.903  -0.000   0.000
 -0.000 -15.073   0.000  -0.000  -0.000  -0.000   4.903  -0.000
 -0.000   0.000 -15.073   0.000  -0.000   0.000  -0.000   4.903
 -0.000  -0.000   0.000 -15.073   0.000  -0.000   0.000  -0.000
  0.000  -0.000  -0.000   0.000 -15.073  -0.000   0.000  -0.000
  4.903  -0.000   0.000  -0.000  -0.000  -0.509   0.000  -0.000
 -0.000   4.903  -0.000   0.000   0.000   0.000  -0.509   0.000
  0.000  -0.000   4.903  -0.000  -0.000  -0.000   0.000  -0.509
 -0.000   0.000  -0.000   4.903  -0.000   0.000   0.000   0.000
 -0.000   0.000  -0.000  -0.000   4.903   0.000  -0.000   0.000
  0.000   0.000   0.000   0.000   0.000  -0.000  -0.000  -0.000
  0.000   0.000   0.000   0.000   0.000  -0.000  -0.000  -0.000
  0.000   0.000  -0.000  -0.000  -0.000  -0.000  -0.000  -0.000
 -0.000   0.000   0.000   0.000  -0.000   0.000  -0.000   0.000
  0.000  -0.000  -0.000   0.000   0.000  -0.000   0.000  -0.000
 -0.000  -0.000   0.000  -0.000   0.000   0.000   0.000  -0.000
 -0.000  -0.000  -0.000  -0.000  -0.000   0.000   0.000   0.000
 -0.000  -0.000   0.000  -0.000  -0.000   0.000   0.000  -0.000
 total augmentation occupancy for first ion, spin component:           1
  1.999   0.000  -0.000   0.000   0.000  -0.001   0.000  -0.000   0.000  -0.000   0.000   0.000   0.000   0.000   0.000   0.000
  0.000   1.999   0.000   0.000  -0.000   0.000  -0.001   0.000   0.000  -0.000   0.000   0.000   0.000   0.000   0.000   0.000
 -0.000   0.000   1.999   0.000   0.000  -0.000   0.000  -0.001   0.000   0.000  -0.000  -0.000  -0.000   0.000  -0.000  -0.000
  0.000   0.000   0.000   1.999   0.000   0.000   0.000   0.000  -0.001   0.000   0.000   0.000   0.000   0.000   0.000   0.000
  0.000  -0.000   0.000   0.000   1.999  -0.000  -0.000   0.000   0.000  -0.001   0.000   0.000  -0.000  -0.000   0.000  -0.000
 -0.001   0.000  -0.000   0.000  -0.000   0.000  -0.000   0.000  -0.000   0.000   0.000  -0.000  -0.000  -0.000  -0.000  -0.000
  0.000  -0.001   0.000   0.000  -0.000  -0.000   0.000  -0.000  -0.000   0.000   0.000  -0.000  -0.000  -0.000  -0.000  -0.000
 -0.000   0.000  -0.001   0.000   0.000   0.000  -0.000   0.000  -0.000  -0.000   0.000   0.000   0.000  -0.000   0.000   0.000
  0.000   0.000   0.000  -0.001   0.000  -0.000  -0.000  -0.000   0.000  -0.000   0.000  -0.000  -0.000  -0.000  -0.000  -0.000
 -0.000  -0.000   0.000   0.000  -0.001   0.000   0.000  -0.000  -0.000   0.000  -0.000  -0.000   0.000   0.000  -0.000   0.000
  0.000   0.000  -0.000   0.000   0.000   0.000   0.000   0.000   0.000  -0.000   2.000   0.002  -0.000  -0.000  -0.000   0.000
  0.000   0.000  -0.000   0.000   0.000  -0.000  -0.000   0.000  -0.000  -0.000   0.002   0.000  -0.000  -0.000  -0.000   0.000
  0.000   0.000  -0.000   0.000  -0.000  -0.000  -0.000   0.000  -0.000   0.000  -0.000  -0.000   0.000   0.000   0.000   0.000
  0.000   0.000   0.000   0.000  -0.000  -0.000  -0.000  -0.000  -0.000   0.000  -0.000  -0.000   0.000   0.000   0.000  -0.000
  0.000   0.000  -0.000   0.000   0.000  -0.000  -0.000   0.000  -0.000  -0.000  -0.000  -0.000   0.000   0.000   0.000  -0.000
  0.000   0.000  -0.000   0.000  -0.000  -0.000  -0.000   0.000  -0.000   0.000   0.000   0.000   0.000  -0.000  -0.000   0.000
  0.000   0.000   0.000   0.000  -0.000  -0.000  -0.000  -0.000  -0.000   0.000   0.000   0.000  -0.000   0.000  -0.000  -0.000
  0.000   0.000  -0.000   0.000   0.000  -0.000  -0.000   0.000  -0.000  -0.000   0.000   0.000  -0.000  -0.000   0.000  -0.000


------------------------ aborting loop because EDIFF is reached ----------------------------------------


    FORLOC:  cpu time    0.0009: real time    0.0023
    FORNL :  cpu time    0.0367: real time    0.0476
    FORCOR:  cpu time    1.1205: real time    1.1317
    OFIELD:  cpu time    0.0003: real time    0.0043

 VOLUME and BASIS-vectors are now :
 -----------------------------------------------------------------------------
  energy-cutoff  :      520.00
  volume of cell :     3375.00
      direct lattice vectors                 reciprocal lattice vectors
    15.000000000  0.000000000  0.000000000     0.066666667  0.000000000  0.000000000
     0.000000000 15.000000000  0.000000000     0.000000000  0.066666667  0.000000000
     0.000000000  0.000000000 15.000000000     0.000000000  0.000000000  0.066666667

  length of vectors
    15.000000000 15.000000000 15.000000000     0.066666667  0.066666667  0.066666667


 FORCES acting on ions:
    Electron-Ion                     Ewald-Force                    Non-Local-Force
 -----------------------------------------------------------------------------------------------
   0.902E-04 0.914E-04 0.106E-03   -.195E-16 0.263E-16 -.546E-16   -.920E-03 -.921E-03 -.882E-03
 -----------------------------------------------------------------------------------------------
   0.956E-04 0.968E-04 0.111E-03   -.195E-16 0.263E-16 -.546E-16   -.920E-03 -.921E-03 -.882E-03
 
 
 POSITION                                       TOTAL-FORCE (eV/Angst)
 -----------------------------------------------------------------------------------
      0.15000      0.15000     11.26500        -0.000825     -0.000824     -0.000770
 -----------------------------------------------------------------------------------
    total drift:                               -0.000825     -0.000824     -0.000770


--------------------------------------------------------------------------------------------------------



  FREE ENERGIE OF THE ION-ELECTRON SYSTEM (eV)
  ---------------------------------------------------
  free  energy   TOTEN  =        -0.16474493 eV

  energy  without entropy=       -0.16474493  energy(sigma->0) =       -0.16474493
 


--------------------------------------------------------------------------------------------------------


    POTLOK:  cpu time    1.4292: real time    1.4442


--------------------------------------------------------------------------------------------------------


 stress matrix after NEB project (eV)
      0.00000      0.00000      0.00000
      0.00000      0.00000      0.00000
      0.00000      0.00000      0.00000
  FORCES: max atom, RMS     0.001398    0.001398
  FORCE total and by dimension    0.001398    0.000825
  Stress total and by dimension    0.000000    0.000000
     LOOP+:  cpu time   75.7956: real time   76.7707
    4ORBIT:  cpu time    0.0000: real time    0.0000

 total amount of memory used by VASP MPI-rank0   115228. kBytes
=======================================================================

   base      :      30000. kBytes
   nonl-proj :      14540. kBytes
   fftplans  :       7479. kBytes
   grid      :      58820. kBytes
   one-center:         15. kBytes
   wavefun   :       4374. kBytes
 
  
  
 General timing and accounting informations for this job:
 ========================================================
  
                  Total CPU time used (sec):       86.386
                            User time (sec):       83.907
                          System time (sec):        2.479
                         Elapsed time (sec):       90.285
  
                   Maximum memory used (kb):      407312.
                   Average memory used (kb):           0.
  
                          Minor page faults:        47991
                          Major page faults:            0
                 Voluntary context switches:         2410
