       N       E                     dE             d eps       ncg     rms          rms(c)
DAV:   1    -0.471303964463E+03   -0.47130E+03   -0.11404E+02  8192   0.128E+01    0.301E+01
DAV:   2    -0.448139581407E+03    0.23164E+02   -0.32986E+01  5120   0.109E+01    0.149E+01
DAV:   3    -0.441955021979E+03    0.61846E+01   -0.11047E+01  7680   0.438E+00    0.728E+00
DAV:   4    -0.440900768688E+03    0.10543E+01   -0.38818E+00  8192   0.234E+00    0.217E+00
DAV:   5    -0.441079003543E+03   -0.17823E+00   -0.20337E-01  6144   0.559E-01    0.110E+00
DAV:   6    -0.441192029444E+03   -0.11303E+00   -0.78195E-02  6912   0.315E-01    0.466E-01
DAV:   7    -0.441303147706E+03   -0.11112E+00   -0.99600E-03  7936   0.139E-01    0.308E-01
DAV:   8    -0.441376939289E+03   -0.73792E-01   -0.36068E-02  8192   0.206E-01    0.180E-01
DAV:   9    -0.441394504627E+03   -0.17565E-01   -0.18704E-02  7680   0.144E-01    0.109E-01
DAV:  10    -0.441413845404E+03   -0.19341E-01   -0.73238E-03  7680   0.845E-02    0.627E-02
DAV:  11    -0.441427519269E+03   -0.13674E-01   -0.18233E-03  6912   0.338E-02    0.381E-02
DAV:  12    -0.441436341804E+03   -0.88225E-02   -0.72531E-04  7680   0.299E-02    0.230E-02
DAV:  13    -0.441441400866E+03   -0.50591E-02   -0.44279E-04  7424   0.179E-02    0.132E-02
DAV:  14    -0.441443799430E+03   -0.23986E-02   -0.21763E-04  5888   0.130E-02    0.734E-03
DAV:  15    -0.441444889365E+03   -0.10899E-02   -0.63369E-05  4608   0.662E-03    0.462E-03
DAV:  16    -0.441445528919E+03   -0.63955E-03   -0.48795E-05  5120   0.482E-03    0.264E-03
DAV:  17    -0.441445737612E+03   -0.20869E-03   -0.16569E-05  5632   0.295E-03    0.173E-03
DAV:  18    -0.441445836213E+03   -0.98601E-04   -0.59751E-06  7424   0.185E-03    0.107E-03
DAV:  19    -0.441445891670E+03   -0.55457E-04   -0.25300E-06  6400   0.143E-03    0.651E-04
DAV:  20    -0.441445918504E+03   -0.26835E-04   -0.62969E-07  6400   0.896E-04    0.451E-04
DAV:  21    -0.441445935935E+03   -0.17431E-04   -0.33551E-07  7680   0.600E-04    0.278E-04
DAV:  22    -0.441445942837E+03   -0.69021E-05   -0.11697E-07  6144   0.331E-04
   1 F= -.44316923E+03 E0= -.44316063E+03  d E =-.443169E+03  mag=     0.0003
       N       E                     dE             d eps       ncg     rms          rms(c)
DAV:   1    -0.441446154867E+03   -0.21893E-03   -0.42994E-02  7168   0.325E-01    0.477E-02
DAV:   2    -0.441446115943E+03    0.38924E-04   -0.42938E-04  6400   0.361E-02    0.254E-02
DAV:   3    -0.441446105432E+03    0.10512E-04   -0.53820E-05  7936   0.116E-02    0.728E-03
DAV:   4    -0.441446106002E+03   -0.57072E-06   -0.58485E-06  4608   0.367E-03
   2 F= -.44316940E+03 E0= -.44316066E+03  d E =-.162596E-03  mag=     0.0001
       N       E                     dE             d eps       ncg     rms          rms(c)
DAV:   1    -0.441446286859E+03   -0.18143E-03   -0.95996E-03  7680   0.155E-01    0.224E-02
DAV:   2    -0.441446276814E+03    0.10045E-04   -0.93646E-05  6400   0.167E-02    0.117E-02
DAV:   3    -0.441446274806E+03    0.20073E-05   -0.10090E-05  7424   0.510E-03
   3 F= -.44316955E+03 E0= -.44316085E+03  d E =-.155200E-03  mag=     0.0001
