C  N  Ge                                
   1.00000000000000     
    12.3000000000000007    0.0000000000000000    0.0000000000000000
    -6.1499999999999977   10.6521124665485960    0.0000000000000000
     0.0000000000000000    0.0000000000000000   20.0000000000000000
   C    N    Ge
    44     4     1
Direct
  0.9992601657945294  0.0007398464995803  0.7417726758615290
  0.1317060881453744  0.0650399299044367  0.7415888897645253
  0.1983713947730989  0.9983930571601958  0.7415316037189301
  0.3309410237977837  0.0638098095911164  0.7449620152429983
  0.3986484269431726  0.9978593670333296  0.7469159745659708
  0.5316244306566674  0.0672255816922033  0.7498265411254718
  0.5992270001643718  0.0007001578862748  0.7494898701058694
  0.7323867801230460  0.0693831444663527  0.7495441540774745
  0.7994966521682522  0.0023275558711598  0.7467704184919087
  0.9323836261678983  0.0676163736216491  0.7448168561820423
  0.9976724411620035  0.2005033545731115  0.7467704192962890
  0.1311499677374015  0.2653112694088309  0.7470044954896254
  0.1971041394445224  0.1975901324514936  0.7450341027957313
  0.3288217375195652  0.2631633078654043  0.7501442807194791
  0.3964061786191802  0.1954503926061523  0.7501406156853301
  0.5934345267063401  0.2019047062977215  0.7540718728412340
  0.7286211390091111  0.2713788555682195  0.7549360200522277
  0.7964467045995847  0.2035533020397706  0.7514995258045986
  0.9306168540135643  0.2676132157192132  0.7495441533253230
  0.9992998324583270  0.4007730076077342  0.7494898702375473
  0.1340594825814419  0.4658877938722867  0.7494204764664565
  0.2005380547280791  0.3982584522810078  0.7498007348189756
  0.3352122875572813  0.4600930652257897  0.7540381408961714
  0.7980953406781944  0.4065655673379404  0.7540718674775375
  0.9327744078234064  0.4683755470972234  0.7498265417934188
  0.0021405308987540  0.6013515773846668  0.7469159736908615
  0.1356315201380909  0.6661409242642761  0.7466282845017379
  0.2027397157026236  0.5990183619762786  0.7493920653029528
  0.3368647081629475  0.6631352949766940  0.7513207111357899
  0.4047091420942206  0.5952908676124690  0.7548445607781414
  0.5399069468773529  0.6647877034976927  0.7540381412390664
  0.7368364020157427  0.6711783616302579  0.7501442818574238
  0.8045497572323754  0.6035938802337519  0.7501405778625052
  0.9361896731265390  0.6690588259261397  0.7449620296771998
  0.0016069241422296  0.8016285303075640  0.7415316062358873
  0.1340804700440058  0.8659195782622572  0.7416867027884233
  0.2009561197397492  0.7990438646830154  0.7446272994968558
  0.3338591077163922  0.8643685012120373  0.7466282859978701
  0.4009816302970752  0.7972602781008872  0.7493920651184536
  0.5341122120793368  0.8659405116224421  0.7494204761576849
  0.6017415340554919  0.7994619395876791  0.7498007350907671
  0.7346887389400515  0.8688500221897081  0.7470044954612701
  0.8024099204207172  0.8028959303497197  0.7450340994867510
  0.9349600447013999  0.8682939237994703  0.7415888905999910
  0.5237402438331518  0.2610122363458836  0.7569243885155998
  0.3942975821743185  0.3904019549969605  0.7569804661510661
  0.7389875375036843  0.4762596828992545  0.7569244015256229
  0.6095979090167895  0.6057024085487410  0.7569804738976977
  0.5667039457147390  0.4332960459139737  0.8050758705937150
 
  0.00000000E+00  0.00000000E+00  0.00000000E+00
  0.00000000E+00  0.00000000E+00  0.00000000E+00
  0.00000000E+00  0.00000000E+00  0.00000000E+00
  0.00000000E+00  0.00000000E+00  0.00000000E+00
  0.00000000E+00  0.00000000E+00  0.00000000E+00
  0.00000000E+00  0.00000000E+00  0.00000000E+00
  0.00000000E+00  0.00000000E+00  0.00000000E+00
  0.00000000E+00  0.00000000E+00  0.00000000E+00
  0.00000000E+00  0.00000000E+00  0.00000000E+00
  0.00000000E+00  0.00000000E+00  0.00000000E+00
  0.00000000E+00  0.00000000E+00  0.00000000E+00
  0.00000000E+00  0.00000000E+00  0.00000000E+00
  0.00000000E+00  0.00000000E+00  0.00000000E+00
  0.00000000E+00  0.00000000E+00  0.00000000E+00
  0.00000000E+00  0.00000000E+00  0.00000000E+00
  0.00000000E+00  0.00000000E+00  0.00000000E+00
  0.00000000E+00  0.00000000E+00  0.00000000E+00
  0.00000000E+00  0.00000000E+00  0.00000000E+00
  0.00000000E+00  0.00000000E+00  0.00000000E+00
  0.00000000E+00  0.00000000E+00  0.00000000E+00
  0.00000000E+00  0.00000000E+00  0.00000000E+00
  0.00000000E+00  0.00000000E+00  0.00000000E+00
  0.00000000E+00  0.00000000E+00  0.00000000E+00
  0.00000000E+00  0.00000000E+00  0.00000000E+00
  0.00000000E+00  0.00000000E+00  0.00000000E+00
  0.00000000E+00  0.00000000E+00  0.00000000E+00
  0.00000000E+00  0.00000000E+00  0.00000000E+00
  0.00000000E+00  0.00000000E+00  0.00000000E+00
  0.00000000E+00  0.00000000E+00  0.00000000E+00
  0.00000000E+00  0.00000000E+00  0.00000000E+00
  0.00000000E+00  0.00000000E+00  0.00000000E+00
  0.00000000E+00  0.00000000E+00  0.00000000E+00
  0.00000000E+00  0.00000000E+00  0.00000000E+00
  0.00000000E+00  0.00000000E+00  0.00000000E+00
  0.00000000E+00  0.00000000E+00  0.00000000E+00
  0.00000000E+00  0.00000000E+00  0.00000000E+00
  0.00000000E+00  0.00000000E+00  0.00000000E+00
  0.00000000E+00  0.00000000E+00  0.00000000E+00
  0.00000000E+00  0.00000000E+00  0.00000000E+00
  0.00000000E+00  0.00000000E+00  0.00000000E+00
  0.00000000E+00  0.00000000E+00  0.00000000E+00
  0.00000000E+00  0.00000000E+00  0.00000000E+00
  0.00000000E+00  0.00000000E+00  0.00000000E+00
  0.00000000E+00  0.00000000E+00  0.00000000E+00
  0.00000000E+00  0.00000000E+00  0.00000000E+00
  0.00000000E+00  0.00000000E+00  0.00000000E+00
  0.00000000E+00  0.00000000E+00  0.00000000E+00
  0.00000000E+00  0.00000000E+00  0.00000000E+00
  0.00000000E+00  0.00000000E+00  0.00000000E+00
