C  N  Eu                                
   1.00000000000000     
    12.3000000000000007    0.0000000000000000    0.0000000000000000
    -6.1499999999999977   10.6521124665485960    0.0000000000000000
     0.0000000000000000    0.0000000000000000   20.0000000000000000
   C    N    Eu
    44     4     1
Direct
  0.9994390153213715  0.0005594729746008  0.7422570209432209
  0.1321213064932749  0.0654139037849219  0.7429062368833215
  0.1987734307200526  0.9987416545739336  0.7430827778315603
  0.3312729469016844  0.0644361852650732  0.7463005395933848
  0.3987568365828835  0.9981655475042785  0.7460887811279805
  0.5320743186579407  0.0666665360900609  0.7478357373490142
  0.5995315509594902  0.0005276286804943  0.7462579138556366
  0.7325739059477742  0.0687875926586585  0.7465525046877916
  0.7997002001954526  0.0016713878316779  0.7448304739469478
  0.9326710693747343  0.0673302762862278  0.7437092815962031
  0.9983274637709413  0.2003004423565428  0.7448299119210872
  0.1315335689164314  0.2654338707268522  0.7458930865215193
  0.1978131427011575  0.1979226793318318  0.7460686182432424
  0.3298900241700551  0.2644500413407656  0.7526793350548929
  0.3977871322937432  0.1965066355498664  0.7528291172809604
  0.5943186093028031  0.2001961574414536  0.7538401723931542
  0.7296293857124567  0.2703704352269511  0.7534087227469612
  0.7971781514600592  0.2028216765362387  0.7486635324869509
  0.9312152211181016  0.2674273885825472  0.7465527663823155
  0.9994740153720655  0.4004675371815694  0.7462582446831548
  0.1337852734111138  0.4662291333753501  0.7461792196066597
  0.1999569999222786  0.3987310547596933  0.7475611820986926
  0.3334965661435661  0.4610094059868999  0.7536148463776372
  0.7998013973223337  0.4056826875040258  0.7538411858086462
  0.9333358418683275  0.4679267303426684  0.7478352159149892
  0.0018341339322987  0.6012415973887784  0.7460883088338902
  0.1349890437596884  0.6663441572241880  0.7449786307982152
  0.2021220577677241  0.5992664091332215  0.7465364039472249
  0.3361182613033833  0.6638817435122703  0.7486158464432435
  0.4036850550522786  0.5963158881922864  0.7531692992124802
  0.5389905996957154  0.6665033397783093  0.7536171699213912
  0.7355505201612972  0.6701063430913479  0.7526794282841892
  0.8034943544346619  0.6022112350188992  0.7528287870034447
  0.9355649893660425  0.6687279877714473  0.7463008347858491
  0.0012580450716158  0.8012273205292999  0.7430832033994363
  0.1339329537463599  0.8660668638237681  0.7425162232137054
  0.2006783164531285  0.7993214595565092  0.7440068382661877
  0.3336548993316413  0.8650119362187922  0.7449785730043672
  0.4007323963889106  0.7978761704296887  0.7465360752941520
  0.5337712280521388  0.8662137818019461  0.7461788539340759
  0.6012694756157302  0.8000427262812124  0.7475625957153510
  0.7345665327614058  0.8684664697127289  0.7458951239307937
  0.8020779757442825  0.8021855238234038  0.7460663787295019
  0.9345839817016993  0.8678767352578588  0.7429052472577097
  0.5257803521026361  0.2595789670354662  0.7606897452697297
  0.3928796480962972  0.3924408471962763  0.7605337258919675
  0.7404237142230627  0.4742182897336633  0.7606804120804540
  0.6075616108089291  0.6071180325322842  0.7605419831853126
  0.5666104797889701  0.4333901130631688  0.8241338862614214
 
  0.00000000E+00  0.00000000E+00  0.00000000E+00
  0.00000000E+00  0.00000000E+00  0.00000000E+00
  0.00000000E+00  0.00000000E+00  0.00000000E+00
  0.00000000E+00  0.00000000E+00  0.00000000E+00
  0.00000000E+00  0.00000000E+00  0.00000000E+00
  0.00000000E+00  0.00000000E+00  0.00000000E+00
  0.00000000E+00  0.00000000E+00  0.00000000E+00
  0.00000000E+00  0.00000000E+00  0.00000000E+00
  0.00000000E+00  0.00000000E+00  0.00000000E+00
  0.00000000E+00  0.00000000E+00  0.00000000E+00
  0.00000000E+00  0.00000000E+00  0.00000000E+00
  0.00000000E+00  0.00000000E+00  0.00000000E+00
  0.00000000E+00  0.00000000E+00  0.00000000E+00
  0.00000000E+00  0.00000000E+00  0.00000000E+00
  0.00000000E+00  0.00000000E+00  0.00000000E+00
  0.00000000E+00  0.00000000E+00  0.00000000E+00
  0.00000000E+00  0.00000000E+00  0.00000000E+00
  0.00000000E+00  0.00000000E+00  0.00000000E+00
  0.00000000E+00  0.00000000E+00  0.00000000E+00
  0.00000000E+00  0.00000000E+00  0.00000000E+00
  0.00000000E+00  0.00000000E+00  0.00000000E+00
  0.00000000E+00  0.00000000E+00  0.00000000E+00
  0.00000000E+00  0.00000000E+00  0.00000000E+00
  0.00000000E+00  0.00000000E+00  0.00000000E+00
  0.00000000E+00  0.00000000E+00  0.00000000E+00
  0.00000000E+00  0.00000000E+00  0.00000000E+00
  0.00000000E+00  0.00000000E+00  0.00000000E+00
  0.00000000E+00  0.00000000E+00  0.00000000E+00
  0.00000000E+00  0.00000000E+00  0.00000000E+00
  0.00000000E+00  0.00000000E+00  0.00000000E+00
  0.00000000E+00  0.00000000E+00  0.00000000E+00
  0.00000000E+00  0.00000000E+00  0.00000000E+00
  0.00000000E+00  0.00000000E+00  0.00000000E+00
  0.00000000E+00  0.00000000E+00  0.00000000E+00
  0.00000000E+00  0.00000000E+00  0.00000000E+00
  0.00000000E+00  0.00000000E+00  0.00000000E+00
  0.00000000E+00  0.00000000E+00  0.00000000E+00
  0.00000000E+00  0.00000000E+00  0.00000000E+00
  0.00000000E+00  0.00000000E+00  0.00000000E+00
  0.00000000E+00  0.00000000E+00  0.00000000E+00
  0.00000000E+00  0.00000000E+00  0.00000000E+00
  0.00000000E+00  0.00000000E+00  0.00000000E+00
  0.00000000E+00  0.00000000E+00  0.00000000E+00
  0.00000000E+00  0.00000000E+00  0.00000000E+00
  0.00000000E+00  0.00000000E+00  0.00000000E+00
  0.00000000E+00  0.00000000E+00  0.00000000E+00
  0.00000000E+00  0.00000000E+00  0.00000000E+00
  0.00000000E+00  0.00000000E+00  0.00000000E+00
  0.00000000E+00  0.00000000E+00  0.00000000E+00
