       N       E                     dE             d eps       ncg     rms          ort
DAV:   1     0.331675597613E+01    0.33168E+01   -0.39845E+03   256   0.333E+01
DAV:   2    -0.162283008616E+01   -0.49396E+01   -0.49246E+01   256   0.220E+00
DAV:   3    -0.162752295376E+01   -0.46929E-02   -0.46929E-02   256   0.793E-02
DAV:   4    -0.162754556095E+01   -0.22607E-04   -0.22607E-04   256   0.812E-03
DAV:   5    -0.162754560378E+01   -0.42834E-07   -0.42885E-07   256   0.237E-04
SDA:   6     0.408904271803E+01    0.57166E+01   -0.42885E-07   256   0.949E+01 0.000E+00
CGA:   7     0.473162211287E+01    0.64258E+00   -0.26647E+01   256   0.425E+02-0.222E+02
CGA:   8    -0.159093270902E+00   -0.48907E+01   -0.47312E+01   256   0.434E+01 0.750E+00
CGA:   9    -0.767058582019E+00   -0.60797E+00   -0.53322E+00   256   0.648E+00-0.412E+00
CGA:  10    -0.852735643352E+00   -0.85677E-01   -0.79465E-01   256   0.127E+00-0.439E-01
CGA:  11    -0.878048790415E+00   -0.25313E-01   -0.25321E-01   256   0.527E-01-0.688E-03
CGA:  12    -0.890405300819E+00   -0.12357E-01   -0.12356E-01   256   0.263E-01-0.403E-03
CGA:  13    -0.879352394132E+00    0.11053E-01   -0.83217E-02   256   0.819E+00-0.807E-01
CGA:  14    -0.110864700768E+01   -0.22929E+00   -0.17859E+00   256   0.326E+00-0.304E+00
CGA:  15    -0.173023927476E+01   -0.62159E+00    0.10776E-01   256   0.343E+00-0.100E+00
CGA:  16    -0.181069460911E+01   -0.80455E-01   -0.79610E-01   256   0.148E+00-0.274E-01
CGA:  17    -0.183749836013E+01   -0.26804E-01   -0.26894E-01   256   0.509E-01-0.121E-03
CGA:  18    -0.185225260279E+01   -0.14754E-01   -0.14793E-01   256   0.236E-01 0.315E-03
CGA:  19    -0.185835696973E+01   -0.61044E-02   -0.61246E-02   256   0.916E-02 0.103E-03
CGA:  20    -0.186121341212E+01   -0.28564E-02   -0.28575E-02   256   0.393E-02 0.317E-04
CGA:  21    -0.186232384861E+01   -0.11104E-02   -0.11111E-02   256   0.151E-02 0.813E-05
CGA:  22    -0.186291380442E+01   -0.58996E-03   -0.58966E-03   256   0.113E-02 0.482E-05
CGA:  23    -0.186342485708E+01   -0.51105E-03   -0.51059E-03   256   0.977E-03 0.384E-05
CGA:  24    -0.186399224223E+01   -0.56739E-03   -0.56721E-03   256   0.137E-02 0.821E-06
CGA:  25    -0.186497042291E+01   -0.97818E-03   -0.98142E-03   256   0.220E-02-0.930E-05
CGA:  26    -0.186630879916E+01   -0.13384E-02   -0.13548E-02   256   0.269E-02-0.606E-04
CGA:  27    -0.186765522223E+01   -0.13464E-02   -0.13595E-02   256   0.246E-02-0.758E-04
CGA:  28    -0.186866518708E+01   -0.10100E-02   -0.10112E-02   256   0.173E-02-0.214E-04
CGA:  29    -0.186938861025E+01   -0.72342E-03   -0.72316E-03   256   0.128E-02 0.771E-05
CGA:  30    -0.186995544163E+01   -0.56683E-03   -0.56615E-03   256   0.896E-03 0.108E-04
CGA:  31    -0.187031468867E+01   -0.35925E-03   -0.35924E-03   256   0.450E-03 0.100E-05
CGA:  32    -0.187048021051E+01   -0.16552E-03   -0.16548E-03   256   0.197E-03-0.164E-05
CGA:  33    -0.187055137404E+01   -0.71164E-04   -0.71196E-04   256   0.796E-04 0.826E-06
CGA:  34    -0.187057999929E+01   -0.28625E-04   -0.28652E-04   256   0.363E-04 0.785E-06
CGA:  35    -0.187059619065E+01   -0.16191E-04   -0.16209E-04   256   0.242E-04-0.356E-06
CGA:  36    -0.187060830911E+01   -0.12118E-04   -0.12214E-04   256   0.227E-04-0.815E-06
CGA:  37    -0.187062267420E+01   -0.14365E-04   -0.14401E-04   256   0.315E-04-0.139E-06
CGA:  38    -0.187064318822E+01   -0.20514E-04   -0.20373E-04   256   0.429E-04 0.588E-06
CGA:  39    -0.187067387186E+01   -0.30684E-04   -0.30691E-04   256   0.584E-04-0.303E-07
CGA:  40    -0.187070711654E+01   -0.33245E-04   -0.33348E-04   256   0.536E-04-0.803E-06
CGA:  41    -0.187073374088E+01   -0.26624E-04   -0.26610E-04   256   0.382E-04 0.231E-06
CGA:  42    -0.187074957834E+01   -0.15837E-04   -0.15868E-04   256   0.183E-04 0.894E-06
CGA:  43    -0.187075714745E+01   -0.75691E-05   -0.75773E-05   256   0.882E-05 0.204E-06
   1 F= -.18707571E+01 E0= -.18707571E+01  d E =-.123250E-25  mag=     1.0000
