       N       E                     dE             d eps       ncg     rms          ort
DAV:   1     0.112442077117E+04    0.11244E+04   -0.85871E+04  1024   0.641E+02
DAV:   2    -0.395658644545E+03   -0.15201E+04   -0.15169E+04  1024   0.109E+02
DAV:   3    -0.465257521637E+03   -0.69599E+02   -0.69599E+02  1024   0.350E+01
DAV:   4    -0.465302567486E+03   -0.45046E-01   -0.45046E-01  1024   0.109E+00
DAV:   5    -0.465302814172E+03   -0.24669E-03   -0.24669E-03  1024   0.855E-02
SDA:   6    -0.418709371129E+03    0.46593E+02   -0.24669E-03  1024   0.610E+02 0.000E+00
CGA:   7    -0.431973553667E+03   -0.13264E+02   -0.13276E+02  1024   0.712E+01 0.176E+00
CGA:   8    -0.433975403316E+03   -0.20018E+01   -0.19962E+01  1024   0.264E+01-0.153E-02
CGA:   9    -0.434768379268E+03   -0.79298E+00   -0.79815E+00  1024   0.107E+01-0.413E-01
CGA:  10    -0.435118908494E+03   -0.35053E+00   -0.35300E+00  1024   0.403E+00-0.172E-01
CGA:  11    -0.435239376899E+03   -0.12047E+00   -0.12079E+00  1024   0.110E+00-0.284E-02
CGA:  12    -0.435272017511E+03   -0.32641E-01   -0.32660E-01  1024   0.242E-01-0.163E-03
CGA:  13    -0.435279641682E+03   -0.76242E-02   -0.76179E-02  1024   0.510E-02 0.709E-04
CGA:  14    -0.435281349627E+03   -0.17079E-02   -0.17022E-02  1024   0.126E-02 0.558E-04
CGA:  15    -0.435281805523E+03   -0.45590E-03   -0.45224E-03  1024   0.353E-03 0.301E-04
CGA:  16    -0.435281947066E+03   -0.14154E-03   -0.13966E-03  1024   0.104E-03 0.129E-04
CGA:  17    -0.435281990971E+03   -0.43905E-04   -0.43596E-04  1024   0.302E-04 0.199E-05
CGA:  18    -0.435282003711E+03   -0.12740E-04   -0.13109E-04  1024   0.830E-05-0.220E-05
CGA:  19    -0.435282006950E+03   -0.32387E-05   -0.36379E-05  1024   0.256E-05-0.191E-05
   1 F= -.43692399E+03 E0= -.43692399E+03  d E =-.436924E+03
