       N       E                     dE             d eps       ncg     rms          ort
SDA:   1    -0.338731372504E+03   -0.33873E+03    0.00000E+00  3328   0.134E+03 0.000E+00
CGA:   2    -0.416418543922E+03   -0.77687E+02   -0.74571E+02  3328   0.551E+02 0.518E+01
CGA:   3    -0.434055632130E+03   -0.17637E+02   -0.17505E+02  3328   0.264E+02 0.954E+00
CGA:   4    -0.440913739539E+03   -0.68581E+01   -0.68421E+01  3328   0.160E+02 0.177E+00
CGA:   5    -0.443358729962E+03   -0.24450E+01   -0.24615E+01  3328   0.667E+01 0.387E-01
CGA:   6    -0.444668964765E+03   -0.13102E+01   -0.13107E+01  3328   0.242E+01-0.727E-02
CGA:   7    -0.445165014662E+03   -0.49605E+00   -0.49602E+00  3328   0.107E+01-0.323E-02
CGA:   8    -0.445377710887E+03   -0.21270E+00   -0.21265E+00  3328   0.348E+00-0.159E-02
CGA:   9    -0.445457292805E+03   -0.79582E-01   -0.79583E-01  3328   0.132E+00-0.193E-03
CGA:  10    -0.445487888959E+03   -0.30596E-01   -0.30595E-01  3328   0.478E-01 0.166E-04
CGA:  11    -0.445501018641E+03   -0.13130E-01   -0.13128E-01  3328   0.203E-01 0.165E-04
CGA:  12    -0.445506787188E+03   -0.57685E-02   -0.57692E-02  3328   0.845E-02-0.149E-04
CGA:  13    -0.445509338022E+03   -0.25508E-02   -0.25524E-02  3328   0.310E-02-0.193E-04
CGA:  14    -0.445510252049E+03   -0.91403E-03   -0.91470E-03  3328   0.102E-02-0.876E-05
CGA:  15    -0.445510556891E+03   -0.30484E-03   -0.30502E-03  3328   0.315E-03-0.227E-05
CGA:  16    -0.445510657269E+03   -0.10038E-03   -0.10041E-03  3328   0.107E-03-0.376E-06
CGA:  17    -0.445510694443E+03   -0.37174E-04   -0.37202E-04  3328   0.398E-04-0.271E-06
CGA:  18    -0.445510708932E+03   -0.14489E-04   -0.14534E-04  3328   0.152E-04-0.370E-06
CGA:  19    -0.445510714432E+03   -0.54998E-05   -0.55425E-05  3328   0.552E-05-0.369E-06
   1 F= -.44724281E+03 E0= -.44723388E+03  d E =-.178674E-01  mag=     0.0000
