 PAW_PBE C 08Apr2002
 4.00000000000000000
 parameters from PSCTR are:
   VRHFIN =C: s2p2
   LEXCH  = PE
   EATOM  =   147.1560 eV,   10.8157 Ry

   TITEL  = PAW_PBE C 08Apr2002
   LULTRA =        F    use ultrasoft PP ?
   IUNSCR =        0    unscreen: 0-lin 1-nonlin 2-no
   RPACOR =     .000    partial core radius
   POMASS =   12.011; ZVAL   =    4.000    mass and valenz
   RCORE  =    1.500    outmost cutoff radius
   RWIGS  =    1.630; RWIGS  =     .863    wigner-seitz radius (au A)
   ENMAX  =  400.000; ENMIN  =  300.000 eV
   ICORE  =        2    local potential
   LCOR   =        T    correct aug charges
   LPAW   =        T    paw PP
   EAUG   =  644.873
   DEXC   =     .000
   RMAX   =    2.266    core radius for proj-oper
   RAUG   =    1.300    factor for augmentation sphere
   RDEP   =    1.501    radius for radial grids
   RDEPT  =    1.300    core radius for aug-charge
   QCUT   =   -5.516; QGAM   =   11.032    optimization parameters
 
   Description
     l     E      TYP  RCUT    TYP  RCUT
     0   .000     23  1.200
     0   .000     23  1.200
     1   .000     23  1.500
     1  2.500     23  1.500
     2   .000      7  1.500
   Error from kinetic energy argument (eV)
   NDATA  =      100
   STEP   =   20.000   1.050
  51.3      49.5      48.6      46.8      45.9      44.1      42.4      41.6
  39.9      38.2      37.4      35.8      34.3      32.8      31.4      30.0
  28.6      27.3      26.1      24.3      23.2      22.1      20.5      19.6
  18.6      17.3      16.0      15.2      14.1      13.1      12.1      11.1
  10.3      9.47      8.72      8.02      7.15      6.55      5.82      5.31
  4.69      4.13      3.63      3.17      2.76      2.40      2.07      1.72
  1.47      1.20      .971      .815      .650      .512      .380      .292
  .222      .158      .110      .748E-01  .504E-01  .337E-01  .227E-01  .149E-01
  .111E-01  .869E-02  .756E-02  .700E-02  .657E-02  .614E-02  .551E-02  .474E-02
  .392E-02  .314E-02  .237E-02  .184E-02  .143E-02  .118E-02  .104E-02  .993E-03
  .959E-03  .910E-03  .829E-03  .707E-03  .570E-03  .442E-03  .343E-03  .275E-03
  .245E-03  .238E-03  .236E-03  .227E-03  .202E-03  .169E-03  .131E-03  .102E-03
  .851E-04  .796E-04  .787E-04  .761E-04
END of PSCTR-controll parameters
 local part
 124.721915246208937
   .20370041E+02   .20367047E+02   .20363065E+02   .20356432E+02   .20347149E+02
   .20335222E+02   .20320655E+02   .20303451E+02   .20283615E+02   .20261149E+02
   .20236054E+02   .20208330E+02   .20177973E+02   .20144979E+02   .20109342E+02
   .20071052E+02   .20030100E+02   .19986473E+02   .19940156E+02   .19891131E+02
   .19839380E+02   .19784881E+02   .19727608E+02   .19667533E+02   .19604624E+02
   .19538848E+02   .19470165E+02   .19398533E+02   .19323907E+02   .19246238E+02
   .19165474E+02   .19081559E+02   .18994436E+02   .18904042E+02   .18810316E+02
   .18713191E+02   .18612600E+02   .18508475E+02   .18400746E+02   .18289342E+02
   .18174194E+02   .18055230E+02   .17932383E+02   .17805584E+02   .17674770E+02
   .17539878E+02   .17400851E+02   .17257634E+02   .17110178E+02   .16958440E+02
   .16802384E+02   .16641980E+02   .16477205E+02   .16308046E+02   .16134498E+02
   .15956565E+02   .15774263E+02   .15587618E+02   .15396667E+02   .15201458E+02
   .15002052E+02   .14798523E+02   .14590957E+02   .14379453E+02   .14164124E+02
   .13945096E+02   .13722507E+02   .13496509E+02   .13267269E+02   .13034964E+02
   .12799787E+02   .12561941E+02   .12321643E+02   .12079119E+02   .11834608E+02
   .11588360E+02   .11340633E+02   .11091695E+02   .10841823E+02   .10591299E+02
   .10340414E+02   .10089462E+02   .98387442E+01   .95885628E+01   .93392235E+01
   .90910332E+01   .88442985E+01   .85993254E+01   .83564171E+01   .81158740E+01
   .78779914E+01   .76430593E+01   .74113606E+01   .71831703E+01   .69587545E+01
   .67383690E+01   .65222587E+01   .63106564E+01   .61037820E+01   .59018416E+01
   .57050266E+01   .55135133E+01   .53274620E+01   .51470163E+01   .49723031E+01
   .48034315E+01   .46404931E+01   .44835614E+01   .43326919E+01   .41879218E+01
   .40492700E+01   .39167374E+01   .37903070E+01   .36699442E+01   .35555971E+01
   .34471969E+01   .33446585E+01   .32478812E+01   .31567490E+01   .30711318E+01
   .29908859E+01   .29158549E+01   .28458705E+01   .27807538E+01   .27203159E+01
   .26643592E+01   .26126782E+01   .25650608E+01   .25212894E+01   .24811415E+01
   .24443918E+01   .24108123E+01   .23801739E+01   .23522476E+01   .23268052E+01
   .23036204E+01   .22824701E+01   .22631352E+01   .22454013E+01   .22290599E+01
   .22139090E+01   .21997540E+01   .21864085E+01   .21736945E+01   .21614436E+01
   .21494971E+01   .21377065E+01   .21259340E+01   .21140529E+01   .21019474E+01
   .20895134E+01   .20766579E+01   .20632996E+01   .20493686E+01   .20348062E+01
   .20195649E+01   .20036082E+01   .19869100E+01   .19694548E+01   .19512365E+01
   .19322589E+01   .19125343E+01   .18920837E+01   .18709357E+01   .18491262E+01
   .18266977E+01   .18036985E+01   .17801824E+01   .17562075E+01   .17318361E+01
   .17071335E+01   .16821677E+01   .16570086E+01   .16317270E+01   .16063948E+01
   .15810833E+01   .15558635E+01   .15308050E+01   .15059756E+01   .14814409E+01
   .14572636E+01   .14335032E+01   .14102158E+01   .13874532E+01   .13652631E+01
   .13436886E+01   .13227681E+01   .13025351E+01   .12830178E+01   .12642394E+01
   .12462178E+01   .12289658E+01   .12124909E+01   .11967956E+01   .11818774E+01
   .11677289E+01   .11543381E+01   .11416888E+01   .11297604E+01   .11185286E+01
   .11079653E+01   .10980394E+01   .10887169E+01   .10799609E+01   .10717326E+01
   .10639913E+01   .10566949E+01   .10498000E+01   .10432627E+01   .10370386E+01
   .10310836E+01   .10253536E+01   .10198054E+01   .10143970E+01   .10090873E+01
   .10038372E+01   .99860926E+00   .99336835E+00   .98808151E+00   .98271838E+00
   .97725128E+00   .97165536E+00   .96590871E+00   .95999244E+00   .95389076E+00
   .94759097E+00   .94108348E+00   .93436178E+00   .92742240E+00   .92026483E+00
   .91289140E+00   .90530719E+00   .89751990E+00   .88953964E+00   .88137882E+00
   .87305193E+00   .86457534E+00   .85596709E+00   .84724670E+00   .83843488E+00
   .82955338E+00   .82062468E+00   .81167180E+00   .80271806E+00   .79378687E+00
   .78490146E+00   .77608471E+00   .76735895E+00   .75874572E+00   .75026562E+00
   .74193815E+00   .73378153E+00   .72581255E+00   .71804650E+00   .71049701E+00
   .70317595E+00   .69609343E+00   .68925768E+00   .68267502E+00   .67634989E+00
   .67028480E+00   .66448037E+00   .65893536E+00   .65364672E+00   .64860965E+00
   .64381770E+00   .63926282E+00   .63493551E+00   .63082489E+00   .62691886E+00
   .62320423E+00   .61966683E+00   .61629170E+00   .61306320E+00   .60996518E+00
   .60698114E+00   .60409438E+00   .60128812E+00   .59854571E+00   .59585071E+00
   .59318709E+00   .59053928E+00   .58789240E+00   .58523230E+00   .58254567E+00
   .57982020E+00   .57704459E+00   .57420869E+00   .57130350E+00   .56832130E+00
   .56525559E+00   .56210123E+00   .55885435E+00   .55551241E+00   .55207418E+00
   .54853970E+00   .54491030E+00   .54118846E+00   .53737787E+00   .53348329E+00
   .52951049E+00   .52546620E+00   .52135799E+00   .51719421E+00   .51298385E+00
   .50873649E+00   .50446213E+00   .50017117E+00   .49587419E+00   .49158197E+00
   .48730527E+00   .48305479E+00   .47884106E+00   .47467432E+00   .47056446E+00
   .46652089E+00   .46255249E+00   .45866752E+00   .45487354E+00   .45117740E+00
   .44758510E+00   .44410183E+00   .44073191E+00   .43747871E+00   .43434471E+00
   .43133146E+00   .42843957E+00   .42566872E+00   .42301770E+00   .42048440E+00
   .41806590E+00   .41575842E+00   .41355747E+00   .41145782E+00   .40945360E+00
   .40753838E+00   .40570518E+00   .40394661E+00   .40225491E+00   .40062201E+00
   .39903965E+00   .39749944E+00   .39599292E+00   .39451167E+00   .39304737E+00
   .39159186E+00   .39013724E+00   .38867593E+00   .38720073E+00   .38570485E+00
   .38418204E+00   .38262655E+00   .38103324E+00   .37939758E+00   .37771570E+00
   .37598438E+00   .37420112E+00   .37236410E+00   .37047222E+00   .36852508E+00
   .36652295E+00   .36446680E+00   .36235825E+00   .36019954E+00   .35799352E+00
   .35574356E+00   .35345359E+00   .35112797E+00   .34877149E+00   .34638929E+00
   .34398685E+00   .34156984E+00   .33914418E+00   .33671586E+00   .33429099E+00
   .33187566E+00   .32947591E+00   .32709768E+00   .32474675E+00   .32242866E+00
   .32014872E+00   .31791189E+00   .31572278E+00   .31358561E+00   .31150416E+00
   .30948175E+00   .30752120E+00   .30562483E+00   .30379444E+00   .30203129E+00
   .30033609E+00   .29870903E+00   .29714975E+00   .29565737E+00   .29423051E+00
   .29286727E+00   .29156532E+00   .29032187E+00   .28913372E+00   .28799732E+00
   .28690876E+00   .28586386E+00   .28485818E+00   .28388708E+00   .28294575E+00
   .28202929E+00   .28113270E+00   .28025099E+00   .27937919E+00   .27851241E+00
   .27764585E+00   .27677490E+00   .27589514E+00   .27500240E+00   .27409276E+00
   .27316263E+00   .27220876E+00   .27122823E+00   .27021853E+00   .26917754E+00
   .26810355E+00   .26699528E+00   .26585187E+00   .26467290E+00   .26345836E+00
   .26220868E+00   .26092468E+00   .25960760E+00   .25825903E+00   .25688093E+00
   .25547560E+00   .25404564E+00   .25259392E+00   .25112354E+00   .24963785E+00
   .24814034E+00   .24663464E+00   .24512451E+00   .24361375E+00   .24210618E+00
   .24060565E+00   .23911592E+00   .23764068E+00   .23618352E+00   .23474787E+00
   .23333695E+00   .23195382E+00   .23060127E+00   .22928182E+00   .22799774E+00
   .22675098E+00   .22554318E+00   .22437564E+00   .22324935E+00   .22216493E+00
   .22112269E+00   .22012257E+00   .21916418E+00   .21824680E+00   .21736940E+00
   .21653062E+00   .21572884E+00   .21496215E+00   .21422840E+00   .21352520E+00
   .21284996E+00   .21219995E+00   .21157224E+00   .21096382E+00   .21037158E+00
   .20979234E+00   .20922293E+00   .20866013E+00   .20810079E+00   .20754181E+00
   .20698018E+00   .20641301E+00   .20583754E+00   .20525119E+00   .20465158E+00
   .20403650E+00   .20340400E+00   .20275237E+00   .20208013E+00   .20138608E+00
   .20066930E+00   .19992913E+00   .19916520E+00   .19837742E+00   .19756595E+00
   .19673127E+00   .19587408E+00   .19499535E+00   .19409629E+00   .19317833E+00
   .19224309E+00   .19129242E+00   .19032831E+00   .18935289E+00   .18836843E+00
   .18737730E+00   .18638193E+00   .18538484E+00   .18438853E+00   .18339554E+00
   .18240837E+00   .18142949E+00   .18046127E+00   .17950602E+00   .17856592E+00
   .17764303E+00   .17673925E+00   .17585631E+00   .17499577E+00   .17415898E+00
   .17334710E+00   .17256106E+00   .17180158E+00   .17106916E+00   .17036405E+00
   .16968629E+00   .16903568E+00   .16841183E+00   .16781409E+00   .16724163E+00
   .16669341E+00   .16616823E+00   .16566469E+00   .16518125E+00   .16471622E+00
   .16426780E+00   .16383409E+00   .16341308E+00   .16300273E+00   .16260093E+00
   .16220555E+00   .16181447E+00   .16142557E+00   .16103678E+00   .16064608E+00
   .16025153E+00   .15985127E+00   .15944356E+00   .15902679E+00   .15859947E+00
   .15816027E+00   .15770802E+00   .15724172E+00   .15676055E+00   .15626388E+00
   .15575124E+00   .15522237E+00   .15467721E+00   .15411586E+00   .15353862E+00
   .15294597E+00   .15233856E+00   .15171720E+00   .15108286E+00   .15043664E+00
   .14977979E+00   .14911366E+00   .14843970E+00   .14775946E+00   .14707455E+00
   .14638664E+00   .14569742E+00   .14500863E+00   .14432199E+00   .14363921E+00
   .14296197E+00   .14229192E+00   .14163061E+00   .14097955E+00   .14034014E+00
   .13971369E+00   .13910136E+00   .13850424E+00   .13792323E+00   .13735913E+00
   .13681257E+00   .13628404E+00   .13577385E+00   .13528217E+00   .13480903E+00
   .13435426E+00   .13391756E+00   .13349850E+00   .13309646E+00   .13271073E+00
   .13234044E+00   .13198461E+00   .13164217E+00   .13131192E+00   .13099261E+00
   .13068290E+00   .13038140E+00   .13008665E+00   .12979721E+00   .12951159E+00
   .12922830E+00   .12894587E+00   .12866286E+00   .12837787E+00   .12808956E+00
   .12779664E+00   .12749792E+00   .12719228E+00   .12687871E+00   .12655630E+00
   .12622426E+00   .12588192E+00   .12552874E+00   .12516431E+00   .12478835E+00
   .12440070E+00   .12400137E+00   .12359046E+00   .12316825E+00   .12273510E+00
   .12229152E+00   .12183812E+00   .12137563E+00   .12090488E+00   .12042677E+00
   .11994231E+00   .11945257E+00   .11895866E+00   .11846177E+00   .11796310E+00
   .11746388E+00   .11696536E+00   .11646879E+00   .11597539E+00   .11548637E+00
   .11500290E+00   .11452609E+00   .11405702E+00   .11359666E+00   .11314594E+00
   .11270569E+00   .11227663E+00   .11185942E+00   .11145458E+00   .11106252E+00
   .11068358E+00   .11031793E+00   .10996566E+00   .10962674E+00   .10930101E+00
   .10898822E+00   .10868798E+00   .10839983E+00   .10812320E+00   .10785742E+00
   .10760174E+00   .10735533E+00   .10711730E+00   .10688669E+00   .10666251E+00
   .10644371E+00   .10622921E+00   .10601792E+00   .10580875E+00   .10560060E+00
   .10539239E+00   .10518306E+00   .10497157E+00   .10475696E+00   .10453828E+00
   .10431468E+00   .10408535E+00   .10384957E+00   .10360669E+00   .10335617E+00
   .10309753E+00   .10283041E+00   .10255454E+00   .10226976E+00   .10197599E+00
   .10167327E+00   .10136174E+00   .10104161E+00   .10071322E+00   .10037698E+00
   .10003339E+00   .99683035E-01   .99326560E-01   .98964686E-01   .98598192E-01
   .98227905E-01   .97854696E-01   .97479469E-01   .97103153E-01   .96726690E-01
   .96351032E-01   .95977122E-01   .95605896E-01   .95238263E-01   .94875104E-01
   .94517262E-01   .94165530E-01   .93820648E-01   .93483297E-01   .93154087E-01
   .92833560E-01   .92522178E-01   .92220322E-01   .91928290E-01   .91646293E-01
   .91374453E-01   .91112806E-01   .90861296E-01   .90619782E-01   .90388037E-01
   .90165753E-01   .89952541E-01   .89747938E-01   .89551415E-01   .89362374E-01
   .89180165E-01   .89004083E-01   .88833381E-01   .88667275E-01   .88504954E-01
   .88345585E-01   .88188323E-01   .88032318E-01   .87876726E-01   .87720712E-01
   .87563465E-01   .87404199E-01   .87242164E-01   .87076653E-01   .86907006E-01
   .86732619E-01   .86552947E-01   .86367508E-01   .86175890E-01   .85977752E-01
   .85772829E-01   .85560931E-01   .85341946E-01   .85115842E-01   .84882662E-01
   .84642528E-01   .84395638E-01   .84142261E-01   .83882734E-01   .83617462E-01
   .83346910E-01   .83071598E-01   .82792096E-01   .82509020E-01   .82223022E-01
   .81934789E-01   .81645029E-01   .81354469E-01   .81063847E-01   .80773905E-01
   .80485378E-01   .80198993E-01   .79915456E-01   .79635450E-01   .79359624E-01
   .79088592E-01   .78822923E-01   .78563138E-01   .78309707E-01   .78063040E-01
   .77823487E-01   .77591337E-01   .77366809E-01   .77150057E-01   .76941167E-01
   .76740152E-01   .76546960E-01   .76361469E-01   .76183493E-01   .76012780E-01
   .75849017E-01   .75691837E-01   .75540816E-01   .75395484E-01   .75255324E-01
   .75119783E-01   .74988274E-01   .74860182E-01   .74734871E-01   .74611692E-01
   .74489984E-01   .74369085E-01   .74248340E-01   .74127101E-01   .74004738E-01
   .73880645E-01   .73754243E-01   .73624987E-01   .73492372E-01   .73355935E-01
   .73215260E-01   .73069982E-01   .72919790E-01   .72764430E-01   .72603706E-01
   .72437483E-01   .72265685E-01   .72088299E-01   .71905371E-01   .71717010E-01
   .71523379E-01   .71324701E-01   .71121250E-01   .70913351E-01   .70701375E-01
   .70485738E-01   .70266892E-01   .70045324E-01   .69821549E-01   .69596105E-01
   .69369549E-01   .69142452E-01   .68915389E-01   .68688937E-01   .68463671E-01
   .68240152E-01   .68018928E-01   .67800526E-01   .67585445E-01   .67374156E-01
   .67167094E-01   .66964656E-01   .66767195E-01   .66575021E-01   .66388395E-01
   .66207526E-01   .66032573E-01   .65863641E-01   .65700781E-01   .65543991E-01
   .65393213E-01   .65248338E-01   .65109204E-01   .64975603E-01   .64847276E-01
   .64723922E-01   .64605200E-01   .64490731E-01   .64380102E-01   .64272872E-01
   .64168575E-01   .64066726E-01   .63966823E-01   .63868355E-01   .63770806E-01
   .63673660E-01   .63576405E-01   .63478540E-01   .63379580E-01   .63279057E-01
   .63176528E-01   .63071579E-01   .62963827E-01   .62852923E-01   .62738558E-01
   .62620462E-01   .62498412E-01   .62372226E-01   .62241770E-01   .62106960E-01
   .61967756E-01   .61824170E-01   .61676259E-01   .61524129E-01   .61367929E-01
   .61207855E-01   .61044141E-01   .60877060E-01   .60706923E-01   .60534070E-01
   .60358873E-01   .60181727E-01   .60003048E-01   .59823270E-01   .59642838E-01
   .59462206E-01   .59281831E-01   .59102169E-01   .58923670E-01   .58746775E-01
   .58571909E-01   .58399479E-01   .58229870E-01   .58063440E-01   .57900520E-01
   .57741407E-01   .57586363E-01   .57435612E-01   .57289341E-01   .57147695E-01
   .57010775E-01   .56878642E-01   .56751311E-01   .56628757E-01   .56510908E-01
   .56397655E-01   .56288844E-01   .56184286E-01   .56083754E-01   .55986987E-01
   .55893693E-01   .55803552E-01   .55716218E-01   .55631325E-01   .55548488E-01
   .55467309E-01   .55387379E-01   .55308284E-01   .55229607E-01   .55150934E-01
   .55071857E-01   .54991978E-01   .54910915E-01   .54828302E-01   .54743793E-01
   .54657071E-01   .54567841E-01   .54475842E-01   .54380842E-01   .54282647E-01
   .54181097E-01   .54076069E-01   .53967480E-01   .53855285E-01   .53739479E-01
   .53620095E-01   .53497207E-01   .53370924E-01   .53241394E-01   .53108796E-01
   .52973345E-01   .52835284E-01   .52694885E-01   .52552444E-01   .52408280E-01
   .52262728E-01   .52116142E-01   .51968885E-01   .51821329E-01   .51673851E-01
   .51526828E-01   .51380634E-01   .51235637E-01   .51092192E-01   .50950643E-01
   .50811317E-01   .50674519E-01   .50540531E-01   .50409612E-01   .50281988E-01
   .50157861E-01   .50037397E-01   .49920729E-01   .49807956E-01   .49699143E-01
   .49594318E-01   .49493471E-01   .49396560E-01   .49303505E-01   .49214193E-01
   .49128478E-01   .49046182E-01   .48967100E-01   .48890996E-01   .48817613E-01
   .48746669E-01   .48677865E-01   .48610885E-01   .48545398E-01   .48481065E-01
   .48417539E-01   .48354471E-01   .48291511E-01   .48228314E-01   .48164541E-01
   .48099863E-01   .48033964E-01   .47966547E-01   .47897331E-01   .47826058E-01
   .47752495E-01   .47676435E-01   .47597697E-01   .47516131E-01   .47431619E-01
   .47344073E-01   .47253440E-01   .47159697E-01   .47062858E-01   .46962965E-01
 gradient corrections used for XC
 5
 atomic pseudo charge-density
   .40000000E+01   .39894900E+01   .39582020E+01   .39068475E+01   .38365676E+01
   .37488701E+01   .36455522E+01   .35286148E+01   .34001764E+01   .32623924E+01
   .31173852E+01   .29671861E+01   .28136923E+01   .26586361E+01   .25035670E+01
   .23498438E+01   .21986345E+01   .20509225E+01   .19075176E+01   .17690689E+01
   .16360799E+01   .15089238E+01   .13878591E+01   .12730444E+01   .11645520E+01
   .10623816E+01   .96647127E+00   .87670875E+00   .79294050E+00   .71498025E+00
   .64261635E+00   .57561818E+00   .51374165E+00   .45673396E+00   .40433763E+00
   .35629386E+00   .31234537E+00   .27223873E+00   .23572619E+00   .20256723E+00
   .17252965E+00   .14539051E+00   .12093668E+00   .98965284E-01   .79283926E-01
   .61710762E-01   .46074455E-01   .32214036E-01   .19978673E-01   .92273858E-02
  -.17129911E-03  -.83397200E-02  -.15391484E-01  -.21431883E-01  -.26558326E-01
  -.30860765E-01  -.34422125E-01  -.37318724E-01  -.39620689E-01  -.41392351E-01
  -.42692632E-01  -.43575414E-01  -.44089892E-01  -.44280909E-01  -.44189275E-01
  -.43852064E-01  -.43302903E-01  -.42572229E-01  -.41687545E-01  -.40673652E-01
  -.39552862E-01  -.38345208E-01  -.37068625E-01  -.35739131E-01  -.34370987E-01
  -.32976850E-01  -.31567908E-01  -.30154015E-01  -.28743807E-01  -.27344813E-01
  -.25963554E-01  -.24605642E-01  -.23275859E-01  -.21978245E-01  -.20716161E-01
  -.19492364E-01  -.18309064E-01  -.17167982E-01  -.16070400E-01  -.15017212E-01
  -.14008960E-01  -.13045883E-01  -.12127944E-01  -.11254869E-01  -.10426176E-01
  -.96411985E-02  -.88991161E-02  -.81989728E-02  -.75396992E-02  -.69201309E-02
  -.63390252E-02  -.57950768E-02  -.52869306E-02  -.48131948E-02  -.43724520E-02
  -.39632685E-02  -.35842039E-02  -.32338185E-02  -.29106807E-02  -.26133730E-02
  -.23404975E-02  -.20906808E-02  -.18625779E-02  -.16548763E-02  -.14662983E-02
  -.12956043E-02  -.11415948E-02  -.10031117E-02  -.87904038E-03  -.76831031E-03
  -.66989594E-03  -.58281725E-03  -.50613997E-03  -.43897557E-03  -.38048116E-03
  -.32985907E-03  -.28635640E-03  -.24926428E-03  -.21791713E-03  -.19169172E-03
  -.17000618E-03  -.15231889E-03  -.13812728E-03  -.12696662E-03  -.11840868E-03
  -.11206038E-03  -.10756243E-03  -.10458788E-03  -.10284067E-03  -.10205420E-03
  -.10198983E-03  -.10243541E-03  -.10320382E-03  -.10413150E-03  -.10507701E-03
  -.10591958E-03  -.10655770E-03  -.10690776E-03  -.10690264E-03  -.10649045E-03
  -.10563321E-03  -.10430558E-03  -.10249368E-03  -.10019394E-03  -.97411903E-04
  -.94161239E-04  -.90462658E-04  -.86342952E-04  -.81834062E-04  -.76972202E-04
  -.71797027E-04  -.66350863E-04  -.60677976E-04  -.54823902E-04  -.48834824E-04
  -.42757002E-04  -.36636248E-04  -.30517455E-04  -.24444170E-04  -.18458220E-04
  -.12599377E-04  -.69050699E-05  -.14101411E-05   .38533596E-05   .88563384E-05
   .13572784E-04   .17979862E-04   .22057967E-04   .25790753E-04   .29165127E-04
   .32171219E-04   .34802321E-04   .37054812E-04   .38928050E-04   .40424254E-04
   .41548366E-04   .42307895E-04   .42712753E-04   .42775078E-04   .42509044E-04
   .41930672E-04   .41057628E-04   .39909024E-04   .38505210E-04   .36867574E-04
   .35018335E-04   .32980347E-04   .30776900E-04   .28431531E-04   .25967839E-04
   .23409308E-04   .20779141E-04   .18100099E-04   .15394352E-04   .12683343E-04
   .99876602E-05   .73269199E-05   .47196652E-05   .21832738E-05  -.26612093E-06
  -.26136966E-05  -.48459962E-05  -.69509705E-05  -.89180082E-05  -.10737955E-04
  -.12403120E-04  -.13907274E-04  -.15245635E-04  -.16414842E-04  -.17412925E-04
  -.18239262E-04  -.18894531E-04  -.19380647E-04  -.19700707E-04  -.19858913E-04
  -.19860497E-04  -.19711649E-04  -.19419423E-04  -.18991661E-04  -.18436897E-04
  -.17764271E-04  -.16983436E-04  -.16104469E-04  -.15137779E-04  -.14094018E-04
  -.12983994E-04  -.11818584E-04  -.10608653E-04  -.93649753E-05  -.80981563E-05
  -.68185635E-05  -.55362587E-05  -.42609358E-05  -.30018642E-05  -.17678364E-05
  -.56712210E-06   .59257268E-06   .17041408E-05   .27611032E-05   .37576329E-05
   .46885729E-05   .55494485E-05   .63364747E-05   .70465576E-05   .76772913E-05
   .82269492E-05   .86944718E-05   .90794484E-05   .93820966E-05   .96032364E-05
   .97442618E-05   .98071092E-05   .97942222E-05   .97085150E-05   .95533334E-05
   .93324133E-05   .90498395E-05   .87100017E-05   .83175510E-05   .78773561E-05
   .73944586E-05   .68740299E-05   .63213278E-05   .57416545E-05   .51403160E-05
   .45225820E-05   .38936493E-05   .32586050E-05   .26223937E-05   .19897859E-05
   .13653490E-05   .75342120E-06   .15808773E-06  -.41683995E-06  -.96784232E-06
  -.14917071E-05  -.19855416E-05  -.24467826E-05  -.28732026E-05  -.32629148E-05
  -.36143737E-05  -.39263743E-05  -.41980485E-05  -.44288590E-05  -.46185911E-05
  -.47673421E-05  -.48755097E-05  -.49437772E-05  -.49730984E-05  -.49646802E-05
  -.49199645E-05  -.48406086E-05  -.47284651E-05  -.45855609E-05  -.44140755E-05
  -.42163195E-05  -.39947123E-05  -.37517602E-05  -.34900346E-05  -.32121506E-05
  -.29207457E-05  -.26184596E-05  -.23079144E-05  -.19916960E-05  -.16723361E-05
  -.13522955E-05  -.10339484E-05  -.71956822E-06  -.41131424E-06  -.11122015E-06
   .17881646E-06   .45704305E-06   .72185964E-06   .97182491E-06   .12056609E-05
   .14222565E-05   .16206688E-05   .18001243E-05   .19600182E-05   .20999118E-05
   .22195301E-05   .23187575E-05   .23976321E-05   .24563400E-05   .24952081E-05
   .25146961E-05   .25153883E-05   .24979843E-05   .24632891E-05   .24122036E-05
   .23457138E-05   .22648803E-05   .21708277E-05   .20647336E-05   .19478179E-05
   .18213320E-05   .16865487E-05   .15447516E-05   .13972253E-05   .12452459E-05
   .10900719E-05   .93293577E-06   .77503581E-06   .61752862E-06   .46152239E-06
   .30807066E-06   .15816677E-06   .12739005E-07  -.12735356E-06  -.26132457E-06
  -.38846317E-06  -.50813609E-06  -.61978918E-06  -.72294809E-06  -.81721854E-06
  -.90228580E-06  -.97791371E-06  -.10439431E-05  -.11002898E-05  -.11469419E-05
  -.11839571E-05  -.12114589E-05  -.12296334E-05  -.12387248E-05  -.12390316E-05
  -.12309018E-05  -.12147281E-05  -.11909435E-05  -.11600163E-05  -.11224449E-05
  -.10787535E-05  -.10294863E-05  -.97520367E-06  -.91647663E-06  -.85388276E-06
  -.78800156E-06  -.71941031E-06  -.64868001E-06  -.57637166E-06  -.50303265E-06
  -.42919358E-06  -.35536526E-06  -.28203600E-06  -.20966924E-06  -.13870146E-06
  -.69540363E-07  -.25634316E-08   .61883314E-07   .12348619E-06   .18196450E-06
   .23707084E-06   .28859122E-06   .33634491E-06   .38018401E-06   .41999287E-06
   .45568726E-06   .48721338E-06   .51454669E-06   .53769062E-06   .55667507E-06
   .57155493E-06   .58240839E-06   .58933523E-06   .59245505E-06   .59190547E-06
   .58784023E-06   .58042744E-06   .56984766E-06   .55629214E-06   .53996100E-06
   .52106152E-06   .49980645E-06   .47641242E-06   .45109836E-06   .42408409E-06
   .39558893E-06   .36583041E-06   .33502312E-06   .30337757E-06   .27109929E-06
   .23838785E-06   .20543614E-06   .17242964E-06   .13954584E-06   .10695374E-06
   .74813405E-07   .43275666E-07   .12481843E-07  -.17436428E-07  -.46357310E-07
  -.74168811E-07  -.10076878E-06  -.12606483E-06  -.14997427E-06  -.17242391E-06
  -.19334994E-06  -.21269766E-06  -.23042128E-06  -.24648367E-06  -.26085607E-06
  -.27351786E-06  -.28445619E-06  -.29366577E-06  -.30114856E-06  -.30691344E-06
  -.31097596E-06  -.31335807E-06  -.31408779E-06  -.31319900E-06  -.31073113E-06
  -.30672891E-06  -.30124215E-06  -.29432545E-06  -.28603797E-06  -.27644321E-06
  -.26560872E-06  -.25360594E-06  -.24050989E-06  -.22639893E-06  -.21135456E-06
  -.19546112E-06  -.17880555E-06  -.16147710E-06  -.14356706E-06  -.12516847E-06
  -.10637578E-06  -.87284562E-07  -.67991183E-07  -.48592423E-07  -.29185139E-07
  -.98658847E-08   .92694738E-08   .28126154E-07   .46610864E-07   .64632213E-07
   .82101130E-07   .98931289E-07   .11503953E-06   .13034627E-06   .14477595E-06
   .15825741E-06   .17072429E-06   .18211544E-06   .19237526E-06   .20145407E-06
   .20930840E-06   .21590130E-06   .22120261E-06   .22518921E-06   .22784515E-06
   .22916188E-06   .22913831E-06   .22778091E-06   .22510374E-06   .22112841E-06
   .21588403E-06   .20940707E-06   .20174125E-06   .19293726E-06   .18305256E-06
   .17215102E-06   .16030261E-06   .14758298E-06   .13407304E-06   .11985844E-06
   .10502911E-06   .89678674E-07   .73903880E-07   .57803998E-07   .41480189E-07
   .25034862E-07   .85710175E-08  -.78084252E-08  -.24001293E-07  -.39906833E-07
  -.55426374E-07  -.70463977E-07  -.84927079E-07  -.98727103E-07  -.11178005E-06
  -.12400706E-06  -.13533495E-06  -.14569668E-06  -.15503180E-06  -.16328690E-06
  -.17041589E-06  -.17638034E-06  -.18114974E-06  -.18470165E-06  -.18702187E-06
  -.18810450E-06  -.18795193E-06  -.18657487E-06  -.18399215E-06  -.18023064E-06
  -.17532500E-06  -.16931738E-06  -.16225716E-06  -.15420051E-06  -.14520998E-06
  -.13535407E-06  -.12470665E-06  -.11334649E-06  -.10135660E-06  -.88823690E-07
  -.75837495E-07  -.62490139E-07  -.48875466E-07  -.35088367E-07  -.21224102E-07
  -.73776225E-08   .63570979E-08   .19887723E-07   .33124194E-07   .45979356E-07
   .58369547E-07   .70215167E-07   .81441213E-07   .91977763E-07   .10176044E-06
   .11073081E-06   .11883676E-06   .12603278E-06   .13228025E-06   .13754765E-06
   .14181067E-06   .14505237E-06   .14726318E-06   .14844092E-06   .14859068E-06
   .14772477E-06   .14586250E-06   .14303000E-06   .13925989E-06   .13459104E-06
   .12906817E-06   .12274144E-06   .11566608E-06   .10790186E-06   .99512635E-07
   .90565833E-07   .81131898E-07   .71283751E-07   .61096228E-07   .50645504E-07
   .40008531E-07   .29262457E-07   .18484072E-07   .77492476E-08  -.28675974E-08
  -.13294019E-07  -.23460046E-07  -.33298652E-07  -.42746200E-07  -.51742853E-07
  -.60232950E-07  -.68165351E-07  -.75493733E-07  -.82176855E-07  -.88178773E-07
  -.93469019E-07  -.98022732E-07  -.10182074E-06  -.10484962E-06  -.10710169E-06
  -.10857493E-06  -.10927298E-06  -.10920494E-06  -.10838523E-06  -.10683340E-06
  -.10457390E-06  -.10163577E-06  -.98052390E-07  -.93861130E-07  -.89103007E-07
  -.83822319E-07  -.78066251E-07  -.71884480E-07  -.65328756E-07  -.58452488E-07
  -.51310317E-07  -.43957688E-07  -.36450431E-07  -.28844344E-07  -.21194780E-07
  -.13556254E-07  -.59820564E-08   .14761063E-08   .87684629E-08   .15847499E-07
   .22668258E-07   .29188613E-07   .35369518E-07   .41175223E-07   .46573463E-07
   .51535618E-07   .56036840E-07   .60056145E-07   .63576484E-07   .66584772E-07
   .69071889E-07   .71032659E-07   .72465786E-07   .73373776E-07   .73762822E-07
   .73642668E-07   .73026451E-07   .71930518E-07   .70374224E-07   .68379717E-07
   .65971700E-07   .63177183E-07   .60025227E-07   .56546677E-07   .52773883E-07
   .48740429E-07   .44480847E-07   .40030343E-07   .35424518E-07   .30699094E-07
   .25889652E-07   .21031375E-07   .16158799E-07   .11305583E-07   .65042830E-08
   .17861505E-08  -.28190595E-08  -.72832606E-08  -.11580190E-07  -.15685545E-07
  -.19577099E-07  -.23234801E-07  -.26640852E-07  -.29779764E-07  -.32638398E-07
  -.35205985E-07  -.37474124E-07  -.39436770E-07  -.41090193E-07  -.42432932E-07
  -.43465724E-07  -.44191427E-07  -.44614921E-07  -.44743004E-07  -.44584271E-07
  -.44148993E-07  -.43448973E-07  -.42497411E-07  -.41308752E-07  -.39898536E-07
  -.38283245E-07  -.36480143E-07  -.34507126E-07  -.32382565E-07  -.30125155E-07
  -.27753768E-07  -.25287308E-07  -.22744577E-07  -.20144140E-07  -.17504207E-07
  -.14842515E-07  -.12176224E-07  -.95218170E-08  -.68950172E-08  -.43107085E-08
  -.17828698E-08   .67548171E-09   .30523361E-08   .53367266E-08   .75187554E-08
   .95896091E-08   .11541566E-07   .13367991E-07   .15063329E-07   .16623082E-07
   .18043783E-07   .19322963E-07   .20459115E-07   .21451641E-07   .22300813E-07
   .23007713E-07   .23574175E-07   .24002733E-07   .24296554E-07   .24459380E-07
   .24495461E-07   .24409502E-07   .24206590E-07   .23892145E-07   .23471858E-07
   .22951633E-07   .22337542E-07   .21635766E-07   .20852560E-07   .19994202E-07
   .19066961E-07   .18077060E-07   .17030647E-07   .15933771E-07   .14792357E-07
   .13612192E-07   .12398908E-07   .11157975E-07   .98946952E-08   .86141953E-08
   .73214307E-08   .60211860E-08   .47180798E-08   .34165713E-08   .21209687E-08
   .83543781E-09  -.43598720E-09  -.16893937E-08  -.29209799E-08  -.41270446E-08
  -.53039777E-08  -.64482516E-08  -.75564137E-08  -.86250803E-08  -.96509327E-08
  -.10630715E-07  -.11561233E-07  -.12439359E-07  -.13262030E-07  -.14026264E-07
  -.14729158E-07  -.15367907E-07  -.15939815E-07  -.16442307E-07  -.16872954E-07
  -.17229484E-07  -.17509805E-07  -.17712031E-07  -.17834498E-07  -.17875790E-07
  -.17834765E-07  -.17710574E-07  -.17502687E-07  -.17210914E-07  -.16835429E-07
  -.16376786E-07  -.15835939E-07  -.15214259E-07  -.14513545E-07  -.13736037E-07
  -.12884424E-07  -.11961847E-07  -.10971900E-07  -.99186285E-08  -.88065248E-08
  -.76405142E-08  -.64259427E-08  -.51685588E-08  -.38744910E-08  -.25502216E-08
  -.12025568E-08   .16140726E-09   .15343218E-08   .29086260E-08   .42765908E-08
   .56303649E-08   .69620244E-08   .82636232E-08   .95272464E-08   .10745064E-07
   .11909386E-07   .13012718E-07   .14047815E-07   .15007739E-07   .15885909E-07
   .16676160E-07   .17372786E-07   .17970592E-07   .18464940E-07   .18851790E-07
   .19127737E-07   .19290048E-07   .19336692E-07   .19266363E-07   .19078501E-07
   .18773310E-07   .18351763E-07   .17815610E-07   .17167373E-07   .16410342E-07
   .15548559E-07   .14586799E-07   .13530548E-07   .12385969E-07   .11159868E-07
   .98596519E-08   .84932852E-08   .70692366E-08   .55964254E-08   .40841624E-08
   .25420881E-08   .98010759E-09  -.59167741E-09  -.21630380E-08  -.37236897E-08
  -.52633642E-08  -.67718825E-08  -.82392266E-08  -.96556114E-08  -.11011555E-07
  -.12297948E-07  -.13506118E-07  -.14627896E-07  -.15655673E-07  -.16582459E-07
  -.17401931E-07  -.18108486E-07  -.18697277E-07  -.19164252E-07  -.19506188E-07
  -.19720711E-07  -.19806318E-07  -.19762387E-07  -.19589185E-07  -.19287868E-07
  -.18860471E-07  -.18309900E-07  -.17639907E-07  -.16855065E-07  -.15960739E-07
  -.14963046E-07  -.13868811E-07  -.12685520E-07  -.11421268E-07  -.10084700E-07
  -.86849467E-08  -.72315646E-08  -.57344642E-08  -.42038405E-08  -.26501008E-08
  -.10837905E-08   .48448204E-09   .20441206E-08   .35846164E-08   .50956218E-08
   .65670232E-08   .79890116E-08   .93521515E-08   .10647446E-07   .11866399E-07
   .13001074E-07   .14044148E-07   .14988961E-07   .15829560E-07   .16560736E-07
   .17178062E-07   .17677917E-07   .18057509E-07   .18314892E-07   .18448971E-07
   .18459512E-07   .18347132E-07   .18113294E-07   .17760291E-07   .17291226E-07
   .16709983E-07   .16021195E-07   .15230210E-07   .14343043E-07   .13366334E-07
   .12307295E-07   .11173655E-07   .99736045E-08   .87157315E-08   .74089595E-08
   .60624825E-08   .46856976E-08   .32881383E-08   .18794063E-08   .46910370E-09
  -.93323375E-09  -.23182037E-08  -.36766016E-08  -.49994838E-08  -.62782273E-08
  -.75045873E-08  -.86707511E-08  -.97693884E-08  -.10793699E-07  -.11737453E-07
  -.12595033E-07  -.13361463E-07  -.14032440E-07  -.14604354E-07  -.15074308E-07
  -.15440129E-07  -.15700380E-07  -.15854357E-07  -.15902089E-07  -.15844329E-07
  -.15682542E-07  -.15418884E-07  -.15056181E-07  -.14597904E-07  -.14048132E-07
  -.13411522E-07  -.12693269E-07  -.11899062E-07  -.11035039E-07  -.10107739E-07
  -.91240519E-08  -.80911681E-08  -.70165238E-08  -.59077471E-08  -.47726033E-08
  -.36189393E-08  -.24546283E-08  -.12875154E-08  -.12536420E-09   .10241948E-08
   .21537149E-08   .32559810E-08   .43240565E-08   .53513264E-08   .63315385E-08
   .72588407E-08   .81278148E-08   .89335067E-08   .96714534E-08   .10337705E-07
   .10928847E-07   .11442010E-07   .11874887E-07   .12225737E-07   .12493388E-07
   .12677236E-07   .12777240E-07   .12793915E-07   .12728316E-07   .12582026E-07
   .12357137E-07   .12056223E-07   .11682320E-07   .11238896E-07   .10729818E-07
   .10159324E-07   .95319832E-08   .88526655E-08   .81265011E-08   .73588426E-08
   .65552249E-08   .57213260E-08   .48629257E-08   .39858667E-08   .30960146E-08
 25.1333556480996805 T
 Non local Part
 0 2 1.19916030564286080
 6.64147139257665753 -0.902950942393947048E-01 -0.902950942393947048E-01 -0.494570754788003619E-02
 Reciprocal Space Part
   .55817778E+01   .55705292E+01   .55368742E+01   .54810842E+01   .54036090E+01
   .53050722E+01   .51862655E+01   .50481413E+01   .48918033E+01   .47184965E+01
   .45295951E+01   .43265891E+01   .41110702E+01   .38847161E+01   .36492746E+01
   .34065459E+01   .31583653E+01   .29065851E+01   .26530561E+01   .23996093E+01
   .21480380E+01   .19000796E+01   .16573990E+01   .14215722E+01   .11940710E+01
   .97624910E+00   .76932962E+00   .57439430E+00   .39237433E+00   .22404317E+00
   .70011403E-01  -.69276357E-01  -.19354238E+00  -.30267462E+00  -.39672330E+00
  -.47589550E+00  -.54054769E+00  -.59117641E+00  -.62840720E+00  -.65298201E+00
  -.66574526E+00  -.66762884E+00  -.65963619E+00  -.64282584E+00  -.61829466E+00
  -.58716098E+00  -.55054809E+00  -.50956809E+00  -.46530668E+00  -.41880877E+00
  -.37106549E+00  -.32300249E+00  -.27546984E+00  -.22923368E+00  -.18496959E+00
  -.14325789E+00  -.10458070E+00  -.69320980E-01  -.37763250E-01  -.10096082E-01
   .13583844E-01   .33266241E-01   .49020451E-01   .60987606E-01   .69371922E-01
   .74431341E-01   .76467752E-01   .75816996E-01   .72838896E-01   .67907498E-01
   .61401725E-01   .53696622E-01   .45155343E-01   .36122003E-01   .26915516E-01
   .17824469E-01   .91031031E-02   .96841293E-03  -.64016513E-02  -.12868900E-01
  -.18334607E-01  -.22738262E-01  -.26055498E-01  -.28295268E-01  -.29496423E-01
  -.29723817E-01  -.29064057E-01  -.27621053E-01  -.25511488E-01  -.22860336E-01
  -.19796541E-01  -.16448962E-01  -.12942675E-01  -.93957003E-02  -.59162147E-02
  -.26002886E-02   .46983200E-03   .32268923E-02   .56192551E-02   .76110128E-02
 Real Space Part
  -.69534111E+01  -.69008643E+01  -.67439149E+01  -.64846258E+01  -.61264015E+01
  -.56739369E+01  -.51331487E+01  -.45110871E+01  -.38158316E+01  -.30563714E+01
  -.22424722E+01  -.13845316E+01  -.49342616E+00   .41964975E+00   .13433478E+01
   .22663320E+01   .31774436E+01   .40658621E+01   .49212597E+01   .57339466E+01
   .64950054E+01   .71964102E+01   .78311315E+01   .83932221E+01   .88778851E+01
   .92815206E+01   .96017523E+01   .98374329E+01   .99886278E+01   .10056579E+02
   .10043651E+02   .99532522E+01   .97897493E+01   .95583598E+01   .92650354E+01
   .89163354E+01   .85192934E+01   .80812800E+01   .76098643E+01   .71126773E+01
   .65972797E+01   .60710370E+01   .55410038E+01   .50138200E+01   .44956195E+01
   .39919547E+01   .35077354E+01   .30471850E+01   .26138123E+01   .22103999E+01
   .18390082E+01   .15009937E+01   .11970412E+01   .92720705E+00   .69097321E+00
   .48730908E+00   .31473956E+00   .17141725E+00   .55196666E-01  -.36291350E-01
  -.10556696E+00  -.15523202E+00  -.18790557E+00  -.20616537E+00  -.21249645E+00
  -.20924726E+00  -.19859404E+00  -.18251343E+00  -.16276324E+00  -.14087115E+00
  -.11813077E+00  -.95604363E-01  -.74131485E-01  -.54342573E-01  -.36676532E-01
  -.21401321E-01  -.86365671E-02   .16227553E-02   .94824334E-02   .15125707E-01
   .18791209E-01   .20752711E-01   .21301098E-01   .20728862E-01   .19317303E-01
   .17326466E-01   .14987782E-01   .12499256E-01   .10022986E-01   .76847243E-02
   .55751736E-02   .37526593E-02   .22468383E-02   .10630977E-02   .18732362E-03
  -.40924829E-03  -.76534653E-03  -.92534563E-03  -.93546876E-03  -.84061581E-03
 Reciprocal Space Part
  -.18050704E+02  -.17834272E+02  -.17186760E+02  -.16113521E+02  -.14623482E+02
  -.12729146E+02  -.10446591E+02  -.77954652E+01  -.47989573E+01  -.14837576E+01
   .21200169E+01   .59789299E+01   .10056375E+02   .14312772E+02   .18705823E+02
   .23190815E+02   .27720993E+02   .32247989E+02   .36722309E+02   .41093883E+02
   .45312654E+02   .49329224E+02   .53095520E+02   .56565493E+02   .59695819E+02
   .62446596E+02   .64782024E+02   .66671043E+02   .68087925E+02   .69012796E+02
   .69432071E+02   .69338806E+02   .68732931E+02   .67621372E+02   .66018053E+02
   .63943765E+02   .61425910E+02   .58498115E+02   .55199729E+02   .51575201E+02
   .47673357E+02   .43546587E+02   .39249955E+02   .34840257E+02   .30375044E+02
   .25911622E+02   .21506061E+02   .17212234E+02   .13080900E+02   .91588530E+01
   .54881601E+01   .21055001E+01  -.95838227E+00  -.36790948E+01  -.60388808E+01
  -.80267626E+01  -.96385435E+01  -.10876670E+02  -.11749959E+02  -.12273201E+02
  -.12466648E+02  -.12355399E+02  -.11968702E+02  -.11339191E+02  -.10502073E+02
  -.94942880E+01  -.83536641E+01  -.71180804E+01  -.58246663E+01  -.45090480E+01
  -.32046618E+01  -.19421464E+01  -.74882792E+00   .35169526E+00   .13398601E+01
   .22003369E+01   .29221161E+01   .34984875E+01   .39269162E+01   .42088235E+01
   .43492818E+01   .43566365E+01   .42420665E+01   .40190991E+01   .37030930E+01
   .33107050E+01   .28593554E+01   .23667065E+01   .18501663E+01   .13264317E+01
   .81107916E+00   .31821257E+00  -.13982499E+00  -.55267182E+00  -.91209780E+00
  -.12120841E+01  -.14488344E+01  -.16207210E+01  -.17281718E+01  -.17735043E+01
 Real Space Part
   .10651139E+04   .10644690E+04   .10625081E+04   .10591538E+04   .10542809E+04
   .10477220E+04   .10392749E+04   .10287116E+04   .10157888E+04   .10002596E+04
   .98188486E+03   .96044581E+03   .93575544E+03   .90766958E+03   .87609671E+03
   .84100623E+03   .80243497E+03   .76049163E+03   .71535894E+03   .66729356E+03
   .61662359E+03   .56374381E+03   .50910879E+03   .45322409E+03   .39663573E+03
   .33991847E+03   .28366297E+03   .22846251E+03   .17489949E+03   .12353223E+03
   .74882375E+02   .29423356E+02  -.12429823E+02  -.50329150E+02  -.84000326E+02
  -.11324746E+03  -.13795569E+03  -.15809158E+03  -.17370155E+03  -.18490823E+03
  -.19190502E+03  -.19494902E+03  -.19435265E+03  -.19047419E+03  -.18370756E+03
  -.17447167E+03  -.16319972E+03  -.15032861E+03  -.13628891E+03  -.12149559E+03
  -.10633967E+03  -.91181076E+02  -.76342788E+02  -.62106350E+02  -.48708813E+02
  -.36341096E+02  -.25147706E+02  -.15227736E+02  -.66370019E+01   .60880866E+00
   .65301792E+01   .11179163E+02   .14634341E+02   .16995528E+02   .18378415E+02
   .18909313E+02   .18720165E+02   .17943940E+02   .16710533E+02   .15143243E+02
   .13355885E+02   .11450557E+02   .95160752E+01   .76270408E+01   .58435107E+01
   .42112018E+01   .27621624E+01   .15158297E+01   .48038513E+00  -.34567781E+00
  -.97186072E+00  -.14139210E+01  -.16921593E+01  -.18297962E+01  -.18514895E+01
  -.17820313E+01  -.16452525E+01  -.14631487E+01  -.12552329E+01  -.10381074E+01
  -.82524120E+00  -.62692995E+00  -.45041348E+00  -.30011899E+00  -.17799937E+00
  -.83934893E-01  -.16168161E-01   .28254623E-01   .53059773E-01   .62358715E-01
 Non local Part
 1 2 1.19916030564286080
 -1.25459306742451093 0.228100760454737587E-01 0.228100760454737587E-01 -0.700981276733592118
 Reciprocal Space Part
   .00000000E+00   .23510789E+00   .46836234E+00   .69793402E+00   .92204139E+00
   .11389735E+01   .13471118E+01   .15449501E+01   .17311126E+01   .19043703E+01
   .20636539E+01   .22080652E+01   .23368850E+01   .24495780E+01   .25457954E+01
   .26253740E+01   .26883327E+01   .27348663E+01   .27653367E+01   .27802619E+01
   .27803027E+01   .27662478E+01   .27389977E+01   .26995471E+01   .26489663E+01
   .25883833E+01   .25189648E+01   .24418976E+01   .23583711E+01   .22695607E+01
   .21766115E+01   .20806245E+01   .19826438E+01   .18836459E+01   .17845301E+01
   .16861121E+01   .15891184E+01   .14941834E+01   .14018480E+01   .13125600E+01
   .12266766E+01   .11444678E+01   .10661213E+01   .99174936E+00   .92139498E+00
   .85504034E+00   .79261477E+00   .73400336E+00   .67905551E+00   .62759336E+00
   .57941985E+00   .53432639E+00   .49209973E+00   .45252826E+00   .41540736E+00
   .38054389E+00   .34775980E+00   .31689471E+00   .28780770E+00   .26037813E+00
   .23450569E+00   .21010971E+00   .18712783E+00   .16551415E+00   .14523693E+00
   .12627598E+00   .10861987E+00   .92263068E-01   .77203056E-01   .63437602E-01
   .50962234E-01   .39767981E-01   .29839474E-01   .21153417E-01   .13677481E-01
   .73696341E-02   .21778907E-02  -.19595132E-02  -.51135603E-02  -.73635388E-02
  -.87958246E-02  -.95024151E-02  -.95792707E-02  -.91245303E-02  -.82366629E-02
  -.70126172E-02  -.55460307E-02  -.39255516E-02  -.22333231E-02  -.54367111E-03
   .10779713E-02   .25758793E-02   .39045755E-02   .50290887E-02   .59249343E-02
   .65778287E-02   .69831577E-02   .71452240E-02   .70763059E-02   .67955637E-02
 Real Space Part
   .00000000E+00   .23584444E+01   .46905809E+01   .69705668E+01   .91734793E+01
   .11275748E+02   .13255558E+02   .15093213E+02   .16771445E+02   .18275680E+02
   .19594235E+02   .20718452E+02   .21642774E+02   .22364748E+02   .22884966E+02
   .23206950E+02   .23336969E+02   .23283822E+02   .23058561E+02   .22674189E+02
   .22145325E+02   .21487856E+02   .20718572E+02   .19854810E+02   .18914098E+02
   .17913820E+02   .16870901E+02   .15801528E+02   .14720895E+02   .13643000E+02
   .12580468E+02   .11544435E+02   .10544456E+02   .95884707E+01   .86828003E+01
   .78321846E+01   .70398518E+01   .63076171E+01   .56360052E+01   .50243916E+01
   .44711564E+01   .39738471E+01   .35293436E+01   .31340209E+01   .27839065E+01
   .24748267E+01   .22025405E+01   .19628579E+01   .17517407E+01   .15653850E+01
   .14002853E+01   .12532803E+01   .11215805E+01   .10027809E+01   .89485770E+00
   .79615357E+00   .70535222E+00   .62144491E+00   .54369142E+00   .47157738E+00
   .40477041E+00   .34307664E+00   .28639943E+00   .23470160E+00   .18797213E+00
   .14619822E+00   .10934294E+00   .77328764E-01   .50026788E-01   .27251291E-01
   .87591178E-02  -.57467833E-02  -.16610463E-01  -.24213511E-01  -.28963878E-01
  -.31283785E-01  -.31597457E-01  -.30319360E-01  -.27843477E-01  -.24534068E-01
  -.20718243E-01  -.16680503E-01  -.12659360E-01  -.88459612E-02  -.53846167E-02
  -.23749991E-02   .12423795E-03   .20907329E-02   .35329050E-02   .44839862E-02
   .49959065E-02   .51333191E-02   .49680098E-02   .45738887E-02   .40227146E-02
   .33806453E-02   .27056586E-02   .20458418E-02   .14385027E-02   .91002329E-03
 Reciprocal Space Part
   .00000000E+00   .29272926E+00   .57843399E+00   .85023484E+00   .11015397E+01
   .13261794E+01   .15185341E+01   .16736479E+01   .17873284E+01   .18562306E+01
   .18779215E+01   .18509255E+01   .17747492E+01   .16498856E+01   .14777963E+01
   .12608754E+01   .10023919E+01   .70641614E+00   .37772921E+00   .21718724E-01
  -.35573657E+00  -.74839098E+00  -.11497619E+01  -.15532628E+01  -.19523357E+01
  -.23405817E+01  -.27118843E+01  -.30605258E+01  -.33812917E+01  -.36695632E+01
  -.39213948E+01  -.41335755E+01  -.43036740E+01  -.44300652E+01  -.45119403E+01
  -.45492988E+01  -.45429232E+01  -.44943396E+01  -.44057620E+01  -.42800250E+01
  -.41205058E+01  -.39310365E+01  -.37158106E+01  -.34792853E+01  -.32260817E+01
  -.29608856E+01  -.26883505E+01  -.24130063E+01  -.21391741E+01  -.18708888E+01
  -.16118327E+01  -.13652790E+01  -.11340470E+01  -.92047055E+00  -.72637731E+00
  -.55308185E+00  -.40138970E+00  -.27161305E+00  -.16359660E+00  -.76752772E-01
  -.10104639E-01   .37664549E-01   .68156995E-01   .83202612E-01   .84799534E-01
   .75054428E-01   .56124091E-01   .30159711E-01  -.74497392E-03  -.34600541E-01
  -.69562879E-01  -.10396763E+00  -.13635759E+00  -.16550280E+00  -.19041323E+00
  -.21034427E+00  -.22479520E+00  -.23350134E+00  -.23642027E+00  -.23371303E+00
  -.22572115E+00  -.21294033E+00  -.19599172E+00  -.17559194E+00  -.15252250E+00
  -.12759976E+00  -.10164610E+00  -.75463148E-01  -.49807632E-01  -.25370407E-01
  -.27590838E-02   .17515510E-01   .35048873E-01   .49548366E-01   .60834843E-01
   .68840593E-01   .73603904E-01   .75260639E-01   .74033291E-01   .70218015E-01
 Real Space Part
   .00000000E+00  -.44565316E+01  -.88736793E+01  -.13212431E+02  -.17434518E+02
  -.21502784E+02  -.25381550E+02  -.29036977E+02  -.32437420E+02  -.35553771E+02
  -.38359789E+02  -.40832411E+02  -.42952041E+02  -.44702811E+02  -.46072803E+02
  -.47054238E+02  -.47643617E+02  -.47841801E+02  -.47654050E+02  -.47089992E+02
  -.46163524E+02  -.44892661E+02  -.43299301E+02  -.41408940E+02  -.39250314E+02
  -.36854984E+02  -.34256876E+02  -.31491766E+02  -.28596733E+02  -.25609588E+02
  -.22568287E+02  -.19510342E+02  -.16472240E+02  -.13488886E+02  -.10593077E+02
  -.78150297E+01  -.51819498E+01  -.27176791E+01  -.44240695E+00   .16275384E+01
   .34798180E+01   .51061276E+01   .65021612E+01   .76674960E+01   .86054018E+01
   .93225838E+01   .98288640E+01   .10136814E+02   .10261344E+02   .10219273E+02
   .10028865E+02   .97093782E+01   .92806093E+01   .87624554E+01   .81745059E+01
   .75356666E+01   .68638280E+01   .61755803E+01   .54859812E+01   .48083782E+01
   .41542863E+01   .35333200E+01   .29531777E+01   .24196742E+01   .19368174E+01
   .15069225E+01   .11307583E+01   .80771818E+00   .53600812E+00   .31284662E+00
   .13466788E+00  -.26769640E-02  -.10372651E+00  -.17322843E+00  -.21597563E+00
  -.23666226E+00  -.23976167E+00  -.22942775E+00  -.20941978E+00  -.18305043E+00
  -.15315567E+00  -.12208482E+00  -.91708380E-01  -.63441081E-01  -.38277137E-01
  -.16834879E-01   .59226634E-03   .13981221E-01   .23523731E-01   .29572128E-01
   .32588335E-01   .33097637E-01   .31648362E-01   .28778214E-01   .24987606E-01
   .20720005E-01   .16348990E-01   .12171480E-01   .84063741E-02   .51977359E-02
 PAW radial sets
 323 0.699084555240741423
(5E20.12)                                
 augmentation charges (non sperical)
  -.610085085999E-01  -.186338196202E-02  -.286321339088E-01   .165933387291E-01  -.186338196202E-02
  -.601132130549E-04   .464666195505E-04   .217264853682E-03  -.286321339088E-01   .464666195505E-04
   .535065865316E-01   .383319399150E-03   .165933387291E-01   .217264853682E-03   .383319399150E-03
   .119224496368E-02
 uccopancies in atom
   .200000000005E+01   .000000000000E+00   .000000000000E+00   .000000000000E+00   .000000000000E+00
   .000000000000E+00   .000000000000E+00   .000000000000E+00   .000000000000E+00   .000000000000E+00
   .666666666439E+00   .000000000000E+00   .000000000000E+00   .000000000000E+00   .000000000000E+00
   .000000000000E+00
 grid
   .266163843696E-04   .274818827895E-04   .283755250589E-04   .292982263456E-04   .302509315762E-04
   .312346164042E-04   .322502882088E-04   .332989871268E-04   .343817871173E-04   .354997970623E-04
   .366541619016E-04   .378460638057E-04   .390767233863E-04   .403474009463E-04   .416593977706E-04
   .430140574586E-04   .444127673002E-04   .458569596965E-04   .473481136267E-04   .488877561628E-04
   .504774640331E-04   .521188652376E-04   .538136407145E-04   .555635260619E-04   .573703133154E-04
   .592358527830E-04   .611620549401E-04   .631508923861E-04   .652044018643E-04   .673246863478E-04
   .695139171933E-04   .717743363644E-04   .741082587279E-04   .765180744243E-04   .790062513153E-04
   .815753375116E-04   .842279639819E-04   .869668472475E-04   .897947921642E-04   .927146947948E-04
   .957295453747E-04   .988424313742E-04   .102056540661E-03   .105375164763E-03   .108801702242E-03
   .112339662172E-03   .115992667733E-03   .119764459921E-03   .123658901382E-03   .127679980364E-03
   .131831814803E-03   .136118656540E-03   .140544895676E-03   .145115065067E-03   .149833844965E-03
   .154706067814E-03   .159736723194E-03   .164930962938E-03   .170294106401E-03   .175831645909E-03
   .181549252388E-03   .187452781165E-03   .193548277971E-03   .199841985127E-03   .206340347939E-03
   .213050021297E-03   .219977876495E-03   .227131008261E-03   .234516742027E-03   .242142641430E-03
   .250016516057E-03   .258146429445E-03   .266540707334E-03   .275207946198E-03   .284157022049E-03
   .293397099521E-03   .302937641261E-03   .312788417618E-03   .322959516647E-03   .333461354443E-03
   .344304685805E-03   .355500615252E-03   .367060608395E-03   .378996503676E-03   .391320524495E-03
   .404045291726E-03   .417183836643E-03   .430749614264E-03   .444756517131E-03   .459218889537E-03
   .474151542213E-03   .489569767503E-03   .505489355015E-03   .521926607798E-03   .538898359036E-03
   .556421989285E-03   .574515444273E-03   .593197253280E-03   .612486548111E-03   .632403082688E-03
   .652967253285E-03   .674200119407E-03   .696123425367E-03   .718759622544E-03   .742131892384E-03
   .766264170131E-03   .791181169349E-03   .816908407220E-03   .843472230686E-03   .870899843422E-03
   .899219333701E-03   .928459703155E-03   .958650896478E-03   .989823832089E-03   .102201043380E-02
   .105524366350E-02   .108955755493E-02   .112498724850E-02   .116156902732E-02   .119934035433E-02
   .123833991067E-02   .127860763528E-02   .132018476584E-02   .136311388097E-02   .140743894383E-02
   .145320534715E-02   .150045995974E-02   .154925117444E-02   .159962895772E-02   .165164490084E-02
   .170535227266E-02   .176080607424E-02   .181806309510E-02   .187718197144E-02   .193822324615E-02
   .200124943084E-02   .206632506983E-02   .213351680625E-02   .220289345031E-02   .227452604977E-02
   .234848796266E-02   .242485493244E-02   .250370516557E-02   .258511941158E-02   .266918104576E-02
   .275597615457E-02   .284559362380E-02   .293812522956E-02   .303366573230E-02   .313231297384E-02
   .323416797759E-02   .333933505196E-02   .344792189722E-02   .356003971581E-02   .367580332615E-02
   .379533128031E-02   .391874598535E-02   .404617382872E-02   .417774530766E-02   .431359516287E-02
   .445386251646E-02   .459869101447E-02   .474822897393E-02   .490262953478E-02   .506205081668E-02
   .522665608097E-02   .539661389781E-02   .557209831886E-02   .575328905551E-02   .594037166289E-02
   .613353772995E-02   .633298507563E-02   .653891795142E-02   .675154725060E-02   .697109072414E-02
   .719777320374E-02   .743182683208E-02   .767349130052E-02   .792301409459E-02   .818065074744E-02
   .844666510152E-02   .872132957877E-02   .900492545962E-02   .929774317102E-02   .960008258391E-02
   .991225332026E-02   .102345750702E-01   .105673779193E-01   .109110026869E-01   .112658012746E-01
   .116321370274E-01   .120103851049E-01   .124009328662E-01   .128041802665E-01   .132205402662E-01
   .136504392545E-01   .140943174853E-01   .145526295289E-01   .150258447369E-01   .155144477228E-01
   .160189388589E-01   .165398347883E-01   .170776689537E-01   .176329921445E-01   .182063730601E-01
   .187983988927E-01   .194096759284E-01   .200408301684E-01   .206925079697E-01   .213653767074E-01
   .220601254578E-01   .227774657044E-01   .235181320663E-01   .242828830506E-01   .250725018290E-01
   .258877970402E-01   .267296036178E-01   .275987836452E-01   .284962272388E-01   .294228534593E-01
   .303796112527E-01   .313674804228E-01   .323874726339E-01   .334406324470E-01   .345280383900E-01
   .356508040616E-01   .368100792718E-01   .380070512198E-01   .392429457094E-01   .405190284047E-01
   .418366061258E-01   .431970281875E-01   .446016877807E-01   .460520233998E-01   .475495203150E-01
   .490957120941E-01   .506921821726E-01   .523405654753E-01   .540425500908E-01   .557998790001E-01
   .576143518615E-01   .594878268538E-01   .614222225791E-01   .634195200277E-01   .654817646066E-01
   .676110682346E-01   .698096115046E-01   .720796459171E-01   .744234961856E-01   .768435626176E-01
   .793423235727E-01   .819223380004E-01   .845862480609E-01   .873367818310E-01   .901767560975E-01
   .931090792423E-01   .961367542205E-01   .992628816359E-01   .102490662916E+00   .105823403591E+00
   .109264516679E+00   .112817526180E+00   .116486070686E+00   .120273907107E+00   .124184914520E+00
   .128223098136E+00   .132392593410E+00   .136697670269E+00   .141142737487E+00   .145732347202E+00
   .150471199575E+00   .155364147606E+00   .160416202100E+00   .165632536802E+00   .171018493697E+00
   .176579588473E+00   .182321516178E+00   .188250157047E+00   .194371582528E+00   .200692061494E+00
   .207218066668E+00   .213956281250E+00   .220913605761E+00   .228097165108E+00   .235514315885E+00
   .243172653901E+00   .251080021964E+00   .259244517910E+00   .267674502897E+00   .276378609965E+00
   .285365752880E+00   .294645135264E+00   .304226260013E+00   .314118939037E+00   .324333303303E+00
   .334879813214E+00   .345769269317E+00   .357012823366E+00   .368621989744E+00   .380608657251E+00
   .392985101282E+00   .405763996398E+00   .418958429304E+00   .432581912251E+00   .446648396878E+00
   .461172288493E+00   .476168460830E+00   .491652271281E+00   .507639576621E+00   .524146749247E+00
   .541190693946E+00   .558788865208E+00   .576959285097E+00   .595720561711E+00   .615091908236E+00
   .635093162626E+00   .655744807911E+00   .677067993181E+00   .699084555241E+00   .721817040975E+00
   .745288730434E+00   .769523660679E+00   .794546650398E+00
 aepotential
   .383317401350E+05   .370760521630E+05   .358215427817E+05   .345723614372E+05   .333329235581E+05
   .321072411919E+05   .308989386383E+05   .297112470463E+05   .285470076453E+05   .274086798574E+05
   .262983535166E+05   .252177644407E+05   .241683130613E+05   .231510852278E+05   .221668746907E+05
   .212162067494E+05   .202993625032E+05   .194164032472E+05   .185671946044E+05   .177514300587E+05
   .169686535705E+05   .162182810557E+05   .154996205585E+05   .148118909766E+05   .141542392477E+05
   .135257560060E+05   .129254896671E+05   .123524589625E+05   .118056640518E+05   .112840961958E+05
   .107867460148E+05   .103126107938E+05   .986070033795E+04   .943004200499E+04   .901968485448E+04
   .862870276244E+04   .825619708807E+04   .790129849413E+04   .756316831746E+04   .724099943751E+04
   .693401678227E+04   .664147745305E+04   .636267057252E+04   .609691689646E+04   .584356827969E+04
   .560200695715E+04   .537164466484E+04   .515192177660E+04   .494230629451E+04   .474229278168E+04
   .455140136800E+04   .436917663011E+04   .419518652364E+04   .402902138329E+04   .387029279002E+04
   .371863253072E+04   .357369179155E+04   .343513992726E+04   .330266368403E+04   .317596636331E+04
   .305476672301E+04   .293879844635E+04   .282780911686E+04   .272155961227E+04   .261982329965E+04
   .252238545902E+04   .242904250854E+04   .233960151475E+04   .225387951953E+04   .217170307075E+04
   .209290762256E+04   .201733712284E+04   .194484348396E+04   .187528618728E+04   .180853185036E+04
   .174445383460E+04   .168293188934E+04   .162385178535E+04   .156710500646E+04   .151258842233E+04
   .146020400231E+04   .140985854502E+04   .136146340998E+04   .131493427670E+04   .127019091146E+04
   .122715695065E+04   .118575969310E+04   .114592990721E+04   .110760164901E+04   .107071208076E+04
   .103520132763E+04   .100101229465E+04   .968090551732E+03   .936384173502E+03   .905843624873E+03
   .876421626702E+03   .848073052039E+03   .820754808212E+03   .794425739614E+03   .769046524597E+03
   .744579591633E+03   .720989023054E+03   .698240480930E+03   .676301124330E+03   .655139537739E+03
   .634725661561E+03   .615030725674E+03   .596027188030E+03   .577688674777E+03   .559989924704E+03
   .542906737097E+03   .526415920536E+03   .510495246165E+03   .495123402472E+03   .480279952596E+03
   .465945293766E+03   .452100619670E+03   .438727882504E+03   .425809760163E+03   .413329622066E+03
   .401271498932E+03   .389620052484E+03   .378360547788E+03   .367478826286E+03   .356961280721E+03
   .346794830362E+03   .336966898773E+03   .327465391112E+03   .318278674497E+03   .309395556619E+03
   .300805268514E+03   .292497445394E+03   .284462110100E+03   .276689656664E+03   .269170834721E+03
   .261896734731E+03   .254858773865E+03   .248048682373E+03   .241458490845E+03   .235080517842E+03
   .228907358231E+03   .222931871878E+03   .217147172978E+03   .211546619837E+03   .206123805074E+03
   .200872546185E+03   .195786876778E+03   .190861037791E+03   .186089469450E+03   .181466803375E+03
   .176987855056E+03   .172647616682E+03   .168441250263E+03   .164364080974E+03   .160411590899E+03
   .156579412924E+03   .152863324933E+03   .149259244204E+03   .145763222136E+03   .142371439012E+03
   .139080199145E+03   .135885926133E+03   .132785158305E+03   .129774544362E+03   .126850839236E+03
   .124010899974E+03   .121251681982E+03   .118570235228E+03   .115963700738E+03   .113429307103E+03
   .110964367262E+03   .108566275250E+03   .106232503230E+03   .103960598509E+03   .101748180767E+03
   .995929393180E+02   .974926305371E+02   .954450753531E+02   .934481568477E+02   .914998179451E+02
   .895980592072E+02   .877409366956E+02   .859265599431E+02   .841530899713E+02   .824187374331E+02
   .807217607940E+02   .790604646145E+02   .774331978845E+02   .758383524512E+02   .742743614975E+02
   .727396980970E+02   .712328738357E+02   .697524374914E+02   .682969737885E+02   .668651022009E+02
   .654554758266E+02   .640667803164E+02   .626977328633E+02   .613470812491E+02   .600136029490E+02
   .586961042929E+02   .573934196797E+02   .561044108453E+02   .548279661925E+02   .535630001670E+02
   .523084526805E+02   .510632886094E+02   .498264973080E+02   .485970922131E+02   .473741104651E+02
   .461566125988E+02   .449436822753E+02   .437344260616E+02   .425279732599E+02   .413234757805E+02
   .401201080623E+02   .389170670348E+02   .377135721249E+02   .365088653029E+02   .353022111734E+02
   .340928970973E+02   .328802333592E+02   .316635533635E+02   .304422138675E+02   .292155952447E+02
   .279831017783E+02   .267441619801E+02   .254982289382E+02   .242447806833E+02   .229833205798E+02
   .217133777326E+02   .204345074131E+02   .191462914991E+02   .178483389287E+02   .165402861685E+02
   .152217976926E+02   .138925664776E+02   .125523145105E+02   .112007933164E+02   .983778450878E+01
   .846310036873E+01   .707658446486E+01   .567811232366E+01   .426759216912E+01   .284496575141E+01
   .141020929284E+01  -.366654156141E-01  -.149560972345E+01  -.296653658322E+01  -.444931870035E+01
  -.594378629039E+01  -.744972434548E+01  -.896686929182E+01  -.104949048950E+02  -.120334572435E+02
  -.135820886085E+02  -.151402899440E+02  -.167074717553E+02  -.182829530266E+02  -.198659478663E+02
  -.214555495031E+02  -.230507112591E+02  -.246502241472E+02  -.262526908046E+02  -.278564956091E+02
  -.294597710474E+02  -.310603607592E+02  -.326557801918E+02  -.342431765070E+02  -.358192903045E+02
  -.373804228649E+02  -.389224139265E+02  -.404406363995E+02  -.419300157173E+02  -.433850824888E+02
  -.448000674747E+02  -.461690474478E+02  -.474861491702E+02  -.487458171466E+02  -.499431492767E+02
  -.510743075199E+02  -.521370165321E+02  -.531311804649E+02  -.540596711832E+02  -.549293630873E+02
  -.557524764820E+02  -.565481668190E+02  -.573439201000E+02  -.581754998773E+02  -.590828862883E+02
  -.600984575072E+02  -.612246894042E+02  -.624054073495E+02  -.635079321979E+02  -.643429503546E+02
  -.647341328244E+02  -.646074102868E+02  -.640374460998E+02  -.632091682825E+02  -.623198210793E+02
  -.614972752813E+02  -.607833039180E+02  -.601643928333E+02  -.596083077577E+02  -.590852924460E+02
  -.585747945374E+02  -.580649267477E+02  -.575497821306E+02  -.570268364802E+02  -.564950806221E+02
  -.559539033021E+02  -.554025550570E+02  -.548399930324E+02  -.542649352801E+02  -.536760011707E+02
  -.530718627739E+02  -.524513698695E+02  -.518136362967E+02  -.511580889113E+02  -.504844862598E+02
  -.497929152047E+02  -.490837727492E+02  -.483577385574E+02
 core charge-density
   .210201471976E-05   .224075664592E-05   .238865458685E-05   .254631262205E-05   .271437467066E-05
   .289352711738E-05   .308450161127E-05   .328807804893E-05   .350508775400E-05   .373641686609E-05
   .398300995265E-05   .424587385875E-05   .452608181007E-05   .482477778602E-05   .514318118056E-05
   .548259176971E-05   .584439500577E-05   .623006765990E-05   .664118383576E-05   .707942137855E-05
   .754656870563E-05   .804453208605E-05   .857534339869E-05   .914116840034E-05   .974431553701E-05
   .103872453343E-04   .110725804047E-04   .118031161120E-04   .125818319365E-04   .134119035859E-04
   .142967159018E-04   .152398766133E-04   .162452309925E-04   .173168774727E-04   .184591842904E-04
   .196768072185E-04   .209747084634E-04   .223581767995E-04   .238328490247E-04   .254047328205E-04
   .270802311103E-04   .288661680134E-04   .307698164969E-04   .327989278389E-04   .349617630191E-04
   .372671261631E-04   .397244001732E-04   .423435846899E-04   .451353365329E-04   .481110127855E-04
   .512827166925E-04   .546633465537E-04   .582666478101E-04   .621072685268E-04   .662008184941E-04
   .705639321818E-04   .752143357953E-04   .801709186982E-04   .854538094856E-04   .910844570067E-04
   .970857166572E-04   .103481942281E-03   .110299084044E-03   .117564792660E-03   .125308530387E-03
   .133561689217E-03   .142357716729E-03   .151732250102E-03   .161723258793E-03   .172371196456E-03
   .183719162681E-03   .195813075181E-03   .208701853104E-03   .222437612158E-03   .237075872332E-03
   .252675778986E-03   .269300338178E-03   .287016667117E-03   .305896260713E-03   .326015275242E-03
   .347454830188E-03   .370301329441E-03   .394646803036E-03   .420589270757E-03   .448233128946E-03
   .477689562001E-03   .509076980088E-03   .542521484709E-03   .578157363861E-03   .616127618631E-03
   .656584523168E-03   .699690220109E-03   .745617353632E-03   .794549742481E-03   .846683095389E-03
   .902225771526E-03   .961399588699E-03   .102444068224E-02   .109160041766E-02   .116314636027E-02
   .123936330534E-02   .132055437229E-02   .140704216687E-02   .149917001532E-02   .159730327486E-02
   .170183072500E-02   .181316604445E-02   .193174937867E-02   .205804900338E-02   .219256308964E-02
   .233582157635E-02   .248838815641E-02   .265086238310E-02   .282388190341E-02   .300812482576E-02
   .320431222944E-02   .341321082396E-02   .363563576644E-02   .387245364601E-02   .412458564415E-02
   .439301088078E-02   .467876995601E-02   .498296869806E-02   .530678212831E-02   .565145865486E-02
   .601832450658E-02   .640878841994E-02   .682434659150E-02   .726658790948E-02   .773719947818E-02
   .823797244965E-02   .877080817735E-02   .933772470722E-02   .994086362171E-02   .105824972531E-01
   .112650362829E-01   .119910377433E-01   .127632134399E-01   .135844388111E-01   .144577622441E-01
   .153864148634E-01   .163738208122E-01   .174236080432E-01   .185396196377E-01   .197259256706E-01
   .209868356391E-01   .223269114720E-01   .237509811369E-01   .252641528593E-01   .268718299708E-01
   .285797263970E-01   .303938828004E-01   .323206833847E-01   .343668733724E-01   .365395771581E-01
   .388463171429E-01   .412950332480E-01   .438941031033E-01   .466523629042E-01   .495791289213E-01
   .526842196464E-01   .559779785495E-01   .594712974148E-01   .631756402191E-01   .671030675022E-01
   .712662611768E-01   .756785497076E-01   .803539335844E-01   .853071109979E-01   .905535036149E-01
   .961092823336E-01   .101991392886E+00   .108217581135E+00   .114806417891E+00   .121777323066E+00
   .129150588943E+00   .136947402324E+00   .145189865301E+00   .153901014352E+00   .163104837444E+00
   .172826288805E+00   .183091300959E+00   .193926793635E+00   .205360679071E+00   .217421863247E+00
   .230140242492E+00   .243546694913E+00   .257673066026E+00   .272552147933E+00   .288217651336E+00
   .304704169664E+00   .322047134505E+00   .340282761512E+00   .359447985923E+00   .379580386761E+00
   .400718098759E+00   .422899711034E+00   .446164151471E+00   .470550555773E+00   .496098120117E+00
   .522845936323E+00   .550832808460E+00   .580097049822E+00   .610676259202E+00   .642607075471E+00
   .675924909479E+00   .710663652389E+00   .746855359642E+00   .784529909868E+00   .823714638198E+00
   .864433943582E+00   .906708869968E+00   .950556661362E+00   .995990291124E+00   .104301796611E+01
   .109164260662E+01   .114186130363E+01   .119366475488E+01   .124703668237E+01   .130195323380E+01
   .135838237157E+01   .141628325299E+01   .147560560672E+01   .153628911031E+01   .159826277524E+01
   .166144434602E+01   .172573972093E+01   .179104240281E+01   .185723298887E+01   .192417870953E+01
   .199173302679E+01   .205973530355E+01   .212801055564E+01   .219636929928E+01   .226460750671E+01
   .233250668330E+01   .239983407940E+01   .246634305053E+01   .253177357856E+01   .259585296684E+01
   .265829672076E+01   .271880962463E+01   .277708702399E+01   .283281632099E+01   .288567868813E+01
   .293535100324E+01   .298150800565E+01   .302382467008E+01   .306197879136E+01   .309565376868E+01
   .312454157393E+01   .314834588399E+01   .316678535168E+01   .317959698537E+01   .318653960172E+01
   .318739731108E+01   .318198299002E+01   .317014169081E+01   .315175393296E+01   .312673881878E+01
   .309505691121E+01   .305671281039E+01   .301175736428E+01   .296028944858E+01   .290245725290E+01
   .283845901318E+01   .276854313492E+01   .269300765859E+01   .261219902697E+01   .252651012442E+01
   .243637757071E+01   .234227826612E+01   .224472520064E+01   .214426255778E+01   .204146016233E+01
   .193690734109E+01   .183120628548E+01   .172496502364E+01   .161879013072E+01   .151327931436E+01
   .140901403108E+01   .130655229498E+01   .120642184091E+01   .110911380351E+01   .101507706536E+01
   .924713415287E+00   .838373638738E+00   .756354633201E+00   .678897594052E+00   .606187236400E+00
   .538351896408E+00   .475464205924E+00   .417541937254E+00   .364548734839E+00   .316394938044E+00
   .272939426364E+00   .233993809082E+00   .199329712305E+00   .168688507967E+00   .141791603202E+00
   .118349382811E+00   .980680113325E-01   .806544733117E-01   .658206202508E-01   .532867336649E-01
   .427847431325E-01   .340610365648E-01   .268787587943E-01   .210195270993E-01   .162845404577E-01
   .124951006767E-01   .949259334725E-02   .713799599173E-02   .531099208522E-02   .390877477541E-02
   .284462447957E-02   .204634106180E-02   .145460473349E-02   .102133087525E-02   .708073374340E-03
   .484519560765E-03   .327108148624E-03   .217790419037E-03
 kinetic energy-density
   .187149272566E-01   .190029016528E-01   .193021383520E-01   .196131445331E-01   .199364668482E-01
   .202726831041E-01   .206224041703E-01   .209862753360E-01   .213649778729E-01   .217592307042E-01
   .221697921893E-01   .225974620544E-01   .230430834585E-01   .235075452233E-01   .239917842237E-01
   .244967879609E-01   .250235973262E-01   .255733095592E-01   .261470814287E-01   .267461326327E-01
   .273717494355E-01   .280252885669E-01   .287081813606E-01   .294219382048E-01   .301681532636E-01
   .309485095218E-01   .317647841490E-01   .326188542310E-01   .335127028323E-01   .344484255235E-01
   .354282371948E-01   .364544794691E-01   .375296284508E-01   .386563030240E-01   .398372736687E-01
   .410754718683E-01   .423740000125E-01   .437361420645E-01   .451653748014E-01   .466653797901E-01
   .482400561570E-01   .498935341207E-01   .516301894220E-01   .534546586408E-01   .553718554950E-01
   .573869882016E-01   .595055778913E-01   .617334782350E-01   .640768963281E-01   .665424148420E-01
   .691370156842E-01   .718681050854E-01   .747435402840E-01   .777716580423E-01   .809613048245E-01
   .843218689283E-01   .878633147711E-01   .915962193527E-01   .955318108150E-01   .996820098605E-01
   .104059473466E+00   .108677641585E+00   .113550786803E+00   .118694067089E+00   .124123581995E+00
   .129856432521E+00   .135910784469E+00   .142305936459E+00   .149062391504E+00   .156201933897E+00
   .163747710518E+00   .171724317478E+00   .180157892402E+00   .189076212387E+00   .198508798378E+00
   .208487026104E+00   .219044244082E+00   .230215899162E+00   .242039670048E+00   .254555609264E+00
   .267806294183E+00   .281836987641E+00   .296695808659E+00   .312433914112E+00   .329105691757E+00
   .346768965584E+00   .365485214034E+00   .385319802119E+00   .406342228041E+00   .428626385361E+00
   .452250841902E+00   .477299135691E+00   .503860089876E+00   .532028147324E+00   .561903725927E+00
   .593593596265E+00   .627211282887E+00   .662877490414E+00   .700720556173E+00   .740876931071E+00
   .783491690049E+00   .828719074092E+00   .876723065934E+00   .927678000833E+00   .981769215175E+00
   .103919373456E+01   .110016100428E+01   .116489366388E+01   .123362836932E+01   .130661666466E+01
   .138412590656E+01   .146644024463E+01   .155386166052E+01   .164671106948E+01   .174532948751E+01
   .185007926809E+01   .196134541224E+01   .207953695573E+01   .220508843837E+01   .233846145866E+01
   .248014631989E+01   .263066377108E+01   .279056684906E+01   .296044282603E+01   .314091526877E+01
   .333264621471E+01   .353633847128E+01   .375273804390E+01   .398263670078E+01   .422687467799E+01
   .448634353582E+01   .476198916903E+01   .505481498233E+01   .536588523522E+01   .569632856593E+01
   .604734170172E+01   .642019336275E+01   .681622836857E+01   .723687195545E+01   .768363431125E+01
   .815811533885E+01   .866200965348E+01   .919711182443E+01   .976532186826E+01   .103686510014E+02
   .110092276605E+02   .116893037974E+02   .124112614561E+02   .131776196376E+02   .139910414599E+02
   .148543416164E+02   .157704941386E+02   .167426404663E+02   .177740978254E+02   .188683679172E+02
   .200291459156E+02   .212603297708E+02   .225660298148E+02   .239505786611E+02   .254185413897E+02
   .269747260040E+02   .286241941448E+02   .303722720411E+02   .322245616746E+02   .341869521299E+02
   .362656310986E+02   .384670964953E+02   .407981681485E+02   .432659995054E+02   .458780893047E+02
   .486422931402E+02   .515668348501E+02   .546603176435E+02   .579317348741E+02   .613904803553E+02
   .650463581030E+02   .689095913788E+02   .729908308934E+02   .773011620136E+02   .818521108089E+02
   .866556487471E+02   .917241958441E+02   .970706220433E+02   .102708246595E+03   .108650835174E+03
   .114912594467E+03   .121508163936E+03   .128452604432E+03   .135761383343E+03   .143450355903E+03
   .151535742297E+03   .160034100166E+03   .168962292084E+03   .178337447588E+03   .188176919311E+03
   .198498232731E+03   .209319029088E+03   .220657000954E+03   .232529819984E+03   .244955056327E+03
   .257950089232E+03   .271532008341E+03   .285717505210E+03   .300522754616E+03   .315963285221E+03
   .332053839245E+03   .348808220795E+03   .366239132631E+03   .384358001152E+03   .403174789553E+03
   .422697799137E+03   .442933458957E+03   .463886104051E+03   .485557742726E+03   .507947813511E+03
   .531052932602E+03   .554866632844E+03   .579379095524E+03   .604576876521E+03   .630442628632E+03
   .656954822183E+03   .684087466359E+03   .711809833998E+03   .740086192954E+03   .768875547433E+03
   .798131393124E+03   .827801490198E+03   .857827658668E+03   .888145600844E+03   .918684755966E+03
   .949368192307E+03   .980112542272E+03   .101082798616E+04   .104141829035E+04   .107178090569E+04
   .110180713178E+04   .113138235255E+04   .116038634853E+04   .118869369036E+04   .121617421790E+04
   .124269360841E+04   .126811403643E+04   .129229492698E+04   .131509380267E+04   .133636722370E+04
   .135597181862E+04   .137376540192E+04   .138960817268E+04   .140336398711E+04   .141490169540E+04
   .142409653185E+04   .143083154490E+04   .143499905206E+04   .143650210272E+04   .143525593026E+04
   .143118937310E+04   .142424624329E+04   .141438661985E+04   .140158804370E+04   .138584659017E+04
   .136717779557E+04   .134561741424E+04   .132122198382E+04   .129406917745E+04   .126425792364E+04
   .123190827657E+04   .119716102241E+04   .116017701014E+04   .112113619867E+04   .108023641603E+04
   .103769182992E+04   .993731133613E+03   .948595455686E+03   .902536007070E+03   .855811484921E+03
   .808685259103E+03   .761422374678E+03   .714286418279E+03   .667536262337E+03   .621422839436E+03
   .576185893199E+03   .532050869837E+03   .489225992577E+03   .447899597254E+03   .408237795951E+03
   .370382528452E+03   .334450063979E+03   .300530043795E+03   .268685225931E+03   .238952207524E+03
   .211343498908E+03   .185851228955E+03   .162452188076E+03   .141112750295E+03   .121791110838E+03
   .104434777422E+03   .889742185649E+02   .753170557585E+02   .633476452647E+02   .529332849578E+02
   .439337166174E+02   .362092956323E+02   .296256559217E+02   .240555383153E+02   .193793214078E+02
   .154852579587E+02   .122697443525E+02   .963761241955E+01   .750235296988E+01   .578620180549E+01
   .442005836368E+01   .334323786417E+01   .250307633395E+01   .185441692586E+01   .135900893055E+01
   .984850383892E+00   .705502793867E+00   .499403134414E+00   .349194331708E+00   .241091270573E+00
   .164295079104E+00   .110464301462E+00   .732477232375E-01
 pspotential
  -.688889563991E+02  -.688859867412E+02  -.688831106037E+02  -.688803250462E+02  -.688776272155E+02
  -.688750143495E+02  -.688724837717E+02  -.688700328911E+02  -.688676591977E+02  -.688653602608E+02
  -.688631337259E+02  -.688609773126E+02  -.688588888128E+02  -.688568660880E+02  -.688549070663E+02
  -.688530097420E+02  -.688511721715E+02  -.688493924735E+02  -.688476688255E+02  -.688459994619E+02
  -.688443826738E+02  -.688428168048E+02  -.688413002519E+02  -.688398314619E+02  -.688384089307E+02
  -.688370312015E+02  -.688356968633E+02  -.688344045501E+02  -.688331529381E+02  -.688319407457E+02
  -.688307667317E+02  -.688296296939E+02  -.688285284677E+02  -.688274619257E+02  -.688264289758E+02
  -.688254285599E+02  -.688244596540E+02  -.688235212658E+02  -.688226124343E+02  -.688217322292E+02
  -.688208797490E+02  -.688200541209E+02  -.688192544994E+02  -.688184800661E+02  -.688177300278E+02
  -.688170036167E+02  -.688163000890E+02  -.688156187246E+02  -.688149588259E+02  -.688143197171E+02
  -.688137007442E+02  -.688131012737E+02  -.688125206918E+02  -.688119584042E+02  -.688114138354E+02
  -.688108864282E+02  -.688103756429E+02  -.688098809565E+02  -.688094018632E+02  -.688089378725E+02
  -.688084885101E+02  -.688080533160E+02  -.688076318451E+02  -.688072236665E+02  -.688068283628E+02
  -.688064455298E+02  -.688060747762E+02  -.688057157231E+02  -.688053680035E+02  -.688050312622E+02
  -.688047051553E+02  -.688043893497E+02  -.688040835233E+02  -.688037873638E+02  -.688035005692E+02
  -.688032228471E+02  -.688029539143E+02  -.688026934969E+02  -.688024413298E+02  -.688021971563E+02
  -.688019607282E+02  -.688017318051E+02  -.688015101547E+02  -.688012955520E+02  -.688010877797E+02
  -.688008866271E+02  -.688006918910E+02  -.688005033747E+02  -.688003208880E+02  -.688001442470E+02
  -.687999732743E+02  -.687998077983E+02  -.687996476534E+02  -.687994926793E+02  -.687993427220E+02
  -.687991976321E+02  -.687990572661E+02  -.687989214854E+02  -.687987901564E+02  -.687986631505E+02
  -.687985403441E+02  -.687984216179E+02  -.687983068576E+02  -.687981959533E+02  -.687980887993E+02
  -.687979852948E+02  -.687978853428E+02  -.687977888509E+02  -.687976957307E+02  -.687976058980E+02
  -.687975192728E+02  -.687974357789E+02  -.687973553444E+02  -.687972779013E+02  -.687972033858E+02
  -.687971317377E+02  -.687970629013E+02  -.687969968247E+02  -.687969334599E+02  -.687968727634E+02
  -.687968146954E+02  -.687967592203E+02  -.687967063072E+02  -.687966559290E+02  -.687966080633E+02
  -.687965626919E+02  -.687965198015E+02  -.687964793834E+02  -.687964414333E+02  -.687964059529E+02
  -.687963729482E+02  -.687963424307E+02  -.687963144176E+02  -.687962889318E+02  -.687962660020E+02
  -.687962456634E+02  -.687962279573E+02  -.687962129321E+02  -.687962006431E+02  -.687961911532E+02
  -.687961845329E+02  -.687961808611E+02  -.687961802249E+02  -.687961827209E+02  -.687961884551E+02
  -.687961975430E+02  -.687962101115E+02  -.687962262982E+02  -.687962462524E+02  -.687962701361E+02
  -.687962981243E+02  -.687963304059E+02  -.687963671847E+02  -.687964086798E+02  -.687964551267E+02
  -.687965067786E+02  -.687965639071E+02  -.687966268030E+02  -.687966957780E+02  -.687967711656E+02
  -.687968533224E+02  -.687969426296E+02  -.687970394944E+02  -.687971443510E+02  -.687972576630E+02
  -.687973799246E+02  -.687975116623E+02  -.687976534371E+02  -.687978058460E+02  -.687979695244E+02
  -.687981451479E+02  -.687983334348E+02  -.687985351483E+02  -.687987510986E+02  -.687989821460E+02
  -.687992292029E+02  -.687994932367E+02  -.687997752724E+02  -.688000763957E+02  -.688003977551E+02
  -.688007405658E+02  -.688011061119E+02  -.688014957490E+02  -.688019109084E+02  -.688023530983E+02
  -.688028239076E+02  -.688033250079E+02  -.688038581565E+02  -.688044251982E+02  -.688050280672E+02
  -.688056687886E+02  -.688063494797E+02  -.688070723499E+02  -.688078397012E+02  -.688086539268E+02
  -.688095175087E+02  -.688104330157E+02  -.688114030976E+02  -.688124304797E+02  -.688135179554E+02
  -.688146683756E+02  -.688158846362E+02  -.688171696637E+02  -.688185263960E+02  -.688199577609E+02
  -.688214666496E+02  -.688230558862E+02  -.688247281917E+02  -.688264861406E+02  -.688283321139E+02
  -.688302682412E+02  -.688322963363E+02  -.688344178226E+02  -.688366336488E+02  -.688389441915E+02
  -.688413491467E+02  -.688438474061E+02  -.688464369177E+02  -.688491145307E+02  -.688518758209E+02
  -.688547148965E+02  -.688576241830E+02  -.688605941845E+02  -.688636132213E+02  -.688666671413E+02
  -.688697390053E+02  -.688728087433E+02  -.688758527834E+02  -.688788436509E+02  -.688817495389E+02
  -.688845338502E+02  -.688871547130E+02  -.688895644711E+02  -.688917091518E+02  -.688935279164E+02
  -.688949524978E+02  -.688959066317E+02  -.688963054887E+02  -.688960551185E+02  -.688950519153E+02
  -.688931821176E+02  -.688903213577E+02  -.688863342755E+02  -.688810742143E+02  -.688743830182E+02
  -.688660909491E+02  -.688560167451E+02  -.688439678398E+02  -.688297407627E+02  -.688131217405E+02
  -.687938875149E+02  -.687718063933E+02  -.687466395421E+02  -.687181425318E+02  -.686860671328E+02
  -.686501633622E+02  -.686101817683E+02  -.685658759377E+02  -.685170052013E+02  -.684633375073E+02
  -.684046524231E+02  -.683407442210E+02  -.682714249958E+02  -.681965277544E+02  -.681159094160E+02
  -.680294536485E+02  -.679370734684E+02  -.678387135183E+02  -.677343519329E+02  -.676240016930E+02
  -.675077113559E+02  -.673855650367E+02  -.672576814981E+02  -.671242121853E+02  -.669853380203E+02
  -.668412647466E+02  -.666922165917E+02  -.665384279966E+02  -.663801331537E+02  -.662175531029E+02
  -.660508801689E+02  -.658802595975E+02  -.657057683725E+02  -.655273913819E+02  -.653449953790E+02
  -.651583015419E+02  -.649668578963E+02  -.647700134098E+02  -.645668961557E+02  -.643563985316E+02
  -.641371729807E+02  -.639076418840E+02  -.636660250861E+02  -.634103877206E+02  -.631387094822E+02
  -.628489742078E+02  -.625392757157E+02  -.622079326486E+02  -.618536021106E+02  -.614753798876E+02
  -.610728746490E+02  -.606462452159E+02  -.601961937686E+02  -.597239132786E+02  -.592309935141E+02
  -.587192955012E+02  -.581908081958E+02  -.576475026417E+02  -.570911979412E+02  -.565234504120E+02
  -.559454731997E+02  -.553580892927E+02  -.547617171356E+02  -.541563853081E+02  -.535413959031E+02
  -.529440596403E+02  -.523371726302E+02  -.517437282672E+02  -.511316376789E+02  -.504857670576E+02
  -.498097462626E+02  -.491001980528E+02  -.483609990814E+02
 core charge-density (pseudized)
   .000000000000E+00   .000000000000E+00   .000000000000E+00   .000000000000E+00   .000000000000E+00
   .000000000000E+00   .000000000000E+00   .000000000000E+00   .000000000000E+00   .000000000000E+00
   .000000000000E+00   .000000000000E+00   .000000000000E+00   .000000000000E+00   .000000000000E+00
   .000000000000E+00   .000000000000E+00   .000000000000E+00   .000000000000E+00   .000000000000E+00
   .000000000000E+00   .000000000000E+00   .000000000000E+00   .000000000000E+00   .000000000000E+00
   .000000000000E+00   .000000000000E+00   .000000000000E+00   .000000000000E+00   .000000000000E+00
   .000000000000E+00   .000000000000E+00   .000000000000E+00   .000000000000E+00   .000000000000E+00
   .000000000000E+00   .000000000000E+00   .000000000000E+00   .000000000000E+00   .000000000000E+00
   .000000000000E+00   .000000000000E+00   .000000000000E+00   .000000000000E+00   .000000000000E+00
   .000000000000E+00   .000000000000E+00   .000000000000E+00   .000000000000E+00   .000000000000E+00
   .000000000000E+00   .000000000000E+00   .000000000000E+00   .000000000000E+00   .000000000000E+00
   .000000000000E+00   .000000000000E+00   .000000000000E+00   .000000000000E+00   .000000000000E+00
   .000000000000E+00   .000000000000E+00   .000000000000E+00   .000000000000E+00   .000000000000E+00
   .000000000000E+00   .000000000000E+00   .000000000000E+00   .000000000000E+00   .000000000000E+00
   .000000000000E+00   .000000000000E+00   .000000000000E+00   .000000000000E+00   .000000000000E+00
   .000000000000E+00   .000000000000E+00   .000000000000E+00   .000000000000E+00   .000000000000E+00
   .000000000000E+00   .000000000000E+00   .000000000000E+00   .000000000000E+00   .000000000000E+00
   .000000000000E+00   .000000000000E+00   .000000000000E+00   .000000000000E+00   .000000000000E+00
   .000000000000E+00   .000000000000E+00   .000000000000E+00   .000000000000E+00   .000000000000E+00
   .000000000000E+00   .000000000000E+00   .000000000000E+00   .000000000000E+00   .000000000000E+00
   .000000000000E+00   .000000000000E+00   .000000000000E+00   .000000000000E+00   .000000000000E+00
   .000000000000E+00   .000000000000E+00   .000000000000E+00   .000000000000E+00   .000000000000E+00
   .000000000000E+00   .000000000000E+00   .000000000000E+00   .000000000000E+00   .000000000000E+00
   .000000000000E+00   .000000000000E+00   .000000000000E+00   .000000000000E+00   .000000000000E+00
   .000000000000E+00   .000000000000E+00   .000000000000E+00   .000000000000E+00   .000000000000E+00
   .000000000000E+00   .000000000000E+00   .000000000000E+00   .000000000000E+00   .000000000000E+00
   .000000000000E+00   .000000000000E+00   .000000000000E+00   .000000000000E+00   .000000000000E+00
   .000000000000E+00   .000000000000E+00   .000000000000E+00   .000000000000E+00   .000000000000E+00
   .000000000000E+00   .000000000000E+00   .000000000000E+00   .000000000000E+00   .000000000000E+00
   .000000000000E+00   .000000000000E+00   .000000000000E+00   .000000000000E+00   .000000000000E+00
   .000000000000E+00   .000000000000E+00   .000000000000E+00   .000000000000E+00   .000000000000E+00
   .000000000000E+00   .000000000000E+00   .000000000000E+00   .000000000000E+00   .000000000000E+00
   .000000000000E+00   .000000000000E+00   .000000000000E+00   .000000000000E+00   .000000000000E+00
   .000000000000E+00   .000000000000E+00   .000000000000E+00   .000000000000E+00   .000000000000E+00
   .000000000000E+00   .000000000000E+00   .000000000000E+00   .000000000000E+00   .000000000000E+00
   .000000000000E+00   .000000000000E+00   .000000000000E+00   .000000000000E+00   .000000000000E+00
   .000000000000E+00   .000000000000E+00   .000000000000E+00   .000000000000E+00   .000000000000E+00
   .000000000000E+00   .000000000000E+00   .000000000000E+00   .000000000000E+00   .000000000000E+00
   .000000000000E+00   .000000000000E+00   .000000000000E+00   .000000000000E+00   .000000000000E+00
   .000000000000E+00   .000000000000E+00   .000000000000E+00   .000000000000E+00   .000000000000E+00
   .000000000000E+00   .000000000000E+00   .000000000000E+00   .000000000000E+00   .000000000000E+00
   .000000000000E+00   .000000000000E+00   .000000000000E+00   .000000000000E+00   .000000000000E+00
   .000000000000E+00   .000000000000E+00   .000000000000E+00   .000000000000E+00   .000000000000E+00
   .000000000000E+00   .000000000000E+00   .000000000000E+00   .000000000000E+00   .000000000000E+00
   .000000000000E+00   .000000000000E+00   .000000000000E+00   .000000000000E+00   .000000000000E+00
   .000000000000E+00   .000000000000E+00   .000000000000E+00   .000000000000E+00   .000000000000E+00
   .000000000000E+00   .000000000000E+00   .000000000000E+00   .000000000000E+00   .000000000000E+00
   .000000000000E+00   .000000000000E+00   .000000000000E+00   .000000000000E+00   .000000000000E+00
   .000000000000E+00   .000000000000E+00   .000000000000E+00   .000000000000E+00   .000000000000E+00
   .000000000000E+00   .000000000000E+00   .000000000000E+00   .000000000000E+00   .000000000000E+00
   .000000000000E+00   .000000000000E+00   .000000000000E+00   .000000000000E+00   .000000000000E+00
   .000000000000E+00   .000000000000E+00   .000000000000E+00   .000000000000E+00   .000000000000E+00
   .000000000000E+00   .000000000000E+00   .000000000000E+00   .000000000000E+00   .000000000000E+00
   .000000000000E+00   .000000000000E+00   .000000000000E+00   .000000000000E+00   .000000000000E+00
   .000000000000E+00   .000000000000E+00   .000000000000E+00   .000000000000E+00   .000000000000E+00
   .000000000000E+00   .000000000000E+00   .000000000000E+00   .000000000000E+00   .000000000000E+00
   .000000000000E+00   .000000000000E+00   .000000000000E+00   .000000000000E+00   .000000000000E+00
   .000000000000E+00   .000000000000E+00   .000000000000E+00   .000000000000E+00   .000000000000E+00
   .000000000000E+00   .000000000000E+00   .000000000000E+00   .000000000000E+00   .000000000000E+00
   .000000000000E+00   .000000000000E+00   .000000000000E+00   .000000000000E+00   .000000000000E+00
   .000000000000E+00   .000000000000E+00   .000000000000E+00   .000000000000E+00   .000000000000E+00
   .000000000000E+00   .000000000000E+00   .000000000000E+00   .000000000000E+00   .000000000000E+00
   .000000000000E+00   .000000000000E+00   .000000000000E+00   .000000000000E+00   .000000000000E+00
   .000000000000E+00   .000000000000E+00   .000000000000E+00   .000000000000E+00   .000000000000E+00
   .000000000000E+00   .000000000000E+00   .000000000000E+00
 pseudo wavefunction
   .717870223758E-04   .741213572537E-04   .765315988782E-04   .790202155471E-04   .815897558215E-04
   .842428511349E-04   .869822184888E-04   .898106632347E-04   .927310819471E-04   .957464653899E-04
   .988599015791E-04   .102074578945E-03   .105393789599E-03   .108820932702E-03   .112359517948E-03
   .116013169158E-03   .119785627989E-03   .123680757769E-03   .127702547451E-03   .131855115698E-03
   .136142715104E-03   .140569736545E-03   .145140713676E-03   .149860327579E-03   .154733411549E-03
   .159764956050E-03   .164960113823E-03   .170324205164E-03   .175862723369E-03   .181581340366E-03
   .187485912517E-03   .193582486619E-03   .199877306096E-03   .206376817394E-03   .213087676578E-03
   .220016756154E-03   .227171152104E-03   .234558191154E-03   .242185438276E-03   .250060704436E-03
   .258192054594E-03   .266587815961E-03   .275256586530E-03   .284207243875E-03   .293448954252E-03
   .302991181977E-03   .312843699121E-03   .323016595522E-03   .333520289111E-03   .344365536584E-03
   .355563444420E-03   .367125480251E-03   .379063484606E-03   .391389683042E-03   .404116698657E-03
   .417257565021E-03   .430825739524E-03   .444835117154E-03   .459300044732E-03   .474235335597E-03
   .489656284785E-03   .505578684683E-03   .522018841210E-03   .538993590510E-03   .556520316196E-03
   .574616967150E-03   .593302075909E-03   .612594777639E-03   .632514829730E-03   .653082632036E-03
   .674319247758E-03   .696246425021E-03   .718886619138E-03   .742263015616E-03   .766399553891E-03
   .791320951847E-03   .817052731131E-03   .843621243284E-03   .871053696732E-03   .899378184647E-03
   .928623713715E-03   .958820233842E-03   .989998668827E-03   .102219094803E-02   .105543003905E-02
   .108974998154E-02   .112518592198E-02   .116177414977E-02   .119955213430E-02   .123855856337E-02
   .127883338282E-02   .132041783739E-02   .136335451299E-02   .140768738032E-02   .145346183985E-02
   .150072476836E-02   .154952456692E-02   .159991121047E-02   .165193629897E-02   .170565311025E-02
   .176111665459E-02   .181838373103E-02   .187751298552E-02   .193856497102E-02   .200160220943E-02
   .206668925571E-02   .213389276389E-02   .220328155539E-02   .227492668944E-02   .234890153590E-02
   .242528185032E-02   .250414585157E-02   .258557430190E-02   .266965058962E-02   .275646081454E-02
   .284609387606E-02   .293864156425E-02   .303419865378E-02   .313286300101E-02   .323473564415E-02
   .333992090671E-02   .344852650429E-02   .356066365493E-02   .367644719288E-02   .379599568624E-02
   .391943155828E-02   .404688121284E-02   .417847516365E-02   .431434816801E-02   .445463936466E-02
   .459949241628E-02   .474905565649E-02   .490348224167E-02   .506293030778E-02   .522756313214E-02
   .539754930056E-02   .557306287991E-02   .575428359618E-02   .594139701845E-02   .613459474876E-02
   .633407461814E-02   .654004088904E-02   .675270446428E-02   .697228310286E-02   .719900164264E-02
   .743309223039E-02   .767479455916E-02   .792435611347E-02   .818203242234E-02   .844808732062E-02
   .872279321870E-02   .900643138100E-02   .929929221346E-02   .960167556038E-02   .991389101080E-02
   .102362582149E-01   .105691072103E-01   .109127787597E-01   .112676246982E-01   .116340082934E-01
   .120123046152E-01   .124029009196E-01   .128061970435E-01   .132226058123E-01   .136525534616E-01
   .140964800712E-01   .145548400143E-01   .150281024199E-01   .155167516514E-01   .160212877994E-01
   .165422271909E-01   .170801029149E-01   .176354653644E-01   .182088827962E-01   .188009419083E-01
   .194122484359E-01   .200434277663E-01   .206951255733E-01   .213680084719E-01   .220627646942E-01
   .227801047854E-01   .235207623239E-01   .242854946618E-01   .250750836907E-01   .258903366305E-01
   .267320868433E-01   .276011946728E-01   .284985483096E-01   .294250646840E-01   .303816903863E-01
   .313694026150E-01   .323892101552E-01   .334421543865E-01   .345293103217E-01   .356517876776E-01
   .368107319777E-01   .380073256888E-01   .392427893909E-01   .405183829834E-01   .418354069253E-01
   .431952035137E-01   .445991581984E-01   .460487009354E-01   .475453075791E-01   .490905013146E-01
   .506858541297E-01   .523329883290E-01   .540335780891E-01   .557893510568E-01   .576020899897E-01
   .594736344407E-01   .614058824867E-01   .634007925008E-01   .654603849697E-01   .675867443550E-01
   .697820209999E-01   .720484330798E-01   .743882685971E-01   .768038874195E-01   .792977233616E-01
   .818722863080E-01   .845301643767E-01   .872740261228E-01   .901066227780E-01   .930307905261E-01
   .960494528102E-01   .991656226692E-01   .102382405100E+00   .105702999438E+00   .109130701763E+00
   .112668907299E+00   .116321112836E+00   .120090919136E+00   .123982033332E+00   .127998271308E+00
   .132143560039E+00   .136421939896E+00   .140837566886E+00   .145394714824E+00   .150097777413E+00
   .154951270210E+00   .159959832471E+00   .165128228827E+00   .170461350794E+00   .175964218054E+00
   .181641979506E+00   .187499914020E+00   .193543430884E+00   .199778069861E+00   .206209500841E+00
   .212843523008E+00   .219686063465E+00   .226743175253E+00   .234021034673E+00   .241525937847E+00
   .249264296391E+00   .257242632131E+00   .265467570712E+00   .273945833995E+00   .282684231081E+00
   .291689647822E+00   .300969034623E+00   .310529392355E+00   .320377756172E+00   .330521176968E+00
   .340966700246E+00   .351721342092E+00   .362792061937E+00   .374185731763E+00   .385909101372E+00
   .397968759274E+00   .410371088750E+00   .423122218558E+00   .436227967737E+00   .449693783864E+00
   .463524674112E+00   .477725128349E+00   .492299033480E+00   .507249578134E+00   .522579146740E+00
   .538289201953E+00   .554380154284E+00   .570851217722E+00   .587700250025E+00   .604923576284E+00
   .622515794241E+00   .640469559787E+00   .658775350959E+00   .677421208693E+00   .696392452526E+00
   .715671369429E+00   .735236873906E+00   .755064137588E+00   .775124186577E+00   .795383465008E+00
   .815803363485E+00   .836339711416E+00   .856942232728E+00   .877553965049E+00   .898110643238E+00
   .918540049169E+00   .938761330896E+00   .958684295874E+00   .978208684778E+00   .997223434628E+00
   .101560594258E+01   .103322134468E+01   .104992182737E+01   .106554599325E+01   .107991830700E+01
   .109284865167E+01   .110413203038E+01   .111354845314E+01   .112086305318E+01   .112582648089E+01
   .112815826033E+01   .112766526986E+01   .112429219396E+01   .111806470671E+01   .110902663553E+01
   .109723971270E+01   .108278313973E+01   .106575297316E+01
 ae wavefunction
  -.435742517947E-03  -.449893177036E-03  -.464503226381E-03  -.479587570063E-03  -.495161595061E-03
  -.511241186854E-03  -.527842745526E-03  -.544983202382E-03  -.562680037106E-03  -.580951295461E-03
  -.599815607567E-03  -.619292206750E-03  -.639400949017E-03  -.660162333128E-03  -.681597521339E-03
  -.703728360783E-03  -.726577405556E-03  -.750167939497E-03  -.774523999699E-03  -.799670400771E-03
  -.825632759880E-03  -.852437522580E-03  -.880111989478E-03  -.908684343740E-03  -.938183679480E-03
  -.968640031044E-03  -.100008440323E-02  -.103254880249E-02  -.106606626906E-02  -.110067091020E-02
  -.113639793438E-02  -.117328368669E-02  -.121136568521E-02  -.125068265865E-02  -.129127458513E-02
  -.133318273222E-02  -.137644969815E-02  -.142111945447E-02  -.146723738990E-02  -.151485035564E-02
  -.156400671213E-02  -.161475637720E-02  -.166715087575E-02  -.172124339103E-02  -.177708881751E-02
  -.183474381533E-02  -.189426686652E-02  -.195571833299E-02  -.201916051623E-02  -.208465771892E-02
  -.215227630849E-02  -.222208478256E-02  -.229415383644E-02  -.236855643275E-02  -.244536787308E-02
  -.252466587200E-02  -.260653063319E-02  -.269104492797E-02  -.277829417628E-02  -.286836652997E-02
  -.296135295881E-02  -.305734733898E-02  -.315644654424E-02  -.325875053997E-02  -.336436247986E-02
  -.347338880566E-02  -.358593934981E-02  -.370212744121E-02  -.382207001408E-02  -.394588772003E-02
  -.407370504355E-02  -.420565042075E-02  -.434185636172E-02  -.448245957638E-02  -.462760110401E-02
  -.477742644658E-02  -.493208570585E-02  -.509173372452E-02  -.525653023127E-02  -.542663999011E-02
  -.560223295378E-02  -.578348442162E-02  -.597057520176E-02  -.616369177789E-02  -.636302648065E-02
  -.656877766365E-02  -.678114988445E-02  -.700035409032E-02  -.722660780908E-02  -.746013534500E-02
  -.770116797996E-02  -.794994417981E-02  -.820670980623E-02  -.847171833394E-02  -.874523107357E-02
  -.902751740010E-02  -.931885498706E-02  -.961953004655E-02  -.992983757504E-02  -.102500816052E-01
  -.105805754637E-01  -.109216420351E-01  -.112736140315E-01  -.116368342691E-01  -.120116559500E-01
  -.123984429509E-01  -.127975701174E-01  -.132094235654E-01  -.136344009872E-01  -.140729119656E-01
  -.145253782923E-01  -.149922342937E-01  -.154739271620E-01  -.159709172922E-01  -.164836786248E-01
  -.170126989948E-01  -.175584804848E-01  -.181215397845E-01  -.187024085548E-01  -.193016337964E-01
  -.199197782231E-01  -.205574206391E-01  -.212151563204E-01  -.218935973989E-01  -.225933732497E-01
  -.233151308810E-01  -.240595353255E-01  -.248272700327E-01  -.256190372626E-01  -.264355584778E-01
  -.272775747364E-01  -.281458470807E-01  -.290411569250E-01  -.299643064382E-01  -.309161189217E-01
  -.318974391810E-01  -.329091338894E-01  -.339520919425E-01  -.350272248024E-01  -.361354668290E-01
  -.372777755970E-01  -.384551321973E-01  -.396685415195E-01  -.409190325138E-01  -.422076584303E-01
  -.435354970318E-01  -.449036507795E-01  -.463132469854E-01  -.477654379319E-01  -.492614009518E-01
  -.508023384670E-01  -.523894779821E-01  -.540240720271E-01  -.557073980463E-01  -.574407582283E-01
  -.592254792716E-01  -.610629120806E-01  -.629544313867E-01  -.649014352884E-01  -.669053447033E-01
  -.689676027260E-01  -.710896738847E-01  -.732730432877E-01  -.755192156539E-01  -.778297142169E-01
  -.802060794943E-01  -.826498679133E-01  -.851626502822E-01  -.877460100970E-01  -.904015416732E-01
  -.931308480896E-01  -.959355389333E-01  -.988172278336E-01  -.101777529769E+00  -.104818058135E+00
  -.107940421563E+00  -.111146220461E+00  -.114437043280E+00  -.117814462472E+00  -.121280030132E+00
  -.124835273308E+00  -.128481688949E+00  -.132220738490E+00  -.136053842035E+00  -.139982372135E+00
  -.144007647128E+00  -.148130924032E+00  -.152353390950E+00  -.156676158992E+00  -.161100253670E+00
  -.165626605748E+00  -.170256041537E+00  -.174989272593E+00  -.179826884815E+00  -.184769326900E+00
  -.189816898153E+00  -.194969735618E+00  -.200227800511E+00  -.205590863939E+00  -.211058491884E+00
  -.216630029429E+00  -.222304584222E+00  -.228081009153E+00  -.233957884239E+00  -.239933497701E+00
  -.246005826237E+00  -.252172514476E+00  -.258430853626E+00  -.264777759312E+00  -.271209748616E+00
  -.277722916340E+00  -.284312910504E+00  -.290974907116E+00  -.297703584239E+00  -.304493095405E+00
  -.311337042424E+00  -.318228447646E+00  -.325159725750E+00  -.332122655133E+00  -.339108349001E+00
  -.346107226258E+00  -.353108982305E+00  -.360102559894E+00  -.367076120170E+00  -.374017014061E+00
  -.380911754200E+00  -.387745987563E+00  -.394504469032E+00  -.401171036125E+00  -.407728585119E+00
  -.414159048843E+00  -.420443376428E+00  -.426561515308E+00  -.432492395804E+00  -.438213918634E+00
  -.443702945710E+00  -.448935294606E+00  -.453885737104E+00  -.458528002233E+00  -.462834784249E+00
  -.466777755996E+00  -.470327588142E+00  -.473453974758E+00  -.476125665740E+00  -.478310506592E+00
  -.479975486076E+00  -.481086792249E+00  -.481609877413E+00  -.481509532496E+00  -.480749971371E+00
  -.479294925619E+00  -.477107750216E+00  -.474151540602E+00  -.470389261561E+00  -.465783888302E+00
  -.460298560072E+00  -.453896746594E+00  -.446542427526E+00  -.438200285079E+00  -.428835909804E+00
  -.418416019475E+00  -.406908690835E+00  -.394283603848E+00  -.380512297898E+00  -.365568439236E+00
  -.349428098716E+00  -.332070038708E+00  -.313476007769E+00  -.293631041509E+00  -.272523767779E+00
  -.250146714166E+00  -.226496615562E+00  -.201574719441E+00  -.175387086446E+00  -.147944883820E+00
  -.119264669340E+00  -.893686635019E-01  -.582850078665E-01  -.260480075826E-01   .730164389810E-02
   .417166601866E-01   .771429803763E-01   .113519614909E+00   .150778525779E+00   .188844552184E+00
   .227635399600E+00   .267061721085E+00   .307027335378E+00   .347429645854E+00   .388160339023E+00
   .429106427031E+00   .470151609649E+00   .511177717128E+00   .552065672491E+00   .592695180096E+00
   .632942588996E+00   .672677320253E+00   .711758452074E+00   .750033482899E+00   .787340238686E+00
   .823511018127E+00   .858377021983E+00   .891771646742E+00   .923532423259E+00   .953502106838E+00
   .981529483979E+00   .100747023338E+01   .103118796300E+01   .105255541998E+01   .107145581493E+01
   .108778418556E+01   .110144872741E+01   .111237203157E+01   .112049218446E+01   .112576369931E+01
   .112815826033E+01   .112766526986E+01   .112429219396E+01   .111806470671E+01   .110902663553E+01
   .109723971270E+01   .108278313973E+01   .106575297316E+01
 pseudo wavefunction
   .343855759999E-05   .355037091431E-05   .366582011861E-05   .378502344294E-05   .390810296192E-05
   .403518471972E-05   .416639885916E-05   .430187975496E-05   .444176615139E-05   .458620130432E-05
   .473533312795E-05   .488931434630E-05   .504830264954E-05   .521246085559E-05   .538195707675E-05
   .555696489195E-05   .573766352444E-05   .592423802539E-05   .611687946334E-05   .631578511993E-05
   .652115869188E-05   .673321049961E-05   .695215770267E-05   .717822452205E-05   .741164246986E-05
   .765265058641E-05   .790149568498E-05   .815843260462E-05   .842372447107E-05   .869764296629E-05
   .898046860662E-05   .927249103011E-05   .957400929309E-05   .988533217644E-05   .102067785018E-04
   .105386774582E-04   .108813689389E-04   .112352038896E-04   .116005446680E-04   .119777654148E-04
   .123672524366E-04   .127694046018E-04   .131846337490E-04   .136133651087E-04   .140560377388E-04
   .145131049742E-04   .149850348913E-04   .154723107868E-04   .159754316731E-04   .164949127894E-04
   .170312861287E-04   .175851009835E-04   .181569245074E-04   .187473422966E-04   .193569589894E-04
   .199863988852E-04   .206363065839E-04   .213073476463E-04   .220002092752E-04   .227156010196E-04
   .234542555009E-04   .242169291636E-04   .250044030495E-04   .258174835978E-04   .266570034709E-04
   .275238224070E-04   .284188281007E-04   .293429371118E-04   .302970958040E-04   .312822813141E-04
   .322995025525E-04   .333498012366E-04   .344342529572E-04   .355539682800E-04   .367100938833E-04
   .379038137315E-04   .391363502881E-04   .404089657674E-04   .417229634265E-04   .430796889008E-04
   .444805315809E-04   .459269260360E-04   .474203534828E-04   .489623433018E-04   .505544746039E-04
   .521983778470E-04   .538957365056E-04   .556482887945E-04   .574578294490E-04   .593262115619E-04
   .612553484816E-04   .632472157708E-04   .653038532291E-04   .674273669822E-04   .696199316373E-04
   .718837925106E-04   .742212679252E-04   .766347515854E-04   .791267150267E-04   .816997101468E-04
   .843563718176E-04   .870994205827E-04   .899316654427E-04   .928560067304E-04   .958754390803E-04
   .989930544934E-04   .102212045502E-03   .105535708440E-03   .108967446812E-03   .112510774780E-03
   .116169320763E-03   .119946831142E-03   .123847174103E-03   .127874343589E-03   .132032463391E-03
   .136325791364E-03   .140758723789E-03   .145335799862E-03   .150061706349E-03   .154941282370E-03
   .159979524357E-03   .165181591158E-03   .170552809320E-03   .176098678529E-03   .181824877239E-03
   .187737268477E-03   .193841905835E-03   .200145039660E-03   .206653123444E-03   .213372820413E-03
   .220311010347E-03   .227474796596E-03   .234871513348E-03   .242508733111E-03   .250394274453E-03
   .258536209979E-03   .266942874576E-03   .275622873916E-03   .284585093239E-03   .293838706418E-03
   .303393185310E-03   .313258309418E-03   .323444175857E-03   .333961209642E-03   .344820174308E-03
   .356032182868E-03   .367608709128E-03   .379561599355E-03   .391903084331E-03   .404645791781E-03
   .417802759207E-03   .431387447123E-03   .445413752722E-03   .459896023967E-03   .474849074139E-03
   .490288196839E-03   .506229181472E-03   .522688329216E-03   .539682469498E-03   .557228976984E-03
   .575345789108E-03   .594051424152E-03   .613364999882E-03   .633306252776E-03   .653895557846E-03
   .675153949069E-03   .697103140461E-03   .719765547788E-03   .743164310953E-03   .767323317057E-03
   .792267224172E-03   .818021485824E-03   .844612376222E-03   .872067016233E-03   .900413400142E-03
   .929680423194E-03   .959897909947E-03   .991096643458E-03   .102330839531E-02   .105656595649E-02
   .109090316917E-02   .112635495935E-02   .116295737043E-02   .120074759770E-02   .123976402378E-02
   .128004625494E-02   .132163515849E-02   .136457290103E-02   .140890298774E-02   .145467030259E-02
   .150192114958E-02   .155070329491E-02   .160106601018E-02   .165306011643E-02   .170673802930E-02
   .176215380493E-02   .181936318694E-02   .187842365412E-02   .193939446909E-02   .200233672767E-02
   .206731340898E-02   .213438942628E-02   .220363167832E-02   .227510910123E-02   .234889272086E-02
   .242505570531E-02   .250367341765E-02   .258482346872E-02   .266858576958E-02   .275504258375E-02
   .284427857874E-02   .293638087674E-02   .303143910420E-02   .312954543990E-02   .323079466121E-02
   .333528418807E-02   .344311412431E-02   .355438729574E-02   .366920928440E-02   .378768845849E-02
   .390993599701E-02   .403606590856E-02   .416619504321E-02   .430044309660E-02   .443893260498E-02
   .458178893018E-02   .472914023288E-02   .488111743283E-02   .503785415421E-02   .519948665428E-02
   .536615373310E-02   .553799662213E-02   .571515884885E-02   .589778607469E-02   .608602590282E-02
   .628002765238E-02   .647994209485E-02   .668592114830E-02   .689811752438E-02   .711668432243E-02
   .734177456465E-02   .757354066520E-02   .781213382564E-02   .805770334804E-02   .831039585610E-02
   .857035441362E-02   .883771752832E-02   .911261802757E-02   .939518179119E-02   .968552632449E-02
   .998375915303E-02   .102899760181E-01   .106042588496E-01   .109266734901E-01   .112572671412E-01
   .115960654985E-01   .119430695398E-01   .122982519240E-01   .126615529556E-01   .130328760625E-01
   .134120827296E-01   .137989868226E-01   .141933482297E-01   .145948657392E-01   .150031690611E-01
   .154178098909E-01   .158382518989E-01   .162638595185E-01   .166938853859E-01   .171274562738E-01
   .175635573352E-01   .180010144584E-01   .184384745075E-01   .188743831996E-01   .193069603411E-01
   .197341721149E-01   .201537000800E-01   .205629065081E-01   .209587956454E-01   .213379704514E-01
   .216965843224E-01   .220302872721E-01   .223341659983E-01   .226026772302E-01   .228295737141E-01
   .230078221730E-01   .231295125546E-01   .231857578830E-01   .231665840450E-01   .230608088842E-01
   .228559100556E-01   .225378812130E-01   .220910762784E-01   .214980417913E-01   .207393376687E-01
   .197933471468E-01   .186360772443E-01   .172409518109E-01   .155786001262E-01   .136166451323E-01
   .113194967438E-01   .864815731154E-02   .556004826093E-02   .200886919547E-02  -.205549662129E-02
  -.668701351940E-02  -.119434412162E-01  -.178861753538E-01  -.245799531729E-01  -.320923928314E-01
  -.404933311070E-01  -.498539208502E-01  -.602454469396E-01  -.717378181025E-01  -.843976923881E-01
  -.982572463524E-01  -.113431938710E+00  -.129962815882E+00  -.147925476302E+00  -.167397789939E+00
  -.188460087115E+00  -.211195414457E+00  -.235689872331E+00
 ae wavefunction
  -.655609122826E-05  -.676899905707E-05  -.698881876848E-05  -.721577460561E-05  -.745009807708E-05
  -.769202819182E-05  -.794181170128E-05  -.819970334956E-05  -.846596613143E-05  -.874087155877E-05
  -.902469993540E-05  -.931774064088E-05  -.962029242330E-05  -.993266370149E-05  -.102551728769E-04
  -.105881486555E-04  -.109319303798E-04  -.112868683719E-04  -.116533242870E-04  -.120316714784E-04
  -.124222953746E-04  -.128255938674E-04  -.132419777136E-04  -.136718709483E-04  -.141157113126E-04
  -.145739506937E-04  -.150470555800E-04  -.155355075299E-04  -.160398036561E-04  -.165604571246E-04
  -.170979976704E-04  -.176529721286E-04  -.182259449831E-04  -.188174989321E-04  -.194282354715E-04
  -.200587754973E-04  -.207097599266E-04  -.213818503374E-04  -.220757296304E-04  -.227921027095E-04
  -.235316971854E-04  -.242952641000E-04  -.250835786742E-04  -.258974410793E-04  -.267376772313E-04
  -.276051396118E-04  -.285007081127E-04  -.294252909085E-04  -.303798253547E-04  -.313652789153E-04
  -.323826501176E-04  -.334329695376E-04  -.345173008153E-04  -.356367417016E-04  -.367924251370E-04
  -.379855203641E-04  -.392172340733E-04  -.404888115843E-04  -.418015380630E-04  -.431567397764E-04
  -.445557853843E-04  -.460000872716E-04  -.474911029196E-04  -.490303363191E-04  -.506193394267E-04
  -.522597136637E-04  -.539531114602E-04  -.557012378455E-04  -.575058520856E-04  -.593687693689E-04
  -.612918625421E-04  -.632770638971E-04  -.653263670098E-04  -.674418286331E-04  -.696255706450E-04
  -.718797820523E-04  -.742067210534E-04  -.766087171588E-04  -.790881733733E-04  -.816475684398E-04
  -.842894591464E-04  -.870164826988E-04  -.898313591585E-04  -.927368939490E-04  -.957359804318E-04
  -.988316025516E-04  -.102026837556E-03  -.105324858785E-03  -.108728938541E-03  -.112242451028E-03
  -.115868875379E-03  -.119611798746E-03  -.123474919492E-03  -.127462050444E-03  -.131577122245E-03
  -.135824186777E-03  -.140207420684E-03  -.144731128964E-03  -.149399748666E-03  -.154217852659E-03
  -.159190153505E-03  -.164321507411E-03  -.169616918274E-03  -.175081541821E-03  -.180720689835E-03
  -.186539834474E-03  -.192544612684E-03  -.198740830698E-03  -.205134468627E-03  -.211731685146E-03
  -.218538822262E-03  -.225562410173E-03  -.232809172212E-03  -.240286029877E-03  -.248000107945E-03
  -.255958739656E-03  -.264169471988E-03  -.272640070992E-03  -.281378527207E-03  -.290393061126E-03
  -.299692128739E-03  -.309284427116E-03  -.319178900041E-03  -.329384743692E-03  -.339911412345E-03
  -.350768624109E-03  -.361966366669E-03  -.373514903040E-03  -.385424777308E-03  -.397706820349E-03
  -.410372155518E-03  -.423432204288E-03  -.436898691816E-03  -.450783652438E-03  -.465099435041E-03
  -.479858708330E-03  -.495074465933E-03  -.510760031337E-03  -.526929062624E-03  -.543595556979E-03
  -.560773854929E-03  -.578478644299E-03  -.596724963824E-03  -.615528206394E-03  -.634904121890E-03
  -.654868819544E-03  -.675438769809E-03  -.696630805649E-03  -.718462123219E-03  -.740950281862E-03
  -.764113203357E-03  -.787969170353E-03  -.812536823912E-03  -.837835160080E-03  -.863883525392E-03
  -.890701611245E-03  -.918309447002E-03  -.946727391760E-03  -.975976124644E-03  -.100607663352E-02
  -.103705020200E-02  -.106891839458E-02  -.110170303984E-02  -.113542621144E-02  -.117011020683E-02
  -.120577752349E-02  -.124245083250E-02  -.128015294925E-02  -.131890680108E-02  -.135873539162E-02
  -.139966176162E-02  -.144170894603E-02  -.148489992701E-02  -.152925758270E-02  -.157480463127E-02
  -.162156357022E-02  -.166955661033E-02  -.171880560409E-02  -.176933196815E-02  -.182115659954E-02
  -.187429978504E-02  -.192878110354E-02  -.198461932073E-02  -.204183227580E-02  -.210043675960E-02
  -.216044838374E-02  -.222188144014E-02  -.228474875047E-02  -.234906150491E-02  -.241482908954E-02
  -.248205890193E-02  -.255075615403E-02  -.262092366194E-02  -.269256162168E-02  -.276566737035E-02
  -.284023513193E-02  -.291625574691E-02  -.299371638508E-02  -.307260024061E-02  -.315288620865E-02
  -.323454854268E-02  -.331755649172E-02  -.340187391669E-02  -.348745888500E-02  -.357426324264E-02
  -.366223216298E-02  -.375130367145E-02  -.384140814546E-02  -.393246778878E-02  -.402439607977E-02
  -.411709719292E-02  -.421046539309E-02  -.430438440215E-02  -.439872673758E-02  -.449335302300E-02
  -.458811127043E-02  -.468283613456E-02  -.477734813917E-02  -.487145287652E-02  -.496494018016E-02
  -.505758327255E-02  -.514913788875E-02  -.523934137790E-02  -.532791178486E-02  -.541454691445E-02
  -.549892338155E-02  -.558069565077E-02  -.565949507000E-02  -.573492890299E-02  -.580657936668E-02
  -.587400268005E-02  -.593672813220E-02  -.599425717818E-02  -.604606257264E-02  -.609158755219E-02
  -.613024507917E-02  -.616141716066E-02  -.618445425853E-02  -.619867480789E-02  -.620336486339E-02
  -.619777789497E-02  -.618113475679E-02  -.615262385580E-02  -.611140154893E-02  -.605659280069E-02
  -.598729213647E-02  -.590256492957E-02  -.580144906401E-02  -.568295701860E-02  -.554607842196E-02
  -.538978313216E-02  -.521302489904E-02  -.501474567204E-02  -.479388062066E-02  -.454936393997E-02
  -.428013551813E-02  -.398514854792E-02  -.366337816942E-02  -.331383123541E-02  -.293555729625E-02
  -.252766090487E-02  -.208931534729E-02  -.161977790723E-02  -.111840677698E-02  -.584679729454E-03
  -.182146683025E-04   .581207825300E-03   .121361982960E-02   .187883918292E-02   .257644022787E-02
   .330572207936E-02   .406567429712E-02   .485493984432E-02   .567177521530E-02   .651400761775E-02
   .737898909896E-02   .826354751388E-02   .916393424625E-02   .100757686173E-01   .109939789522E-01
   .119127403294E-01   .128254091164E-01   .137244545094E-01   .146013874512E-01   .154466875247E-01
   .162497287251E-01   .169987054222E-01   .176805603012E-01   .182809164509E-01   .187840155702E-01
   .191726625170E-01   .194281718035E-01   .195303036636E-01   .194571691115E-01   .191850840508E-01
   .186883725185E-01   .179391559182E-01   .169071927011E-01   .155598196063E-01   .138619906720E-01
   .117763573181E-01   .926332827185E-02   .628108658620E-02   .278557796959E-02  -.126950532033E-02
  -.593272908570E-02  -.112549051725E-01  -.172890643319E-01  -.240904181795E-01  -.317163150650E-01
  -.402261943607E-01  -.496815431480E-01  -.601458588641E-01  -.716846213574E-01  -.843652780355E-01
  -.982572463524E-01  -.113431938710E+00  -.129962815882E+00  -.147925476302E+00  -.167397789939E+00
  -.188460087115E+00  -.211195414457E+00  -.235689872331E+00
 pseudo wavefunction
   .563540859347E-08   .600786626449E-08   .640494055630E-08   .682825844040E-08   .727955441873E-08
   .776067763064E-08   .827359942951E-08   .882042146020E-08   .940338427033E-08   .100248764907E-07
   .106874446223E-07   .113938034707E-07   .121468472693E-07   .129496615384E-07   .138055357278E-07
   .147179766947E-07   .156907230730E-07   .167277605920E-07   .178333384073E-07   .190119865113E-07
   .202685342946E-07   .216081303335E-07   .230362634864E-07   .245587853833E-07   .261819344024E-07
   .279123612313E-07   .297571561175E-07   .317238779199E-07   .338205850803E-07   .360558686425E-07
   .384388874527E-07   .409794056871E-07   .436878328599E-07   .465752664748E-07   .496535374959E-07
   .529352588242E-07   .564338769774E-07   .601637271855E-07   .641400921283E-07   .683792645541E-07
   .728986140379E-07   .777166581514E-07   .828531383365E-07   .883291007943E-07   .941669827191E-07
   .100390704233E-06   .107025766396E-06   .114099355693E-06   .121640455429E-06   .129679964484E-06
   .138250823918E-06   .147388151945E-06   .157129387824E-06   .167514445263E-06   .178585875960E-06
   .190389043959E-06   .202972311517E-06   .216387237268E-06   .230688787478E-06   .245935561260E-06
   .262190030684E-06   .279518796742E-06   .297992862244E-06   .317687922738E-06   .338684676672E-06
   .361069156038E-06   .384933078884E-06   .410374225117E-06   .437496837143E-06   .466412046989E-06
   .497238331653E-06   .530101998551E-06   .565137703044E-06   .602489000172E-06   .642308932854E-06
   .684760658963E-06   .730018119842E-06   .778266753009E-06   .829704251961E-06   .884541376196E-06
   .943002814778E-06   .100532810696E-05   .107177262367E-05   .114260861386E-05   .121812631999E-05
   .129863516728E-05   .138446503151E-05   .147596759065E-05   .157351776580E-05   .167751525736E-05
   .178838618277E-05   .190658482240E-05   .203259548094E-05   .216693447172E-05   .231015223223E-05
   .246283557942E-05   .262561011405E-05   .279914278403E-05   .298414461703E-05   .318137363380E-05
   .339163795400E-05   .361579910726E-05   .385477556313E-05   .410954649424E-05   .438115578827E-05
   .467071632493E-05   .497941453575E-05   .530851526509E-05   .565936695252E-05   .603340715757E-05
   .643216844969E-05   .685728468745E-05   .731049771266E-05   .779366448694E-05   .830876469991E-05
   .885790888011E-05   .944334704203E-05   .100674779045E-04   .107328587184E-04   .114422157435E-04
   .121984554180E-04   .130046762663E-04   .138641815928E-04   .147804930159E-04   .157573648950E-04
   .167987997114E-04   .179090644660E-04   .190927081599E-04   .203545804298E-04   .216998514160E-04
   .231340329418E-04   .246630010932E-04   .262930202900E-04   .280307689477E-04   .298833668347E-04
   .318584042369E-04   .339639730489E-04   .362086999200E-04   .386017815894E-04   .411530225552E-04
   .438728752333E-04   .467724827673E-04   .498637246677E-04   .531592654645E-04   .566726065746E-04
   .604181415935E-04   .644112152397E-04   .686681861917E-04   .732064940741E-04   .780447308677E-04
   .832027170341E-04   .887015826677E-04   .945638540041E-04   .100813545640E-03   .107476258843E-03
   .114579286345E-03   .122151724057E-03   .130224590157E-03   .138830952031E-03   .148006061597E-03
   .157787499549E-03   .168215329124E-03   .179332260004E-03   .191183823034E-03   .203818556458E-03
   .217288204431E-03   .231647928618E-03   .246956533745E-03   .263276708003E-03   .280675279299E-03
   .299223488379E-03   .318997279940E-03   .340077612913E-03   .362550791159E-03   .386508815934E-03
   .412049761538E-03   .439278175667E-03   .468305506086E-03   .499250555342E-03   .532239965345E-03
   .567408733777E-03   .604900764394E-03   .644869453427E-03   .687478314448E-03   .732901644181E-03
   .781325231931E-03   .832947115462E-03   .887978386315E-03   .946644047793E-03   .100918392899E-02
   .107585365849E-02   .114692570159E-02   .122269046511E-02   .130345747413E-02   .138955662526E-02
   .148133952139E-02   .157918089300E-02   .168348011159E-02   .179466280119E-02   .191318255387E-02
   .203952275611E-02   .217419853284E-02   .231775881644E-02   .247078854874E-02   .263391102401E-02
   .280779038181E-02   .299313425896E-02   .319069661014E-02   .340128070773E-02   .362574233140E-02
   .386499315908E-02   .412000437119E-02   .439181048093E-02   .468151340366E-02   .499028677951E-02
   .531938056376E-02   .567012590008E-02   .604394029290E-02   .644233309519E-02   .686691132922E-02
   .731938585814E-02   .780157792698E-02   .831542609246E-02   .886299356117E-02   .944647595673E-02
   .100682095365E-01   .107306798791E-01   .114365310642E-01   .121885753659E-01   .129898034814E-01
   .138433953166E-01   .147527313479E-01   .157214045830E-01   .167532331366E-01   .178522734413E-01
   .190228341077E-01   .202694904477E-01   .215970996717E-01   .230108167655E-01   .245161110510E-01
   .261187834253E-01   .278249842710E-01   .296412320197E-01   .315744323432E-01   .336318979367E-01
   .358213688444E-01   .381510332672E-01   .406295487722E-01   .432660638073E-01   .460702394023E-01
   .490522709130E-01   .522229096357E-01   .555934840907E-01   .591759207332E-01   .629827638118E-01
   .670271940485E-01   .713230457611E-01   .758848219909E-01   .807277071372E-01   .858675765219E-01
   .913210022355E-01   .971052545202E-01   .103238297856E+00   .109738780808E+00   .116626018567E+00
   .123919967025E+00   .131641187044E+00   .139810797483E+00   .148450415362E+00   .157582081422E+00
   .167228169129E+00   .177411275073E+00   .188154088481E+00   .199479237473E+00   .211409109499E+00
   .223965643295E+00   .237170089603E+00   .251042737822E+00   .265602605784E+00   .280867089905E+00
   .296851573107E+00   .313568988194E+00   .331029334775E+00   .349239148393E+00   .368200921309E+00
   .387912475432E+00   .408366289161E+00   .429548781600E+00   .451439559571E+00   .474010635347E+00
   .497225625895E+00   .521038947873E+00   .545395026559E+00   .570227541389E+00   .595458735794E+00
   .620998824523E+00   .646745537472E+00   .672583845076E+00   .698385916287E+00   .724011365684E+00
   .749307850846E+00   .774112084099E+00   .798251323299E+00   .821545403372E+00   .843809362604E+00
   .864856703695E+00   .884503307608E+00   .902571986389E+00   .918897617394E+00   .933332743909E+00
   .945753454235E+00   .956065262074E+00   .964208605323E+00   .970163460013E+00   .973952434941E+00
   .975641577861E+00   .975337997314E+00   .973183302052E+00   .969341805567E+00   .963982466511E+00
   .957253674228E+00   .949250286078E+00   .939967137898E+00
 ae wavefunction
   .345880269803E-07   .368147396271E-07   .391630877573E-07   .416408806975E-07   .442563796648E-07
   .470183275065E-07   .499359803346E-07   .530191411165E-07   .562781953533E-07   .597241489837E-07
   .633686686638E-07   .672241245792E-07   .713036359587E-07   .756211194698E-07   .801913406860E-07
   .850299688307E-07   .901536350141E-07   .955799941953E-07   .101327791116E-06   .107416930467E-06
   .113868551572E-06   .120705107882E-06   .127950451600E-06   .135629923775E-06   .143770450234E-06
   .152400643718E-06   .161550912651E-06   .171253576971E-06   .181542991487E-06   .192455677263E-06
   .204030461550E-06   .216308626838E-06   .229334069623E-06   .243153469531E-06   .257816469471E-06
   .273375867567E-06   .289887821608E-06   .307412066875E-06   .326012148197E-06   .345755667189E-06
   .366714545666E-06   .388965306283E-06   .412589371555E-06   .437673382450E-06   .464309537843E-06
   .492595956204E-06   .522637060981E-06   .554543991229E-06   .588435039152E-06   .624436116314E-06
   .662681250411E-06   .703313114606E-06   .746483591562E-06   .792354374454E-06   .841097607392E-06
   .892896567826E-06   .947946393699E-06   .100645485829E-05   .106864319584E-05   .113474698138E-05
   .120501706815E-05   .127972058660E-05   .135914200881E-05   .144358428278E-05   .153337004103E-05
   .162884288848E-05   .173036877475E-05   .183833745647E-05   .195316405540E-05   .207529071870E-05
   .220518838808E-05   .234335868479E-05   .249033591827E-05   .264668922633E-05   .281302485559E-05
   .298998859133E-05   .317826834648E-05   .337859692020E-05   .359175493710E-05   .381857397892E-05
   .405993992120E-05   .431679648841E-05   .459014904167E-05   .488106861436E-05   .519069621170E-05
   .552024739158E-05   .587101714484E-05   .624438509476E-05   .664182103620E-05   .706489083686E-05
   .751526272388E-05   .799471398120E-05   .850513808399E-05   .904855229890E-05   .962710578015E-05
   .102430881938E-04   .108989389041E-04   .115972567594E-04   .123408105145E-04   .131325499332E-04
   .139756176126E-04   .148733615779E-04   .158293486960E-04   .168473789614E-04   .179315007108E-04
   .190860268264E-04   .203155519905E-04   .216249710612E-04   .230194986388E-04   .245046899018E-04
   .260864627920E-04   .277711216371E-04   .295653823016E-04   .314763989640E-04   .335117926256E-04
   .356796814598E-04   .379887131204E-04   .404480991341E-04   .430676515087E-04   .458578216993E-04
   .488297420813E-04   .519952700901E-04   .553670351951E-04   .589584888889E-04   .627839578816E-04
   .668587007013E-04   .711989679173E-04   .758220662119E-04   .807464265434E-04   .859916766568E-04
   .915787182129E-04   .975298088258E-04   .103868649313E-03   .110620476484E-03   .117812161806E-03
   .125472316323E-03   .133631402195E-03   .142321851285E-03   .151578191213E-03   .161437179343E-03
   .171937945185E-03   .183122141720E-03   .195034106204E-03   .207721031012E-03   .221233145136E-03
   .235623906972E-03   .250950209091E-03   .267272595685E-03   .284655493464E-03   .303167456795E-03
   .322881427931E-03   .343875013202E-03   .366230776132E-03   .390036548445E-03   .415385760012E-03
   .442377788834E-03   .471118332212E-03   .501719800316E-03   .534301733429E-03   .568991244209E-03
   .605923486367E-03   .645242151254E-03   .687099993885E-03   .731659390044E-03   .779092926154E-03
   .829584023705E-03   .883327600092E-03   .940530767818E-03   .100141357408E-02   .106620978285E-02
   .113516770174E-02   .120855105577E-02   .128663991061E-02   .136973164774E-02   .145814199397E-02
   .155220610817E-02   .165227972784E-02   .175874037846E-02   .187198864842E-02   .199244953274E-02
   .212057384858E-02   .225683972563E-02   .240175417491E-02   .255585473900E-02   .271971122729E-02
   .289392753957E-02   .307914358152E-02   .327603727554E-02   .348532667035E-02   .370777215312E-02
   .394417876724E-02   .419539863956E-02   .446233352010E-02   .474593743783E-02   .504721947541E-02
   .536724666607E-02   .570714701529E-02   .606811265001E-02   .645140309744E-02   .685834869576E-02
   .729035413788E-02   .774890214992E-02   .823555730457E-02   .875196996978E-02   .929988039215E-02
   .988112291363E-02   .104976303197E-01   .111514383156E-01   .118446901277E-01   .125796412233E-01
   .133586641445E-01   .141842534468E-01   .150590307347E-01   .159857497830E-01   .169673017313E-01
   .180067203384E-01   .191071872789E-01   .202720374648E-01   .215047643706E-01   .228090253387E-01
   .241886468392E-01   .256476296546E-01   .271901539582E-01   .288205842499E-01   .305434741118E-01
   .323635707393E-01   .342858192035E-01   .363153663933E-01   .384575645820E-01   .407179745612E-01
   .431023682761E-01   .456167308958E-01   .482672622432E-01   .510603775081E-01   .540027071583E-01
   .571010959597E-01   .603626010131E-01   .637944887051E-01   .674042304707E-01   .711994972565E-01
   .751881525675E-01   .793782439807E-01   .837779929965E-01   .883957831019E-01   .932401459101E-01
   .983197452423E-01   .103643359011E+00   .109219858768E+00   .115058186771E+00   .121167330436E+00
   .127556294036E+00   .134234067512E+00   .141209592272E+00   .148491723865E+00   .156089191418E+00
   .164010553754E+00   .172264152109E+00   .180858059409E+00   .189800026080E+00   .199097422382E+00
   .208757177326E+00   .218785714228E+00   .229188883025E+00   .239971889488E+00   .251139221539E+00
   .262694572877E+00   .274640764188E+00   .286979662183E+00   .299712096784E+00   .312837776678E+00
   .326355203518E+00   .340261584915E+00   .354552746333E+00   .369223041887E+00   .384265263953E+00
   .399670551406E+00   .415428296305E+00   .431526048923E+00   .447949421271E+00   .464681989806E+00
   .481705198910E+00   .498998268148E+00   .516538108581E+00   .534299256830E+00   .552253840873E+00
   .570371599694E+00   .588619990658E+00   .606964434030E+00   .625368759241E+00   .643795919193E+00
   .662208997143E+00   .680572398679E+00   .698852865629E+00   .717019633899E+00   .735042944768E+00
   .752890589331E+00   .770523296286E+00   .787890909173E+00   .804931355401E+00   .821572952966E+00
   .837738646284E+00   .853350000447E+00   .868329655898E+00   .882602263867E+00   .896094573156E+00
   .908735288781E+00   .920455036227E+00   .931186536235E+00   .940864977431E+00   .949428530232E+00
   .956818937764E+00   .962982127564E+00   .967868801554E+00   .971434976111E+00   .973642456203E+00
   .974459236487E+00   .973859827995E+00   .971825512270E+00   .968344526450E+00   .963412183401E+00
   .957030931285E+00   .949210356990E+00   .939967137898E+00
 pseudo wavefunction
  -.279100332060E-08  -.297546742365E-08  -.317212320158E-08  -.338177643140E-08  -.360528614584E-08
  -.384356815318E-08  -.409759878966E-08  -.436841891992E-08  -.465713820182E-08  -.496493963318E-08
  -.529308439896E-08  -.564291703887E-08  -.601587095646E-08  -.641347429233E-08  -.683735618556E-08
  -.728925344894E-08  -.777101768534E-08  -.828462287450E-08  -.883217346120E-08  -.941591297798E-08
  -.100382332378E-07  -.107016841344E-07  -.114089840897E-07  -.121630311930E-07  -.129669150751E-07
  -.138239295678E-07  -.147375862001E-07  -.157116285863E-07  -.167500477652E-07  -.178570985526E-07
  -.190373169755E-07  -.202955388575E-07  -.216369196333E-07  -.230669554724E-07  -.245915057993E-07
  -.262168173018E-07  -.279495495259E-07  -.297968021628E-07  -.317661441390E-07  -.338656446294E-07
  -.361039061195E-07  -.384900996534E-07  -.410340024109E-07  -.437460377687E-07  -.466373180090E-07
  -.497196898505E-07  -.530057829893E-07  -.565090618476E-07  -.602438807426E-07  -.642255427017E-07
  -.684703621646E-07  -.729957318304E-07  -.778201939216E-07  -.829635161588E-07  -.884467727567E-07
  -.942924307731E-07  -.100524442165E-06  -.107168341928E-06  -.114251352723E-06  -.121802496421E-06
  -.129852713009E-06  -.138434987371E-06  -.147584484433E-06  -.157338693248E-06  -.167737580606E-06
  -.178823754787E-06  -.190642640146E-06  -.203242663231E-06  -.216675451205E-06  -.230996043379E-06
  -.246263116728E-06  -.262539226313E-06  -.279891061585E-06  -.298389719639E-06  -.318110996522E-06
  -.339135697790E-06  -.361549969599E-06  -.385445651673E-06  -.410920653597E-06  -.438079355985E-06
  -.467033038159E-06  -.497900334092E-06  -.530807718486E-06  -.565890024977E-06  -.603290998579E-06
  -.643163884653E-06  -.685672056786E-06  -.730989686178E-06  -.779302455259E-06  -.830808318475E-06
  -.885718313346E-06  -.944257425134E-06  -.100666550865E-05  -.107319827097E-05  -.114412831913E-05
  -.121974627702E-05  -.130036197611E-05  -.138630572487E-05  -.147792966206E-05  -.157560919949E-05
  -.167974456009E-05  -.179076241763E-05  -.190911764480E-05  -.203529517683E-05  -.216981199824E-05
  -.231321926086E-05  -.246610454188E-05  -.262909425103E-05  -.280285619688E-05  -.298810232272E-05
  -.318559162316E-05  -.339613325358E-05  -.362058984486E-05  -.385988103730E-05  -.411498724795E-05
  -.438695368687E-05  -.467689463877E-05  -.498599802752E-05  -.531553028225E-05  -.566684152493E-05
  -.604137110065E-05  -.644065347328E-05  -.686632451062E-05  -.732012818467E-05  -.780392371464E-05
  -.831969318161E-05  -.886954964637E-05  -.945574580324E-05  -.100806832056E-04  -.107469221007E-04
  -.114571919139E-04  -.122144024253E-04  -.130216556843E-04  -.138822587115E-04  -.147997370379E-04
  -.157778491399E-04  -.168206018252E-04  -.179322666362E-04  -.191173973350E-04  -.203808485423E-04
  -.217277956078E-04  -.231637557902E-04  -.246946108353E-04  -.263266310442E-04  -.280665009288E-04
  -.299213465589E-04  -.318987647140E-04  -.340068539568E-04  -.362542477552E-04  -.386501497879E-04
  -.412043715772E-04  -.439273726015E-04  -.468303030501E-04  -.499250493950E-04  -.532242829633E-04
  -.567415117076E-04  -.604911353844E-04  -.644885043632E-04  -.687499823040E-04  -.732930129577E-04
  -.781361913574E-04  -.832993396886E-04  -.888035881438E-04  -.946714610865E-04  -.100926968871E-03
  -.107595705689E-03  -.114704953825E-03  -.122283794757E-03  -.130363227527E-03  -.138976294859E-03
  -.148158217538E-03  -.157946537565E-03  -.168381270675E-03  -.179505068800E-03  -.191363393143E-03
  -.204004698523E-03  -.217480629723E-03  -.231846230618E-03  -.247160166882E-03  -.263484963153E-03
  -.280887255575E-03  -.299438060680E-03  -.319213061663E-03  -.340292913127E-03  -.362763565471E-03
  -.386716610145E-03  -.412249647075E-03  -.439466675641E-03  -.468478510647E-03  -.499403224845E-03
  -.532366619614E-03  -.567502725527E-03  -.604954334604E-03  -.644873566158E-03  -.687422468234E-03
  -.732773656763E-03  -.781110994622E-03  -.832630312942E-03  -.887540177094E-03  -.946062699880E-03
  -.100843440462E-02  -.107490714085E-02  -.114574905561E-02  -.122124562321E-02  -.130170073660E-02
  -.138743786363E-02  -.147880127134E-02  -.157615732184E-02  -.167989584301E-02  -.179043157778E-02
  -.190820571524E-02  -.203368750745E-02  -.216737597522E-02  -.230980170646E-02  -.246152875055E-02
  -.262315661189E-02  -.279532234574E-02  -.297870275910E-02  -.317401671921E-02  -.338202757143E-02
  -.360354566834E-02  -.383943101045E-02  -.409059599886E-02  -.435800829868E-02  -.464269381116E-02
  -.494573975085E-02  -.526829782285E-02  -.561158749277E-02  -.597689934018E-02  -.636559848360E-02
  -.677912806178E-02  -.721901275286E-02  -.768686230858E-02  -.818437507615E-02  -.871334147500E-02
  -.927564738919E-02  -.987327742939E-02  -.105083180100E-01  -.111829601782E-01  -.118995021197E-01
  -.126603512567E-01  -.134680258372E-01  -.143251559008E-01  -.152344834894E-01  -.161988619506E-01
  -.172212541600E-01  -.183047294655E-01  -.194524591272E-01  -.206677099968E-01  -.219538361483E-01
  -.233142681308E-01  -.247524994748E-01  -.262720700375E-01  -.278765457220E-01  -.295694940484E-01
  -.313544549982E-01  -.332349064866E-01  -.352142237462E-01  -.372956318335E-01  -.394821503891E-01
  -.417765296978E-01  -.441811770102E-01  -.466980719964E-01  -.493286701138E-01  -.520737925813E-01
  -.549335015674E-01  -.579069591200E-01  -.609922683005E-01  -.641862949312E-01  -.674844683360E-01
  -.708805594534E-01  -.743664347429E-01  -.779317843870E-01  -.815638234472E-01  -.852469648520E-01
  -.889624634163E-01  -.926880305187E-01  -.963974196265E-01  -.100059983574E+00  -.103640205399E+00
  -.107097205642E+00  -.110384230348E+00  -.113448125613E+00  -.116228806356E+00  -.118658729208E+00
  -.120662381827E+00  -.122155803741E+00  -.123046156855E+00  -.123231367001E+00  -.122599861329E+00
  -.121030429774E+00  -.118392242085E+00  -.114545054827E+00  -.109339644965E+00  -.102618507758E+00
  -.942168562765E-01  -.839639573143E-01  -.716848331267E-01  -.572023496269E-01  -.403396986013E-01
  -.209232634852E-01   .121416534536E-02   .262298892774E-01   .542676129321E-01   .854537073972E-01
   .119893607610E+00   .157668569643E+00   .198833051986E+00   .243413010949E+00   .291405404078E+00
   .342779164013E+00   .397477822421E+00   .455423810756E+00   .516524221269E+00   .580677457773E+00
   .647779725320E+00   .717729694069E+00   .790428935263E+00   .865774902453E+00   .943642393869E+00
   .102384870860E+01   .110609729177E+01   .118988811168E+01
 ae wavefunction
  -.116542067594E-07  -.124044977761E-07  -.131957736016E-07  -.140306656112E-07  -.149119574462E-07
  -.158425950344E-07  -.168256972502E-07  -.178645672328E-07  -.189627044082E-07  -.201238172617E-07
  -.213518369099E-07  -.226509315269E-07  -.240255216803E-07  -.254802966387E-07  -.270202317135E-07
  -.286506067059E-07  -.303770255296E-07  -.322054370900E-07  -.341421575006E-07  -.361938937267E-07
  -.383677687500E-07  -.406713483551E-07  -.431126696449E-07  -.457002713986E-07  -.484432263953E-07
  -.513511758310E-07  -.544343659691E-07  -.577036871700E-07  -.611707154577E-07  -.648477567899E-07
  -.687478942106E-07  -.728850380733E-07  -.772739795394E-07  -.819304475651E-07  -.868711696074E-07
  -.921139362941E-07  -.976776703179E-07  -.103582499833E-06  -.109849836650E-06  -.116502459544E-06
  -.123564603011E-06  -.131062051839E-06  -.139022241858E-06  -.147474367297E-06  -.156449495165E-06
  -.165980687121E-06  -.176103129339E-06  -.186854270866E-06  -.198273971060E-06  -.210404656679E-06
  -.223291489277E-06  -.236982543566E-06  -.251528997468E-06  -.266985334637E-06  -.283409560247E-06
  -.300863430940E-06  -.319412699843E-06  -.339127377657E-06  -.360082010861E-06  -.382355978163E-06
  -.406033806394E-06  -.431205507107E-06  -.457966935252E-06  -.486420171376E-06  -.516673928875E-06
  -.548843987947E-06  -.583053658010E-06  -.619434270419E-06  -.658125703492E-06  -.699276941957E-06
  -.743046673053E-06  -.789603921719E-06  -.839128727392E-06  -.891812865166E-06  -.947860614192E-06
  -.100748957643E-05  -.107093154901E-05  -.113843345377E-05  -.121025832760E-05  -.128668637772E-05
  -.136801610591E-05  -.145456550650E-05  -.154667334260E-05  -.164470050592E-05  -.174903146549E-05
  -.186007581124E-05  -.197826989835E-05  -.210407859921E-05  -.223799716990E-05  -.238055323851E-05
  -.253230892350E-05  -.269386309025E-05  -.286585375507E-05  -.304896064599E-05  -.324390793075E-05
  -.345146712267E-05  -.367246017595E-05  -.390776278282E-05  -.415830788548E-05  -.442508941676E-05
  -.470916628434E-05  -.501166661428E-05  -.533379227057E-05  -.567682366857E-05  -.604212490128E-05
  -.643114919862E-05  -.684544474122E-05  -.728666085140E-05  -.775655458580E-05  -.825699775532E-05
  -.878998439987E-05  -.935763874710E-05  -.996222368613E-05  -.106061497892E-04  -.112919849164E-04
  -.120224644406E-04  -.128005021321E-04  -.136292017456E-04  -.145118693528E-04  -.154520264704E-04
  -.164534240312E-04  -.175200572543E-04  -.186561814691E-04  -.198663289557E-04  -.211553268635E-04
  -.225283162782E-04  -.239907725076E-04  -.255485266641E-04  -.272077886245E-04  -.289751714536E-04
  -.308577173829E-04  -.328629254418E-04  -.349987808435E-04  -.372737862353E-04  -.396969949279E-04
  -.422780462274E-04  -.450272029982E-04  -.479553915954E-04  -.510742443111E-04  -.543961444887E-04
  -.579342744694E-04  -.617026665405E-04  -.657162570707E-04  -.699909440230E-04  -.745436480496E-04
  -.793923773845E-04  -.845562967609E-04  -.900558005919E-04  -.959125906717E-04  -.102149758660E-03
  -.108791873636E-03  -.115865075016E-03  -.123397171149E-03  -.131417743923E-03  -.139958259726E-03
  -.149052187125E-03  -.158735121661E-03  -.169044918139E-03  -.180021830872E-03  -.191708662286E-03
  -.204150920391E-03  -.217396985582E-03  -.231498287289E-03  -.246509491031E-03  -.262488696406E-03
  -.279497646635E-03  -.297601950258E-03  -.316871315613E-03  -.337379798797E-03  -.359206065760E-03
  -.382433669297E-03  -.407151341649E-03  -.433453303517E-03  -.461439590281E-03  -.491216396253E-03
  -.522896437828E-03  -.556599336408E-03  -.592452022021E-03  -.630589158538E-03  -.671153591471E-03
  -.714296819297E-03  -.760179489312E-03  -.808971919000E-03  -.860854643940E-03  -.916018993258E-03
  -.974667693643E-03  -.103701550293E-02  -.110328987428E-02  -.117373165185E-02  -.124859579904E-02
  -.132815216011E-02  -.141268625609E-02  -.150250011577E-02  -.159791314254E-02  -.169926301765E-02
  -.180690664054E-02  -.192122110648E-02  -.204260472202E-02  -.217147805810E-02  -.230828504096E-02
  -.245349408034E-02  -.260759923450E-02  -.277112141118E-02  -.294460960335E-02  -.312864215812E-02
  -.332382807689E-02  -.353080834438E-02  -.375025728348E-02  -.398288393254E-02  -.422943344082E-02
  -.449068847740E-02  -.476747064777E-02  -.506064191174E-02  -.537110599514E-02  -.569980978681E-02
  -.604774471137E-02  -.641594806671E-02  -.680550431407E-02  -.721754630679E-02  -.765325644248E-02
  -.811386772120E-02  -.860066469065E-02  -.911498425698E-02  -.965821633760E-02  -.102318043300E-01
  -.108372453676E-01  -.114760903311E-01  -.121499435805E-01  -.128604623686E-01  -.136093558956E-01
  -.143983839573E-01  -.152293551373E-01  -.161041244889E-01  -.170245906457E-01  -.179926922974E-01
  -.190104039593E-01  -.200797309592E-01  -.212027035591E-01  -.223813701213E-01  -.236177892228E-01
  -.249140206129E-01  -.262721149025E-01  -.276941018621E-01  -.291819772014E-01  -.307376876894E-01
  -.323631144669E-01  -.340600543932E-01  -.358301992573E-01  -.376751126749E-01  -.395962044805E-01
  -.415947024138E-01  -.436716208885E-01  -.458277266219E-01  -.480635008913E-01  -.503790981760E-01
  -.527743009314E-01  -.552484702362E-01  -.578004920430E-01  -.604287187595E-01  -.631309058800E-01
  -.659041433832E-01  -.687447816140E-01  -.716483513616E-01  -.746094778523E-01  -.776217883748E-01
  -.806778132642E-01  -.837688799724E-01  -.868849999614E-01  -.900147481647E-01  -.931451347659E-01
  -.962614690568E-01  -.993472151489E-01  -.102383839329E+00  -.105350648884E+00  -.108224622255E+00
  -.110980230477E+00  -.113589249961E+00  -.116020566855E+00  -.118239973483E+00  -.120209957715E+00
  -.121889486565E+00  -.123233785983E+00  -.124194119546E+00  -.124717569791E+00  -.124746827215E+00
  -.124219993528E+00  -.123070407576E+00  -.121226503932E+00  -.118611714138E+00  -.115144416120E+00
  -.110737923637E+00  -.105300480905E+00  -.987351922876E-01  -.909397990956E-01  -.818062623135E-01
  -.712202497639E-01  -.590607954837E-01  -.452004418151E-01  -.295059878331E-01  -.118396629322E-01
   .793961119861E-02   .299750801289E-01   .544111019193E-01   .813920105918E-01   .111060751685E+00
   .143557217466E+00   .179016260798E+00   .217565385042E+00   .259322106952E+00   .304390982216E+00
   .352860275065E+00   .404798246896E+00   .460249035383E+00   .519228095764E+00   .581717179741E+00
   .647658834662E+00   .716950416187E+00   .789437621611E+00   .864907568857E+00   .943081468528E+00
   .102360696409E+01   .110605024916E+01   .118988811168E+01
 End of Dataset
 PAW_PBE N 08Apr2002
 5.00000000000000000
 parameters from PSCTR are:
   VRHFIN =N: s2p3
   LEXCH  = PE
   EATOM  =   264.5486 eV,   19.4438 Ry

   TITEL  = PAW_PBE N 08Apr2002
   LULTRA =        F    use ultrasoft PP ?
   IUNSCR =        0    unscreen: 0-lin 1-nonlin 2-no
   RPACOR =     .000    partial core radius
   POMASS =   14.001; ZVAL   =    5.000    mass and valenz
   RCORE  =    1.500    outmost cutoff radius
   RWIGS  =    1.400; RWIGS  =     .741    wigner-seitz radius (au A)
   ENMAX  =  400.000; ENMIN  =  300.000 eV
   ICORE  =        2    local potential
   LCOR   =        T    correct aug charges
   LPAW   =        T    paw PP
   EAUG   =  627.112
   DEXC   =     .000
   RMAX   =    2.247    core radius for proj-oper
   RAUG   =    1.300    factor for augmentation sphere
   RDEP   =    1.514    radius for radial grids
   QCUT   =   -5.562; QGAM   =   11.124    optimization parameters
 
   Description
     l     E      TYP  RCUT    TYP  RCUT
     0   .000     23  1.200
     0   .000     23  1.200
     1   .000     23  1.500
     1   .700     23  1.500
     2   .000      7  1.500
   Error from kinetic energy argument (eV)
   NDATA  =      100
   STEP   =   20.000   1.050
  106.      104.      102.      99.8      98.5      95.8      93.0      91.6
  88.9      86.1      84.8      82.0      79.3      76.6      73.9      71.2
  68.6      66.1      63.5      59.9      57.5      55.1      51.7      49.5
  47.4      44.3      41.4      39.5      36.8      34.2      31.7      29.4
  27.2      25.1      23.2      21.4      19.1      17.5      15.6      14.2
  12.6      11.1      9.72      8.50      7.41      6.43      5.55      4.60
  3.93      3.21      2.60      2.18      1.74      1.37      1.02      .784
  .597      .422      .293      .199      .133      .872E-01  .567E-01  .347E-01
  .238E-01  .169E-01  .137E-01  .123E-01  .116E-01  .109E-01  .100E-01  .875E-02
  .733E-02  .589E-02  .445E-02  .343E-02  .259E-02  .207E-02  .177E-02  .163E-02
  .153E-02  .142E-02  .127E-02  .106E-02  .841E-03  .647E-03  .505E-03  .416E-03
  .381E-03  .372E-03  .362E-03  .337E-03  .285E-03  .227E-03  .173E-03  .137E-03
  .121E-03  .118E-03  .117E-03  .109E-03
END of PSCTR-controll parameters
 local part
 124.721915246208937
   .21525339E+02   .21525656E+02   .21522032E+02   .21515994E+02   .21507544E+02
   .21496684E+02   .21483417E+02   .21467744E+02   .21449665E+02   .21429180E+02
   .21406285E+02   .21380973E+02   .21353237E+02   .21323066E+02   .21290447E+02
   .21255363E+02   .21217798E+02   .21177730E+02   .21135137E+02   .21089993E+02
   .21042269E+02   .20991935E+02   .20938955E+02   .20883291E+02   .20824902E+02
   .20763740E+02   .20699757E+02   .20632897E+02   .20563104E+02   .20490316E+02
   .20414467E+02   .20335489E+02   .20253311E+02   .20167858E+02   .20079052E+02
   .19986815E+02   .19891065E+02   .19791718E+02   .19688691E+02   .19581898E+02
   .19471256E+02   .19356678E+02   .19238082E+02   .19115386E+02   .18988510E+02
   .18857379E+02   .18721920E+02   .18582064E+02   .18437751E+02   .18288922E+02
   .18135529E+02   .17977528E+02   .17814885E+02   .17647574E+02   .17475579E+02
   .17298894E+02   .17117523E+02   .16931482E+02   .16740800E+02   .16545516E+02
   .16345683E+02   .16141367E+02   .15932649E+02   .15719621E+02   .15502391E+02
   .15281081E+02   .15055825E+02   .14826774E+02   .14594092E+02   .14357955E+02
   .14118556E+02   .13876099E+02   .13630801E+02   .13382893E+02   .13132616E+02
   .12880223E+02   .12625979E+02   .12370157E+02   .12113038E+02   .11854915E+02
   .11596085E+02   .11336851E+02   .11077523E+02   .10818414E+02   .10559840E+02
   .10302120E+02   .10045571E+02   .97905115E+01   .95372582E+01   .92861240E+01
   .90374180E+01   .87914439E+01   .85484988E+01   .83088720E+01   .80728442E+01
   .78406858E+01   .76126566E+01   .73890041E+01   .71699631E+01   .69557544E+01
   .67465841E+01   .65426430E+01   .63441057E+01   .61511301E+01   .59638566E+01
   .57824083E+01   .56068897E+01   .54373873E+01   .52739689E+01   .51166837E+01
   .49655622E+01   .48206165E+01   .46818399E+01   .45492079E+01   .44226782E+01
   .43021908E+01   .41876690E+01   .40790200E+01   .39761350E+01   .38788905E+01
   .37871488E+01   .37007590E+01   .36195579E+01   .35433708E+01   .34720127E+01
   .34052892E+01   .33429977E+01   .32849282E+01   .32308648E+01   .31805866E+01
   .31338688E+01   .30904841E+01   .30502033E+01   .30127969E+01   .29780362E+01
   .29456937E+01   .29155452E+01   .28873698E+01   .28609512E+01   .28360790E+01
   .28125490E+01   .27901639E+01   .27687349E+01   .27480813E+01   .27280320E+01
   .27084252E+01   .26891097E+01   .26699448E+01   .26508007E+01   .26315588E+01
   .26121120E+01   .25923646E+01   .25722323E+01   .25516426E+01   .25305342E+01
   .25088570E+01   .24865720E+01   .24636508E+01   .24400754E+01   .24158380E+01
   .23909399E+01   .23653919E+01   .23392129E+01   .23124300E+01   .22850775E+01
   .22571964E+01   .22288337E+01   .22000418E+01   .21708779E+01   .21414029E+01
   .21116813E+01   .20817801E+01   .20517682E+01   .20217158E+01   .19916937E+01
   .19617727E+01   .19320229E+01   .19025133E+01   .18733110E+01   .18444807E+01
   .18160846E+01   .17881814E+01   .17608263E+01   .17340705E+01   .17079608E+01
   .16825394E+01   .16578438E+01   .16339065E+01   .16107548E+01   .15884108E+01
   .15668912E+01   .15462077E+01   .15263665E+01   .15073689E+01   .14892109E+01
   .14718839E+01   .14553744E+01   .14396646E+01   .14247325E+01   .14105520E+01
   .13970938E+01   .13843248E+01   .13722094E+01   .13607093E+01   .13497838E+01
   .13393906E+01   .13294859E+01   .13200246E+01   .13109613E+01   .13022499E+01
   .12938446E+01   .12856999E+01   .12777710E+01   .12700145E+01   .12623879E+01
   .12548507E+01   .12473643E+01   .12398923E+01   .12324005E+01   .12248576E+01
   .12172348E+01   .12095065E+01   .12016498E+01   .11936452E+01   .11854762E+01
   .11771294E+01   .11685948E+01   .11598655E+01   .11509376E+01   .11418104E+01
   .11324859E+01   .11229692E+01   .11132678E+01   .11033919E+01   .10933538E+01
   .10831683E+01   .10728517E+01   .10624224E+01   .10519000E+01   .10413055E+01
   .10306609E+01   .10199890E+01   .10093131E+01   .99865680E+00   .98804386E+00
   .97749779E+00   .96704175E+00   .95669834E+00   .94648935E+00   .93643563E+00
   .92655684E+00   .91687140E+00   .90739622E+00   .89814668E+00   .88913645E+00
   .88037744E+00   .87187970E+00   .86365138E+00   .85569867E+00   .84802583E+00
   .84063513E+00   .83352693E+00   .82669967E+00   .82014993E+00   .81387250E+00
   .80786048E+00   .80210534E+00   .79659704E+00   .79132416E+00   .78627401E+00
   .78143278E+00   .77678567E+00   .77231706E+00   .76801063E+00   .76384956E+00
   .75981666E+00   .75589452E+00   .75206570E+00   .74831284E+00   .74461884E+00
   .74096699E+00   .73734110E+00   .73372564E+00   .73010585E+00   .72646786E+00
   .72279880E+00   .71908686E+00   .71532140E+00   .71149297E+00   .70759344E+00
   .70361595E+00   .69955501E+00   .69540648E+00   .69116755E+00   .68683680E+00
   .68241411E+00   .67790064E+00   .67329883E+00   .66861230E+00   .66384579E+00
   .65900510E+00   .65409703E+00   .64912922E+00   .64411015E+00   .63904896E+00
   .63395539E+00   .62883965E+00   .62371232E+00   .61858424E+00   .61346641E+00
   .60836984E+00   .60330550E+00   .59828418E+00   .59331638E+00   .58841224E+00
   .58358145E+00   .57883312E+00   .57417577E+00   .56961719E+00   .56516443E+00
   .56082372E+00   .55660042E+00   .55249900E+00   .54852299E+00   .54467499E+00
   .54095665E+00   .53736863E+00   .53391070E+00   .53058165E+00   .52737938E+00
   .52430093E+00   .52134251E+00   .51849951E+00   .51576664E+00   .51313789E+00
   .51060670E+00   .50816593E+00   .50580801E+00   .50352496E+00   .50130852E+00
   .49915019E+00   .49704134E+00   .49497326E+00   .49293726E+00   .49092475E+00
   .48892731E+00   .48693675E+00   .48494521E+00   .48294519E+00   .48092966E+00
   .47889205E+00   .47682637E+00   .47472720E+00   .47258976E+00   .47040992E+00
   .46818424E+00   .46590999E+00   .46358515E+00   .46120841E+00   .45877919E+00
   .45629760E+00   .45376445E+00   .45118123E+00   .44855007E+00   .44587369E+00
   .44315541E+00   .44039907E+00   .43760898E+00   .43478991E+00   .43194697E+00
   .42908561E+00   .42621155E+00   .42333070E+00   .42044910E+00   .41757289E+00
   .41470822E+00   .41186120E+00   .40903785E+00   .40624400E+00   .40348532E+00
   .40076717E+00   .39809463E+00   .39547240E+00   .39290481E+00   .39039573E+00
   .38794858E+00   .38556629E+00   .38325127E+00   .38100542E+00   .37883007E+00
   .37672604E+00   .37469358E+00   .37273241E+00   .37084172E+00   .36902018E+00
   .36726597E+00   .36557677E+00   .36394984E+00   .36238201E+00   .36086973E+00
   .35940913E+00   .35799601E+00   .35662593E+00   .35529423E+00   .35399608E+00
   .35272654E+00   .35148058E+00   .35025318E+00   .34903928E+00   .34783395E+00
   .34663234E+00   .34542975E+00   .34422169E+00   .34300390E+00   .34177240E+00
   .34052349E+00   .33925382E+00   .33796042E+00   .33664065E+00   .33529231E+00
   .33391360E+00   .33250314E+00   .33105997E+00   .32958359E+00   .32807388E+00
   .32653120E+00   .32495627E+00   .32335023E+00   .32171462E+00   .32005131E+00
   .31836251E+00   .31665075E+00   .31491884E+00   .31316983E+00   .31140699E+00
   .30963376E+00   .30785373E+00   .30607060E+00   .30428812E+00   .30251011E+00
   .30074035E+00   .29898258E+00   .29724048E+00   .29551761E+00   .29381738E+00
   .29214302E+00   .29049756E+00   .28888379E+00   .28730425E+00   .28576120E+00
   .28425659E+00   .28279207E+00   .28136897E+00   .27998827E+00   .27865064E+00
   .27735638E+00   .27610546E+00   .27489752E+00   .27373187E+00   .27260749E+00
   .27152307E+00   .27047699E+00   .26946740E+00   .26849215E+00   .26754889E+00
   .26663508E+00   .26574798E+00   .26488473E+00   .26404232E+00   .26321767E+00
   .26240765E+00   .26160908E+00   .26081879E+00   .26003364E+00   .25925056E+00
   .25846655E+00   .25767874E+00   .25688439E+00   .25608092E+00   .25526595E+00
   .25443730E+00   .25359302E+00   .25273139E+00   .25185093E+00   .25095045E+00
   .25002901E+00   .24908594E+00   .24812086E+00   .24713366E+00   .24612449E+00
   .24509379E+00   .24404226E+00   .24297082E+00   .24188065E+00   .24077315E+00
   .23964992E+00   .23851276E+00   .23736361E+00   .23620457E+00   .23503786E+00
   .23386582E+00   .23269082E+00   .23151532E+00   .23034179E+00   .22917272E+00
   .22801054E+00   .22685768E+00   .22571647E+00   .22458917E+00   .22347790E+00
   .22238468E+00   .22131136E+00   .22025964E+00   .21923101E+00   .21822680E+00
   .21724813E+00   .21629588E+00   .21537076E+00   .21447322E+00   .21360349E+00
   .21276159E+00   .21194731E+00   .21116022E+00   .21039967E+00   .20966484E+00
   .20895467E+00   .20826795E+00   .20760330E+00   .20695917E+00   .20633390E+00
   .20572570E+00   .20513267E+00   .20455284E+00   .20398419E+00   .20342463E+00
   .20287207E+00   .20232442E+00   .20177959E+00   .20123555E+00   .20069032E+00
   .20014199E+00   .19958874E+00   .19902888E+00   .19846082E+00   .19788312E+00
   .19729450E+00   .19669381E+00   .19608010E+00   .19545258E+00   .19481064E+00
   .19415385E+00   .19348199E+00   .19279499E+00   .19209300E+00   .19137633E+00
   .19064547E+00   .18990108E+00   .18914397E+00   .18837513E+00   .18759564E+00
   .18680675E+00   .18600979E+00   .18520621E+00   .18439754E+00   .18358535E+00
   .18277129E+00   .18195704E+00   .18114427E+00   .18033468E+00   .17952994E+00
   .17873169E+00   .17794152E+00   .17716096E+00   .17639144E+00   .17563432E+00
   .17489086E+00   .17416218E+00   .17344930E+00   .17275308E+00   .17207425E+00
   .17141341E+00   .17077099E+00   .17014726E+00   .16954235E+00   .16895623E+00
   .16838871E+00   .16783946E+00   .16730799E+00   .16679368E+00   .16629577E+00
   .16581339E+00   .16534554E+00   .16489113E+00   .16444896E+00   .16401778E+00
   .16359624E+00   .16318296E+00   .16277652E+00   .16237545E+00   .16197831E+00
   .16158362E+00   .16118995E+00   .16079588E+00   .16040004E+00   .16000114E+00
   .15959791E+00   .15918921E+00   .15877397E+00   .15835121E+00   .15792007E+00
   .15747981E+00   .15702980E+00   .15656955E+00   .15609869E+00   .15561698E+00
   .15512431E+00   .15462071E+00   .15410635E+00   .15358150E+00   .15304658E+00
   .15250212E+00   .15194876E+00   .15138724E+00   .15081841E+00   .15024318E+00
   .14966258E+00   .14907765E+00   .14848954E+00   .14789939E+00   .14730842E+00
   .14671785E+00   .14612888E+00   .14554275E+00   .14496066E+00   .14438378E+00
   .14381325E+00   .14325013E+00   .14269547E+00   .14215020E+00   .14161519E+00
   .14109123E+00   .14057900E+00   .14007909E+00   .13959198E+00   .13911804E+00
   .13865753E+00   .13821060E+00   .13777728E+00   .13735749E+00   .13695102E+00
   .13655759E+00   .13617677E+00   .13580805E+00   .13545084E+00   .13510443E+00
   .13476804E+00   .13444084E+00   .13412190E+00   .13381026E+00   .13350490E+00
   .13320479E+00   .13290884E+00   .13261597E+00   .13232509E+00   .13203512E+00
   .13174499E+00   .13145366E+00   .13116014E+00   .13086347E+00   .13056275E+00
   .13025715E+00   .12994591E+00   .12962835E+00   .12930385E+00   .12897193E+00
   .12863214E+00   .12828419E+00   .12792783E+00   .12756295E+00   .12718952E+00
   .12680763E+00   .12641744E+00   .12601923E+00   .12561336E+00   .12520028E+00
   .12478053E+00   .12435471E+00   .12392350E+00   .12348764E+00   .12304794E+00
   .12260523E+00   .12216039E+00   .12171434E+00   .12126801E+00   .12082233E+00
   .12037825E+00   .11993670E+00   .11949860E+00   .11906484E+00   .11863628E+00
   .11821374E+00   .11779797E+00   .11738968E+00   .11698952E+00   .11659805E+00
   .11621578E+00   .11584313E+00   .11548042E+00   .11512791E+00   .11478576E+00
   .11445406E+00   .11413278E+00   .11382182E+00   .11352100E+00   .11323004E+00
   .11294859E+00   .11267623E+00   .11241245E+00   .11215668E+00   .11190830E+00
   .11166662E+00   .11143091E+00   .11120040E+00   .11097429E+00   .11075175E+00
   .11053195E+00   .11031402E+00   .11009712E+00   .10988040E+00   .10966304E+00
   .10944423E+00   .10922320E+00   .10899923E+00   .10877162E+00   .10853974E+00
   .10830301E+00   .10806092E+00   .10781303E+00   .10755896E+00   .10729840E+00
   .10703113E+00   .10675700E+00   .10647594E+00   .10618796E+00   .10589315E+00
   .10559167E+00   .10528376E+00   .10496972E+00   .10464995E+00   .10432487E+00
   .10399498E+00   .10366085E+00   .10332307E+00   .10298229E+00   .10263917E+00
   .10229443E+00   .10194880E+00   .10160301E+00   .10125781E+00   .10091395E+00
   .10057217E+00   .10023318E+00   .99897697E-01   .99566386E-01   .99239885E-01
   .98918791E-01   .98603653E-01   .98294967E-01   .97993177E-01   .97698662E-01
   .97411742E-01   .97132669E-01   .96861627E-01   .96598733E-01   .96344031E-01
   .96097497E-01   .95859038E-01   .95628491E-01   .95405629E-01   .95190160E-01
   .94981733E-01   .94779940E-01   .94584321E-01   .94394371E-01   .94209540E-01
   .94029243E-01   .93852866E-01   .93679768E-01   .93509292E-01   .93340767E-01
   .93173518E-01   .93006871E-01   .92840159E-01   .92672731E-01   .92503954E-01
   .92333221E-01   .92159960E-01   .91983632E-01   .91803744E-01   .91619847E-01
   .91431542E-01   .91238485E-01   .91040388E-01   .90837022E-01   .90628218E-01
   .90413869E-01   .90193931E-01   .89968422E-01   .89737421E-01   .89501068E-01
   .89259562E-01   .89013159E-01   .88762166E-01   .88506941E-01   .88247890E-01
   .87985457E-01   .87720125E-01   .87452409E-01   .87182851E-01   .86912012E-01
   .86640472E-01   .86368819E-01   .86097646E-01   .85827545E-01   .85559100E-01
   .85292882E-01   .85029445E-01   .84769316E-01   .84512997E-01   .84260954E-01
   .84013616E-01   .83771371E-01   .83534560E-01   .83303480E-01   .83078373E-01
   .82859430E-01   .82646790E-01   .82440535E-01   .82240691E-01   .82047230E-01
   .81860069E-01   .81679071E-01   .81504046E-01   .81334755E-01   .81170913E-01
   .81012190E-01   .80858214E-01   .80708579E-01   .80562846E-01   .80420547E-01
   .80281192E-01   .80144271E-01   .80009262E-01   .79875635E-01   .79742855E-01
   .79610390E-01   .79477716E-01   .79344319E-01   .79209704E-01   .79073398E-01
   .78934952E-01   .78793950E-01   .78650009E-01   .78502783E-01   .78351967E-01
   .78197300E-01   .78038565E-01   .77875592E-01   .77708262E-01   .77536501E-01
   .77360287E-01   .77179649E-01   .76994661E-01   .76805448E-01   .76612179E-01
   .76415069E-01   .76214373E-01   .76010386E-01   .75803438E-01   .75593891E-01
   .75382136E-01   .75168589E-01   .74953683E-01   .74737870E-01   .74521611E-01
   .74305377E-01   .74089637E-01   .73874860E-01   .73661508E-01   .73450030E-01
   .73240859E-01   .73034410E-01   .72831071E-01   .72631205E-01   .72435141E-01
   .72243177E-01   .72055572E-01   .71872547E-01   .71694281E-01   .71520913E-01
   .71352537E-01   .71189203E-01   .71030917E-01   .70877640E-01   .70729290E-01
   .70585743E-01   .70446834E-01   .70312357E-01   .70182071E-01   .70055701E-01
   .69932940E-01   .69813452E-01   .69696878E-01   .69582837E-01   .69470931E-01
   .69360748E-01   .69251869E-01   .69143867E-01   .69036316E-01   .68928792E-01
   .68820879E-01   .68712171E-01   .68602280E-01   .68490835E-01   .68377486E-01
   .68261912E-01   .68143818E-01   .68022941E-01   .67899052E-01   .67771958E-01
   .67641500E-01   .67507561E-01   .67370062E-01   .67228962E-01   .67084264E-01
   .66936007E-01   .66784270E-01   .66629171E-01   .66470865E-01   .66309540E-01
   .66145418E-01   .65978751E-01   .65809819E-01   .65638926E-01   .65466397E-01
   .65292577E-01   .65117825E-01   .64942511E-01   .64767012E-01   .64591710E-01
   .64416986E-01   .64243218E-01   .64070775E-01   .63900018E-01   .63731291E-01
   .63564920E-01   .63401212E-01   .63240448E-01   .63082884E-01   .62928747E-01
   .62778232E-01   .62631504E-01   .62488693E-01   .62349891E-01   .62215160E-01
   .62084521E-01   .61957962E-01   .61835432E-01   .61716848E-01   .61602091E-01
   .61491009E-01   .61383419E-01   .61279111E-01   .61177844E-01   .61079355E-01
   .60983360E-01   .60889555E-01   .60797620E-01   .60707223E-01   .60618021E-01
   .60529668E-01   .60441813E-01   .60354105E-01   .60266201E-01   .60177762E-01
   .60088461E-01   .59997984E-01   .59906036E-01   .59812340E-01   .59716643E-01
   .59618713E-01   .59518349E-01   .59415376E-01   .59309648E-01   .59201053E-01
   .59089509E-01   .58974967E-01   .58857410E-01   .58736857E-01   .58613357E-01
 gradient corrections used for XC
 5
 atomic pseudo charge-density
   .50000000E+01   .49905920E+01   .49625297E+01   .49162908E+01   .48526485E+01
   .47726391E+01   .46775203E+01   .45687233E+01   .44478032E+01   .43163885E+01
   .41761349E+01   .40286837E+01   .38756263E+01   .37184763E+01   .35586481E+01
   .33974423E+01   .32360365E+01   .30754820E+01   .29167034E+01   .27605022E+01
   .26075624E+01   .24584576E+01   .23136596E+01   .21735467E+01   .20384129E+01
   .19084767E+01   .17838898E+01   .16647446E+01   .15510824E+01   .14428999E+01
   .13401557E+01   .12427762E+01   .11506608E+01   .10636865E+01   .98171194E+00
   .90458151E+00   .83212827E+00   .76417698E+00   .70054656E+00   .64105227E+00
   .58550763E+00   .53372598E+00   .48552186E+00   .44071220E+00   .39911723E+00
   .36056131E+00   .32487354E+00   .29188830E+00   .26144558E+00   .23339135E+00
   .20757767E+00   .18386290E+00   .16211167E+00   .14219496E+00   .12399000E+00
   .10738022E+00   .92255114E-01   .78510091E-01   .66046338E-01   .54770616E-01
   .44595079E-01   .35437065E-01   .27218895E-01   .19867655E-01   .13314990E-01
   .74968898E-02   .23534788E-02  -.21711896E-02  -.61293344E-02  -.95696441E-02
  -.12537468E-01  -.15074999E-01  -.17221454E-01  -.19013244E-01  -.20484138E-01
  -.21665420E-01  -.22586039E-01  -.23272752E-01  -.23750261E-01  -.24041341E-01
  -.24166965E-01  -.24146416E-01  -.23997402E-01  -.23736157E-01  -.23377542E-01
  -.22935135E-01  -.22421320E-01  -.21847372E-01  -.21223529E-01  -.20559071E-01
  -.19862388E-01  -.19141041E-01  -.18401826E-01  -.17650830E-01  -.16893487E-01
  -.16134623E-01  -.15378508E-01  -.14628898E-01  -.13889078E-01  -.13161896E-01
  -.12449805E-01  -.11754893E-01  -.11078916E-01  -.10423328E-01  -.97893049E-02
  -.91777749E-02  -.85894391E-02  -.80247948E-02  -.74841557E-02  -.69676714E-02
  -.64753449E-02  -.60070492E-02  -.55625423E-02  -.51414814E-02  -.47434360E-02
  -.43679000E-02  -.40143022E-02  -.36820170E-02  -.33703735E-02  -.30786639E-02
  -.28061514E-02  -.25520773E-02  -.23156672E-02  -.20961372E-02  -.18926989E-02
  -.17045640E-02  -.15309487E-02  -.13710774E-02  -.12241863E-02  -.10895255E-02
  -.96636251E-03  -.85398380E-03  -.75169686E-03  -.65883175E-03  -.57474238E-03
  -.49880750E-03  -.43043156E-03  -.36904518E-03  -.31410564E-03  -.26509696E-03
  -.22153000E-03  -.18294233E-03  -.14889794E-03  -.11898693E-03  -.92824951E-04
  -.70052694E-04  -.50335202E-04  -.33361152E-04  -.18842059E-04  -.65114415E-05
   .38760630E-05   .12545615E-04   .19703113E-04   .25536152E-04   .30214996E-04
   .33893552E-04   .36710342E-04   .38789474E-04   .40241596E-04   .41164839E-04
   .41645733E-04   .41760111E-04   .41573973E-04   .41144334E-04   .40520031E-04
   .39742502E-04   .38846523E-04   .37860918E-04   .36809223E-04   .35710316E-04
   .34579005E-04   .33426582E-04   .32261331E-04   .31089003E-04   .29913252E-04
   .28736026E-04   .27557934E-04   .26378567E-04   .25196786E-04   .24010980E-04
   .22819290E-04   .21619803E-04   .20410715E-04   .19190469E-04   .17957865E-04
   .16712152E-04   .15453087E-04   .14180986E-04   .12896746E-04   .11601858E-04
   .10298397E-04   .89890087E-05   .76768723E-05   .63656651E-05   .50595101E-05
   .37629206E-05   .24807380E-05   .12180659E-05  -.19798875E-07  -.12274369E-05
  -.23993774E-05  -.35301683E-05  -.46144459E-05  -.56470012E-05  -.66228435E-05
  -.75372600E-05  -.83858715E-05  -.91646822E-05  -.98701252E-05  -.10499102E-04
  -.11049014E-04  -.11517794E-04  -.11903922E-04  -.12206444E-04  -.12424981E-04
  -.12559728E-04  -.12611453E-04  -.12581489E-04  -.12471719E-04  -.12284554E-04
  -.12022915E-04  -.11690196E-04  -.11290240E-04  -.10827295E-04  -.10305982E-04
  -.97312494E-05  -.91083283E-05  -.84426897E-05  -.77399963E-05  -.70060550E-05
  -.62467693E-05  -.54680919E-05  -.46759773E-05  -.38763362E-05  -.30749904E-05
  -.22776305E-05  -.14897744E-05  -.71672956E-06   .36443421E-07   .76496339E-06
   .14643586E-05   .21304932E-05   .27595907E-05   .33482533E-05   .38934783E-05
   .43926705E-05   .48436512E-05   .52446635E-05   .55943743E-05   .58918723E-05
   .61366633E-05   .63286623E-05   .64681816E-05   .65559178E-05   .65929340E-05
   .65806415E-05   .65207784E-05   .64153856E-05   .62667826E-05   .60775406E-05
   .58504548E-05   .55885158E-05   .52948804E-05   .49728414E-05   .46257983E-05
   .42572269E-05   .38706503E-05   .34696093E-05   .30576348E-05   .26382202E-05
   .22147954E-05   .17907023E-05   .13691712E-05   .95329963E-06   .54603217E-06
   .15014276E-06  -.23178140E-06  -.59735377E-06  -.94440039E-06  -.12709696E-05
  -.15753399E-05  -.18560253E-05  -.21117787E-05  -.23415937E-05  -.25447040E-05
  -.27205803E-05  -.28689269E-05  -.29896750E-05  -.30829753E-05  -.31491886E-05
  -.31888754E-05  -.32027842E-05  -.31918380E-05  -.31571211E-05  -.30998637E-05
  -.30214269E-05  -.29232866E-05  -.28070174E-05  -.26742757E-05  -.25267834E-05
  -.23663114E-05  -.21946629E-05  -.20136578E-05  -.18251170E-05  -.16308473E-05
  -.14326271E-05  -.12321932E-05  -.10312275E-05  -.83134591E-06  -.63408706E-06
  -.44090291E-06  -.25315007E-06  -.72082309E-07   .10115571E-06   .26553358E-06
   .42013911E-06   .56418111E-06   .69699107E-06   .81802369E-06   .92685633E-06
   .10231874E-05   .11068339E-05   .11777277E-05   .12359116E-05   .12815336E-05
   .13148415E-05   .13361764E-05   .13459651E-05   .13447133E-05   .13329972E-05
   .13114554E-05   .12807803E-05   .12417099E-05   .11950187E-05   .11415093E-05
   .10820039E-05   .10173362E-05   .94834252E-06   .87585502E-06   .80069361E-06
   .72365918E-06   .64552712E-06   .56704124E-06   .48890838E-06   .41179350E-06
   .33631544E-06   .26304326E-06   .19249323E-06   .12512644E-06   .61347112E-07
   .15013959E-08  -.54123064E-07  -.10529706E-06  -.15184918E-06  -.19366454E-06
  -.23068312E-06  -.26289758E-06  -.29035056E-06  -.31313174E-06  -.33137439E-06
  -.34525179E-06  -.35497319E-06  -.36077980E-06  -.36294038E-06  -.36174694E-06
  -.35751024E-06  -.35055532E-06  -.34121710E-06  -.32983599E-06  -.31675370E-06
  -.30230915E-06  -.28683460E-06  -.27065203E-06  -.25406973E-06  -.23737925E-06
  -.22085261E-06  -.20473984E-06  -.18926690E-06  -.17463392E-06  -.16101384E-06
  -.14855140E-06  -.13736248E-06  -.12753383E-06  -.11912313E-06  -.11215946E-06
  -.10664396E-06  -.10255098E-06  -.99829372E-07  -.98404126E-07  -.98178232E-07
  -.99034758E-07  -.10083911E-06  -.10344147E-06  -.10667933E-06  -.11038012E-06
  -.11436396E-06  -.11844637E-06  -.12244103E-06  -.12616246E-06  -.12942871E-06
  -.13206388E-06  -.13390062E-06  -.13478239E-06  -.13456562E-06  -.13312169E-06
  -.13033864E-06  -.12612274E-06  -.12039978E-06  -.11311612E-06  -.10423951E-06
  -.93759592E-07  -.81688225E-07  -.68059479E-07  -.52929400E-07  -.36375516E-07
  -.18496093E-07   .59083727E-09   .20748680E-07   .41823686E-07   .63646550E-07
   .86034184E-07   .10879164E-06   .13171419E-06   .15458944E-06   .17719964E-06
   .19932399E-06   .22074095E-06   .24123065E-06   .26057721E-06   .27857110E-06
   .29501134E-06   .30970775E-06   .32248293E-06   .33317430E-06   .34163585E-06
   .34773977E-06   .35137799E-06   .35246337E-06   .35093080E-06   .34673811E-06
   .33986661E-06   .33032159E-06   .31813243E-06   .30335259E-06   .28605933E-06
   .26635316E-06   .24435712E-06   .22021587E-06   .19409449E-06   .16617715E-06
   .13666557E-06   .10577734E-06   .73744067E-07   .40809388E-07   .72268839E-08
  -.26742112E-07  -.60830778E-07  -.94769116E-07  -.12828631E-06  -.16111307E-06
  -.19298401E-06  -.22363992E-06  -.25283007E-06  -.28031439E-06  -.30586555E-06
  -.32927098E-06  -.35033470E-06  -.36887904E-06  -.38474620E-06  -.39779963E-06
  -.40792521E-06  -.41503227E-06  -.41905440E-06  -.41994998E-06  -.41770262E-06
  -.41232129E-06  -.40384026E-06  -.39231881E-06  -.37784078E-06  -.36051386E-06
  -.34046865E-06  -.31785766E-06  -.29285395E-06  -.26564975E-06  -.23645483E-06
  -.20549476E-06  -.17300905E-06  -.13924918E-06  -.10447650E-06  -.68960099E-07
  -.32974573E-07   .32021886E-08   .39291286E-07   .75015070E-07   .11009939E-06
   .14427579E-06   .17728369E-06   .20887241E-06   .23880320E-06   .26685110E-06
   .29280672E-06   .31647781E-06   .33769079E-06   .35629200E-06   .37214889E-06
   .38515099E-06   .39521062E-06   .40226354E-06   .40626934E-06   .40721161E-06
   .40509793E-06   .39995973E-06   .39185186E-06   .38085203E-06   .36706007E-06
   .35059697E-06   .33160382E-06   .31024055E-06   .28668454E-06   .26112910E-06
   .23378183E-06   .20486289E-06   .17460317E-06   .14324238E-06   .11102709E-06
   .78208763E-07   .45041704E-07   .11781052E-07  -.21319243E-07  -.54008405E-07
  -.86040780E-07  -.11717773E-06  -.14718944E-06  -.17585665E-06  -.20297232E-06
  -.22834310E-06  -.25179075E-06  -.27315341E-06  -.29228671E-06  -.30906475E-06
  -.32338092E-06  -.33514854E-06  -.34430137E-06  -.35079394E-06  -.35460166E-06
  -.35572087E-06  -.35416862E-06  -.34998237E-06  -.34321945E-06  -.33395645E-06
  -.32228841E-06  -.30832788E-06  -.29220390E-06  -.27406076E-06  -.25405678E-06
  -.23236289E-06  -.20916115E-06  -.18464327E-06  -.15900897E-06  -.13246433E-06
  -.10522016E-06  -.77490279E-07  -.49489827E-07  -.21433587E-07   .64656829E-08
   .33998875E-07   .60962109E-07   .87158249E-07   .11239835E-06   .13650303E-06
   .15930374E-06   .18064391E-06   .20038007E-06   .21838274E-06   .23453730E-06
   .24874464E-06   .26092179E-06   .27100231E-06   .27893661E-06   .28469210E-06
   .28825326E-06   .28962146E-06   .28881482E-06   .28586776E-06   .28083059E-06
   .27376886E-06   .26476265E-06   .25390581E-06   .24130495E-06   .22707854E-06
   .21135578E-06   .19427545E-06   .17598476E-06   .15663803E-06   .13639545E-06
   .11542173E-06   .93884811E-07   .71954483E-07   .49801080E-07   .27594155E-07
   .55011930E-08  -.16313651E-07  -.37690755E-07  -.58476192E-07  -.78522823E-07
  -.97691324E-07  -.11585113E-06  -.13288132E-06  -.14867135E-06  -.16312181E-06
  -.17614495E-06  -.18766518E-06  -.19761949E-06  -.20595769E-06  -.21264264E-06
  -.21765028E-06  -.22096960E-06  -.22260256E-06  -.22256382E-06  -.22088046E-06
  -.21759151E-06  -.21274750E-06  -.20640990E-06  -.19865041E-06  -.18955027E-06
  -.17919950E-06  -.16769604E-06  -.15514485E-06  -.14165704E-06  -.12734887E-06
  -.11234081E-06  -.96756516E-07  -.80721857E-07  -.64363908E-07  -.47809962E-07
  -.31186558E-07  -.14618531E-07   .17719080E-08   .17866053E-07   .33549543E-07
   .48713153E-07   .63253529E-07   .77073867E-07   .90084529E-07   .10220359E-06
   .11335730E-06   .12348054E-06   .13251709E-06   .14041994E-06   .14715144E-06
   .15268342E-06   .15699722E-06   .16008366E-06   .16194291E-06   .16258431E-06
   .16202613E-06   .16029526E-06   .15742682E-06   .15346374E-06   .14845629E-06
   .14246156E-06   .13554286E-06   .12776913E-06   .11921435E-06   .10995681E-06
   .10007846E-06   .89664262E-07   .78801405E-07   .67578665E-07   .56085679E-07
   .44412257E-07   .32647700E-07   .20880142E-07   .91959078E-08  -.23210932E-08
  -.13589950E-07  -.24533292E-07  -.35077795E-07  -.45154641E-07  -.54699944E-07
  -.63655115E-07  -.71967187E-07  -.79589091E-07  -.86479879E-07  -.92604889E-07
  -.97935871E-07  -.10245105E-06  -.10613516E-06  -.10897937E-06  -.11098126E-06
  -.11214465E-06  -.11247944E-06  -.11200142E-06  -.11073197E-06  -.10869782E-06
  -.10593069E-06  -.10246697E-06  -.98347290E-07  -.93616181E-07  -.88321604E-07
  -.82514527E-07  -.76248479E-07  -.69579085E-07  -.62563608E-07  -.55260479E-07
  -.47728841E-07  -.40028092E-07  -.32217437E-07  -.24355456E-07  -.16499692E-07
  -.87062413E-08  -.10293857E-08   .64787683E-08   .13768616E-07   .20793359E-07
   .27509274E-07   .33875960E-07   .39856547E-07   .45417879E-07   .50530655E-07
   .55169553E-07   .59313300E-07   .62944731E-07   .66050801E-07   .68622574E-07
   .70655174E-07   .72147720E-07   .73103217E-07   .73528434E-07   .73433752E-07
   .72832987E-07   .71743200E-07   .70184484E-07   .68179729E-07   .65754385E-07
   .62936204E-07   .59754974E-07   .56242248E-07   .52431068E-07   .48355681E-07
   .44051262E-07   .39553633E-07   .34898986E-07   .30123616E-07   .25263655E-07
   .20354821E-07   .15432173E-07   .10529880E-07   .56810070E-08   .91730945E-09
  -.37309522E-08  -.82351822E-08  -.12568602E-07  -.16706386E-07  -.20625774E-07
  -.24306174E-07  -.27729235E-07  -.30878913E-07  -.33741506E-07  -.36305683E-07
  -.38562485E-07  -.40505317E-07  -.42129917E-07  -.43434310E-07  -.44418757E-07
  -.45085672E-07  -.45439545E-07  -.45486839E-07  -.45235883E-07  -.44696757E-07
  -.43881163E-07  -.42802293E-07  -.41474690E-07  -.39914107E-07  -.38137357E-07
  -.36162163E-07  -.34007015E-07  -.31691011E-07  -.29233715E-07  -.26655007E-07
  -.23974941E-07  -.21213605E-07  -.18390987E-07  -.15526845E-07  -.12640588E-07
  -.97511547E-08  -.68769120E-08  -.40355503E-08  -.12439938E-08   .14816829E-08
   .41263292E-08   .66757834E-08   .91169289E-08   .11437742E-07   .13627327E-07
   .15675952E-07   .17575060E-07   .19317290E-07   .20896475E-07   .22307640E-07
   .23546991E-07   .24611897E-07   .25500862E-07   .26213497E-07   .26750484E-07
   .27113529E-07   .27305321E-07   .27329480E-07   .27190499E-07   .26893693E-07
   .26445132E-07   .25851586E-07   .25120456E-07   .24259715E-07   .23277835E-07
   .22183728E-07   .20986680E-07   .19696282E-07   .18322370E-07   .16874960E-07
   .15364189E-07   .13800254E-07   .12193356E-07   .10553641E-07   .88911541E-08
   .72157829E-08   .55372142E-08   .38648879E-08   .22079556E-08   .57524227E-09
  -.10247893E-08  -.25840712E-08  -.40949597E-08  -.55502613E-08  -.69432565E-08
  -.82677200E-08  -.95179377E-08  -.10688721E-07  -.11775421E-07  -.12773931E-07
  -.13680699E-07  -.14492731E-07  -.15207587E-07  -.15823383E-07  -.16338788E-07
  -.16753015E-07  -.17065817E-07  -.17277472E-07  -.17388774E-07  -.17401019E-07
  -.17315985E-07  -.17135920E-07  -.16863520E-07  -.16501906E-07  -.16054608E-07
  -.15525533E-07  -.14918949E-07  -.14239450E-07  -.13491939E-07  -.12681591E-07
  -.11813829E-07  -.10894292E-07  -.99288083E-08  -.89233601E-08  -.78840552E-08
  -.68170944E-08  -.57287398E-08  -.46252828E-08  -.35130125E-08  -.23981836E-08
  -.12869854E-08  -.18551073E-09   .90027465E-09   .19645614E-08   .30017256E-08
   .40063565E-08   .49732833E-08   .58976006E-08   .67746924E-08   .76002545E-08
   .83703155E-08   .90812557E-08   .97298247E-08   .10313156E-07   .10828781E-07
   .11274638E-07   .11649084E-07   .11950898E-07   .12179287E-07   .12333884E-07
   .12414755E-07   .12422385E-07   .12357681E-07   .12221959E-07   .12016936E-07
   .11744714E-07   .11407769E-07   .11008928E-07   .10551354E-07   .10038525E-07
   .94742066E-08   .88624290E-08   .82074615E-08   .75137832E-08   .67860543E-08
   .60290856E-08   .52478079E-08   .44472402E-08   .36324577E-08   .28085595E-08
   .19806369E-08   .11537410E-08   .33285152E-09  -.47715396E-09  -.12715300E-08
  -.20456920E-08  -.27952437E-08  -.35160030E-08  -.42040268E-08  -.48556331E-08
  -.54674218E-08  -.60362933E-08  -.65594647E-08  -.70344839E-08  -.74592409E-08
  -.78319773E-08  -.81512925E-08  -.84161482E-08  -.86258700E-08  -.87801457E-08
  -.88790227E-08  -.89229013E-08  -.89125269E-08  -.88489789E-08  -.87336583E-08
  -.85682725E-08  -.83548187E-08  -.80955649E-08  -.77930300E-08  -.74499618E-08
  -.70693141E-08  -.66542227E-08  -.62079804E-08  -.57340111E-08  -.52358442E-08
  -.47170875E-08  -.41814013E-08  -.36324718E-08  -.30739853E-08  -.25096024E-08
  -.19429338E-08  -.13775159E-08  -.81678855E-09  -.26407303E-09   .27744774E-09
   .80474795E-09   .13149759E-08   .18054693E-08   .22737688E-08   .27176294E-08
   .31350305E-08   .35241834E-08   .38835369E-08   .42117810E-08   .45078489E-08
   .47709166E-08   .50004012E-08   .51959564E-08   .53574678E-08   .54850447E-08
   .55790121E-08   .56398997E-08   .56684310E-08   .56655104E-08   .56322096E-08
   .55697530E-08   .54795027E-08   .53629420E-08   .52216601E-08   .50573350E-08
   .48717170E-08   .46666129E-08   .44438692E-08   .42053565E-08   .39529542E-08
   .36885356E-08   .34139541E-08   .31310302E-08   .28415390E-08   .25471997E-08
   .22496653E-08   .19505138E-08   .16512408E-08   .13532526E-08   .10578620E-08
   .76628374E-09   .47963236E-09   .19892086E-09  -.74939500E-10  -.34113813E-09
 25.1333556480996805 T
 Non local Part
 0 2 1.18927618932127976
 4.95117802918466055 -0.263395023042996779 -0.263395023042996779 -0.110466427860580457E-01
 Reciprocal Space Part
   .45110332E+01   .45016018E+01   .44733853E+01   .44266159E+01   .43616785E+01
   .42791062E+01   .41795760E+01   .40639015E+01   .39330256E+01   .37880107E+01
   .36300287E+01   .34603494E+01   .32803279E+01   .30913912E+01   .28950241E+01
   .26927541E+01   .24861367E+01   .22767392E+01   .20661255E+01   .18558400E+01
   .16473926E+01   .14422431E+01   .12417875E+01   .10473435E+01   .86013837E+00
   .68129711E+00   .51183207E+00   .35263414E+00   .20446525E+00   .67952726E-01
  -.56414778E-01  -.16828949E+00  -.26746490E+00  -.35387441E+00  -.42758802E+00
  -.48880744E+00  -.53785942E+00  -.57518757E+00  -.60134276E+00  -.61697220E+00
  -.62280752E+00  -.61965191E+00  -.60836658E+00  -.58985678E+00  -.56505763E+00
  -.53491992E+00  -.50039616E+00  -.46242710E+00  -.42192896E+00  -.37978147E+00
  -.33681701E+00  -.29381096E+00  -.25147340E+00  -.21044217E+00  -.17127755E+00
  -.13445850E+00  -.10038034E+00  -.69354156E-01  -.41607581E-01  -.17287075E-01
   .35385049E-02   .20873119E-01   .34787714E-01   .45413499E-01   .52934499E-01
   .57579586E-01   .59614153E-01   .59331627E-01   .57045014E-01   .53078621E-01
   .47760155E-01   .41413304E-01   .34350968E-01   .26869222E-01   .19242103E-01
   .11717294E-01   .45127375E-02  -.21858099E-02  -.82262730E-02  -.13490848E-01
  -.17895726E-01  -.21390012E-01  -.23953936E-01  -.25596433E-01  -.26352204E-01
  -.26278367E-01  -.25450813E-01  -.23960375E-01  -.21908932E-01  -.19405540E-01
  -.16562704E-01  -.13492862E-01  -.10305176E-01  -.71026792E-02  -.39798380E-02
  -.10205562E-02   .17033488E-02   .41331990E-02   .62240414E-02   .79447876E-02
 Real Space Part
  -.86094301E+01  -.85611105E+01  -.84167483E+01  -.81781252E+01  -.78481830E+01
  -.74309829E+01  -.69316493E+01  -.63562983E+01  -.57119525E+01  -.50064432E+01
  -.42483008E+01  -.34466354E+01  -.26110094E+01  -.17513030E+01  -.87757604E+00
   .72880756E-04   .87164777E+00   .17273941E+01   .25579338E+01   .33543935E+01
   .41085244E+01   .48128115E+01   .54605704E+01   .60460296E+01   .65643980E+01
   .70119144E+01   .73858811E+01   .76846774E+01   .79077567E+01   .80556242E+01
   .81297977E+01   .81327519E+01   .80678469E+01   .79392434E+01   .77518064E+01
   .75109982E+01   .72227648E+01   .68934174E+01   .65295112E+01   .61377239E+01
   .57247376E+01   .52971254E+01   .48612447E+01   .44231403E+01   .39884581E+01
   .35623708E+01   .31495175E+01   .27539570E+01   .23791357E+01   .20278696E+01
   .17023408E+01   .14041072E+01   .11341243E+01   .89277839E+00   .67992962E+00
   .49496245E+00   .33684294E+00   .20418031E+00   .95291152E-01   .82645657E-02
  -.58973508E-01  -.10859825E+00  -.14282762E+00  -.16386890E+00  -.17387098E+00
  -.17488322E+00  -.16882125E+00  -.15744003E+00  -.14231409E+00  -.12482489E+00
  -.10615470E+00  -.87286671E-01  -.69010266E-01  -.51931376E-01  -.36486195E-01
  -.22958054E-01  -.11496301E-01  -.21364106E-02   .51794840E-02   .10582333E-01
   .14256819E-01   .16423418E-01   .17322291E-01   .17199279E-01   .16294208E-01
   .14831546E-01   .13013419E-01   .11014865E-01   .89811428E-02   .70268855E-02
   .52368035E-02   .36676579E-02   .23511940E-02   .12977375E-02   .50017228E-03
  -.61956935E-04  -.41843818E-03  -.60466432E-03  -.65832441E-03  -.61661233E-03
 Reciprocal Space Part
  -.23421087E+02  -.23273355E+02  -.22831452E+02  -.22099253E+02  -.21083198E+02
  -.19792270E+02  -.18237952E+02  -.16434181E+02  -.14397273E+02  -.12145841E+02
  -.97006877E+01  -.70846742E+01  -.43225642E+01  -.14408427E+01   .15324956E+01
   .45681853E+01   .76359586E+01   .10704842E+02   .13743479E+02   .16720473E+02
   .19604756E+02   .22365965E+02   .24974835E+02   .27403588E+02   .29626322E+02
   .31619392E+02   .33361764E+02   .34835351E+02   .36025307E+02   .36920290E+02
   .37512663E+02   .37798651E+02   .37778438E+02   .37456193E+02   .36840037E+02
   .35941943E+02   .34777560E+02   .33365982E+02   .31729449E+02   .29892989E+02
   .27884011E+02   .25731855E+02   .23467300E+02   .21122056E+02   .18728225E+02
   .16317773E+02   .13921993E+02   .11570998E+02   .92932264E+01   .71149952E+01
   .50600959E+01   .31494432E+01   .14007868E+01  -.17151112E+00  -.15566273E+01
  -.27473563E+01  -.37401152E+01  -.45348768E+01  -.51350321E+01  -.55471882E+01
  -.57809063E+01  -.58483875E+01  -.57641139E+01  -.55444554E+01  -.52072499E+01
  -.47713697E+01  -.42562818E+01  -.36816139E+01  -.30667355E+01  -.24303627E+01
  -.17901954E+01  -.11625950E+01  -.56230682E+00  -.22338475E-02   .50673618E+00
   .95584746E+00   .13385368E+01   .16504390E+01   .18893393E+01   .20550765E+01
   .21494018E+01   .21757985E+01   .21392691E+01   .20460979E+01   .19035944E+01
   .17198275E+01   .15033557E+01   .12629625E+01   .10074022E+01   .74516327E+00
   .48425446E+00   .23201758E+00  -.50285769E-02  -.22131131E+00  -.41229241E+00
  -.57452147E+00  -.70565470E+00  -.80444084E+00  -.87067655E+00  -.90513442E+00
 Real Space Part
   .63381100E+03   .63319012E+03   .63131750E+03   .62816376E+03   .62368168E+03
   .61780880E+03   .61047088E+03   .60158613E+03   .59107002E+03   .57884057E+03
   .56482374E+03   .54895894E+03   .53120425E+03   .51154126E+03   .48997933E+03
   .46655897E+03   .44135447E+03   .41447533E+03   .38606669E+03   .35630860E+03
   .32541412E+03   .29362636E+03   .26121444E+03   .22846869E+03   .19569489E+03
   .16320811E+03   .13132608E+03   .10036231E+03   .70619333E+02   .42382108E+02
   .15911834E+02  -.85596188E+01  -.30834522E+02  -.50753222E+02  -.68197063E+02
  -.83090262E+02  -.95400666E+02  -.10513942E+03  -.11235956E+03  -.11715360E+03
  -.11965022E+03  -.12001018E+03  -.11842152E+03  -.11509437E+03  -.11025536E+03
  -.10414185E+03  -.96996277E+02  -.89060546E+02  -.80570815E+02  -.71752690E+02
  -.62816995E+02  -.53956169E+02  -.45341390E+02  -.37120431E+02  -.29416281E+02
  -.22326518E+02  -.15923395E+02  -.10254583E+02  -.53445136E+01  -.11962215E+01
   .22063992E+01   .48960255E+01   .69191295E+01   .83330937E+01   .92033167E+01
   .96003976E+01   .95974783E+01   .92678119E+01   .86826086E+01   .79092012E+01
   .70095537E+01   .60391244E+01   .50460814E+01   .40708571E+01   .31460162E+01
   .22964049E+01   .15395420E+01   .88620818E+00   .34118706E+00  -.95888129E-01
  -.42962692E+00  -.66795538E+00  -.82120853E+00  -.90127378E+00  -.92081157E+00
  -.89257293E+00  -.82882753E+00  -.74090914E+00  -.63887981E+00  -.53130903E+00
  -.42515946E+00  -.32576754E+00  -.23690478E+00  -.16090373E+00  -.98832269E-01
  -.50699764E-01  -.15679662E-01   .76653924E-02   .21167912E-01   .26859071E-01
 Non local Part
 1 2 1.18927618932127976
 1.22338086304260707 2.14672215900143470 2.14672215900143470 1.34142492866586371
 Reciprocal Space Part
   .00000000E+00   .23087905E+00   .45959127E+00   .68400091E+00   .90203382E+00
   .11117069E+01   .13111558E+01   .14986608E+01   .16726693E+01   .18318169E+01
   .19749432E+01   .21011058E+01   .22095891E+01   .22999106E+01   .23718221E+01
   .24253074E+01   .24605768E+01   .24780568E+01   .24783780E+01   .24623582E+01
   .24309845E+01   .23853921E+01   .23268417E+01   .22566954E+01   .21763917E+01
   .20874203E+01   .19912973E+01   .18895402E+01   .17836444E+01   .16750614E+01
   .15651783E+01   .14552996E+01   .13466315E+01   .12402685E+01   .11371831E+01
   .10382178E+01   .94408030E+00   .85534161E+00   .77243620E+00   .69566530E+00
   .62520229E+00   .56110016E+00   .50330085E+00   .45164614E+00   .40588965E+00
   .36570986E+00   .33072359E+00   .30049971E+00   .27457284E+00   .25245664E+00
   .23365641E+00   .21768089E+00   .20405296E+00   .19231901E+00   .18205707E+00
   .17288333E+00   .16445728E+00   .15648520E+00   .14872228E+00   .14097322E+00
   .13309153E+00   .12497766E+00   .11657594E+00   .10787080E+00   .98882055E-01
   .89659783E-01   .80278770E-01   .70832776E-01   .61428782E-01   .52181379E-01
   .43207446E-01   .34621242E-01   .26530022E-01   .19030259E-01   .12204534E-01
   .61191437E-02   .82242341E-03  -.36562049E-02  -.73064915E-02  -.10136968E-01
  -.12173970E-01  -.13460135E-01  -.14052480E-01  -.14020125E-01  -.13441776E-01
  -.12403052E-01  -.10993756E-01  -.93051748E-02  -.74274931E-02  -.54473952E-02
  -.34459148E-02  -.14965856E-02   .33606769E-03   .19976745E-02   .34447858E-02
   .46452638E-02   .55783064E-02   .62341281E-02   .66133293E-02   .67259937E-02
 Real Space Part
   .00000000E+00   .13215069E+01   .26294969E+01   .39106933E+01   .51522943E+01
   .63421954E+01   .74691962E+01   .85231847E+01   .94952962E+01   .10378043E+02
   .11165412E+02   .11852928E+02   .12437685E+02   .12918341E+02   .13295078E+02
   .13569538E+02   .13744717E+02   .13824853E+02   .13815270E+02   .13722228E+02
   .13552742E+02   .13314409E+02   .13015219E+02   .12663382E+02   .12267150E+02
   .11834657E+02   .11373774E+02   .10891977E+02   .10396235E+02   .98929241E+01
   .93877615E+01   .88857577E+01   .83911960E+01   .79076300E+01   .74379012E+01
   .69841722E+01   .65479759E+01   .61302751E+01   .57315315E+01   .53517807E+01
   .49907092E+01   .46477329E+01   .43220719E+01   .40128215E+01   .37190165E+01
   .34396875E+01   .31739079E+01   .29208318E+01   .26797209E+01   .24499626E+01
   .22310781E+01   .20227220E+01   .18246746E+01   .16368277E+01   .14591655E+01
   .12917418E+01   .11346558E+01   .98802616E+00   .85196638E+00   .72656170E+00
   .61184854E+00   .50779745E+00   .41429997E+00   .33115985E+00   .25808856E+00
   .19470520E+00   .14054042E+00   .95043957E-01   .57595279E-01   .27516660E-01
   .40880398E-02  -.13437072E-01  -.25815329E-01  -.33797593E-01  -.38113877E-01
  -.39459718E-01  -.38484377E-01  -.35781193E-01  -.31880284E-01  -.27243673E-01
  -.22262838E-01  -.17258560E-01  -.12482876E-01  -.81228831E-02  -.43060697E-02
  -.11068380E-02   .14461418E-02   .33621050E-02   .46802303E-02   .54618535E-02
   .57831268E-02   .57283441E-02   .53841033E-02   .48344194E-02   .41568509E-02
   .34196496E-02   .26798992E-02   .19825694E-02   .13603817E-02   .83435804E-03
 Reciprocal Space Part
   .00000000E+00  -.56102570E+00  -.11037022E+01  -.16102191E+01  -.20638288E+01
  -.24493415E+01  -.27535767E+01  -.29657600E+01  -.30778533E+01  -.30848099E+01
  -.29847467E+01  -.27790293E+01  -.24722679E+01  -.20722225E+01  -.15896218E+01
  -.10378987E+01  -.43285099E+00   .20776432E+00   .86469277E+00   .15176869E+01
   .21460407E+01   .27291393E+01   .32470096E+01   .36808573E+01   .40135754E+01
   .42302116E+01   .43183819E+01   .42686192E+01   .40746487E+01   .37335821E+01
   .32460264E+01   .26161042E+01   .18513852E+01   .96273107E+00  -.35941448E-01
  -.11279743E+01  -.22943490E+01  -.35141250E+01  -.47649242E+01  -.60234495E+01
  -.72660228E+01  -.84691303E+01  -.96099598E+01  -.10666918E+02  -.11620116E+02
  -.12451803E+02  -.13146758E+02  -.13692602E+02  -.14080048E+02  -.14303074E+02
  -.14359016E+02  -.14248574E+02  -.13975752E+02  -.13547709E+02  -.12974543E+02
  -.12269015E+02  -.11446207E+02  -.10523144E+02  -.95183705E+01  -.84515043E+01
  -.73427801E+01  -.62125867E+01  -.50810155E+01  -.39674285E+01  -.28900568E+01
  -.18656391E+01  -.90910620E+00  -.33319509E-01   .75113191E+00   .14360734E+01
   .20158235E+01   .24872107E+01   .28495281E+01   .31044322E+01   .32557875E+01
   .33094653E+01   .32731016E+01   .31558237E+01   .29679526E+01   .27206902E+01
   .24257995E+01   .20952878E+01   .17410990E+01   .13748237E+01   .10074346E+01
   .64905053E+00   .30873683E+00  -.56564782E-02  -.28761534E+00  -.53204026E+00
  -.73528274E+00  -.89514089E+00  -.10108163E+01  -.10828355E+01  -.11129403E+01
  -.11039508E+01  -.10596079E+01  -.98439952E+00  -.88337673E+00  -.76196590E+00
 Real Space Part
   .00000000E+00  -.40768983E+02  -.80817076E+02  -.11943980E+03  -.15596509E+03
  -.18976834E+03  -.22028635E+03  -.24702946E+03  -.26959189E+03  -.28765979E+03
  -.30101700E+03  -.30954818E+03  -.31323950E+03  -.31217675E+03  -.30654097E+03
  -.29660192E+03  -.28270939E+03  -.26528281E+03  -.24479939E+03  -.22178120E+03
  -.19678147E+03  -.17037066E+03  -.14312252E+03  -.11560061E+03  -.88345627E+02
  -.61863814E+02  -.36616718E+02  -.13012581E+02   .86005280E+01   .27939706E+02
   .44790282E+02   .59006963E+02   .70513135E+02   .79298406E+02   .85414582E+02
   .88970239E+02   .90124155E+02   .89077826E+02   .86067334E+02   .81354855E+02
   .75220042E+02   .67951559E+02   .59838986E+02   .51165305E+02   .42200142E+02
   .33193916E+02   .24372978E+02   .15935832E+02   .80504541E+01   .85269586E+00
  -.55542486E+01  -.11099401E+02  -.15742671E+02  -.19472753E+02  -.22304389E+02
  -.24275137E+02  -.25441777E+02  -.25876519E+02  -.25663139E+02  -.24893169E+02
  -.23662271E+02  -.22066874E+02  -.20201171E+02  -.18154528E+02  -.16009350E+02
  -.13839419E+02  -.11708716E+02  -.96707092E+01  -.77680729E+01  -.60328085E+01
  -.44867067E+01  -.31420983E+01  -.20028305E+01  -.10654066E+01  -.32022704E+00
   .24712639E+00   .65461561E+00   .92252746E+00   .10723490E+01   .11257675E+01
   .11038156E+01   .10261760E+01   .91064962E+00   .77278445E+00   .62565820E+00
   .47979930E+00   .34322930E+00   .22160602E+00   .11844568E+00   .35401540E-01
  -.27422356E-01  -.71142450E-01  -.97769691E-01  -.10990130E+00  -.11044224E+00
  -.10236499E+00  -.88513230E-01  -.71451859E-01  -.53363059E-01  -.35985931E-01
 PAW radial sets
 337 0.708915279022619527
(5E20.12)                                
 augmentation charges (non sperical)
  -.121506687787E+00  -.455148147517E-02  -.959423653950E-02   .568235044013E-02  -.455148147517E-02
  -.221294527321E-03   .149257157214E-03   .371551425296E-04  -.959423653950E-02   .149257157214E-03
   .116078371832E+00   .310041503209E-01   .568235044013E-02   .371551425296E-04   .310041503209E-01
   .638391057359E-02
 uccopancies in atom
   .200000000000E+01   .000000000000E+00   .000000000000E+00   .000000000000E+00   .000000000000E+00
   .000000000000E+00   .000000000000E+00   .000000000000E+00   .000000000000E+00   .000000000000E+00
   .999999999728E+00   .000000000000E+00   .000000000000E+00   .000000000000E+00   .000000000000E+00
   .000000000000E+00
 grid
   .280527516333E-04   .289225357721E-04   .298192878340E-04   .307438439676E-04   .316970662468E-04
   .326798434741E-04   .336930920097E-04   .347377566259E-04   .358148113878E-04   .369252605618E-04
   .380701395518E-04   .392505158649E-04   .404674901063E-04   .417221970061E-04   .430158064768E-04
   .443495247045E-04   .457245952736E-04   .471423003259E-04   .486039617567E-04   .501109424469E-04
   .516646475341E-04   .532665257223E-04   .549180706334E-04   .566208221993E-04   .583763680979E-04
   .601863452337E-04   .620524412639E-04   .639763961718E-04   .659600038897E-04   .680051139712E-04
   .701136333158E-04   .722875279473E-04   .745288248462E-04   .768396138405E-04   .792220495539E-04
   .816783534148E-04   .842108157277E-04   .868217978087E-04   .895137341871E-04   .922891348757E-04
   .951505877110E-04   .981007607661E-04   .101142404838E-03   .104278356015E-03   .107511538316E-03
   .110844966423E-03   .114281748487E-03   .117825089030E-03   .121478291928E-03   .125244763500E-03
   .129128015674E-03   .133131669268E-03   .137259457366E-03   .141515228795E-03   .145902951719E-03
   .150426717332E-03   .155090743682E-03   .159899379594E-03   .164857108732E-03   .169968553777E-03
   .175238480738E-03   .180671803396E-03   .186273587883E-03   .192049057411E-03   .198003597136E-03
   .204142759186E-03   .210472267831E-03   .216998024827E-03   .223726114913E-03   .230662811488E-03
   .237814582461E-03   .245188096279E-03   .252790228147E-03   .260628066437E-03   .268708919298E-03
   .277040321473E-03   .285630041319E-03   .294486088053E-03   .303616719224E-03   .313030448405E-03
   .322736053137E-03   .332742583110E-03   .343059368603E-03   .353696029184E-03   .364662482677E-03
   .375968954412E-03   .387625986760E-03   .399644448959E-03   .412035547251E-03   .424810835334E-03
   .437982225128E-03   .451561997889E-03   .465562815655E-03   .479997733055E-03   .494880209481E-03
   .510224121638E-03   .526043776481E-03   .542353924558E-03   .559169773761E-03   .576507003509E-03
   .594381779364E-03   .612810768108E-03   .631811153281E-03   .651400651203E-03   .671597527497E-03
   .692420614113E-03   .713889326894E-03   .736023683677E-03   .758844322957E-03   .782372523134E-03
   .806630222348E-03   .831640038941E-03   .857425292542E-03   .884010025812E-03   .911419026863E-03
   .939677852369E-03   .968812851398E-03   .998851189976E-03   .102982087642E-02   .106175078746E-02
   .109467069516E-02   .112861129465E-02   .116360423281E-02   .119968213770E-02   .123687864907E-02
   .127522844964E-02   .131476729750E-02   .135553205942E-02   .139756074525E-02   .144089254332E-02
   .148556785704E-02   .153162834252E-02   .157911694742E-02   .162807795104E-02   .167855700554E-02
   .173060117855E-02   .178425899706E-02   .183958049263E-02   .189661724807E-02   .195542244556E-02
   .201605091616E-02   .207855919103E-02   .214300555407E-02   .220945009629E-02   .227795477185E-02
   .234858345582E-02   .242140200372E-02   .249647831295E-02   .257388238610E-02   .265368639620E-02
   .273596475402E-02   .282079417747E-02   .290825376313E-02   .299842505997E-02   .309139214544E-02
   .318724170380E-02   .328606310702E-02   .338794849805E-02   .349299287677E-02   .360129418856E-02
   .371295341562E-02   .382807467115E-02   .394676529639E-02   .406913596075E-02   .419530076495E-02
   .432537734748E-02   .445948699420E-02   .459775475151E-02   .474030954290E-02   .488728428917E-02
   .503881603237E-02   .519504606359E-02   .535612005467E-02   .552218819408E-02   .569340532692E-02
   .586993109928E-02   .605193010718E-02   .623957204995E-02   .643303188850E-02   .663249000848E-02
   .683813238844E-02   .705015077324E-02   .726874285286E-02   .749411244673E-02   .772646969374E-02
   .796603124822E-02   .821302048191E-02   .846766769229E-02   .873021031726E-02   .900089315657E-02
   .927996860004E-02   .956769686293E-02   .986434622857E-02   .101701932985E-01   .104855232502E-01
   .108106301035E-01   .111458169942E-01   .114913964569E-01   .118476907164E-01   .122150319883E-01
   .125937627887E-01   .129842362533E-01   .133868164670E-01   .138018788033E-01   .142298102742E-01
   .146710098911E-01   .151258890370E-01   .155948718499E-01   .160783956182E-01   .165769111888E-01
   .170908833870E-01   .176207914503E-01   .181671294750E-01   .187304068773E-01   .193111488675E-01
   .199098969406E-01   .205272093808E-01   .211636617819E-01   .218198475842E-01   .224963786278E-01
   .231938857233E-01   .239130192394E-01   .246544497100E-01   .254188684590E-01   .262069882449E-01
   .270195439257E-01   .278572931437E-01   .287210170323E-01   .296115209441E-01   .305296352018E-01
   .314762158727E-01   .324521455667E-01   .334583342591E-01   .344957201394E-01   .355652704861E-01
   .366679825681E-01   .378048845754E-01   .389770365768E-01   .401855315093E-01   .414314961966E-01
   .427160923999E-01   .440405179010E-01   .454060076197E-01   .468138347644E-01   .482653120201E-01
   .497617927717E-01   .513046723665E-01   .528953894146E-01   .545354271311E-01   .562263147182E-01
   .579696287918E-01   .597669948511E-01   .616200887945E-01   .635306384819E-01   .655004253464E-01
   .675312860547E-01   .696251142200E-01   .717838621675E-01   .740095427550E-01   .763042312493E-01
   .786700672619E-01   .811092567431E-01   .836240740397E-01   .862168640153E-01   .888900442366E-01
   .916461072276E-01   .944876227942E-01   .974172404194E-01   .100437691734E+00   .103551793066E+00
   .106762448061E+00   .110072650395E+00   .113485486565E+00   .117004138763E+00   .120631887848E+00
   .124372116402E+00   .128228311886E+00   .132204069889E+00   .136303097485E+00   .140529216684E+00
   .144886368000E+00   .149378614125E+00   .154010143714E+00   .158785275294E+00   .163708461288E+00
   .168784292168E+00   .174017500736E+00   .179412966535E+00   .184975720401E+00   .190710949150E+00
   .196624000420E+00   .202720387652E+00   .209005795233E+00   .215486083798E+00   .222167295690E+00
   .229055660599E+00   .236157601368E+00   .243479739980E+00   .251028903739E+00   .258812131627E+00
   .266836680875E+00   .275110033725E+00   .283639904409E+00   .292434246341E+00   .301501259532E+00
   .310849398238E+00   .320487378843E+00   .330424187982E+00   .340669090926E+00   .351231640216E+00
   .362121684576E+00   .373349378090E+00   .384925189674E+00   .396859912833E+00   .409164675732E+00
   .421850951565E+00   .434930569259E+00   .448415724497E+00   .462318991095E+00   .476653332723E+00
   .491432114994E+00   .506669117928E+00   .522378548794E+00   .538575055366E+00   .555273739575E+00
   .572490171592E+00   .590240404346E+00   .608540988491E+00   .627408987842E+00   .646861995280E+00
   .666918149159E+00   .687596150219E+00   .708915279023E+00   .730895413931E+00   .753557049641E+00
   .776921316292E+00   .801009999172E+00
 aepotential
   .363639741525E+05   .353486988431E+05   .343218421719E+05   .332873506987E+05   .322493425013E+05
   .312116817821E+05   .301779824554E+05   .291515900552E+05   .281355719873E+05   .271327122522E+05
   .261455097070E+05   .251761801616E+05   .242266612837E+05   .232986206673E+05   .223934661094E+05
   .215123579591E+05   .206562230842E+05   .198257700763E+05   .190215053474E+05   .182437497397E+05
   .174926553864E+05   .167682225150E+05   .160703159665E+05   .153986812261E+05   .147529597911E+05
   .141327037385E+05   .135373894181E+05   .129664301650E+05   .124191880122E+05   .118949843633E+05
   .113931096827E+05   .109128321163E+05   .104534052295E+05   .100140747189E+05   .959408436168E+04
   .919268105970E+04   .880911918884E+04   .844266424842E+04   .809259589992E+04   .775821039989E+04
   .743882261121E+04   .713376751399E+04   .684240134668E+04   .656410242701E+04   .629827164939E+04
   .604433276833E+04   .580173243593E+04   .556994011018E+04   .534844775879E+04   .513676946601E+04
   .493444100413E+04   .474101918523E+04   .455608133122E+04   .437922451875E+04   .421006498213E+04
   .404823730666E+04   .389339377076E+04   .374520359187E+04   .360335219401E+04   .346754051519E+04
   .333748429799E+04   .321291338902E+04   .309357108986E+04   .297921350116E+04   .286960890600E+04
   .276453716092E+04   .266378912080E+04   .256716609088E+04   .247447928324E+04   .238554932784E+04
   .230020577148E+04   .221828663647E+04   .213963796492E+04   .206411341185E+04   .199157384772E+04
   .192188698360E+04   .185492700868E+04   .179057426100E+04   .172871489759E+04   .166924060140E+04
   .161204828066E+04   .155703980758E+04   .150412175443E+04   .145320515704E+04   .140420526364E+04
   .135704135019E+04   .131163647545E+04   .126791731834E+04   .122581396868E+04   .118525976774E+04
   .114619113374E+04   .110854740959E+04   .107227071448E+04   .103730579901E+04   .100359991984E+04
   .971102708549E+03   .939766055312E+03   .909543996388E+03   .880392605856E+03   .852269898434E+03
   .825135730040E+03   .798951711238E+03   .773681119698E+03   .749288819036E+03   .725741183375E+03
   .703006024362E+03   .681052521465E+03   .659851157598E+03   .639373657217E+03   .619592927130E+03
   .600483001830E+03   .582018989710E+03   .564177023819E+03   .546934214176E+03   .530268602534E+03
   .514159120016E+03   .498585546066E+03   .483528470409E+03   .468969255931E+03   .454890004293E+03
   .441273522745E+03   .428103292723E+03   .415363439803E+03   .403038705661E+03   .391114420680E+03
   .379576478711E+03   .368411312191E+03   .357605868845E+03   .347147590092E+03   .337024389275E+03
   .327224631997E+03   .317737116800E+03   .308551056886E+03   .299656062835E+03   .291042125975E+03
   .282699602499E+03   .274619198521E+03   .266791955511E+03   .259209236639E+03   .251862713713E+03
   .244744354458E+03   .237846410836E+03   .231161407375E+03   .224682130329E+03   .218401617250E+03
   .212313147000E+03   .206410230161E+03   .200686599981E+03   .195136203508E+03   .189753193401E+03
   .184531919758E+03   .179466922520E+03   .174552924136E+03   .169784822509E+03   .165157684250E+03
   .160666738222E+03   .156307369361E+03   .152075112703E+03   .147965647713E+03   .143974792800E+03
   .140098500097E+03   .136332850405E+03   .132674048320E+03   .129118417754E+03   .125662397229E+03
   .122302535831E+03   .119035488956E+03   .115858014436E+03   .112766968678E+03   .109759303081E+03
   .106832060482E+03   .103982371805E+03   .101207452823E+03   .985046010377E+02   .958711926753E+02
   .933046798103E+02   .908025876049E+02   .883625116361E+02   .859821153174E+02   .836591274767E+02
   .813913399403E+02   .791766052946E+02   .770128346760E+02   .748979956694E+02   .728301103007E+02
   .708072530777E+02   .688275491452E+02   .668891724779E+02   .649903441822E+02   .631293308353E+02
   .613044429175E+02   .595140333034E+02   .577564958085E+02   .560302638159E+02   .543338089527E+02
   .526656398285E+02   .510243008416E+02   .494083710310E+02   .478164629940E+02   .462472218524E+02
   .446993242848E+02   .431714775948E+02   .416624188544E+02   .401709140744E+02   .386957574524E+02
   .372357706445E+02   .357898021135E+02   .343567265021E+02   .329354440718E+02   .315248801825E+02
   .301239848158E+02   .287317321592E+02   .273471202133E+02   .259691704701E+02   .245969276151E+02
   .232294592857E+02   .218658558680E+02   .205052303380E+02   .191467181433E+02   .177894771268E+02
   .164326874903E+02   .150755517980E+02   .137172950157E+02   .123571645916E+02   .109944305686E+02
   .962838573530E+01   .825834580743E+01   .688364964536E+01   .550365950006E+01   .411776129127E+01
   .272536491297E+01   .132590456771E+01  -.811608726201E-01  -.149634748076E+01  -.292014586199E+01
  -.435302071851E+01  -.579541038874E+01  -.724772636160E+01  -.871035276612E+01  -.101836458321E+02
  -.116679333222E+02  -.131635139298E+02  -.146706566387E+02  -.161896000369E+02  -.177205515777E+02
  -.192636867748E+02  -.208191483196E+02  -.223870451014E+02  -.239674511108E+02  -.255604041983E+02
  -.271659046567E+02  -.287839135878E+02  -.304143510061E+02  -.320570936226E+02  -.337119722409E+02
  -.353787686852E+02  -.370572121637E+02  -.387469749575E+02  -.404476673028E+02  -.421588313190E+02
  -.438799338088E+02  -.456103577416E+02  -.473493922075E+02  -.490962206156E+02  -.508499069039E+02
  -.526093795307E+02  -.543734130444E+02  -.561406070829E+02  -.579093627492E+02  -.596778564634E+02
  -.614440116193E+02  -.632054686969E+02  -.649595549163E+02  -.667032550900E+02  -.684331860342E+02
  -.701455777437E+02  -.718362654769E+02  -.735006978979E+02  -.751339673772E+02  -.767308693647E+02
  -.782859982940E+02  -.797938876916E+02  -.812492020575E+02  -.826469878511E+02  -.839829910573E+02
  -.852540490827E+02  -.864585671912E+02  -.875970892780E+02  -.886729693113E+02  -.896931274595E+02
  -.906688133867E+02  -.916161615546E+02  -.925560698026E+02  -.935125585017E+02  -.945084003335E+02
  -.955568564711E+02  -.966495565018E+02  -.977435752368E+02  -.987548956466E+02  -.995673584555E+02
  -.100061379620E+03  -.100154992533E+03  -.998385173631E+02  -.991826926026E+02  -.983122581877E+02
  -.973581436293E+02  -.964160582281E+02  -.955317704410E+02  -.947111132488E+02  -.939390886823E+02
  -.931953467187E+02  -.924622718412E+02  -.917274076175E+02  -.909830054766E+02  -.902246341771E+02
  -.894498046272E+02  -.886569511579E+02  -.878448120816E+02  -.870121334636E+02  -.861575898467E+02
  -.852798259845E+02  -.843775489340E+02  -.834496263823E+02  -.824951684779E+02  -.815135848938E+02
  -.805046170962E+02  -.794683496812E+02  -.784052057147E+02  -.773159306962E+02  -.762015689104E+02
  -.750634350168E+02  -.739030826194E+02  -.727222713575E+02  -.715229330450E+02  -.703071374144E+02
  -.690770577969E+02  -.678349366580E+02
 core charge-density
   .378166384757E-05   .401938221399E-05   .427204066085E-05   .454057784405E-05   .482599136570E-05
   .512934147321E-05   .545175499020E-05   .579442949387E-05   .615863775415E-05   .654573245093E-05
   .695715118702E-05   .739442181501E-05   .785916809796E-05   .835311572453E-05   .887809870087E-05
   .943606614281E-05   .100290894932E-04   .106593701912E-04   .113292478214E-04   .120412087736E-04
   .127978954431E-04   .136021160083E-04   .144568548188E-04   .153652834335E-04   .163307723491E-04
   .173569034617E-04   .184474833077E-04   .196065571320E-04   .208384238353E-04   .221476518555E-04
   .235390960405E-04   .250179155760E-04   .265895930308E-04   .282599545926E-04   .300351915660E-04
   .319218832115E-04   .339270210099E-04   .360580344392E-04   .383228183591E-04   .407297621019E-04
   .432877803764E-04   .460063460970E-04   .488955252567E-04   .519660139717E-04   .552291778313E-04
   .586970936959E-04   .623825940948E-04   .662993143841E-04   .704617428360E-04   .748852738393E-04
   .795862644046E-04   .845820941769E-04   .898912291720E-04   .955332894673E-04   .101529121088E-03
   .107900872352E-03   .114672074936E-03   .121867729970E-03   .129514399458E-03   .137640303344E-03
   .146275422593E-03   .155451608631E-03   .165202699543E-03   .175564643455E-03   .186575629507E-03
   .198276226915E-03   .210709532591E-03   .223921327859E-03   .237960244800E-03   .252877942839E-03
   .268729296164E-03   .285572592666E-03   .303469745067E-03   .322486515002E-03   .342692750813E-03
   .364162639902E-03   .386974976500E-03   .411213445807E-03   .436966925455E-03   .464329805358E-03
   .493402327040E-03   .524290943604E-03   .557108701578E-03   .591975645945E-03   .629019249726E-03
   .668374869583E-03   .710186228981E-03   .754605930542E-03   .801795999301E-03   .851928458704E-03
   .905185941259E-03   .961762335868E-03   .102186347400E-02   .108570785696E-02   .115352742663E-02
   .122556838226E-02   .130209204591E-02   .138337577935E-02   .146971395547E-02   .156141898719E-02
   .165882241729E-02   .176227607249E-02   .187215328560E-02   .198885018939E-02   .211278708638E-02
   .224440989875E-02   .238419170285E-02   .253263435297E-02   .269027019941E-02   .285766390598E-02
   .303541437236E-02   .322415676715E-02   .342456467750E-02   .363735238163E-02   .386327725094E-02
   .410314228842E-02   .435779881085E-02   .462814928203E-02   .491515030523E-02   .521981578291E-02
   .554322025240E-02   .588650240652E-02   .625086880843E-02   .663759781052E-02   .704804368736E-02
   .748364099335E-02   .794590915589E-02   .843645731536E-02   .895698942371E-02   .950930961369E-02
   .100953278512E-01   .107170658839E-01   .113766634985E-01   .120763851020E-01   .128186266388E-01
   .136059228594E-01   .144409549552E-01   .153265585731E-01   .162657322265E-01   .172616461172E-01
   .183176513830E-01   .194372897880E-01   .206243038695E-01   .218826475581E-01   .232164972855E-01
   .246302635953E-01   .261286032715E-01   .277164319986E-01   .293989375669E-01   .311815936358E-01
   .330701740666E-01   .350707678356E-01   .371897945364E-01   .394340204794E-01   .418105753938E-01
   .443269697359E-01   .469911126043E-01   .498113302613E-01   .527963852542E-01   .559554961287E-01
   .592983577222E-01   .628351620189E-01   .665766195451E-01   .705339812770E-01   .747190610268E-01
   .791442582658E-01   .838225813376E-01   .887676710020E-01   .939938242464E-01   .995160182871E-01
   .105349934674E+00   .111511983402E+00   .118019326912E+00   .124889903864E+00   .132142452534E+00
   .139796533688E+00   .147872552742E+00   .156391781033E+00   .165376375983E+00   .174849399906E+00
   .184834837227E+00   .195357609811E+00   .206443590098E+00   .218119611727E+00   .230413477255E+00
   .243353962607E+00   .256970817822E+00   .271294763636E+00   .286357483419E+00   .302191609933E+00
   .318830706372E+00   .336309241058E+00   .354662555192E+00   .373926822969E+00   .394139003372E+00
   .415336782889E+00   .437558508392E+00   .460843109360E+00   .485230008624E+00   .510759020751E+00
   .537470237197E+00   .565403897303E+00   .594600244233E+00   .625099364900E+00   .656941012977E+00
   .690164414050E+00   .724808052028E+00   .760909435932E+00   .798504846243E+00   .837629060032E+00
   .878315054192E+00   .920593686163E+00   .964493351671E+00   .101003961913E+01   .105725484051E+01
   .110615773869E+01   .115676297144E+01   .120908067261E+01   .126311597105E+01   .131886848851E+01
   .137633181772E+01   .143549298248E+01   .149633188186E+01   .155882072117E+01   .162292343267E+01
   .168859508975E+01   .175578131859E+01   .182441771210E+01   .189442925138E+01   .196572974067E+01
   .203822126243E+01   .211179365968E+01   .218632405344E+01   .226167640400E+01   .233770112491E+01
   .241423475950E+01   .249109973027E+01   .256810417178E+01   .264504185819E+01   .272169223696E+01
   .279782058021E+01   .287317826544E+01   .294750319715E+01   .302052038044E+01   .309194265750E+01
   .316147161666E+01   .322879868312E+01   .329360639899E+01   .335556989863E+01   .341435858370E+01
   .346963799983E+01   .352107191457E+01   .356832459326E+01   .361106326663E+01   .364896078013E+01
   .368169841153E+01   .370896883948E+01   .373047924128E+01   .374595449408E+01   .375514044920E+01
   .375780724509E+01   .375375261983E+01   .374280518040E+01   .372482758171E+01   .369971956525E+01
   .366742080426E+01   .362791350021E+01   .358122467382E+01   .352742809355E+01   .346664578522E+01
   .339904906800E+01   .332485906545E+01   .324434664489E+01   .315783174432E+01   .306568205413E+01
   .296831102995E+01   .286617522395E+01   .275977093447E+01   .264963018743E+01   .253631607809E+01
   .242041751766E+01   .230254344544E+01   .218331658354E+01   .206336682733E+01   .194332437785E+01
   .182381274100E+01   .170544171472E+01   .158880050993E+01   .147445114069E+01   .136292222279E+01
   .125470331188E+01   .115023989871E+01   .104992915545E+01   .954116492060E+00   .863092930985E+00
   .777093246588E+00   .696294757090E+00   .620816638218E+00   .550719698696E+00   .486006745643E+00
   .426623916802E+00   .372463504183E+00   .323368663209E+00   .279139964416E+00   .239543195086E+00
   .204317468497E+00   .173182769327E+00   .145846494262E+00   .122009020820E+00   .101368570213E+00
   .836255977702E-01   .684868026748E-01   .556687339940E-01   .449009229172E-01   .359284740988E-01
   .285140746905E-01   .224394102278E-01   .175060040292E-01   .135355187265E-01   .103695748506E-01
   .786915260934E-02   .591364975020E-02   .439967123087E-02   .323962578827E-02   .236020085325E-02
   .170078111056E-02   .121186792537E-02   .853547471704E-03   .594045345389E-03   .408395332007E-03
   .277240368983E-03   .185775024687E-03   .122831330663E-03   .801037312383E-04   .515043216509E-04
   .326363884425E-04   .203724167859E-04
 kinetic energy-density
   .532955807213E-01   .540205706616E-01   .547722478392E-01   .555517135887E-01   .563601491850E-01
   .571988017377E-01   .580689880635E-01   .589720973273E-01   .599095940565E-01   .608830213004E-01
   .618940040930E-01   .629442529804E-01   .640355679050E-01   .651698423542E-01   .663490677411E-01
   .675753381164E-01   .688508552289E-01   .701779339175E-01   .715590078974E-01   .729966359175E-01
   .744935083777E-01   .760524543607E-01   .776764491609E-01   .793686222735E-01   .811322659457E-01
   .829708442599E-01   .848880027939E-01   .868875788931E-01   .889736126049E-01   .911503582530E-01
   .934222967647E-01   .957941487592E-01   .982708883705E-01   .100857758005E+00   .103560283916E+00
   .106384292764E+00   .109335929155E+00   .112421674248E+00   .115648365476E+00   .119023217450E+00
   .122553844137E+00   .126248282351E+00   .130115016669E+00   .134163005840E+00   .138401710779E+00
   .142841124290E+00   .147491802475E+00   .152364898191E+00   .157472196329E+00   .162826151454E+00
   .168439927448E+00   .174327439850E+00   .180503400465E+00   .186983364828E+00   .193783782582E+00
   .200922050681E+00   .208416570161E+00   .216286805914E+00   .224553350521E+00   .233237991550E+00
   .242363783296E+00   .251955122523E+00   .262037829078E+00   .272639231179E+00   .283788255980E+00
   .295515525606E+00   .307853458954E+00   .320836379704E+00   .334500630828E+00   .348884696090E+00
   .364029328800E+00   .379977688433E+00   .396775485459E+00   .414471134974E+00   .433115919557E+00
   .452764161922E+00   .473473408160E+00   .495304621791E+00   .518322389680E+00   .542595140329E+00
   .568195375209E+00   .595199914122E+00   .623690155173E+00   .653752350630E+00   .685477898834E+00
   .718963654119E+00   .754312254945E+00   .791632471980E+00   .831039576244E+00   .872655730526E+00
   .916610402562E+00   .963040804090E+00   .101209235531E+01   .106391917711E+01   .111868461243E+01
   .117656177861E+01   .123773415216E+01   .130239618820E+01   .137075397625E+01   .144302593472E+01
   .151944354598E+01   .160025213461E+01   .168571169098E+01   .177609774301E+01   .187170227860E+01
   .197283472144E+01   .207982296365E+01   .219301445770E+01   .231277737157E+01   .243950180997E+01
   .257360110572E+01   .271551318482E+01   .286570200926E+01   .302465910161E+01   .319290515605E+01
   .337099173998E+01   .355950309131E+01   .375905801630E+01   .397031189301E+01   .419395878612E+01
   .443073367828E+01   .468141482455E+01   .494682623529E+01   .522784029453E+01   .552538052014E+01
   .584042447259E+01   .617400681977E+01   .652722256462E+01   .690123044424E+01   .729725650680E+01
   .771659787607E+01   .816062671058E+01   .863079436651E+01   .912863577327E+01   .965577403014E+01
   .102139252338E+02   .108049035457E+02   .114306265083E+02   .120931206211E+02   .127945271843E+02
   .135371084210E+02   .143232538877E+02   .151554871811E+02   .160364729531E+02   .169690242410E+02
   .179561101239E+02   .190008637122E+02   .201065904795E+02   .212767769455E+02   .225150997148E+02
   .238254348796E+02   .252118677913E+02   .266787032057E+02   .282304758039E+02   .298719610918E+02
   .316081866777E+02   .334444439258E+02   .353862999836E+02   .374396101739E+02   .396105307455E+02
   .419055319696E+02   .443314115657E+02   .468953084409E+02   .496047167162E+02   .524675000169E+02
   .554919059887E+02   .586865810095E+02   .620605850458E+02   .656234066089E+02   .693849777495E+02
   .733556890302E+02   .775464043971E+02   .819684758736E+02   .866337579780E+02   .915546217685E+02
   .967439683954E+02   .102215242038E+03   .107982442083E+03   .114060134397E+03   .120463461516E+03
   .127208151572E+03   .134310525764E+03   .141787504137E+03   .149656609450E+03   .157935968866E+03
   .166644313191E+03   .175800973371E+03   .185425873917E+03   .195539522925E+03   .206162998326E+03
   .217317929985E+03   .229026477228E+03   .241311301375E+03   .254195532823E+03   .267702732198E+03
   .281856845083E+03   .296682149797E+03   .312203197701E+03   .328444745462E+03   .345431678732E+03
   .363188926639E+03   .381741366540E+03   .401113718424E+03   .421330428409E+03   .442415540748E+03
   .464392557808E+03   .487284287484E+03   .511112677568E+03   .535898636616E+03   .561661840940E+03
   .588420527387E+03   .616191271692E+03   .644988752230E+03   .674825499185E+03   .705711629200E+03
   .737654565797E+03   .770658745967E+03   .804725313553E+03   .839851800254E+03   .876031795293E+03
   .913254605067E+03   .951504904362E+03   .990762381008E+03   .103100137618E+04   .107219052287E+04
   .111429238545E+04   .115726310350E+04   .120105204370E+04   .124560146359E+04   .129084619189E+04
   .133671332989E+04   .138312197938E+04   .142998300250E+04   .147719881949E+04   .152466325047E+04
   .157226140789E+04   .161986964607E+04   .166735557495E+04   .171457814473E+04   .176138780835E+04
   .180762676863E+04   .185312931642E+04   .189772226607E+04   .194122549371E+04   .198345258349E+04
   .202421158569E+04   .206330589018E+04   .210053521700E+04   .213569672495E+04   .216858623732E+04
   .219899958226E+04   .222673404372E+04   .225158991653E+04   .227337215748E+04   .229189212179E+04
   .230696937243E+04   .231843354711E+04   .232612626573E+04   .232990305882E+04   .232963529517E+04
   .232521208521E+04   .231654213438E+04   .230355551986E+04   .228620536203E+04   .226446936184E+04
   .223835117417E+04   .220788158781E+04   .217311948251E+04   .213415253506E+04   .209109764743E+04
   .204410107233E+04   .199333821376E+04   .193901308358E+04   .188135739848E+04   .182062930602E+04
   .175711173286E+04   .169111035384E+04   .162295118589E+04   .155297781738E+04   .148154829067E+04
   .140903166324E+04   .133580428167E+04   .126224581224E+04   .118873507723E+04   .111564580054E+04
   .104334219459E+04   .972174747616E+03   .902475983529E+03   .834556504451E+03   .768701335191E+03
   .705166689134E+03   .644177277570E+03   .585924312584E+03   .530564394027E+03   .478219504178E+03
   .428978305256E+03   .382898750697E+03   .340011596025E+03   .300323789355E+03   .263820298345E+03
   .230463266369E+03   .200188731532E+03   .172902844909E+03   .148480362653E+03   .126767390522E+03
   .107588271142E+03   .907544509077E+02   .760726014073E+02   .633504173410E+02   .524001100015E+02
   .430404409556E+02   .350980932873E+02   .284087987970E+02   .228183342126E+02   .181833598131E+02
   .143720450906E+02   .112644434187E+02   .875260471254E+01   .674043770626E+01   .514334865856E+01
   .388769191001E+01   .291007156436E+01   .215653420246E+01   .158169104272E+01   .114780500860E+01
   .823874180193E+00   .584738414580E+00   .410230804412E+00   .284390384711E+00   .194747360857E+00
   .131687353469E+00   .878969294607E-01   .578891464484E-01   .376050503557E-01   .240850449435E-01
   .152027566505E-01   .945336870830E-02
 pspotential
  -.106455265800E+03  -.106454371816E+03  -.106453504716E+03  -.106452663691E+03  -.106451847958E+03
  -.106451056756E+03  -.106450289347E+03  -.106449545015E+03  -.106448823067E+03  -.106448122828E+03
  -.106447443648E+03  -.106446784891E+03  -.106446145944E+03  -.106445526212E+03  -.106444925115E+03
  -.106444342094E+03  -.106443776604E+03  -.106443228120E+03  -.106442696128E+03  -.106442180134E+03
  -.106441679655E+03  -.106441194226E+03  -.106440723392E+03  -.106440266717E+03  -.106439823773E+03
  -.106439394147E+03  -.106438977440E+03  -.106438573262E+03  -.106438181236E+03  -.106437800996E+03
  -.106437432189E+03  -.106437074469E+03  -.106436727505E+03  -.106436390970E+03  -.106436064553E+03
  -.106435747949E+03  -.106435440861E+03  -.106435143004E+03  -.106434854100E+03  -.106434573879E+03
  -.106434302080E+03  -.106434038449E+03  -.106433782740E+03  -.106433534715E+03  -.106433294142E+03
  -.106433060796E+03  -.106432834460E+03  -.106432614923E+03  -.106432401979E+03  -.106432195430E+03
  -.106431995083E+03  -.106431800751E+03  -.106431612252E+03  -.106431429410E+03  -.106431252054E+03
  -.106431080018E+03  -.106430913143E+03  -.106430751270E+03  -.106430594250E+03  -.106430441936E+03
  -.106430294184E+03  -.106430150856E+03  -.106430011819E+03  -.106429876941E+03  -.106429746096E+03
  -.106429619163E+03  -.106429496021E+03  -.106429376554E+03  -.106429260652E+03  -.106429148204E+03
  -.106429039105E+03  -.106428933252E+03  -.106428830545E+03  -.106428730887E+03  -.106428634184E+03
  -.106428540345E+03  -.106428449281E+03  -.106428360904E+03  -.106428275132E+03  -.106428191883E+03
  -.106428111076E+03  -.106428032635E+03  -.106427956485E+03  -.106427882552E+03  -.106427810766E+03
  -.106427741056E+03  -.106427673355E+03  -.106427607597E+03  -.106427543719E+03  -.106427481656E+03
  -.106427421349E+03  -.106427362736E+03  -.106427305761E+03  -.106427250365E+03  -.106427196493E+03
  -.106427144089E+03  -.106427093101E+03  -.106427043476E+03  -.106426995161E+03  -.106426948106E+03
  -.106426902261E+03  -.106426857576E+03  -.106426814004E+03  -.106426771495E+03  -.106426730003E+03
  -.106426689480E+03  -.106426649880E+03  -.106426611156E+03  -.106426573262E+03  -.106426536152E+03
  -.106426499781E+03  -.106426464101E+03  -.106426429068E+03  -.106426394634E+03  -.106426360753E+03
  -.106426327378E+03  -.106426294462E+03  -.106426261956E+03  -.106426229812E+03  -.106426197980E+03
  -.106426166409E+03  -.106426135048E+03  -.106426103843E+03  -.106426072741E+03  -.106426041686E+03
  -.106426010620E+03  -.106425979485E+03  -.106425948218E+03  -.106425916758E+03  -.106425885038E+03
  -.106425852990E+03  -.106425820543E+03  -.106425787624E+03  -.106425754155E+03  -.106425720057E+03
  -.106425685244E+03  -.106425649630E+03  -.106425613121E+03  -.106425575620E+03  -.106425537027E+03
  -.106425497234E+03  -.106425456128E+03  -.106425413592E+03  -.106425369499E+03  -.106425323719E+03
  -.106425276112E+03  -.106425226531E+03  -.106425174822E+03  -.106425120820E+03  -.106425064352E+03
  -.106425005235E+03  -.106424943275E+03  -.106424878266E+03  -.106424809991E+03  -.106424738219E+03
  -.106424662705E+03  -.106424583191E+03  -.106424499402E+03  -.106424411047E+03  -.106424317818E+03
  -.106424219385E+03  -.106424115403E+03  -.106424005501E+03  -.106423889288E+03  -.106423766348E+03
  -.106423636241E+03  -.106423498497E+03  -.106423352619E+03  -.106423198079E+03  -.106423034316E+03
  -.106422860732E+03  -.106422676697E+03  -.106422481536E+03  -.106422274535E+03  -.106422054937E+03
  -.106421821933E+03  -.106421574669E+03  -.106421312233E+03  -.106421033658E+03  -.106420737917E+03
  -.106420423919E+03  -.106420090501E+03  -.106419736432E+03  -.106419360401E+03  -.106418961016E+03
  -.106418536797E+03  -.106418086171E+03  -.106417607468E+03  -.106417098910E+03  -.106416558610E+03
  -.106415984562E+03  -.106415374635E+03  -.106414726561E+03  -.106414037933E+03  -.106413306191E+03
  -.106412528615E+03  -.106411702313E+03  -.106410824214E+03  -.106409891051E+03  -.106408899354E+03
  -.106407845433E+03  -.106406725368E+03  -.106405534993E+03  -.106404269878E+03  -.106402925319E+03
  -.106401496312E+03  -.106399977541E+03  -.106398363358E+03  -.106396647757E+03  -.106394824358E+03
  -.106392886378E+03  -.106390826612E+03  -.106388637400E+03  -.106386310602E+03  -.106383837569E+03
  -.106381209110E+03  -.106378415456E+03  -.106375446228E+03  -.106372290396E+03  -.106368936240E+03
  -.106365371305E+03  -.106361582359E+03  -.106357555341E+03  -.106353275312E+03  -.106348726398E+03
  -.106343891735E+03  -.106338753406E+03  -.106333292377E+03  -.106327488425E+03  -.106321320069E+03
  -.106314764489E+03  -.106307797447E+03  -.106300393197E+03  -.106292524392E+03  -.106284161990E+03
  -.106275275145E+03  -.106265831104E+03  -.106255795084E+03  -.106245130152E+03  -.106233797096E+03
  -.106221754286E+03  -.106208957525E+03  -.106195359903E+03  -.106180911627E+03  -.106165559852E+03
  -.106149248500E+03  -.106131918067E+03  -.106113505422E+03  -.106093943594E+03  -.106073161548E+03
  -.106051083944E+03  -.106027630896E+03  -.106002717701E+03  -.105976254569E+03  -.105948146332E+03
  -.105918292138E+03  -.105886585131E+03  -.105852912117E+03  -.105817153212E+03  -.105779181469E+03
  -.105738862498E+03  -.105696054053E+03  -.105650605611E+03  -.105602357929E+03  -.105551142575E+03
  -.105496781442E+03  -.105439086237E+03  -.105377857946E+03  -.105312886269E+03  -.105243949031E+03
  -.105170811563E+03  -.105093226043E+03  -.105010930807E+03  -.104923649617E+03  -.104831090880E+03
  -.104732946827E+03  -.104628892621E+03  -.104518585419E+03  -.104401663349E+03  -.104277744424E+03
  -.104146425359E+03  -.104007280303E+03  -.103859859475E+03  -.103703687686E+03  -.103538262773E+03
  -.103363053917E+03  -.103177499884E+03  -.102981007186E+03  -.102772948213E+03  -.102552659371E+03
  -.102319439311E+03  -.102072547329E+03  -.101811202079E+03  -.101534580754E+03  -.101241818940E+03
  -.100932011391E+03  -.100604214002E+03  -.100257447322E+03  -.998907019350E+02  -.995029460926E+02
  -.990931359308E+02  -.986602285648E+02  -.982031982611E+02  -.977210557282E+02  -.972128703619E+02
  -.966777950135E+02  -.961150925380E+02  -.955241630360E+02  -.949045703672E+02  -.942560662127E+02
  -.935786097511E+02  -.928723809220E+02  -.921377853161E+02  -.913754489634E+02  -.905862016826E+02
  -.897710481657E+02  -.889311265601E+02  -.880676549190E+02  -.871818664833E+02  -.862749353370E+02
  -.853478945798E+02  -.844015498812E+02  -.834363922279E+02  -.824525149645E+02  -.814495419356E+02
  -.804265756856E+02  -.793821773395E+02  -.783143932711E+02  -.772084941674E+02  -.761164814644E+02
  -.750111727854E+02  -.738685641877E+02  -.726911930086E+02  -.715228356567E+02  -.703252371373E+02
  -.690945353045E+02  -.678379967399E+02
 core charge-density (pseudized)
   .000000000000E+00   .000000000000E+00   .000000000000E+00   .000000000000E+00   .000000000000E+00
   .000000000000E+00   .000000000000E+00   .000000000000E+00   .000000000000E+00   .000000000000E+00
   .000000000000E+00   .000000000000E+00   .000000000000E+00   .000000000000E+00   .000000000000E+00
   .000000000000E+00   .000000000000E+00   .000000000000E+00   .000000000000E+00   .000000000000E+00
   .000000000000E+00   .000000000000E+00   .000000000000E+00   .000000000000E+00   .000000000000E+00
   .000000000000E+00   .000000000000E+00   .000000000000E+00   .000000000000E+00   .000000000000E+00
   .000000000000E+00   .000000000000E+00   .000000000000E+00   .000000000000E+00   .000000000000E+00
   .000000000000E+00   .000000000000E+00   .000000000000E+00   .000000000000E+00   .000000000000E+00
   .000000000000E+00   .000000000000E+00   .000000000000E+00   .000000000000E+00   .000000000000E+00
   .000000000000E+00   .000000000000E+00   .000000000000E+00   .000000000000E+00   .000000000000E+00
   .000000000000E+00   .000000000000E+00   .000000000000E+00   .000000000000E+00   .000000000000E+00
   .000000000000E+00   .000000000000E+00   .000000000000E+00   .000000000000E+00   .000000000000E+00
   .000000000000E+00   .000000000000E+00   .000000000000E+00   .000000000000E+00   .000000000000E+00
   .000000000000E+00   .000000000000E+00   .000000000000E+00   .000000000000E+00   .000000000000E+00
   .000000000000E+00   .000000000000E+00   .000000000000E+00   .000000000000E+00   .000000000000E+00
   .000000000000E+00   .000000000000E+00   .000000000000E+00   .000000000000E+00   .000000000000E+00
   .000000000000E+00   .000000000000E+00   .000000000000E+00   .000000000000E+00   .000000000000E+00
   .000000000000E+00   .000000000000E+00   .000000000000E+00   .000000000000E+00   .000000000000E+00
   .000000000000E+00   .000000000000E+00   .000000000000E+00   .000000000000E+00   .000000000000E+00
   .000000000000E+00   .000000000000E+00   .000000000000E+00   .000000000000E+00   .000000000000E+00
   .000000000000E+00   .000000000000E+00   .000000000000E+00   .000000000000E+00   .000000000000E+00
   .000000000000E+00   .000000000000E+00   .000000000000E+00   .000000000000E+00   .000000000000E+00
   .000000000000E+00   .000000000000E+00   .000000000000E+00   .000000000000E+00   .000000000000E+00
   .000000000000E+00   .000000000000E+00   .000000000000E+00   .000000000000E+00   .000000000000E+00
   .000000000000E+00   .000000000000E+00   .000000000000E+00   .000000000000E+00   .000000000000E+00
   .000000000000E+00   .000000000000E+00   .000000000000E+00   .000000000000E+00   .000000000000E+00
   .000000000000E+00   .000000000000E+00   .000000000000E+00   .000000000000E+00   .000000000000E+00
   .000000000000E+00   .000000000000E+00   .000000000000E+00   .000000000000E+00   .000000000000E+00
   .000000000000E+00   .000000000000E+00   .000000000000E+00   .000000000000E+00   .000000000000E+00
   .000000000000E+00   .000000000000E+00   .000000000000E+00   .000000000000E+00   .000000000000E+00
   .000000000000E+00   .000000000000E+00   .000000000000E+00   .000000000000E+00   .000000000000E+00
   .000000000000E+00   .000000000000E+00   .000000000000E+00   .000000000000E+00   .000000000000E+00
   .000000000000E+00   .000000000000E+00   .000000000000E+00   .000000000000E+00   .000000000000E+00
   .000000000000E+00   .000000000000E+00   .000000000000E+00   .000000000000E+00   .000000000000E+00
   .000000000000E+00   .000000000000E+00   .000000000000E+00   .000000000000E+00   .000000000000E+00
   .000000000000E+00   .000000000000E+00   .000000000000E+00   .000000000000E+00   .000000000000E+00
   .000000000000E+00   .000000000000E+00   .000000000000E+00   .000000000000E+00   .000000000000E+00
   .000000000000E+00   .000000000000E+00   .000000000000E+00   .000000000000E+00   .000000000000E+00
   .000000000000E+00   .000000000000E+00   .000000000000E+00   .000000000000E+00   .000000000000E+00
   .000000000000E+00   .000000000000E+00   .000000000000E+00   .000000000000E+00   .000000000000E+00
   .000000000000E+00   .000000000000E+00   .000000000000E+00   .000000000000E+00   .000000000000E+00
   .000000000000E+00   .000000000000E+00   .000000000000E+00   .000000000000E+00   .000000000000E+00
   .000000000000E+00   .000000000000E+00   .000000000000E+00   .000000000000E+00   .000000000000E+00
   .000000000000E+00   .000000000000E+00   .000000000000E+00   .000000000000E+00   .000000000000E+00
   .000000000000E+00   .000000000000E+00   .000000000000E+00   .000000000000E+00   .000000000000E+00
   .000000000000E+00   .000000000000E+00   .000000000000E+00   .000000000000E+00   .000000000000E+00
   .000000000000E+00   .000000000000E+00   .000000000000E+00   .000000000000E+00   .000000000000E+00
   .000000000000E+00   .000000000000E+00   .000000000000E+00   .000000000000E+00   .000000000000E+00
   .000000000000E+00   .000000000000E+00   .000000000000E+00   .000000000000E+00   .000000000000E+00
   .000000000000E+00   .000000000000E+00   .000000000000E+00   .000000000000E+00   .000000000000E+00
   .000000000000E+00   .000000000000E+00   .000000000000E+00   .000000000000E+00   .000000000000E+00
   .000000000000E+00   .000000000000E+00   .000000000000E+00   .000000000000E+00   .000000000000E+00
   .000000000000E+00   .000000000000E+00   .000000000000E+00   .000000000000E+00   .000000000000E+00
   .000000000000E+00   .000000000000E+00   .000000000000E+00   .000000000000E+00   .000000000000E+00
   .000000000000E+00   .000000000000E+00   .000000000000E+00   .000000000000E+00   .000000000000E+00
   .000000000000E+00   .000000000000E+00   .000000000000E+00   .000000000000E+00   .000000000000E+00
   .000000000000E+00   .000000000000E+00   .000000000000E+00   .000000000000E+00   .000000000000E+00
   .000000000000E+00   .000000000000E+00   .000000000000E+00   .000000000000E+00   .000000000000E+00
   .000000000000E+00   .000000000000E+00   .000000000000E+00   .000000000000E+00   .000000000000E+00
   .000000000000E+00   .000000000000E+00   .000000000000E+00   .000000000000E+00   .000000000000E+00
   .000000000000E+00   .000000000000E+00   .000000000000E+00   .000000000000E+00   .000000000000E+00
   .000000000000E+00   .000000000000E+00   .000000000000E+00   .000000000000E+00   .000000000000E+00
   .000000000000E+00   .000000000000E+00   .000000000000E+00   .000000000000E+00   .000000000000E+00
   .000000000000E+00   .000000000000E+00   .000000000000E+00   .000000000000E+00   .000000000000E+00
   .000000000000E+00   .000000000000E+00   .000000000000E+00   .000000000000E+00   .000000000000E+00
   .000000000000E+00   .000000000000E+00   .000000000000E+00   .000000000000E+00   .000000000000E+00
   .000000000000E+00   .000000000000E+00   .000000000000E+00   .000000000000E+00   .000000000000E+00
   .000000000000E+00   .000000000000E+00
 pseudo wavefunction
   .121052324510E-03   .124805588816E-03   .128675224228E-03   .132664838866E-03   .136778152724E-03
   .141019001134E-03   .145391338342E-03   .149899241200E-03   .154546912961E-03   .159338687203E-03
   .164279031867E-03   .169372553424E-03   .174624001169E-03   .180038271653E-03   .185620413244E-03
   .191375630836E-03   .197309290704E-03   .203426925503E-03   .209734239432E-03   .216237113551E-03
   .222941611262E-03   .229853983965E-03   .236980676887E-03   .244328335092E-03   .251903809673E-03
   .259714164147E-03   .267766681036E-03   .276068868657E-03   .284628468127E-03   .293453460577E-03
   .302552074596E-03   .311932793903E-03   .321604365255E-03   .331575806608E-03   .341856415520E-03
   .352455777823E-03   .363383776561E-03   .374650601203E-03   .386266757146E-03   .398243075510E-03
   .410590723238E-03   .423321213505E-03   .436446416455E-03   .449978570271E-03   .463930292582E-03
   .478314592231E-03   .493144881404E-03   .508434988134E-03   .524199169195E-03   .540452123399E-03
   .557209005294E-03   .574485439302E-03   .592297534281E-03   .610661898551E-03   .629595655373E-03
   .649116458921E-03   .669242510741E-03   .689992576719E-03   .711386004584E-03   .733442741942E-03
   .756183354882E-03   .779629047145E-03   .803801679901E-03   .828723792125E-03   .854418621621E-03
   .880910126681E-03   .908223008428E-03   .936382733849E-03   .965415559534E-03   .995348556165E-03
   .102620963375E-02   .105802756765E-02   .109083202541E-02   .112465359441E-02   .115952381041E-02
   .119547518692E-02   .123254124554E-02   .127075654720E-02   .131015672439E-02   .135077851440E-02
   .139265979354E-02   .143583961247E-02   .148035823261E-02   .152625716370E-02   .157357920245E-02
   .162236847248E-02   .167267046548E-02   .172453208356E-02   .177800168303E-02   .183312911947E-02
   .188996579420E-02   .194856470224E-02   .200898048166E-02   .207126946458E-02   .213548972965E-02
   .220170115620E-02   .226996548009E-02   .234034635125E-02   .241290939301E-02   .248772226330E-02
   .256485471770E-02   .264437867450E-02   .272636828172E-02   .281089998625E-02   .289805260509E-02
   .298790739888E-02   .308054814757E-02   .317606122860E-02   .327453569736E-02   .337606337021E-02
   .348073891012E-02   .358865991482E-02   .369992700786E-02   .381464393232E-02   .393291764756E-02
   .405485842889E-02   .418057997033E-02   .431019949062E-02   .444383784240E-02   .458161962490E-02
   .472367330000E-02   .487013131196E-02   .502113021085E-02   .517681077977E-02   .533731816603E-02
   .550280201637E-02   .567341661641E-02   .584932103437E-02   .603067926924E-02   .621766040359E-02
   .641043876100E-02   .660919406849E-02   .681411162386E-02   .702538246826E-02   .724320356412E-02
   .746777797850E-02   .769931507218E-02   .793803069454E-02   .818414738453E-02   .843789457774E-02
   .869950881997E-02   .896923398734E-02   .924732151315E-02   .953403062187E-02   .982962857020E-02
   .101343908956E-01   .104486016727E-01   .107725537769E-01   .111065491575E-01   .114508991172E-01
   .118059246024E-01   .121719565005E-01   .125493359479E-01   .129384146463E-01   .133395551893E-01
   .137531313988E-01   .141795286721E-01   .146191443389E-01   .150723880302E-01   .155396820573E-01
   .160214618035E-01   .165181761272E-01   .170302877774E-01   .175582738216E-01   .181026260872E-01
   .186638516162E-01   .192424731332E-01   .198390295283E-01   .204540763545E-01   .210881863391E-01
   .217419499126E-01   .224159757510E-01   .231108913370E-01   .238273435357E-01   .245659991892E-01
   .253275457284E-01   .261126918025E-01   .269221679286E-01   .277567271587E-01   .286171457681E-01
   .295042239634E-01   .304187866110E-01   .313616839872E-01   .323337925507E-01   .333360157366E-01
   .343692847737E-01   .354345595261E-01   .365328293572E-01   .376651140203E-01   .388324645728E-01
   .400359643169E-01   .412767297665E-01   .425559116408E-01   .438746958854E-01   .452343047211E-01
   .466359977212E-01   .480810729174E-01   .495708679356E-01   .511067611610E-01   .526901729330E-01
   .543225667715E-01   .560054506335E-01   .577403782008E-01   .595289501989E-01   .613728157481E-01
   .632736737450E-01   .652332742765E-01   .672534200650E-01   .693359679442E-01   .714828303671E-01
   .736959769429E-01   .759774360049E-01   .783292962072E-01   .807537081490E-01   .832528860266E-01
   .858291093106E-01   .884847244467E-01   .912221465794E-01   .940438612944E-01   .969524263790E-01
   .999504735966E-01   .103040710471E+00   .106225922082E+00   .109508972853E+00   .112892808354E+00
   .116380457078E+00   .119975032217E+00   .123679733410E+00   .127497848466E+00   .131432755049E+00
   .135487922315E+00   .139666912491E+00   .143973382387E+00   .148411084826E+00   .152983869971E+00
   .157695686545E+00   .162550582918E+00   .167552708043E+00   .172706312216E+00   .178015747650E+00
   .183485468814E+00   .189120032532E+00   .194924097791E+00   .200902425238E+00   .207059876319E+00
   .213401412022E+00   .219932091181E+00   .226657068280E+00   .233581590726E+00   .240710995507E+00
   .248050705184E+00   .255606223149E+00   .263383128070E+00   .271387067434E+00   .279623750111E+00
   .288098937841E+00   .296818435529E+00   .305788080245E+00   .315013728810E+00   .324501243831E+00
   .334256478046E+00   .344285256835E+00   .354593358731E+00   .365186493763E+00   .376070279443E+00
   .387250214214E+00   .398731648148E+00   .410519750679E+00   .422619475139E+00   .435035519877E+00
   .447772285693E+00   .460833829349E+00   .474223812884E+00   .487945448468E+00   .502001438532E+00
   .516393910884E+00   .531124348571E+00   .546193514201E+00   .561601368496E+00   .577346982847E+00
   .593428445668E+00   .609842762392E+00   .626585748984E+00   .643651918930E+00   .661034363690E+00
   .678724626742E+00   .696712571408E+00   .714986242788E+00   .733531724292E+00   .752332989392E+00
   .771371749455E+00   .790627298695E+00   .810076357567E+00   .829692916186E+00   .849448079667E+00
   .869309917625E+00   .889243320424E+00   .909209865158E+00   .929167694744E+00   .949071413897E+00
   .968872006174E+00   .988516776605E+00   .100794932478E+01   .102710955349E+01   .104593371802E+01
   .106435452146E+01   .108230126065E+01   .109970002722E+01   .111647396719E+01   .113254360088E+01
   .114782720355E+01   .116224124402E+01   .117570087540E+01   .118812046806E+01   .119941416901E+01
   .120949646640E+01   .121828272955E+01   .122568968673E+01   .123163579299E+01   .123604142967E+01
   .123882886587E+01   .123992190088E+01   .123924509600E+01   .123672249502E+01   .123227572715E+01
   .122582138576E+01   .121726758276E+01   .120650959616E+01   .119342455898E+01   .117785650617E+01
   .115980407378E+01   .113935785774E+01   .111664160802E+01   .109179088500E+01   .106495196327E+01
   .103628065227E+01   .100594104726E+01
 ae wavefunction
  -.597520737029E-03  -.616014834872E-03  -.635081121050E-03  -.654737284352E-03  -.675001559522E-03
  -.695892744057E-03  -.717430215506E-03  -.739633949310E-03  -.762524537174E-03  -.786123206011E-03
  -.810451837452E-03  -.835532987960E-03  -.861389909552E-03  -.888046571153E-03  -.915527680598E-03
  -.943858707309E-03  -.973065905652E-03  -.100317633901E-02  -.103421790460E-02  -.106621935899E-02
  -.109921034448E-02  -.113322141619E-02  -.116828407002E-02  -.120443077147E-02  -.124169498526E-02
  -.128011120594E-02  -.131971498934E-02  -.136054298500E-02  -.140263296964E-02  -.144602388151E-02
  -.149075585586E-02  -.153687026151E-02  -.158440973839E-02  -.163341823634E-02  -.168394105501E-02
  -.173602488491E-02  -.178971784981E-02  -.184506955030E-02  -.190213110868E-02  -.196095521519E-02
  -.202159617565E-02  -.208410996044E-02  -.214855425501E-02  -.221498851184E-02  -.228347400396E-02
  -.235407388005E-02  -.242685322113E-02  -.250187909902E-02  -.257922063635E-02  -.265894906854E-02
  -.274113780742E-02  -.282586250679E-02  -.291320112992E-02  -.300323401895E-02  -.309604396638E-02
  -.319171628853E-02  -.329033890128E-02  -.339200239787E-02  -.349680012897E-02  -.360482828512E-02
  -.371618598146E-02  -.383097534491E-02  -.394930160383E-02  -.407127318028E-02  -.419700178481E-02
  -.432660251403E-02  -.446019395083E-02  -.459789826753E-02  -.473984133181E-02  -.488615281566E-02
  -.503696630737E-02  -.519241942658E-02  -.535265394253E-02  -.551781589555E-02  -.568805572191E-02
  -.586352838201E-02  -.604439349209E-02  -.623081545952E-02  -.642296362162E-02  -.662101238832E-02
  -.682514138853E-02  -.703553562035E-02  -.725238560533E-02  -.747588754666E-02  -.770624349147E-02
  -.794366149740E-02  -.818835580325E-02  -.844054700419E-02  -.870046223115E-02  -.896833533485E-02
  -.924440707431E-02  -.952892531003E-02  -.982214520178E-02  -.101243294112E-01  -.104357483093E-01
  -.107566801887E-01  -.110874114808E-01  -.114282369781E-01  -.117794600613E-01  -.121413929319E-01
  -.125143568493E-01  -.128986823738E-01  -.132947096139E-01  -.137027884795E-01  -.141232789401E-01
  -.145565512880E-01  -.150029864066E-01  -.154629760445E-01  -.159369230941E-01  -.164252418753E-01
  -.169283584247E-01  -.174467107893E-01  -.179807493252E-01  -.185309370012E-01  -.190977497066E-01
  -.196816765642E-01  -.202832202471E-01  -.209028972994E-01  -.215412384616E-01  -.221987889989E-01
  -.228761090336E-01  -.235737738797E-01  -.242923743814E-01  -.250325172529E-01  -.257948254211E-01
  -.265799383690E-01  -.273885124812E-01  -.282212213885E-01  -.290787563142E-01  -.299618264178E-01
  -.308711591389E-01  -.318075005381E-01  -.327716156348E-01  -.337642887420E-01  -.347863237951E-01
  -.358385446760E-01  -.369217955294E-01  -.380369410714E-01  -.391848668884E-01  -.403664797251E-01
  -.415827077607E-01  -.428345008702E-01  -.441228308711E-01  -.454486917519E-01  -.468130998811E-01
  -.482170941953E-01  -.496617363628E-01  -.511481109214E-01  -.526773253869E-01  -.542505103313E-01
  -.558688194249E-01  -.575334294425E-01  -.592455402279E-01  -.610063746141E-01  -.628171782964E-01
  -.646792196524E-01  -.665937895071E-01  -.685622008361E-01  -.705857884052E-01  -.726659083384E-01
  -.748039376113E-01  -.770012734632E-01  -.792593327228E-01  -.815795510400E-01  -.839633820196E-01
  -.864122962467E-01  -.889277802005E-01  -.915113350453E-01  -.941644752932E-01  -.968887273285E-01
  -.996856277863E-01  -.102556721775E+00  -.105503560933E+00  -.108527701313E+00  -.111630701071E+00
  -.114814117975E+00  -.118079506685E+00  -.121428415828E+00  -.124862384832E+00  -.128382940516E+00
  -.131991593419E+00  -.135689833858E+00  -.139479127696E+00  -.143360911804E+00  -.147336589214E+00
  -.151407523923E+00  -.155575035361E+00  -.159840392479E+00  -.164204807465E+00  -.168669429044E+00
  -.173235335369E+00  -.177903526470E+00  -.182674916242E+00  -.187550323970E+00  -.192530465345E+00
  -.197615942984E+00  -.202807236404E+00  -.208104691461E+00  -.213508509213E+00  -.219018734201E+00
  -.224635242131E+00  -.230357726938E+00  -.236185687210E+00  -.242118411975E+00  -.248154965819E+00
  -.254294173335E+00  -.260534602895E+00  -.266874549721E+00  -.273312018268E+00  -.279844703909E+00
  -.286469973921E+00  -.293184847772E+00  -.299985976721E+00  -.306869622745E+00  -.313831636798E+00
  -.320867436428E+00  -.327971982785E+00  -.335139757031E+00  -.342364736213E+00  -.349640368627E+00
  -.356959548737E+00  -.364314591695E+00  -.371697207546E+00  -.379098475184E+00  -.386508816155E+00
  -.393917968397E+00  -.401314960036E+00  -.408688083349E+00  -.416024869035E+00  -.423312060933E+00
  -.430535591355E+00  -.437680557200E+00  -.444731197039E+00  -.451670869384E+00  -.458482032335E+00
  -.465146224877E+00  -.471644050039E+00  -.477955160211E+00  -.484058244892E+00  -.489931021166E+00
  -.495550227230E+00  -.500891619310E+00  -.505929972305E+00  -.510639084533E+00  -.514991786958E+00
  -.518959957286E+00  -.522514539352E+00  -.525625568199E+00  -.528262201296E+00  -.530392756321E+00
  -.531984755958E+00  -.533004980157E+00  -.533419526305E+00  -.533193877757E+00  -.532292981162E+00
  -.530681333023E+00  -.528323075905E+00  -.525182104684E+00  -.521222183211E+00  -.516407071726E+00
  -.510700665319E+00  -.504067143693E+00  -.496471132405E+00  -.487877875730E+00  -.478253421166E+00
  -.467564815560E+00  -.455780312685E+00  -.442869592018E+00  -.428803988313E+00  -.413556731446E+00
  -.397103195830E+00  -.379421158553E+00  -.360491065208E+00  -.340296302214E+00  -.318823474239E+00
  -.296062685183E+00  -.272007821000E+00  -.246656832508E+00  -.220012016240E+00  -.192080291270E+00
  -.162873469927E+00  -.132408520268E+00  -.100707818152E+00  -.677993867027E-01  -.337171208218E-01
   .149900587593E-02   .378027548766E-01   .751414614371E-01   .113455903761E+00   .152680210710E+00
   .192741819571E+00   .233561500197E+00   .275053467550E+00   .317125609833E+00   .359679859700E+00
   .402612723554E+00   .445815947236E+00   .489177227382E+00   .532580786825E+00   .575907566566E+00
   .619034824821E+00   .661835133970E+00   .704175088578E+00   .745914315462E+00   .786905395754E+00
   .826994971469E+00   .866025783091E+00   .903839034545E+00   .940276532166E+00   .975182362464E+00
   .100840416780E+01   .103979419983E+01   .106921031168E+01   .109651698096E+01   .112158639312E+01
   .114429957418E+01   .116454754177E+01   .118223243614E+01   .119726859418E+01   .120958353433E+01
   .121911882731E+01   .122583083392E+01   .122969129705E+01   .123068777947E+01   .122882394266E+01
   .122411966470E+01   .121661099761E+01   .120634996663E+01   .119340421583E+01   .117785650617E+01
   .115980407378E+01   .113935785774E+01   .111664160802E+01   .109179088500E+01   .106495196327E+01
   .103628065227E+01   .100594104726E+01
 pseudo wavefunction
   .749153966334E-05   .772381713833E-05   .796329644722E-05   .821020088506E-05   .846476067022E-05
   .872721315907E-05   .899780306726E-05   .927678269795E-05   .956441217700E-05   .986095969559E-05
   .101667017602E-04   .104819234506E-04   .108069186852E-04   .111419904960E-04   .114874513100E-04
   .118436232415E-04   .122108383919E-04   .125894391595E-04   .129797785587E-04   .133822205493E-04
   .137971403759E-04   .142249249173E-04   .146659730479E-04   .151206960093E-04   .155895177936E-04
   .160728755389E-04   .165712199370E-04   .170850156536E-04   .176147417612E-04   .181608921864E-04
   .187239761697E-04   .193045187413E-04   .199030612096E-04   .205201616666E-04   .211563955081E-04
   .218123559703E-04   .224886546825E-04   .231859222381E-04   .239048087820E-04   .246459846169E-04
   .254101408286E-04   .261979899301E-04   .270102665259E-04   .278477279973E-04   .287111552082E-04
   .296013532334E-04   .305191521091E-04   .314654076072E-04   .324410020326E-04   .334468450465E-04
   .344838745142E-04   .355530573796E-04   .366553905671E-04   .377919019105E-04   .389636511120E-04
   .401717307298E-04   .414172671973E-04   .427014218727E-04   .440253921224E-04   .453904124372E-04
   .467977555834E-04   .482487337894E-04   .497446999692E-04   .512870489841E-04   .528772189429E-04
   .545166925430E-04   .562069984526E-04   .579497127362E-04   .597464603242E-04   .615989165274E-04
   .635088085997E-04   .654779173479E-04   .675080787925E-04   .696011858792E-04   .717591902442E-04
   .739841040332E-04   .762780017779E-04   .786430223302E-04   .810813708558E-04   .835953208906E-04
   .861872164603E-04   .888594742657E-04   .916145859356E-04   .944551203501E-04   .973837260355E-04
   .100403133633E-03   .103516158446E-03   .106725703061E-03   .110034760059E-03   .113446414800E-03
   .116963848304E-03   .120590340212E-03   .124329271847E-03   .128184129363E-03   .132158506998E-03
   .136256110421E-03   .140480760189E-03   .144836395307E-03   .149327076901E-03   .153956992000E-03
   .158730457444E-03   .163651923901E-03   .168725980022E-03   .173957356712E-03   .179350931544E-03
   .184911733300E-03   .190644946661E-03   .196555917039E-03   .202650155553E-03   .208933344172E-03
   .215411341003E-03   .222090185754E-03   .228976105359E-03   .236075519779E-03   .243395047985E-03
   .250941514122E-03   .258721953868E-03   .266743620986E-03   .275013994082E-03   .283540783567E-03
   .292331938842E-03   .301395655696E-03   .310740383941E-03   .320374835278E-03   .330307991406E-03
   .340549112385E-03   .351107745255E-03   .361993732919E-03   .373217223305E-03   .384788678806E-03
   .396718886016E-03   .409018965761E-03   .421700383446E-03   .434774959710E-03   .448254881425E-03
   .462152713016E-03   .476481408146E-03   .491254321747E-03   .506485222429E-03   .522188305272E-03
   .538378205000E-03   .555070009572E-03   .572279274183E-03   .590022035697E-03   .608314827520E-03
   .627174694929E-03   .646619210875E-03   .666666492260E-03   .687335216717E-03   .708644639903E-03
   .730614613314E-03   .753265602647E-03   .776618706718E-03   .800695676956E-03   .825518937487E-03
   .851111605826E-03   .877497514199E-03   .904701231500E-03   .932748085921E-03   .961664188254E-03
   .991476455895E-03   .102221263757E-02   .105390133881E-02   .108657204815E-02   .112025516414E-02
   .115498202318E-02   .119078492810E-02   .122769717767E-02   .126575309691E-02   .130498806835E-02
   .134543856412E-02   .138714217909E-02   .143013766484E-02   .147446496470E-02   .152016524975E-02
   .156728095587E-02   .161585582184E-02   .166593492849E-02   .171756473894E-02   .177079314004E-02
   .182566948483E-02   .188224463625E-02   .194057101199E-02   .200070263058E-02   .206269515869E-02
   .212660595962E-02   .219249414316E-02   .226042061662E-02   .233044813717E-02   .240264136555E-02
   .247706692101E-02   .255379343757E-02   .263289162165E-02   .271443431098E-02   .279849653486E-02
   .288515557564E-02   .297449103161E-02   .306658488112E-02   .316152154787E-02   .325938796757E-02
   .336027365564E-02   .346427077614E-02   .357147421169E-02   .368198163445E-02   .379589357801E-02
   .391331351007E-02   .403434790594E-02   .415910632249E-02   .428770147268E-02   .442024930032E-02
   .455686905494E-02   .469768336658E-02   .484281832021E-02   .499240352958E-02   .514657221014E-02
   .530546125076E-02   .546921128382E-02   .563796675327E-02   .581187598023E-02   .599109122560E-02
   .617576874901E-02   .636606886367E-02   .656215598618E-02   .676419868077E-02   .697236969677E-02
   .718684599872E-02   .740780878775E-02   .763544351321E-02   .786993987324E-02   .811149180272E-02
   .836029744722E-02   .861655912101E-02   .888048324732E-02   .915228027866E-02   .943216459493E-02
   .972035437665E-02   .100170714506E-01   .103225411047E-01   .106369918686E-01   .109606552563E-01
   .112937654671E-01   .116365590391E-01   .119892744520E-01   .123521516718E-01   .127254316337E-01
   .131093556539E-01   .135041647654E-01   .139100989685E-01   .143273963880E-01   .147562923274E-01
   .151970182087E-01   .156498003886E-01   .161148588359E-01   .165924056589E-01   .170826434653E-01
   .175857635404E-01   .181019438244E-01   .186313466694E-01   .191741163544E-01   .197303763356E-01
   .203002262054E-01   .208837383323E-01   .214809541521E-01   .220918800752E-01   .227164829750E-01
   .233546852175E-01   .240063591882E-01   .246713212690E-01   .253493252149E-01   .260400548731E-01
   .267431161845E-01   .274580284010E-01   .281842144471E-01   .289209903469E-01   .296675536323E-01
   .304229706408E-01   .311861626020E-01   .319558904069E-01   .327307379410E-01   .335090938577E-01
   .342891316546E-01   .350687879062E-01   .358457384962E-01   .366173726801E-01   .373807647954E-01
   .381326434266E-01   .388693578164E-01   .395868413023E-01   .402805715446E-01   .409455272961E-01
   .415761414522E-01   .421662501060E-01   .427090373221E-01   .431969753302E-01   .436217598326E-01
   .439742401142E-01   .442443436401E-01   .444209948310E-01   .444920277162E-01   .444440921827E-01
   .442625535694E-01   .439313854003E-01   .434330551140E-01   .427484027319E-01   .418565125243E-01
   .407345778846E-01   .393577598199E-01   .376990397196E-01   .357290673897E-01   .334160057514E-01
   .307253741230E-01   .276198926529E-01   .240593312867E-01   .200003676562E-01   .153964595246E-01
   .101977389494E-01   .435093719214E-02  -.220064832746E-02  -.951713100264E-02  -.176619386281E-01
  -.267016224118E-01  -.367055456440E-01  -.477454209460E-01  -.598946589318E-01  -.732274842538E-01
  -.878177674327E-01  -.103737512745E+00  -.121054934038E+00  -.139832042132E+00  -.160091921596E+00
  -.181957508501E+00  -.205476527333E+00  -.230732902009E+00  -.257815937118E+00  -.286821237265E+00
  -.317851796637E+00  -.351019286889E+00
 ae wavefunction
  -.233161820193E-04  -.240378502020E-04  -.247818460439E-04  -.255488597881E-04  -.263396029812E-04
  -.271548091294E-04  -.279952343735E-04  -.288616581846E-04  -.297548840814E-04  -.306757403692E-04
  -.316250809016E-04  -.326037858646E-04  -.336127625859E-04  -.346529463681E-04  -.357253013467E-04
  -.368308213754E-04  -.379705309378E-04  -.391454860860E-04  -.403567754093E-04  -.416055210306E-04
  -.428928796345E-04  -.442200435254E-04  -.455882417183E-04  -.469987410623E-04  -.484528473984E-04
  -.499519067518E-04  -.514973065608E-04  -.530904769420E-04  -.547328919944E-04  -.564260711422E-04
  -.581715805184E-04  -.599710343899E-04  -.618260966250E-04  -.637384822053E-04  -.657099587833E-04
  -.677423482853E-04  -.698375285641E-04  -.719974350991E-04  -.742240627489E-04  -.765194675546E-04
  -.788857685980E-04  -.813251499143E-04  -.838398624616E-04  -.864322261493E-04  -.891046319258E-04
  -.918595439285E-04  -.946995016970E-04  -.976271224513E-04  -.100645103438E-03  -.103756224343E-03
  -.106963349778E-03  -.110269431839E-03  -.113677512736E-03  -.117190727505E-03  -.120812306794E-03
  -.124545579733E-03  -.128393976885E-03  -.132361033285E-03  -.136450391565E-03  -.140665805164E-03
  -.145011141642E-03  -.149490386076E-03  -.154107644561E-03  -.158867147809E-03  -.163773254845E-03
  -.168830456819E-03  -.174043380910E-03  -.179416794355E-03  -.184955608578E-03  -.190664883447E-03
  -.196549831633E-03  -.202615823108E-03  -.208868389754E-03  -.215313230103E-03  -.221956214206E-03
  -.228803388637E-03  -.235860981630E-03  -.243135408355E-03  -.250633276334E-03  -.258361391007E-03
  -.266326761441E-03  -.274536606189E-03  -.282998359305E-03  -.291719676517E-03  -.300708441557E-03
  -.309972772656E-03  -.319521029201E-03  -.329361818567E-03  -.339504003113E-03  -.349956707359E-03
  -.360729325339E-03  -.371831528128E-03  -.383273271562E-03  -.395064804132E-03  -.407216675073E-03
  -.419739742641E-03  -.432645182581E-03  -.445944496789E-03  -.459649522169E-03  -.473772439687E-03
  -.488325783630E-03  -.503322451051E-03  -.518775711430E-03  -.534699216525E-03  -.551107010426E-03
  -.568013539818E-03  -.585433664431E-03  -.603382667704E-03  -.621876267634E-03  -.640930627833E-03
  -.660562368767E-03  -.680788579195E-03  -.701626827793E-03  -.723095174954E-03  -.745212184772E-03
  -.767996937198E-03  -.791469040354E-03  -.815648643010E-03  -.840556447203E-03  -.866213721001E-03
  -.892642311389E-03  -.919864657269E-03  -.947903802565E-03  -.976783409411E-03  -.100652777141E-02
  -.103716182694E-02  -.106871117250E-02  -.110120207607E-02  -.113466149040E-02  -.116911706637E-02
  -.120459716617E-02  -.124113087644E-02  -.127874802127E-02  -.131747917501E-02  -.135735567488E-02
  -.139840963337E-02  -.144067395027E-02  -.148418232442E-02  -.152896926501E-02  -.157507010248E-02
  -.162252099886E-02  -.167135895753E-02  -.172162183238E-02  -.177334833617E-02  -.182657804812E-02
  -.188135142062E-02  -.193770978492E-02  -.199569535573E-02  -.205535123470E-02  -.211672141248E-02
  -.217985076946E-02  -.224478507488E-02  -.231157098432E-02  -.238025603528E-02  -.245088864086E-02
  -.252351808119E-02  -.259819449261E-02  -.267496885429E-02  -.275389297217E-02  -.283501945998E-02
  -.291840171708E-02  -.300409390297E-02  -.309215090817E-02  -.318262832124E-02  -.327558239157E-02
  -.337106998778E-02  -.346914855138E-02  -.356987604524E-02  -.367331089677E-02  -.377951193516E-02
  -.388853832260E-02  -.400044947881E-02  -.411530499863E-02  -.423316456214E-02  -.435408783697E-02
  -.447813437207E-02  -.460536348276E-02  -.473583412622E-02  -.486960476702E-02  -.500673323218E-02
  -.514727655491E-02  -.529129080665E-02  -.543883091657E-02  -.558995047800E-02  -.574470154092E-02
  -.590313438987E-02  -.606529730653E-02  -.623123631611E-02  -.640099491677E-02  -.657461379124E-02
  -.675213049979E-02  -.693357915358E-02  -.711899006763E-02  -.730838939228E-02  -.750179872245E-02
  -.769923468346E-02  -.790070849270E-02  -.810622549597E-02  -.831578467760E-02  -.852937814338E-02
  -.874699057524E-02  -.896859865676E-02  -.919417046853E-02  -.942366485247E-02  -.965703074412E-02
  -.989420647213E-02  -.101351190240E-01  -.103796832776E-01  -.106278011971E-01  -.108793609939E-01
  -.111342362507E-01  -.113922850092E-01  -.116533488208E-01  -.119172517605E-01  -.121837994037E-01
  -.124527777658E-01  -.127239522065E-01  -.129970662976E-01  -.132718406561E-01  -.135479717448E-01
  -.138251306395E-01  -.141029617675E-01  -.143810816174E-01  -.146590774244E-01  -.149365058337E-01
  -.152128915449E-01  -.154877259436E-01  -.157604657230E-01  -.160305315018E-01  -.162973064446E-01
  -.165601348920E-01  -.168183210067E-01  -.170711274464E-01  -.173177740706E-01  -.175574366933E-01
  -.177892458935E-01  -.180122858940E-01  -.182255935250E-01  -.184281572858E-01  -.186189165218E-01
  -.187967607349E-01  -.189605290465E-01  -.191090098337E-01  -.192409405620E-01  -.193550078400E-01
  -.194498477191E-01  -.195240462713E-01  -.195761404705E-01  -.196046194138E-01  -.196079259150E-01
  -.195844585071E-01  -.195325738956E-01  -.194505898999E-01  -.193367889311E-01  -.191894220497E-01
  -.190067136528E-01  -.187868668432E-01  -.185280695320E-01  -.182285013331E-01  -.178863413056E-01
  -.174997766060E-01  -.170670121108E-01  -.165862810746E-01  -.160558568871E-01  -.154740659960E-01
  -.148393020603E-01  -.141500414011E-01  -.134048598147E-01  -.126024508112E-01  -.117416453405E-01
  -.108214330651E-01  -.984098523443E-02  -.879967921215E-02  -.769712470357E-02  -.653319172454E-02
  -.530804034818E-02  -.402215226051E-02  -.267636415028E-02  -.127190295294E-02   .189577036845E-03
   .170595517641E-02   .327460360998E-02   .489234453840E-02   .655540565163E-02   .825937377700E-02
   .999914683509E-02   .117688842523E-01   .135619560639E-01   .153708910600E-01   .171873244954E-01
   .190019461006E-01   .208044494041E-01   .225834836440E-01   .243266097053E-01   .260202612761E-01
   .276497113365E-01   .291990416525E-01   .306511090152E-01   .319874976759E-01   .331884458190E-01
   .342327390239E-01   .350975771110E-01   .357584379706E-01   .361889726067E-01   .363609597453E-01
   .362443252137E-01   .358072040621E-01   .350160110352E-01   .338354941862E-01   .322287655203E-01
   .301573162355E-01   .275810273720E-01   .244581834381E-01   .207454919725E-01   .163981085274E-01
   .113696645545E-01   .561229480389E-02  -.923339411683E-03  -.828803470968E-02  -.165340414114E-01
  -.257150741010E-01  -.358863405838E-01  -.471045931267E-01  -.594282062717E-01  -.729172860652E-01
  -.876338162163E-01  -.103641847499E+00  -.121007737659E+00  -.139800450182E+00  -.160091921596E+00
  -.181957508501E+00  -.205476527333E+00  -.230732902009E+00  -.257815937118E+00  -.286821237265E+00
  -.317851796637E+00  -.351019286889E+00
 pseudo wavefunction
   .752962849494E-08   .800378380950E-08   .850779760403E-08   .904355012493E-08   .961304002135E-08
   .102183918013E-07   .108618637570E-07   .115458563900E-07   .122729213658E-07   .130457710335E-07
   .138672885438E-07   .147405386052E-07   .156687789167E-07   .166554723209E-07   .177042997225E-07
   .188191738197E-07   .200042537009E-07   .212639603606E-07   .226029931915E-07   .240263475165E-07
   .255393332233E-07   .271475945739E-07   .288571312602E-07   .306743207862E-07   .326059422599E-07
   .346592016826E-07   .368417588318E-07   .391617558355E-07   .416278475477E-07   .442492338350E-07
   .470356938975E-07   .499976227504E-07   .531460700032E-07   .564927810803E-07   .600502410384E-07
   .638317211424E-07   .678513283742E-07   .721240580595E-07   .766658498087E-07   .814936469801E-07
   .866254598878E-07   .920804329903E-07   .978789163093E-07   .104042541346E-06   .110594301781E-06
   .117558639247E-06   .124961534518E-06   .132830604423E-06   .141195204878E-06   .150086540398E-06
   .159537780503E-06   .169584183463E-06   .180263227829E-06   .191614752248E-06   .203681104080E-06
   .216507297382E-06   .230141180831E-06   .244633616223E-06   .260038668222E-06   .276413806045E-06
   .293820117852E-06   .312322538643E-06   .331990092494E-06   .352896150061E-06   .375118702284E-06
   .398740651339E-06   .423850119911E-06   .450540779929E-06   .478912202021E-06   .509070226962E-06
   .541127360516E-06   .575203193140E-06   .611424846125E-06   .649927445821E-06   .690854627730E-06
   .734359072343E-06   .780603074718E-06   .829759149925E-06   .882010676615E-06   .937552581122E-06
   .996592064635E-06   .105934937617E-05   .112605863420E-05   .119696870005E-05   .127234410628E-05
   .135246604351E-05   .143763340941E-05   .152816392374E-05   .162439531360E-05   .172668657333E-05
   .183541930371E-05   .195099913557E-05   .207385724293E-05   .220445195151E-05   .234327044852E-05
   .249083060010E-05   .264768288317E-05   .281441243900E-05   .299164125605E-05   .318003049024E-05
   .338028293142E-05   .359314562503E-05   .381941265892E-05   .405992812567E-05   .431558927138E-05
   .458734984277E-05   .487622364507E-05   .518328832389E-05   .550968938529E-05   .585664446892E-05
   .622544789026E-05   .661747546894E-05   .703418966094E-05   .747714501410E-05   .794799396706E-05
   .844849301337E-05   .898050925371E-05   .954602736069E-05   .101471569822E-04   .107861406109E-04
   .114653619492E-04   .121873548010E-04   .129548125231E-04   .137705980721E-04   .146377546832E-04
   .155595172221E-04   .165393242513E-04   .175808308560E-04   .186879222776E-04   .198647284056E-04
   .211156391818E-04   .224453209747E-04   .238587339841E-04   .253611507419E-04   .269581757775E-04
   .286557665213E-04   .304602555238E-04   .323783740737E-04   .344172773031E-04   .365845708721E-04
   .388883393339E-04   .413371762851E-04   .439402164139E-04   .467071695654E-04   .496483569506E-04
   .527747496351E-04   .560980094497E-04   .596305324753E-04   .633854952653E-04   .673769039757E-04
   .716196465876E-04   .761295484152E-04   .809234311067E-04   .860191753568E-04   .914357875658E-04
   .971934706909E-04   .103313699555E-03   .109819300894E-03   .116734538435E-03   .124085203330E-03
   .131898710274E-03   .140204199667E-03   .149032646202E-03   .158416974276E-03   .168392180663E-03
   .178995464887E-03   .190266367804E-03   .202246918876E-03   .214981792713E-03   .228518475445E-03
   .242907441539E-03   .258202341731E-03   .274460202753E-03   .291741639604E-03   .310111081142E-03
   .329637009839E-03   .350392216575E-03   .372454071420E-03   .395904811398E-03   .420831846295E-03
   .447328083635E-03   .475492274024E-03   .505429378130E-03   .537250956638E-03   .571075584631E-03
   .607029291898E-03   .645246030781E-03   .685868173292E-03   .729047039286E-03   .774943457647E-03
   .823728362502E-03   .875583426652E-03   .930701734520E-03   .989288497028E-03   .105156181103E-02
   .111775346601E-02   .118810980096E-02   .126289261453E-02   .134238013171E-02   .142686803046E-02
   .151667053205E-02   .161212155885E-02   .171357596382E-02   .182141083589E-02   .193602688603E-02
   .205784991863E-02   .218733239350E-02   .232495508390E-02   .247122883631E-02   .262669643795E-02
   .279193459857E-02   .296755605321E-02   .315421179296E-02   .335259343139E-02   .356343571443E-02
   .378751918209E-02   .402567299071E-02   .427877790498E-02   .454776946944E-02   .483364136951E-02
   .513744899269E-02   .546031320115E-02   .580342432722E-02   .616804640409E-02   .655552164419E-02
   .696727517872E-02   .740482007182E-02   .786976262382E-02   .836380797821E-02   .888876604762E-02
   .944655777455E-02   .100392217429E-01   .106689211572E-01   .113379512054E-01   .120487468240E-01
   .128038908815E-01   .136061227976E-01   .144583476164E-01   .153636455503E-01   .163252820110E-01
   .173467181450E-01   .184316218873E-01   .195838795501E-01   .208076079573E-01   .221071671380E-01
   .234871735866E-01   .249525140974E-01   .265083601762E-01   .281601830290E-01   .299137691223E-01
   .317752363052E-01   .337510504763E-01   .358480427721E-01   .380734272434E-01   .404348189791E-01
   .429402526213E-01   .455982012083E-01   .484175952612E-01   .514078420169E-01   .545788446896E-01
   .579410216205E-01   .615053251516E-01   .652832600301E-01   .692869011200E-01   .735289101605E-01
   .780225512728E-01   .827817048703E-01   .878208795808E-01   .931552217322E-01   .988005218952E-01
   .104773217906E+00   .111090393723E+00   .117769773392E+00   .124829709298E+00   .132289163800E+00
   .140167683236E+00   .148485363176E+00   .157262803684E+00   .166521053231E+00   .176281539773E+00
   .186565987354E+00   .197396316506E+00   .208794526515E+00   .220782557550E+00   .233382130485E+00
   .246614562130E+00   .260500553521E+00   .275059948784E+00   .290311462107E+00   .306272370309E+00
   .322958168582E+00   .340382187095E+00   .358555166379E+00   .377484789739E+00   .397175171407E+00
   .417626299759E+00   .438833435755E+00   .460786467780E+00   .483469225366E+00   .506858755849E+00
   .530924569958E+00   .555627864597E+00   .580920733798E+00   .606745381926E+00   .633033356825E+00
   .659704824618E+00   .686667912352E+00   .713818149588E+00   .741038045207E+00   .768196841104E+00
   .795150489813E+00   .821741908171E+00   .847801563580E+00   .873148452661E+00   .897591533610E+00
   .920931672497E+00   .942964159203E+00   .963481839520E+00   .982278894877E+00   .999155278756E+00
   .101392178757E+01   .102640570207E+01   .103645688164E+01   .104395412710E+01   .104881154724E+01
   .105098456981E+01   .105047513218E+01   .104733547152E+01   .104166981715E+01   .103363317636E+01
   .102342631295E+01   .101128596290E+01   .997469337037E+00   .982232053788E+00   .965798861574E+00
   .948326885166E+00   .929857739347E+00
 ae wavefunction
   .638386667376E-07   .677120719962E-07   .717878148162E-07   .760781692450E-07   .805960852755E-07
   .853552309281E-07   .903700368932E-07   .956557437996E-07   .101228452275E-06   .107105175975E-06
   .113303897768E-06   .119843629279E-06   .126744473999E-06   .134027694187E-06   .141715781809E-06
   .149832533758E-06   .158403131636E-06   .167454226371E-06   .177014027992E-06   .187112400866E-06
   .197780964760E-06   .209053202074E-06   .220964571654E-06   .233552629579E-06   .246857157378E-06
   .260920298125E-06   .275786700924E-06   .291503674301E-06   .308121349062E-06   .325692851214E-06
   .344274485579E-06   .363925930776E-06   .384710446267E-06   .406695092253E-06   .429950963189E-06
   .454553435806E-06   .480582432520E-06   .508122701213E-06   .537264112393E-06   .568101974841E-06
   .600737370883E-06   .635277512523E-06   .671836119748E-06   .710533822382E-06   .751498586969E-06
   .794866170246E-06   .840780600873E-06   .889394691184E-06   .940870580833E-06   .995380314344E-06
   .105310645465E-05   .111424273492E-05   .117899475101E-05   .124758069715E-05   .132023214744E-05
   .139719488621E-05   .147872979008E-05   .156511376512E-05   .165664074249E-05   .175362273610E-05
   .185639096640E-05   .196529705422E-05   .208071428910E-05   .220303897678E-05   .233269187073E-05
   .247011969307E-05   .261579675027E-05   .277022664977E-05   .293394412359E-05   .310751696575E-05
   .329154809048E-05   .348667771889E-05   .369358570193E-05   .391299398818E-05   .414566924562E-05
   .439242564673E-05   .465412782724E-05   .493169402933E-05   .522609944062E-05   .553837974126E-05
   .586963487198E-05   .622103303687E-05   .659381495531E-05   .698929837885E-05   .740888288904E-05
   .785405499401E-05   .832639354216E-05   .882757547256E-05   .935938192307E-05   .992370471820E-05
   .105225532603E-04   .111580618490E-04   .118324974554E-04   .125482679788E-04   .133079310169E-04
   .141142031792E-04   .149699699792E-04   .158782963398E-04   .168424377503E-04   .178658521140E-04
   .189522123315E-04   .201054196616E-04   .213296179102E-04   .226292084970E-04   .240088664536E-04
   .254735574115E-04   .270285556389E-04   .286794631912E-04   .304322302449E-04   .322931766840E-04
   .342690150189E-04   .363668747166E-04   .385943280294E-04   .409594174132E-04   .434706846320E-04
   .461372016512E-04   .489686034280E-04   .519751227146E-04   .551676269955E-04   .585576576880E-04
   .621574717438E-04   .659800857943E-04   .700393229956E-04   .743498627336E-04   .789272933620E-04
   .837881681551E-04   .889500646678E-04   .944316477064E-04   .100252736127E-03   .106434373689E-03
   .112998904200E-03   .119970051221E-03   .127373002584E-03   .135234500022E-03   .143582934202E-03
   .152448445488E-03   .161863030762E-03   .171860656675E-03   .182477379676E-03   .193751473245E-03
   .205723562729E-03   .218436768227E-03   .231936856004E-03   .246272398895E-03   .261494946258E-03
   .277659203982E-03   .294823225160E-03   .313048612011E-03   .332400729706E-03   .352948932759E-03
   .374766804705E-03   .397932411798E-03   .422528571522E-03   .448643136741E-03   .476369296349E-03
   .505805893338E-03   .537057761236E-03   .570236079922E-03   .605458751875E-03   .642850799952E-03
   .682544787871E-03   .724681264595E-03   .769409233900E-03   .816886650448E-03   .867280943766E-03
   .920769571575E-03   .977540603989E-03   .103779334017E-02   .110173895909E-02   .116960120612E-02
   .124161711723E-02   .131803778267E-02   .139912915210E-02   .148517288306E-02   .157646723507E-02
   .167332801131E-02   .177608955018E-02   .188510576920E-02   .200075126331E-02   .212342246037E-02
   .225353883612E-02   .239154419130E-02   .253790799365E-02   .269312678730E-02   .285772567255E-02
   .303225985866E-02   .321731629273E-02   .341351536733E-02   .362151270999E-02   .384200105741E-02
   .407571221735E-02   .432341912122E-02   .458593797008E-02   .486413047725E-02   .515890621002E-02
   .547122503343E-02   .580209965875E-02   .615259829894E-02   .652384743386E-02   .691703468697E-02
   .733341181578E-02   .777429781760E-02   .824108215208E-02   .873522808145E-02   .925827612928E-02
   .981184765789E-02   .103976485641E-01   .110174730928E-01   .116732077659E-01   .123668354262E-01
   .131004393914E-01   .138762077157E-01   .146964375537E-01   .155635396211E-01   .164800427450E-01
   .174485984965E-01   .184719858945E-01   .195531161717E-01   .206950375890E-01   .219009402849E-01
   .231741611430E-01   .245181886607E-01   .259366677978E-01   .274334047841E-01   .290123718602E-01
   .306777119238E-01   .324337430530E-01   .342849628725E-01   .362360527272E-01   .382918816234E-01
   .404575098967E-01   .427381925586E-01   .451393822735E-01   .476667319122E-01   .503260966243E-01
   .531235353679E-01   .560653118313E-01   .591578946758E-01   .624079570260E-01   .658223751276E-01
   .694082260906E-01   .731727846277E-01   .771235186983E-01   .812680839588E-01   .856143169185E-01
   .901702266971E-01   .949439852730E-01   .999439161104E-01   .105178481049E+00   .110656265340E+00
   .116385960702E+00   .122376346281E+00   .128636267393E+00   .135174611916E+00   .142000284232E+00
   .149122176577E+00   .156549137709E+00   .164289938775E+00   .172353236286E+00   .180747532104E+00
   .189481130385E+00   .198562091398E+00   .207998182192E+00   .217796824093E+00   .227965037026E+00
   .238509380698E+00   .249435892702E+00   .260750023621E+00   .272456569271E+00   .284559600216E+00
   .297062388746E+00   .309967333537E+00   .323275882213E+00   .336988452081E+00   .351104349291E+00
   .365621686691E+00   .380537300641E+00   .395846667028E+00   .411543816721E+00   .427621250673E+00
   .444069854932E+00   .460878815830E+00   .478035535801E+00   .495525550466E+00   .513332448110E+00
   .531437793276E+00   .549821057247E+00   .568459559656E+00   .587328427601E+00   .606400581552E+00
   .625646761242E+00   .645035609268E+00   .664533834316E+00   .684106476974E+00   .703717293083E+00
   .723329243608E+00   .742905026222E+00   .762407502025E+00   .781799786725E+00   .801044752505E+00
   .820103803160E+00   .838935065448E+00   .857491485850E+00   .875719528735E+00   .893559046860E+00
   .910944422795E+00   .927806518361E+00   .944074703498E+00   .959678416184E+00   .974548104615E+00
   .988615703182E+00   .100181487992E+01   .101408123971E+01   .102535257998E+01   .103556922786E+01
   .104467444950E+01   .105261490576E+01   .105934112503E+01   .106480796684E+01   .106897505609E+01
   .107180717351E+01   .107327459381E+01   .107335336666E+01   .107202553894E+01   .106927931812E+01
   .106510917804E+01   .105951590919E+01   .105250661580E+01   .104409466290E+01   .103429957658E+01
   .102314690122E+01   .101066801785E+01   .996899927778E+00   .981885006015E+00   .965670728910E+00
   .948309380191E+00   .929857739347E+00
 pseudo wavefunction
   .220510726003E-08   .234396714184E-08   .249157129973E-08   .264847037770E-08   .281524969489E-08
   .299253142912E-08   .318097693794E-08   .338128922588E-08   .359421556701E-08   .382055029271E-08
   .406113775494E-08   .431687547612E-08   .458871749742E-08   .487767793782E-08   .518483477731E-08
   .551133387839E-08   .585839326073E-08   .622730764505E-08   .661945328313E-08   .703629309200E-08
   .747938211139E-08   .795037330487E-08   .845102372634E-08   .898320107475E-08   .954889066168E-08
   .101502028176E-07   .107893807645E-07   .114688089845E-07   .121910221150E-07   .129587144045E-07
   .137747497635E-07   .146421724485E-07   .155642184184E-07   .165443274070E-07   .175861557546E-07
   .186935900482E-07   .198707616207E-07   .211220619629E-07   .224521591061E-07   .238660150366E-07
   .253689042064E-07   .269664332098E-07   .286645616989E-07   .304696246166E-07   .323883558291E-07
   .344279132469E-07   .365959055278E-07   .389004204610E-07   .413500551392E-07   .439539480303E-07
   .467218130685E-07   .496639758928E-07   .527914123670E-07   .561157895256E-07   .596495090982E-07
   .634057537739E-07   .673985363808E-07   .716427521603E-07   .761542343347E-07   .809498131736E-07
   .860473787793E-07   .914659478266E-07   .972257345048E-07   .103348225928E-06   .109856262290E-06
   .116774122077E-06   .124127612632E-06   .131944166431E-06   .140252943424E-06   .149084939813E-06
   .158473103685E-06   .168452457925E-06   .179060230869E-06   .190335995185E-06   .202321815498E-06
   .215062405314E-06   .228605293820E-06   .243001003196E-06   .258303237085E-06   .274569080933E-06
   .291859214946E-06   .310238140460E-06   .329774420555E-06   .350540935831E-06   .372615156290E-06
   .396079430329E-06   .421021291941E-06   .447533787255E-06   .475715821638E-06   .505672528661E-06
   .537515662286E-06   .571364013758E-06   .607343854751E-06   .645589408404E-06   .686243350034E-06
   .729457339371E-06   .775392586301E-06   .824220452246E-06   .876123089399E-06   .931294120217E-06
   .989939359700E-06   .105227758314E-05   .111854134224E-05   .118897783258E-05   .126384981572E-05
   .134343659941E-05   .142803507943E-05   .151796084710E-05   .161354936651E-05   .171515722584E-05
   .182316346750E-05   .193797100205E-05   .206000811101E-05   .218973004449E-05   .232762071924E-05
   .247419452368E-05   .262999823655E-05   .279561306643E-05   .297165681954E-05   .315878620412E-05
   .335769927981E-05   .356913806133E-05   .379389128594E-05   .403279735525E-05   .428674746213E-05
   .455668891448E-05   .484362866829E-05   .514863708299E-05   .547285191328E-05   .581748255219E-05
   .618381454116E-05   .657321436410E-05   .698713454305E-05   .742711905465E-05   .789480908748E-05
   .839194916163E-05   .892039363349E-05   .948211360980E-05   .100792042968E-04   .107138928117E-04
   .113885464859E-04   .121056816902E-04   .128679732154E-04   .136782642435E-04   .145395769448E-04
   .154551237435E-04   .164283192895E-04   .174627931856E-04   .185624035128E-04   .197312512075E-04
   .209736953421E-04   .222943693661E-04   .236981983688E-04   .251904174259E-04   .267765911001E-04
   .284626341667E-04   .302548336411E-04   .321598721905E-04   .341848530158E-04   .363373262963E-04
   .386253172944E-04   .410573562252E-04   .436425100008E-04   .463904159659E-04   .493113177508E-04
   .524161033729E-04   .557163457273E-04   .592243456159E-04   .629531774733E-04   .669167379579E-04
   .711297975857E-04   .756080555980E-04   .803681982623E-04   .854279608221E-04   .908061933196E-04
   .965229305343E-04   .102599466291E-03   .109058432410E-03   .115923882582E-03   .123221381479E-03
   .130978099420E-03   .139222912934E-03   .147986511589E-03   .157301511458E-03   .167202575652E-03
   .177726542333E-03   .188912560676E-03   .200802235257E-03   .213439779394E-03   .226872177969E-03
   .241149360323E-03   .256324383817E-03   .272453628720E-03   .289597005090E-03   .307818172383E-03
   .327184772542E-03   .347768677368E-03   .369646251032E-03   .392898628619E-03   .417612011640E-03
   .443877981522E-03   .471793832121E-03   .501462922350E-03   .532995050108E-03   .566506848703E-03
   .602122207080E-03   .639972715179E-03   .680198135845E-03   .722946904766E-03   .768376659988E-03
   .816654802617E-03   .867959090402E-03   .922478265944E-03   .980412721369E-03   .104197520135E-02
   .110739154646E-02   .117690147884E-02   .125075943232E-02   .132923542916E-02   .141261600551E-02
   .150120518793E-02   .159532552324E-02   .169531916395E-02   .180154901165E-02   .191439992059E-02
   .203427996383E-02   .216162176413E-02   .229688389172E-02   .244055233108E-02   .259314201851E-02
   .275519845236E-02   .292729937728E-02   .311005654364E-02   .330411754306E-02   .351016772027E-02
   .372893216124E-02   .396117775669E-02   .420771533949E-02   .446940189342E-02   .474714282991E-02
   .504189432797E-02   .535466573127E-02   .568652199462E-02   .603858617020E-02   .641204192184E-02
   .680813605302E-02   .722818103151E-02   .767355749028E-02   .814571668061E-02   .864618284913E-02
   .917655550567E-02   .973851154343E-02   .103338071668E-01   .109642795754E-01   .116318483444E-01
   .123385164336E-01   .130863707472E-01   .138775821536E-01   .147144048664E-01   .155991750686E-01
   .165343086507E-01   .175222979146E-01   .185657070761E-01   .196671663784E-01   .208293646057E-01
   .220550397596E-01   .233469676356E-01   .247079480019E-01   .261407880547E-01   .276482827843E-01
   .292331918489E-01   .308982125097E-01   .326459481392E-01   .344788717627E-01   .363992840476E-01
   .384092650983E-01   .405106193650E-01   .427048129169E-01   .449929022760E-01   .473754539542E-01
   .498524537863E-01   .524232051000E-01   .550862147310E-01   .578390658537E-01   .606782765856E-01
   .635991433185E-01   .665955677558E-01   .696598666785E-01   .727825635484E-01   .759521611798E-01
   .791548948835E-01   .823744657204E-01   .855917538030E-01   .887845119637E-01   .919270405844E-01
   .949898449578E-01   .979392772425E-01   .100737165893E+00   .103340436400E+00   .105700728264E+00
   .107764014369E+00   .109470230293E+00   .110752922566E+00   .111538926523E+00   .111748085992E+00
   .111293028748E+00   .110079013189E+00   .108003863095E+00   .104958008324E+00   .100824649867E+00
   .954800674807E-01   .887940869666E-01   .806307217945E-01   .708489998265E-01   .593039801334E-01
   .458479569870E-01   .303318378497E-01   .126066694681E-01  -.747472889487E-02  -.300560830704E-01
  -.552760085309E-01  -.832664757191E-01  -.114151505139E+00  -.148046210450E+00  -.185056306696E+00
  -.225278183433E+00  -.268799601434E+00  -.315700997901E+00  -.366057268444E+00  -.419939723556E+00
  -.477417682425E+00  -.538558859393E+00  -.603427314804E+00  -.672077287878E+00  -.744540723763E+00
  -.820805789414E+00  -.900776501472E+00
 ae wavefunction
   .214439324468E-07   .227450538540E-07   .241141425464E-07   .255553215359E-07   .270729408934E-07
   .286715918845E-07   .303561219660E-07   .321316506638E-07   .340035863888E-07   .359776442506E-07
   .380598649309E-07   .402566346844E-07   .425747065390E-07   .450212227694E-07   .476037387257E-07
   .503302481017E-07   .532092097343E-07   .562495760287E-07   .594608231140E-07   .628529828359E-07
   .664366767039E-07   .702231519137E-07   .742243195777E-07   .784527953005E-07   .829219422474E-07
   .876459168625E-07   .926397174026E-07   .979192354641E-07   .103501310689E-06   .109403788854E-06
   .115645583547E-06   .122246741665E-06   .129228512966E-06   .136613423932E-06   .144425356216E-06
   .152689629950E-06   .161433092233E-06   .170684211113E-06   .180473175406E-06   .190832000729E-06
   .201794642122E-06   .213397113679E-06   .225677615626E-06   .238676669314E-06   .252437260609E-06
   .267004992228E-06   .282428245553E-06   .298758352543E-06   .316049778347E-06   .334360315319E-06
   .353751289108E-06   .374287777622E-06   .396038843636E-06   .419077781907E-06   .443482381714E-06
   .469335205763E-06   .496723886508E-06   .525741440943E-06   .556486605049E-06   .589064189100E-06
   .623585455143E-06   .660168518030E-06   .698938771473E-06   .740029340684E-06   .783581563255E-06
   .829745500044E-06   .878680477931E-06   .930555666438E-06   .985550690318E-06   .104385628036E-05
   .110567496478E-05   .117122180374E-05   .124072516967E-05   .131442757625E-05   .139258655907E-05
   .147547561121E-05   .156338517713E-05   .165662370847E-05   .175551878572E-05   .186041830969E-05
   .197169176730E-05   .208973157610E-05   .221495451260E-05   .234780322953E-05   .248874786749E-05
   .263828776697E-05   .279695328683E-05   .296530773601E-05   .314394942522E-05   .333351384636E-05
   .353467598730E-05   .374815279061E-05   .397470576490E-05   .421514375848E-05   .447032590518E-05
   .474116475297E-05   .502862958673E-05   .533374995717E-05   .565761942839E-05   .600139955791E-05
   .636632412310E-05   .675370360942E-05   .716492997652E-05   .760148171913E-05   .806492924106E-05
   .855694056130E-05   .907928737274E-05   .963385147499E-05   .102226316042E-04   .108477506844E-04
   .115114635256E-04   .122161649961E-04   .129643986989E-04   .137588661807E-04   .146024367084E-04
   .154981576454E-04   .164492654665E-04   .174591974469E-04   .185316040699E-04   .196703621932E-04
   .208795890225E-04   .221636569392E-04   .235272092347E-04   .249751768050E-04   .265127958644E-04
   .281456267386E-04   .298795738018E-04   .317209066269E-04   .336762824202E-04   .357527698187E-04
   .379578741288E-04   .402995640943E-04   .427863002831E-04   .454270651878E-04   .482313951430E-04
   .512094141643E-04   .543718698245E-04   .577301712826E-04   .612964295958E-04   .650835004444E-04
   .691050294115E-04   .733754999652E-04   .779102843005E-04   .827256972036E-04   .878390531163E-04
   .932687265796E-04   .990342162528E-04   .105156212710E-03   .111656670231E-03   .118558882805E-03
   .125887564598E-03   .133668935117E-03   .141930809350E-03   .150702693148E-03   .160015884140E-03
   .169903578489E-03   .180400983817E-03   .191545438610E-03   .203376538487E-03   .215936269682E-03
   .229269150132E-03   .243422378573E-03   .258445992080E-03   .274393032481E-03   .291319722113E-03
   .309285649411E-03   .328353964828E-03   .348591587618E-03   .370069424026E-03   .392862597465E-03
   .417050691270E-03   .442718004648E-03   .469953822468E-03   .498852699551E-03   .529514760160E-03
   .562046013391E-03   .596558685214E-03   .633171567909E-03   .672010387694E-03   .713208191344E-03
   .756905752623E-03   .803251999378E-03   .852404462168E-03   .904529745287E-03   .959804021106E-03
   .101841354862E-02   .108055521714E-02   .114643711603E-02   .121627913145E-02   .129031357097E-02
   .136878581715E-02   .145195501068E-02   .154009476437E-02   .163349390850E-02   .173245726865E-02
   .183730647660E-02   .194838081521E-02   .206603809788E-02   .219065558326E-02   .232263092570E-02
   .246238316195E-02   .261035373437E-02   .276700755094E-02   .293283408200E-02   .310834849374E-02
   .329409281805E-02   .349063715825E-02   .369858092996E-02   .391855413602E-02   .415121867429E-02
   .439726967653E-02   .465743687645E-02   .493248600457E-02   .522322020686E-02   .553048148404E-02
   .585515214761E-02   .619815628810E-02   .656046125054E-02   .694307911142E-02   .734706815053E-02
   .777353431052E-02   .822363263580E-02   .869856868174E-02   .919959988409E-02   .972803687712E-02
   .102852447482E-01   .108726442153E-01   .114917127113E-01   .121439853606E-01   .128310558276E-01
   .135545770185E-01   .143162616155E-01   .151178824187E-01   .159612724706E-01   .168483249369E-01
   .177809927124E-01   .187612877206E-01   .197912798728E-01   .208730956493E-01   .220089162627E-01
   .232009753609E-01   .244515562249E-01   .257629884113E-01   .271376437897E-01   .285779319179E-01
   .300862946983E-01   .316652002526E-01   .333171359502E-01   .350446005212E-01   .368500951812E-01
   .387361136932E-01   .407051312866E-01   .427595923495E-01   .449018968114E-01   .471343851229E-01
   .494593217451E-01   .518788770501E-01   .543951075386E-01   .570099342762E-01   .597251194464E-01
   .625422409228E-01   .654626647589E-01   .684875154961E-01   .716176441914E-01   .748535940699E-01
   .781955637092E-01   .816433676648E-01   .851963944552E-01   .888535618226E-01   .926132691984E-01
   .964733472999E-01   .100431004795E+00   .104482771969E+00   .108624441341E+00   .112851005159E+00
   .117156589719E+00   .121534386451E+00   .125976579684E+00   .130474271047E+00   .135017400422E+00
   .139594663400E+00   .144193425222E+00   .148799631235E+00   .153397713984E+00   .157970497238E+00
   .162499097421E+00   .166962823315E+00   .171339075291E+00   .175603245994E+00   .179728625222E+00
   .183686312757E+00   .187445144036E+00   .190971634403E+00   .194229947418E+00   .197181889733E+00
   .199786927052E+00   .202002200592E+00   .203782502383E+00   .205080149019E+00   .205844694814E+00
   .206022465227E+00   .205555970546E+00   .204383344904E+00   .202437991072E+00   .199648555399E+00
   .195939222511E+00   .191230184790E+00   .185438099866E+00   .178476417697E+00   .170255565060E+00
   .160683042132E+00   .149663496034E+00   .137098815911E+00   .122888270227E+00   .106928691054E+00
   .891147026474E-01   .693389897809E-01   .474926025024E-01   .234652964071E-01  -.285408970561E-02
  -.315772144015E-01  -.628157659007E-01  -.966809378721E-01  -.133282839129E+00  -.172729826433E+00
  -.215127748539E+00  -.260579088603E+00  -.309181991105E+00  -.361029158548E+00  -.416206602397E+00
  -.474792232115E+00  -.536854265697E+00  -.602449445015E+00  -.671621039432E+00  -.744396621747E+00
  -.820785601421E+00  -.900776501472E+00
 End of Dataset
 PAW_PBE Y_sv 06Sep2000
 11.0000000000000000
 parameters from PSCTR are:
   VRHFIN =Y: 4s4p5s4d
   LEXCH  = PE
   EATOM  =  1046.2256 eV,   76.8954 Ry

   TITEL  = PAW_PBE Y_sv 06Sep2000
   LULTRA =        F    use ultrasoft PP ?
   IUNSCR =        1    unscreen: 0-lin 1-nonlin 2-no
   RPACOR =    2.200    partial core radius
   POMASS =   88.906; ZVAL   =   11.000    mass and valenz
   RCORE  =    2.600    outmost cutoff radius
   RWIGS  =    3.430; RWIGS  =    1.815    wigner-seitz radius (au A)
   ENMAX  =  211.641; ENMIN  =  158.731 eV
   RCLOC  =    2.212    cutoff for local pot
   LCOR   =        T    correct aug charges
   LPAW   =        T    paw PP
   EAUG   =  363.258
   DEXC   =     .000
   RMAX   =    3.169    core radius for proj-oper
   RAUG   =    1.300    factor for augmentation sphere
   RDEP   =    2.745    radius for radial grids
   QCUT   =   -3.944; QGAM   =    7.888    optimization parameters
 
   Description
     l     E      TYP  RCUT    TYP  RCUT
     0   .000     23  2.600
     0   .000     23  2.600
     1   .000     23  2.600
     1   .000     23  2.600
     2   .000     23  2.600
     2   .000     23  2.600
     3   .000      7   .000
   Error from kinetic energy argument (eV)
   NDATA  =      100
   STEP   =   20.000   1.050
  158.      153.      150.      144.      141.      135.      129.      126.
  120.      114.      111.      104.      98.2      92.1      86.2      80.4
  74.8      69.3      64.0      56.6      51.9      47.4      41.2      37.3
  33.7      28.8      24.4      21.7      18.2      15.1      12.4      10.1
  8.15      6.52      5.16      4.05      2.88      2.21      1.52      1.14
  .761      .501      .328      .214      .143      .984E-01  .715E-01  .520E-01
  .427E-01  .347E-01  .287E-01  .245E-01  .198E-01  .158E-01  .118E-01  .930E-02
  .740E-02  .579E-02  .470E-02  .391E-02  .329E-02  .277E-02  .231E-02  .185E-02
  .153E-02  .124E-02  .102E-02  .857E-03  .713E-03  .608E-03  .504E-03  .416E-03
  .346E-03  .291E-03  .243E-03  .209E-03  .176E-03  .148E-03  .123E-03  .105E-03
  .889E-04  .758E-04  .644E-04  .539E-04  .456E-04  .391E-04  .336E-04  .284E-04
  .240E-04  .206E-04  .177E-04  .153E-04  .128E-04  .110E-04  .952E-05  .823E-05
  .696E-05  .601E-05  .519E-05  .451E-05
END of PSCTR-controll parameters
 local part
 71.8095875659990810
   .20225957E+03   .20221516E+03   .20208197E+03   .20186023E+03   .20155026E+03
   .20115253E+03   .20066766E+03   .20009636E+03   .19943949E+03   .19869803E+03
   .19787306E+03   .19696580E+03   .19597756E+03   .19490976E+03   .19376395E+03
   .19254175E+03   .19124489E+03   .18987521E+03   .18843463E+03   .18692517E+03
   .18534892E+03   .18370806E+03   .18200485E+03   .18024162E+03   .17842077E+03
   .17654475E+03   .17461606E+03   .17263727E+03   .17061098E+03   .16853983E+03
   .16642649E+03   .16427365E+03   .16208403E+03   .15986036E+03   .15760539E+03
   .15532186E+03   .15301251E+03   .15068009E+03   .14832732E+03   .14595691E+03
   .14357156E+03   .14117392E+03   .13876663E+03   .13635228E+03   .13393342E+03
   .13151256E+03   .12909216E+03   .12667462E+03   .12426228E+03   .12185743E+03
   .11946229E+03   .11707902E+03   .11470968E+03   .11235630E+03   .11002080E+03
   .10770504E+03   .10541080E+03   .10313978E+03   .10089357E+03   .98673721E+02
   .96481662E+02   .94318748E+02   .92186249E+02   .90085344E+02   .88017126E+02
   .85982600E+02   .83982685E+02   .82018212E+02   .80089929E+02   .78198497E+02
   .76344494E+02   .74528416E+02   .72750680E+02   .71011620E+02   .69311495E+02
   .67650489E+02   .66028711E+02   .64446199E+02   .62902923E+02   .61398786E+02
   .59933626E+02   .58507222E+02   .57119294E+02   .55769505E+02   .54457467E+02
   .53182742E+02   .51944843E+02   .50743242E+02   .49577368E+02   .48446613E+02
   .47350332E+02   .46287852E+02   .45258466E+02   .44261444E+02   .43296032E+02
   .42361457E+02   .41456926E+02   .40581632E+02   .39734758E+02   .38915476E+02
   .38122952E+02   .37356346E+02   .36614818E+02   .35897528E+02   .35203636E+02
   .34532309E+02   .33882721E+02   .33254051E+02   .32645492E+02   .32056245E+02
   .31485528E+02   .30932572E+02   .30396624E+02   .29876949E+02   .29372831E+02
   .28883572E+02   .28408496E+02   .27946948E+02   .27498295E+02   .27061924E+02
   .26637248E+02   .26223703E+02   .25820745E+02   .25427858E+02   .25044546E+02
   .24670340E+02   .24304792E+02   .23947478E+02   .23597999E+02   .23255977E+02
   .22921056E+02   .22592904E+02   .22271210E+02   .21955683E+02   .21646053E+02
   .21342070E+02   .21043503E+02   .20750138E+02   .20461781E+02   .20178252E+02
   .19899390E+02   .19625046E+02   .19355087E+02   .19089394E+02   .18827860E+02
   .18570391E+02   .18316901E+02   .18067317E+02   .17821574E+02   .17579616E+02
   .17341393E+02   .17106866E+02   .16875996E+02   .16648754E+02   .16425115E+02
   .16205055E+02   .15988556E+02   .15775603E+02   .15566180E+02   .15360277E+02
   .15157881E+02   .14958980E+02   .14763565E+02   .14571624E+02   .14383143E+02
   .14198110E+02   .14016508E+02   .13838321E+02   .13663530E+02   .13492113E+02
   .13324045E+02   .13159300E+02   .12997847E+02   .12839655E+02   .12684688E+02
   .12532907E+02   .12384271E+02   .12238735E+02   .12096252E+02   .11956772E+02
   .11820241E+02   .11686604E+02   .11555804E+02   .11427778E+02   .11302465E+02
   .11179800E+02   .11059716E+02   .10942145E+02   .10827018E+02   .10714263E+02
   .10603809E+02   .10495584E+02   .10389514E+02   .10285525E+02   .10183546E+02
   .10083501E+02   .99853180E+01   .98889248E+01   .97942494E+01   .97012211E+01
   .96097705E+01   .95198295E+01   .94313317E+01   .93442123E+01   .92584087E+01
   .91738602E+01   .90905082E+01   .90082969E+01   .89271723E+01   .88470835E+01
   .87679819E+01   .86898216E+01   .86125594E+01   .85361549E+01   .84605706E+01
   .83857717E+01   .83117261E+01   .82384047E+01   .81657812E+01   .80938318E+01
   .80225356E+01   .79518743E+01   .78818323E+01   .78123962E+01   .77435551E+01
   .76753005E+01   .76076260E+01   .75405272E+01   .74740016E+01   .74080488E+01
   .73426697E+01   .72778670E+01   .72136447E+01   .71500080E+01   .70869634E+01
   .70245181E+01   .69626803E+01   .69014587E+01   .68408627E+01   .67809017E+01
   .67215857E+01   .66629245E+01   .66049279E+01   .65476055E+01   .64909667E+01
   .64350203E+01   .63797748E+01   .63252379E+01   .62714167E+01   .62183174E+01
   .61659454E+01   .61143052E+01   .60634002E+01   .60132326E+01   .59638037E+01
   .59151135E+01   .58671607E+01   .58199429E+01   .57734564E+01   .57276963E+01
   .56826564E+01   .56383295E+01   .55947068E+01   .55517787E+01   .55095344E+01
   .54679620E+01   .54270487E+01   .53867805E+01   .53471428E+01   .53081200E+01
   .52696958E+01   .52318532E+01   .51945747E+01   .51578421E+01   .51216370E+01
   .50859405E+01   .50507336E+01   .50159971E+01   .49817116E+01   .49478579E+01
   .49144168E+01   .48813694E+01   .48486970E+01   .48163812E+01   .47844041E+01
   .47527483E+01   .47213969E+01   .46903337E+01   .46595432E+01   .46290106E+01
   .45987221E+01   .45686644E+01   .45388256E+01   .45091944E+01   .44797606E+01
   .44505149E+01   .44214492E+01   .43925562E+01   .43638297E+01   .43352644E+01
   .43068561E+01   .42786016E+01   .42504984E+01   .42225452E+01   .41947414E+01
   .41670872E+01   .41395837E+01   .41122329E+01   .40850372E+01   .40580000E+01
   .40311250E+01   .40044167E+01   .39778799E+01   .39515200E+01   .39253426E+01
   .38993537E+01   .38735594E+01   .38479661E+01   .38225802E+01   .37974081E+01
   .37724563E+01   .37477310E+01   .37232384E+01   .36989844E+01   .36749746E+01
   .36512144E+01   .36277087E+01   .36044618E+01   .35814780E+01   .35587606E+01
   .35363126E+01   .35141364E+01   .34922337E+01   .34706059E+01   .34492534E+01
   .34281761E+01   .34073735E+01   .33868441E+01   .33665861E+01   .33465969E+01
   .33268735E+01   .33074120E+01   .32882082E+01   .32692572E+01   .32505538E+01
   .32320921E+01   .32138657E+01   .31958680E+01   .31780918E+01   .31605298E+01
   .31431742E+01   .31260171E+01   .31090503E+01   .30922656E+01   .30756547E+01
   .30592091E+01   .30429205E+01   .30267806E+01   .30107812E+01   .29949142E+01
   .29791719E+01   .29635465E+01   .29480308E+01   .29326178E+01   .29173006E+01
   .29020731E+01   .28869294E+01   .28718639E+01   .28568716E+01   .28419481E+01
   .28270892E+01   .28122914E+01   .27975516E+01   .27828673E+01   .27682363E+01
   .27536573E+01   .27391290E+01   .27246510E+01   .27102233E+01   .26958461E+01
   .26815204E+01   .26672474E+01   .26530289E+01   .26388669E+01   .26247639E+01
   .26107226E+01   .25967461E+01   .25828376E+01   .25690007E+01   .25552389E+01
   .25415562E+01   .25279562E+01   .25144431E+01   .25010206E+01   .24876928E+01
   .24744635E+01   .24613365E+01   .24483154E+01   .24354039E+01   .24226052E+01
   .24099225E+01   .23973588E+01   .23849168E+01   .23725987E+01   .23604069E+01
   .23483429E+01   .23364084E+01   .23246043E+01   .23129315E+01   .23013904E+01
   .22899810E+01   .22787029E+01   .22675556E+01   .22565378E+01   .22456482E+01
   .22348851E+01   .22242464E+01   .22137297E+01   .22033323E+01   .21930513E+01
   .21828833E+01   .21728250E+01   .21628726E+01   .21530223E+01   .21432701E+01
   .21336119E+01   .21240434E+01   .21145603E+01   .21051584E+01   .20958332E+01
   .20865803E+01   .20773956E+01   .20682748E+01   .20592136E+01   .20502080E+01
   .20412542E+01   .20323482E+01   .20234866E+01   .20146658E+01   .20058828E+01
   .19971344E+01   .19884181E+01   .19797313E+01   .19710719E+01   .19624379E+01
   .19538278E+01   .19452402E+01   .19366741E+01   .19281289E+01   .19196040E+01
   .19110993E+01   .19026148E+01   .18941511E+01   .18857086E+01   .18772883E+01
   .18688912E+01   .18605186E+01   .18521721E+01   .18438533E+01   .18355641E+01
   .18273063E+01   .18190821E+01   .18108936E+01   .18027432E+01   .17946331E+01
   .17865657E+01   .17785433E+01   .17705683E+01   .17626430E+01   .17547698E+01
   .17469508E+01   .17391883E+01   .17314842E+01   .17238406E+01   .17162592E+01
   .17087418E+01   .17012898E+01   .16939045E+01   .16865871E+01   .16793386E+01
   .16721597E+01   .16650508E+01   .16580124E+01   .16510445E+01   .16441471E+01
   .16373197E+01   .16305620E+01   .16238731E+01   .16172523E+01   .16106983E+01
   .16042101E+01   .15977861E+01   .15914248E+01   .15851245E+01   .15788834E+01
   .15726994E+01   .15665707E+01   .15604948E+01   .15544698E+01   .15484931E+01
   .15425626E+01   .15366758E+01   .15308303E+01   .15250237E+01   .15192536E+01
   .15135178E+01   .15078139E+01   .15021396E+01   .14964929E+01   .14908716E+01
   .14852737E+01   .14796975E+01   .14741411E+01   .14686030E+01   .14630816E+01
   .14575758E+01   .14520843E+01   .14466061E+01   .14411404E+01   .14356865E+01
   .14302439E+01   .14248122E+01   .14193911E+01   .14139807E+01   .14085811E+01
   .14031923E+01   .13978148E+01   .13924490E+01   .13870956E+01   .13817553E+01
   .13764289E+01   .13711172E+01   .13658215E+01   .13605427E+01   .13552821E+01
   .13500408E+01   .13448202E+01   .13396217E+01   .13344465E+01   .13292961E+01
   .13241717E+01   .13190748E+01   .13140066E+01   .13089684E+01   .13039615E+01
   .12989870E+01   .12940460E+01   .12891396E+01   .12842686E+01   .12794340E+01
   .12746365E+01   .12698768E+01   .12651555E+01   .12604729E+01   .12558296E+01
   .12512256E+01   .12466612E+01   .12421363E+01   .12376509E+01   .12332048E+01
   .12287976E+01   .12244291E+01   .12200986E+01   .12158056E+01   .12115494E+01
   .12073292E+01   .12031441E+01   .11989932E+01   .11948754E+01   .11907898E+01
   .11867350E+01   .11827100E+01   .11787135E+01   .11747442E+01   .11708008E+01
   .11668820E+01   .11629866E+01   .11591132E+01   .11552605E+01   .11514274E+01
   .11476126E+01   .11438150E+01   .11400333E+01   .11362665E+01   .11325137E+01
   .11287737E+01   .11250457E+01   .11213289E+01   .11176225E+01   .11139256E+01
   .11102378E+01   .11065585E+01   .11028871E+01   .10992234E+01   .10955669E+01
   .10919175E+01   .10882750E+01   .10846394E+01   .10810106E+01   .10773889E+01
   .10737744E+01   .10701673E+01   .10665680E+01   .10629768E+01   .10593943E+01
   .10558209E+01   .10522572E+01   .10487038E+01   .10451613E+01   .10416304E+01
   .10381119E+01   .10346063E+01   .10311146E+01   .10276373E+01   .10241753E+01
   .10207292E+01   .10172997E+01   .10138876E+01   .10104936E+01   .10071182E+01
   .10037621E+01   .10004259E+01   .99711018E+00   .99381545E+00   .99054221E+00
   .98729089E+00   .98406189E+00   .98085554E+00   .97767212E+00   .97451185E+00
   .97137490E+00   .96826135E+00   .96517123E+00   .96210450E+00   .95906107E+00
   .95604077E+00   .95304338E+00   .95006863E+00   .94711617E+00   .94418563E+00
   .94127657E+00   .93838853E+00   .93552097E+00   .93267335E+00   .92984508E+00
   .92703553E+00   .92424405E+00   .92146999E+00   .91871264E+00   .91597131E+00
   .91324528E+00   .91053384E+00   .90783625E+00   .90515180E+00   .90247977E+00
   .89981946E+00   .89717014E+00   .89453116E+00   .89190183E+00   .88928151E+00
   .88666959E+00   .88406548E+00   .88146862E+00   .87887850E+00   .87629465E+00
   .87371665E+00   .87114413E+00   .86857677E+00   .86601428E+00   .86345646E+00
   .86090312E+00   .85835417E+00   .85580952E+00   .85326915E+00   .85073309E+00
   .84820140E+00   .84567418E+00   .84315158E+00   .84063378E+00   .83812101E+00
   .83561352E+00   .83311162E+00   .83061561E+00   .82812586E+00   .82564277E+00
   .82316673E+00   .82069818E+00   .81823757E+00   .81578538E+00   .81334209E+00
   .81090817E+00   .80848413E+00   .80607045E+00   .80366761E+00   .80127611E+00
   .79889639E+00   .79652891E+00   .79417411E+00   .79183239E+00   .78950412E+00
   .78718966E+00   .78488933E+00   .78260341E+00   .78033214E+00   .77807573E+00
   .77583435E+00   .77360812E+00   .77139713E+00   .76920143E+00   .76702103E+00
   .76485590E+00   .76270598E+00   .76057116E+00   .75845131E+00   .75634624E+00
   .75425575E+00   .75217957E+00   .75011742E+00   .74806897E+00   .74603386E+00
   .74401169E+00   .74200204E+00   .74000446E+00   .73801845E+00   .73604353E+00
   .73407917E+00   .73212485E+00   .73018003E+00   .72824418E+00   .72631674E+00
   .72439720E+00   .72248502E+00   .72057968E+00   .71868067E+00   .71678752E+00
   .71489975E+00   .71301691E+00   .71113857E+00   .70926433E+00   .70739382E+00
   .70552671E+00   .70366266E+00   .70180142E+00   .69994272E+00   .69808637E+00
   .69623220E+00   .69438005E+00   .69252985E+00   .69068151E+00   .68883503E+00
   .68699042E+00   .68514774E+00   .68330708E+00   .68146857E+00   .67963240E+00
   .67779877E+00   .67596792E+00   .67414015E+00   .67231576E+00   .67049508E+00
   .66867848E+00   .66686634E+00   .66505905E+00   .66325701E+00   .66146064E+00
   .65967035E+00   .65788656E+00   .65610968E+00   .65434011E+00   .65257827E+00
   .65082453E+00   .64907928E+00   .64734289E+00   .64561571E+00   .64389808E+00
   .64219029E+00   .64049265E+00   .63880542E+00   .63712882E+00   .63546307E+00
   .63380832E+00   .63216473E+00   .63053237E+00   .62891132E+00   .62730160E+00
   .62570318E+00   .62411602E+00   .62254002E+00   .62097504E+00   .61942092E+00
   .61787745E+00   .61634439E+00   .61482147E+00   .61330838E+00   .61180478E+00
   .61031033E+00   .60882463E+00   .60734730E+00   .60587790E+00   .60441603E+00
   .60296123E+00   .60151307E+00   .60007110E+00   .59863488E+00   .59720396E+00
   .59577790E+00   .59435626E+00   .59293863E+00   .59152457E+00   .59011369E+00
   .58870559E+00   .58729992E+00   .58589631E+00   .58449444E+00   .58309401E+00
   .58169477E+00   .58029647E+00   .57889892E+00   .57750196E+00   .57610546E+00
   .57470933E+00   .57331354E+00   .57191806E+00   .57052293E+00   .56912820E+00
   .56773398E+00   .56634038E+00   .56494757E+00   .56355574E+00   .56216510E+00
   .56077590E+00   .55938841E+00   .55800291E+00   .55661971E+00   .55523914E+00
   .55386153E+00   .55248724E+00   .55111663E+00   .54975005E+00   .54838789E+00
   .54703051E+00   .54567827E+00   .54433154E+00   .54299067E+00   .54165602E+00
   .54032791E+00   .53900667E+00   .53769261E+00   .53638599E+00   .53508709E+00
   .53379613E+00   .53251331E+00   .53123881E+00   .52997277E+00   .52871529E+00
   .52746644E+00   .52622627E+00   .52499476E+00   .52377189E+00   .52255759E+00
   .52135177E+00   .52015430E+00   .51896503E+00   .51778378E+00   .51661034E+00
   .51544449E+00   .51428596E+00   .51313448E+00   .51198976E+00   .51085147E+00
   .50971929E+00   .50859287E+00   .50747185E+00   .50635586E+00   .50524453E+00
   .50413747E+00   .50303431E+00   .50193467E+00   .50083817E+00   .49974446E+00
   .49865317E+00   .49756398E+00   .49647655E+00   .49539057E+00   .49430576E+00
   .49322186E+00   .49213863E+00   .49105585E+00   .48997334E+00   .48889094E+00
   .48780853E+00   .48672601E+00   .48564331E+00   .48456040E+00   .48347728E+00
   .48239396E+00   .48131050E+00   .48022698E+00   .47914349E+00   .47806016E+00
   .47697714E+00   .47589460E+00   .47481274E+00   .47373176E+00   .47265190E+00
   .47157340E+00   .47049654E+00   .46942159E+00   .46834884E+00   .46727859E+00
   .46621115E+00   .46514683E+00   .46408593E+00   .46302877E+00   .46197563E+00
   .46092681E+00   .45988259E+00   .45884324E+00   .45780900E+00   .45678010E+00
   .45575677E+00   .45473919E+00   .45372755E+00   .45272198E+00   .45172262E+00
   .45072958E+00   .44974294E+00   .44876274E+00   .44778902E+00   .44682178E+00
   .44586100E+00   .44490664E+00   .44395862E+00   .44301686E+00   .44208122E+00
   .44115159E+00   .44022779E+00   .43930964E+00   .43839696E+00   .43748952E+00
   .43658710E+00   .43568945E+00   .43479631E+00   .43390740E+00   .43302246E+00
   .43214119E+00   .43126330E+00   .43038850E+00   .42951650E+00   .42864702E+00
   .42777978E+00   .42691450E+00   .42605092E+00   .42518880E+00   .42432791E+00
   .42346803E+00   .42260896E+00   .42175050E+00   .42089251E+00   .42003481E+00
   .41917729E+00   .41831984E+00   .41746235E+00   .41660476E+00   .41574702E+00
   .41488911E+00   .41403101E+00   .41317274E+00   .41231434E+00   .41145587E+00
   .41059740E+00   .40973904E+00   .40888090E+00   .40802312E+00   .40716584E+00
   .40630923E+00   .40545348E+00   .40459875E+00   .40374527E+00   .40289323E+00
   .40204285E+00   .40119434E+00   .40034793E+00   .39950384E+00   .39866230E+00
   .39782351E+00   .39698769E+00   .39615505E+00   .39532577E+00   .39450005E+00
   .39367805E+00   .39285994E+00   .39204587E+00   .39123598E+00   .39043038E+00
   .38962918E+00   .38883247E+00   .38804033E+00   .38725283E+00   .38647000E+00
 gradient corrections used for XC
 5
 core charge-density (partial)
   .27034031E-01   .27024918E-01   .26997595E-01   .26952112E-01   .26888550E-01
   .26807026E-01   .26707686E-01   .26590710E-01   .26456309E-01   .26304723E-01
   .26136225E-01   .25951116E-01   .25749726E-01   .25532411E-01   .25299557E-01
   .25051574E-01   .24788895E-01   .24511978E-01   .24221304E-01   .23917374E-01
   .23600709E-01   .23271847E-01   .22931343E-01   .22579770E-01   .22217712E-01
   .21845767E-01   .21464542E-01   .21074656E-01   .20676734E-01   .20271407E-01
   .19859313E-01   .19441092E-01   .19017383E-01   .18588830E-01   .18156072E-01
   .17719748E-01   .17280489E-01   .16838925E-01   .16395675E-01   .15951353E-01
   .15506560E-01   .15061889E-01   .14617920E-01   .14175220E-01   .13734340E-01
   .13295819E-01   .12860178E-01   .12427920E-01   .11999532E-01   .11575481E-01
   .11156215E-01   .10742164E-01   .10333733E-01   .99313109E-02   .95352617E-02
   .91459291E-02   .87636346E-02   .83886773E-02   .80213340E-02   .76618590E-02
   .73104841E-02   .69674186E-02   .66328497E-02   .63069422E-02   .59898393E-02
   .56816623E-02   .53825113E-02   .50924657E-02   .48115843E-02   .45399060E-02
   .42774502E-02   .40242176E-02   .37801906E-02   .35453339E-02   .33195954E-02
   .31029068E-02   .28951842E-02   .26963288E-02   .25062282E-02   .23247564E-02
   .21517753E-02   .19871349E-02   .18306746E-02   .16822236E-02   .15416022E-02
   .14086220E-02   .12830874E-02   .11647956E-02   .10535383E-02   .94910164E-03
   .85126755E-03   .75981420E-03   .67451683E-03   .59514846E-03   .52148058E-03
   .45328381E-03   .39032855E-03   .33238560E-03   .27922675E-03   .23062535E-03
   .18635687E-03   .14619934E-03   .10993391E-03   .77345250E-04   .48221980E-04
   .22357059E-04  -.45186053E-06  -.20402107E-04  -.37685693E-04  -.52489051E-04
  -.64992801E-04  -.75371542E-04  -.83793675E-04  -.90421261E-04  -.95409896E-04
  -.98908616E-04  -.10105984E-03  -.10199930E-03  -.10185608E-03  -.10075255E-03
  -.98804438E-04  -.96120876E-04  -.92804449E-04  -.88951297E-04  -.84651209E-04
  -.79987752E-04  -.75038397E-04  -.69874673E-04  -.64562329E-04  -.59161502E-04
  -.53726903E-04  -.48308008E-04  -.42949258E-04  -.37690262E-04  -.32566012E-04
  -.27607098E-04  -.22839924E-04  -.18286934E-04  -.13966833E-04  -.98948085E-05
  -.60827554E-05  -.25394966E-05   .72899818E-06   .37193957E-05   .64307870E-05
   .88644787E-05   .11023790E-04   .12913855E-04   .14541429E-04   .15914706E-04
   .17043137E-04   .17937259E-04   .18608534E-04   .19069188E-04   .19332065E-04
   .19410488E-04   .19318125E-04   .19068866E-04   .18676707E-04   .18155643E-04
   .17519573E-04   .16782203E-04   .15956971E-04   .15056965E-04   .14094865E-04
   .13082878E-04   .12032688E-04   .10955414E-04   .98615707E-05   .87610402E-05
   .76630452E-05   .65761326E-05   .55081609E-05   .44662932E-05   .34569952E-05
   .24860386E-05   .15585079E-05   .67881222E-06  -.14929992E-06  -.92272200E-06
  -.16389680E-05  -.22961483E-05  -.28929429E-05  -.34285732E-05  -.39027712E-05
  -.43157482E-05  -.46681616E-05  -.49610809E-05  -.51959542E-05  -.53745724E-05
  -.54990353E-05  -.55717164E-05  -.55952288E-05  -.55723916E-05  -.55061962E-05
  -.53997750E-05  -.52563696E-05  -.50793010E-05  -.48719412E-05  -.46376856E-05
  -.43799274E-05  -.41020336E-05  -.38073221E-05  -.34990409E-05  -.31803491E-05
  -.28542994E-05  -.25238225E-05  -.21917131E-05  -.18606177E-05  -.15330245E-05
  -.12112540E-05  -.89745274E-06  -.59358709E-06  -.30143972E-06  -.22607014E-07
   .24150193E-06   .48966499E-06   .72084540E-06   .93418899E-06   .11290203E-05
   .13048376E-05   .14613071E-05   .15982562E-05   .17156663E-05   .18136642E-05
   .18925139E-05   .19526071E-05   .19944538E-05   .20186724E-05   .20259796E-05
   .20171801E-05   .19931562E-05   .19548575E-05   .19032908E-05   .18395098E-05
   .17646048E-05   .16796940E-05   .15859128E-05   .14844060E-05   .13763181E-05
   .12627859E-05   .11449303E-05   .10238490E-05   .90061022E-06   .77624596E-06
   .65174669E-06   .52805616E-06   .40606693E-06   .28661645E-06   .17048364E-06
   .58386188E-07  -.49021724E-07  -.15115109E-06  -.24747921E-06  -.33755033E-06
  -.42097576E-06  -.49743352E-06  -.56666758E-06  -.62848661E-06  -.68276237E-06
  -.72942775E-06  -.76847441E-06  -.79995023E-06  -.82395636E-06  -.84064409E-06
  -.85021156E-06  -.85290016E-06  -.84899095E-06  -.83880080E-06  -.82267862E-06
  -.80100138E-06  -.77417021E-06  -.74260644E-06  -.70674775E-06  -.66704430E-06
  -.62395494E-06  -.57794361E-06  -.52947577E-06  -.47901499E-06  -.42701975E-06
  -.37394037E-06  -.32021610E-06  -.26627251E-06  -.21251897E-06  -.15934643E-06
  -.10712537E-06  -.56204068E-07  -.69069450E-08   .40466702E-07   .85643824E-07
   .12837849E-06   .16845255E-06   .20567602E-06   .23988734E-06   .27095333E-06
   .29876905E-06   .32325735E-06   .34436837E-06   .36207875E-06   .37639076E-06
   .38733129E-06   .39495064E-06   .39932129E-06   .40053644E-06   .39870862E-06
   .39396804E-06   .38646105E-06   .37634842E-06   .36380366E-06   .34901128E-06
   .33216504E-06   .31346626E-06   .29312203E-06   .27134355E-06   .24834448E-06
   .22433928E-06   .19954170E-06   .17416323E-06   .14841174E-06   .12249007E-06
   .96594797E-07   .70915085E-07   .45631579E-07   .20915448E-07  -.30724892E-08
  -.26182534E-07  -.48276766E-07  -.69229597E-07  -.88928221E-07  -.10727295E-06
  -.12417746E-06  -.13956892E-06  -.15338801E-06  -.16558890E-06  -.17613907E-06
  -.18501906E-06  -.19222215E-06  -.19775399E-06  -.20163208E-06  -.20388525E-06
  -.20455307E-06  -.20368516E-06  -.20134051E-06  -.19758674E-06  -.19249931E-06
  -.18616070E-06  -.17865960E-06  -.17009007E-06  -.16055066E-06  -.15014358E-06
  -.13897384E-06  -.12714842E-06  -.11477540E-06  -.10196321E-06  -.88819813E-07
  -.75451953E-07  -.61964453E-07  -.48459519E-07  -.35036106E-07  -.21789321E-07
  -.88098737E-08   .38164243E-08   .16009107E-07   .27693454E-07   .38800828E-07
   .49268971E-07   .59042237E-07   .68071770E-07   .76315637E-07   .83738899E-07
   .90313634E-07   .96018915E-07   .10084073E-06   .10477186E-06   .10781171E-06
   .10996613E-06   .11124714E-06   .11167264E-06   .11126613E-06   .11005637E-06
   .10807696E-06   .10536600E-06   .10196568E-06   .97921810E-07   .93283416E-07
   .88102290E-07   .82432527E-07   .76330077E-07   .69852286E-07   .63057449E-07
   .56004367E-07   .48751911E-07   .41358607E-07   .33882226E-07   .26379399E-07
   .18905248E-07   .11513044E-07   .42538771E-08  -.28236332E-08  -.96736147E-08
  -.16253184E-07  -.22522663E-07  -.28445766E-07  -.33989753E-07  -.39125564E-07
  -.43827914E-07  -.48075358E-07  -.51850337E-07  -.55139187E-07  -.57932119E-07
  -.60223182E-07  -.62010188E-07  -.63294625E-07  -.64081533E-07  -.64379374E-07
  -.64199867E-07  -.63557816E-07  -.62470914E-07  -.60959539E-07  -.59046529E-07
  -.56756951E-07  -.54117863E-07  -.51158064E-07  -.47907839E-07  -.44398707E-07
  -.40663158E-07  -.36734399E-07  -.32646097E-07  -.28432127E-07  -.24126327E-07
  -.19762261E-07  -.15372983E-07  -.10990824E-07  -.66471772E-08  -.23723023E-08
   .18048558E-08   .58568380E-08   .97578251E-08   .13483775E-07   .17012548E-07
   .20324006E-07   .23400108E-07   .26224979E-07   .28784962E-07   .31068656E-07
   .33066941E-07   .34772974E-07   .36182185E-07   .37292241E-07   .38103009E-07
   .38616496E-07   .38836781E-07   .38769925E-07   .38423885E-07   .37808401E-07
   .36934881E-07   .35816283E-07   .34466972E-07   .32902593E-07   .31139917E-07
   .29196702E-07   .27091534E-07   .24843678E-07   .22472926E-07   .19999437E-07
   .17443592E-07   .14825839E-07   .12166548E-07   .94858693E-08   .68035965E-08
   .41390343E-08   .15108751E-08  -.10629183E-08  -.35652213E-08  -.59798477E-08
  -.82916408E-08  -.10486555E-07  -.12551726E-07  -.14475537E-07  -.16247663E-07
  -.17859118E-07  -.19302281E-07  -.20570920E-07  -.21660198E-07  -.22566676E-07
  -.23288302E-07  -.23824390E-07  -.24175595E-07  -.24343870E-07  -.24332427E-07
  -.24145679E-07  -.23789181E-07  -.23269564E-07  -.22594461E-07  -.21772429E-07
  -.20812866E-07  -.19725924E-07  -.18522422E-07  -.17213748E-07  -.15811770E-07
  -.14328738E-07  -.12777190E-07  -.11169853E-07  -.95195523E-08  -.78391170E-08
  -.61412887E-08  -.44386337E-08  -.27434586E-08  -.10677290E-08   .57700690E-09
   .21796906E-08   .37298196E-08   .52175093E-08   .66335480E-08   .79694468E-08
   .92174827E-08   .10370736E-07   .11423119E-07   .12369404E-07   .13205234E-07
   .13927141E-07   .14532543E-07   .15019749E-07   .15387945E-07   .15637181E-07
   .15768355E-07   .15783182E-07   .15684167E-07   .15474567E-07   .15158353E-07
   .14740166E-07   .14225267E-07   .13619487E-07   .12929175E-07   .12161138E-07
   .11322584E-07   .10421066E-07   .94644129E-08   .84606758E-08   .74180619E-08
   .63448743E-08   .52494510E-08   .41401054E-08   .30250679E-08   .19124295E-08
   .81008768E-09  -.27430494E-09  -.13333897E-08  -.23601472E-08  -.33479399E-08
  -.42905504E-08  -.51822165E-08  -.60176620E-08  -.67921234E-08  -.75013728E-08
  -.81417362E-08  -.87101073E-08  -.92039576E-08  -.96213418E-08  -.99608992E-08
  -.10221851E-07  -.10403992E-07  -.10507683E-07  -.10533833E-07  -.10483883E-07
  -.10359784E-07  -.10163973E-07  -.98993449E-08  -.95692220E-08  -.91773232E-08
  -.87277282E-08  -.82248413E-08  -.76733539E-08  -.70782048E-08  -.64445408E-08
  -.57776755E-08  -.50830486E-08  -.43661848E-08  -.36326529E-08  -.28880259E-08
  -.21378411E-08  -.13875619E-08  -.64254105E-09   .92015563E-10   .81108212E-09
   .15098449E-08   .21837322E-08   .28284410E-08   .34399628E-08   .40146055E-08
   .45490128E-08   .50401819E-08   .54854767E-08   .58826399E-08   .62298005E-08
   .65254800E-08   .67685946E-08   .69584548E-08   .70947630E-08   .71776071E-08
   .72074528E-08   .71851324E-08   .71118318E-08   .69890754E-08   .68187080E-08
   .66028761E-08   .63440066E-08   .60447839E-08   .57081263E-08   .53371603E-08
   .49351952E-08   .45056953E-08   .40522531E-08   .35785610E-08   .30883837E-08
   .25855296E-08   .20738238E-08   .15570803E-08   .10390752E-08   .52352133E-09
   .14042568E-10  -.48584956E-09  -.97277871E-09  -.14435249E-08  -.18950444E-08
  -.23244875E-08  -.27292153E-08  -.31068144E-08  -.34551091E-08  -.37721728E-08
  -.40563366E-08  -.43061964E-08  -.45206176E-08  -.46987381E-08  -.48399695E-08
  -.49439955E-08  -.50107699E-08  -.50405111E-08  -.50336958E-08  -.49910513E-08
  -.49135450E-08  -.48023734E-08  -.46589495E-08  -.44848888E-08  -.42819938E-08
  -.40522383E-08  -.37977500E-08  -.35207927E-08  -.32237477E-08  -.29090953E-08
  -.25793948E-08  -.22372655E-08  -.18853670E-08  -.15263794E-08  -.11629844E-08
  -.79784635E-09  -.43359327E-09  -.72799495E-10   .28203176E-09   .62848476E-09
   .96424666E-09   .12871220E-08   .15950462E-08   .18860975E-08   .21585083E-08
   .24106745E-08   .26411641E-08   .28487244E-08   .30322872E-08   .31909733E-08
   .33240956E-08   .34311600E-08   .35118656E-08   .35661039E-08   .35939553E-08
   .35956860E-08   .35717425E-08   .35227450E-08   .34494804E-08   .33528936E-08
   .32340783E-08   .30942663E-08   .29348165E-08   .27572033E-08   .25630040E-08
   .23538860E-08   .21315933E-08   .18979330E-08   .16547613E-08   .14039698E-08
   .11474714E-08   .88718628E-09   .62502856E-09   .36289261E-09   .10264019E-09
  -.15391220E-09  -.40500534E-09  -.64894870E-09  -.88413123E-09  -.11090314E-08
  -.13222262E-08  -.15223998E-08  -.17083508E-08  -.18789990E-08  -.20333906E-08
  -.21707030E-08  -.22902484E-08  -.23914765E-08  -.24739756E-08  -.25374738E-08
  -.25818381E-08  -.26070731E-08  -.26133188E-08  -.26008472E-08  -.25700583E-08
  -.25214750E-08  -.24557375E-08  -.23735967E-08  -.22759072E-08  -.21636194E-08
  -.20377713E-08  -.18994798E-08  -.17499314E-08  -.15903725E-08  -.14221001E-08
  -.12464514E-08  -.10647939E-08  -.87851521E-09  -.68901289E-09  -.49768450E-09
  -.30591769E-09  -.11508062E-09   .73487425E-10   .25848497E-09   .43865693E-09
   .61280271E-09   .77978380E-09   .93853077E-09   .10880497E-08   .12274281E-08
   .13558397E-08   .14725493E-08   .15769161E-08   .16683972E-08   .17465493E-08
   .18110304E-08   .18616010E-08   .18981237E-08   .19205624E-08   .19289815E-08
   .19235436E-08   .19045064E-08   .18722201E-08   .18271228E-08   .17697363E-08
   .17006614E-08   .16205717E-08   .15302083E-08   .14303733E-08   .13219233E-08
   .12057622E-08   .10828344E-08   .95411728E-09   .82061409E-09   .68334614E-09
   .54334547E-09   .40164740E-09   .25928318E-09   .11727273E-09  -.23382316E-10
  -.16170541E-09  -.29675161E-09  -.42761373E-09  -.55342816E-09  -.67338029E-09
  -.78670949E-09  -.89271367E-09  -.99075328E-09  -.10802549E-08  -.11607143E-08
  -.12316988E-08  -.12928494E-08  -.13438821E-08  -.13845888E-08  -.14148375E-08
  -.14345722E-08  -.14438120E-08  -.14426501E-08  -.14312517E-08  -.14098518E-08
  -.13787529E-08  -.13383212E-08  -.12889834E-08  -.12312229E-08  -.11655753E-08
  -.10926239E-08  -.10129950E-08  -.92735272E-09  -.83639364E-09  -.74084168E-09
  -.64144238E-09  -.53895740E-09  -.43415887E-09  -.32782384E-09  -.22072867E-09
  -.11364361E-09  -.73274329E-11   .97477725E-10   .20005137E-09   .29969939E-09
   .39575859E-09   .48760088E-09   .57463721E-09   .65632114E-09   .73215208E-09
   .80167811E-09   .86449851E-09   .92026579E-09   .96868739E-09   .10095269E-08
   .10426051E-08   .10677999E-08   .10850470E-08   .10943391E-08   .10957253E-08
   .10893098E-08   .10752503E-08   .10537566E-08   .10250877E-08   .98954970E-09
   .94749293E-09   .89930866E-09   .84542588E-09   .78630773E-09   .72244771E-09
   .65436579E-09   .58260437E-09   .50772411E-09   .43029973E-09   .35091577E-09
   .27016231E-09   .18863074E-09   .10690958E-09   .25580361E-10  -.54786390E-10
  -.13363499E-09  -.21042831E-09  -.28465132E-09  -.35581440E-09  -.42345643E-09
  -.48714763E-09  -.54649219E-09  -.60113052E-09  -.65074134E-09  -.69504338E-09
  -.73379679E-09  -.76680430E-09  -.79391195E-09  -.81500965E-09  -.83003126E-09
  -.83895453E-09  -.84180057E-09  -.83863318E-09  -.82955772E-09  -.81471989E-09
  -.79430406E-09  -.76853148E-09  -.73765819E-09  -.70197279E-09  -.66179388E-09
  -.61746744E-09  -.56936404E-09  -.51787584E-09  -.46341357E-09  -.40640335E-09
  -.34728351E-09  -.28650130E-09  -.22450963E-09  -.16176381E-09  -.98718301E-10
  -.35823498E-10   .26477350E-10   .87751192E-10   .14757808E-09   .20555397E-09
   .26129333E-09   .31443161E-09   .36462755E-09   .41156528E-09   .45495616E-09
   .49454048E-09   .53008890E-09   .56140368E-09   .58831958E-09   .61070470E-09
   .62846086E-09   .64152390E-09   .64986366E-09   .65348376E-09   .65242111E-09
   .64674518E-09   .63655715E-09   .62198869E-09   .60320071E-09   .58038177E-09
   .55374645E-09   .52353342E-09   .49000351E-09   .45343754E-09   .41413410E-09
   .37240719E-09   .32858380E-09   .28300147E-09   .23600575E-09   .18794765E-09
   .13918111E-09   .90060481E-10   .40937968E-10  -.78387652E-11  -.55929019E-10
  -.10300136E-09  -.14873584E-09  -.19282611E-09  -.23498138E-09  -.27492829E-09
  -.31241260E-09  -.34720075E-09  -.37908122E-09  -.40786574E-09  -.43339035E-09
  -.45551618E-09  -.47413018E-09  -.48914553E-09  -.50050192E-09  -.50816570E-09
  -.51212967E-09  -.51241290E-09  -.50906018E-09  -.50214142E-09  -.49175082E-09
  -.47800591E-09  -.46104640E-09  -.44103296E-09  -.41814576E-09  -.39258302E-09
  -.36455931E-09  -.33430392E-09  -.30205896E-09  -.26807757E-09  -.23262198E-09
  -.19596149E-09  -.15837058E-09  -.12012682E-09  -.81508928E-10  -.42794784E-10
  -.42594607E-11   .33826661E-10   .71199745E-10   .10760428E-09   .14279477E-09
   .17653735E-09   .20861129E-09   .23881036E-09   .26694415E-09   .29283917E-09
   .31633991E-09   .33730966E-09   .35563130E-09   .37120782E-09   .38396281E-09
   .39384072E-09   .40080698E-09   .40484805E-09   .40597115E-09   .40420405E-09
   .39959460E-09   .39221009E-09   .38213662E-09   .36947820E-09   .35435585E-09
   .33690648E-09   .31728179E-09   .29564698E-09   .27217945E-09   .24706736E-09
   .22050824E-09   .19270740E-09   .16387647E-09   .13423178E-09   .10399279E-09
   .73380513E-10   .42615941E-10   .11918472E-10  -.18495604E-10  -.48414597E-10
  -.77632852E-10  -.10595213E-09  -.13318290E-09  -.15914561E-09  -.18367178E-09
 atomic pseudo charge-density
   .11000000E+02   .10985397E+02   .10941885E+02   .10870331E+02   .10772132E+02
   .10649135E+02   .10503546E+02   .10337825E+02   .10154583E+02   .99564754E+01
   .97461181E+01   .95260091E+01   .92984722E+01   .90656171E+01   .88293152E+01
   .85911896E+01   .83526178E+01   .81147423E+01   .78784889E+01   .76445881E+01
   .74135996E+01   .71859374E+01   .69618932E+01   .67416598E+01   .65253516E+01
   .63130229E+01   .61046838E+01   .59003133E+01   .56998708E+01   .55033043E+01
   .53105579E+01   .51215766E+01   .49363103E+01   .47547158E+01   .45767592E+01
   .44024156E+01   .42316698E+01   .40645158E+01   .39009555E+01   .37409982E+01
   .35846591E+01   .34319579E+01   .32829175E+01   .31375629E+01   .29959195E+01
   .28580122E+01   .27238639E+01   .25934952E+01   .24669228E+01   .23441593E+01
   .22252120E+01   .21100832E+01   .19987691E+01   .18912599E+01   .17875397E+01
   .16875862E+01   .15913708E+01   .14988590E+01   .14100100E+01   .13247774E+01
   .12431094E+01   .11649488E+01   .10902336E+01   .10188975E+01   .95086980E+00
   .88607627E+00   .82443929E+00   .76587826E+00   .71031007E+00   .65764941E+00
   .60780918E+00   .56070084E+00   .51623475E+00   .47432052E+00   .43486730E+00
   .39778411E+00   .36298007E+00   .33036470E+00   .29984817E+00   .27134150E+00
   .24475675E+00   .22000727E+00   .19700780E+00   .17567468E+00   .15592596E+00
   .13768152E+00   .12086320E+00   .10539487E+00   .91202534E-01   .78214370E-01
   .66360802E-01   .55574543E-01   .45790619E-01   .36946401E-01   .28981612E-01
   .21838334E-01   .15461004E-01   .97964041E-02   .47936394E-02   .40411811E-03
  -.34184804E-02  -.67182406E-02  -.95370507E-02  -.11914647E-01  -.13888661E-01
  -.15494670E-01  -.16766255E-01  -.17735049E-01  -.18430803E-01  -.18881443E-01
  -.19113130E-01  -.19150325E-01  -.19015849E-01  -.18730950E-01  -.18315362E-01
  -.17787375E-01  -.17163891E-01  -.16460493E-01  -.15691502E-01  -.14870043E-01
  -.14008103E-01  -.13116589E-01  -.12205389E-01  -.11283425E-01  -.10358713E-01
  -.94384111E-02  -.85288770E-02  -.76357147E-02  -.67638251E-02  -.59174527E-02
  -.51002311E-02  -.43152267E-02  -.35649807E-02  -.28515490E-02  -.21765409E-02
  -.15411557E-02  -.94621751E-03  -.39220874E-03   .12069844E-03   .59261213E-03
   .10238924E-02   .14151244E-02   .17670932E-02   .20807602E-02   .23572407E-02
   .25977828E-02   .28037484E-02   .29765943E-02   .31178559E-02   .32291310E-02
   .33120656E-02   .33683399E-02   .33996567E-02   .34077291E-02   .33942710E-02
   .33609869E-02   .33095639E-02   .32416638E-02   .31589157E-02   .30629106E-02
   .29551953E-02   .28372680E-02   .27105737E-02   .25765011E-02   .24363792E-02
   .22914750E-02   .21429915E-02   .19920659E-02   .18397690E-02   .16871037E-02
   .15350055E-02   .13843416E-02   .12359119E-02   .10904491E-02   .94862009E-03
   .81102621E-03   .67820525E-03   .55063266E-03   .42872324E-03   .31283302E-03
   .20326120E-03   .10025228E-03   .39982858E-05  -.85358961E-04  -.16772541E-03
  -.24305236E-03  -.31133391E-03  -.37260443E-03  -.42693598E-03  -.47443568E-03
  -.51524313E-03  -.54952781E-03  -.57748641E-03  -.59934036E-03  -.61533319E-03
  -.62572805E-03  -.63080528E-03  -.63085991E-03  -.62619938E-03  -.61714120E-03
  -.60401072E-03  -.58713903E-03  -.56686082E-03  -.54351243E-03  -.51742998E-03
  -.48894750E-03  -.45839528E-03  -.42609823E-03  -.39237437E-03  -.35753343E-03
  -.32187558E-03  -.28569018E-03  -.24925471E-03  -.21283384E-03  -.17667849E-03
  -.14102512E-03  -.10609502E-03  -.72093829E-04  -.39211024E-04  -.76196156E-05
   .22524107E-04   .51080720E-04   .77927710E-04   .10295944E-03   .12608699E-03
   .14723800E-03   .16635630E-03   .18340157E-03   .19834890E-03   .21118828E-03
   .22192398E-03   .23057397E-03   .23716921E-03   .24175288E-03   .24437968E-03
   .24511495E-03   .24403386E-03   .24122054E-03   .23676719E-03   .23077317E-03
   .22334408E-03   .21459089E-03   .20462896E-03   .19357721E-03   .18155715E-03
   .16869206E-03   .15510609E-03   .14092345E-03   .12626762E-03   .11126052E-03
   .96021849E-04   .80668324E-04   .65313069E-04   .50064988E-04   .35028204E-04
   .20301546E-04   .59780890E-05  -.78552611E-05  -.21118123E-04  -.33736948E-04
  -.45645265E-04  -.56783889E-04  -.67101055E-04  -.76552517E-04  -.85101588E-04
  -.92719129E-04  -.99383490E-04  -.10508041E-03  -.10980286E-03  -.11355086E-03
  -.11633123E-03  -.11815734E-03  -.11904880E-03  -.11903111E-03  -.11813530E-03
  -.11639756E-03  -.11385879E-03  -.11056421E-03  -.10656287E-03  -.10190722E-03
  -.96652635E-04  -.90856934E-04  -.84579906E-04  -.77882839E-04  -.70828042E-04
  -.63478384E-04  -.55896842E-04  -.48146050E-04  -.40287885E-04  -.32383045E-04
  -.24490671E-04  -.16667973E-04  -.89698907E-05  -.14487730E-05   .58459095E-05
   .12867829E-04   .19574031E-04   .25925142E-04   .31885537E-04   .37423483E-04
   .42511251E-04   .47125191E-04   .51245787E-04   .54857670E-04   .57949610E-04
   .60514475E-04   .62549166E-04   .64054517E-04   .65035186E-04   .65499504E-04
   .65459314E-04   .64929787E-04   .63929217E-04   .62478804E-04   .60602416E-04
   .58326347E-04   .55679054E-04   .52690898E-04   .49393866E-04   .45821299E-04
   .42007611E-04   .37988012E-04   .33798232E-04   .29474244E-04   .25052001E-04
   .20567173E-04   .16054898E-04   .11549539E-04   .70844562E-05   .26917917E-05
  -.15977320E-05  -.57549973E-05  -.97526605E-05  -.13565304E-04  -.17169571E-04
  -.20544277E-04  -.23670514E-04  -.26531721E-04  -.29113747E-04  -.31404890E-04
  -.33395916E-04  -.35080063E-04  -.36453029E-04  -.37512930E-04  -.38260261E-04
  -.38697820E-04  -.38830634E-04  -.38665863E-04  -.38212687E-04  -.37482191E-04
  -.36487232E-04  -.35242298E-04  -.33763357E-04  -.32067704E-04  -.30173798E-04
  -.28101095E-04  -.25869878E-04  -.23501087E-04  -.21016146E-04  -.18436793E-04
  -.15784910E-04  -.13082358E-04  -.10350812E-04  -.76116113E-05  -.48856034E-05
  -.21930046E-05   .44673500E-06   .30150567E-05   .54944091E-05   .78683529E-05
   .10121656E-04   .12240376E-04   .14211932E-04   .16025166E-04   .17670387E-04
   .19139411E-04   .20425581E-04   .21523781E-04   .22430436E-04   .23143498E-04
   .23662427E-04   .23988155E-04   .24123046E-04   .24070838E-04   .23836587E-04
   .23426594E-04   .22848324E-04   .22110329E-04   .21222152E-04   .20194231E-04
   .19037803E-04   .17764798E-04   .16387729E-04   .14919592E-04   .13373751E-04
   .11763828E-04   .10103600E-04   .84068864E-05   .66874467E-05   .49588787E-05
   .32345192E-05   .15273509E-05  -.15008703E-06  -.17857827E-05  -.33683290E-05
  -.48869947E-05  -.63317897E-05  -.76935217E-05  -.89638467E-05  -.10135312E-04
  -.11201390E-04  -.12156505E-04  -.12996057E-04  -.13716426E-04  -.14314981E-04
  -.14790075E-04  -.15141035E-04  -.15368142E-04  -.15472608E-04  -.15456544E-04
  -.15322924E-04  -.15075540E-04  -.14718958E-04  -.14258461E-04  -.13699996E-04
  -.13050109E-04  -.12315888E-04  -.11504891E-04  -.10625079E-04  -.96847519E-05
  -.86924696E-05  -.76569871E-05  -.65871821E-05  -.54919850E-05  -.43803105E-05
  -.32609903E-05  -.21427090E-05  -.10339412E-05   .57107187E-07   .11225549E-05
   .21548973E-05   .31470541E-05   .40924132E-05   .49848702E-05   .58188618E-05
   .65893964E-05   .72920779E-05   .79231254E-05   .84793878E-05   .89583525E-05
   .93581503E-05   .96775546E-05   .99159755E-05   .10073450E-04   .10150628E-04
   .10148751E-04   .10069632E-04   .99156273E-05   .96896064E-05   .93949186E-05
   .90353567E-05   .86151184E-05   .81387653E-05   .76111802E-05   .70375227E-05
   .64231841E-05   .57737414E-05   .50949109E-05   .43925018E-05   .36723706E-05
   .29403753E-05   .22023314E-05   .14639691E-05   .73089158E-06   .85360577E-08
  -.69786382E-06  -.13833127E-05  -.20430859E-05  -.26727588E-05  -.32682336E-05
  -.38257628E-05  -.43419693E-05  -.48138640E-05  -.52388591E-05  -.56147789E-05
  -.59398667E-05  -.62127887E-05  -.64326346E-05  -.65989148E-05  -.67115548E-05
  -.67708864E-05  -.67776360E-05  -.67329104E-05  -.66381798E-05  -.64952589E-05
  -.63062852E-05  -.60736958E-05  -.58002026E-05  -.54887653E-05  -.51425643E-05
  -.47649711E-05  -.43595192E-05  -.39298737E-05  -.34798010E-05  -.30131382E-05
  -.25337625E-05  -.20455617E-05  -.15524040E-05  -.10581103E-05  -.56642597E-06
  -.80994540E-07   .39466716E-06   .85719269E-06   .13033879E-05   .17302510E-05
   .21349907E-05   .25150428E-05   .28680840E-05   .31920439E-05   .34851155E-05
   .37457621E-05   .39727234E-05   .41650189E-05   .43219484E-05   .44430920E-05
   .45283061E-05   .45777194E-05   .45917251E-05   .45709726E-05   .45163571E-05
   .44290073E-05   .43102720E-05   .41617051E-05   .39850498E-05   .37822213E-05
   .35552887E-05   .33064565E-05   .30380448E-05   .27524702E-05   .24522251E-05
   .21398578E-05   .18179523E-05   .14891085E-05   .11559224E-05   .82096682E-06
   .48677312E-06   .15581308E-06  -.16951798E-06  -.48691735E-06  -.79418997E-06
  -.10892623E-05  -.13701952E-05  -.16351952E-05  -.18826245E-05  -.21110102E-05
  -.23190512E-05  -.25056244E-05  -.26697889E-05  -.28107892E-05  -.29280569E-05
  -.30212108E-05  -.30900557E-05  -.31345798E-05  -.31549511E-05  -.31515122E-05
  -.31247740E-05  -.30754085E-05  -.30042403E-05  -.29122377E-05  -.28005020E-05
  -.26702568E-05  -.25228369E-05  -.23596753E-05  -.21822916E-05  -.19922783E-05
  -.17912880E-05  -.15810199E-05  -.13632064E-05  -.11396002E-05  -.91196018E-06
  -.68203932E-06  -.45157156E-06  -.22225966E-06   .42365121E-08   .22631123E-06
   .44242347E-06   .65110676E-06   .85097834E-06   .10407475E-05   .12192231E-05
   .13853199E-05   .15380649E-05   .16766014E-05   .18001932E-05   .19082276E-05
   .20002169E-05   .20758001E-05   .21347420E-05   .21769331E-05   .22023879E-05
   .22112414E-05   .22037470E-05   .21802711E-05   .21412890E-05   .20873790E-05
   .20192161E-05   .19375654E-05   .18432747E-05   .17372668E-05   .16205316E-05
   .14941170E-05   .13591213E-05   .12166833E-05   .10679740E-05   .91418734E-06
   .75653127E-06   .59621878E-06   .43445917E-06   .27244944E-06   .11136599E-06
  -.47643378E-07  -.20346716E-06  -.35503736E-06  -.50133628E-06  -.64140287E-06
  -.77433846E-06  -.89931202E-06  -.10155648E-05  -.11224144E-05  -.12192582E-05
  -.13055760E-05  -.13809326E-05  -.14449789E-05  -.14974528E-05  -.15381799E-05
  -.15670726E-05  -.15841294E-05  -.15894336E-05  -.15831505E-05  -.15655254E-05
  -.15368800E-05  -.14976090E-05  -.14481760E-05  -.13891090E-05  -.13209951E-05
  -.12444761E-05  -.11602424E-05  -.10690276E-05  -.97160230E-06  -.86876826E-06
  -.76135216E-06  -.65019927E-06  -.53616726E-06  -.42011988E-06  -.30292083E-06
  -.18542763E-06  -.68485737E-07   .47077263E-07   .16045712E-06   .27087824E-06
   .37759863E-06   .47991456E-06   .57716490E-06   .66873507E-06   .75406057E-06
   .83263016E-06   .90398856E-06   .96773878E-06   .10235439E-05   .10711287E-05
   .11102802E-05   .11408486E-05   .11627470E-05   .11759515E-05   .11804997E-05
   .11764901E-05   .11640802E-05   .11434846E-05   .11149725E-05   .10788651E-05
   .10355327E-05   .98539104E-06   .92889797E-06   .86654957E-06   .79887608E-06
   .72643772E-06   .64982029E-06   .56963073E-06   .48649255E-06   .40104118E-06
   .31391941E-06   .22577274E-06   .13724480E-06   .48972904E-07  -.38416374E-07
  -.12431142E-06  -.20811966E-06  -.28927148E-06  -.36722388E-06  -.44146394E-06
  -.51151198E-06  -.57692451E-06  -.63729686E-06  -.69226547E-06  -.74150991E-06
  -.78475458E-06  -.82177006E-06  -.85237408E-06  -.87643225E-06  -.89385836E-06
  -.90461437E-06  -.90871008E-06  -.90620247E-06  -.89719469E-06  -.88183475E-06
  -.86031396E-06  -.83286501E-06  -.79975985E-06  -.76130726E-06  -.71785027E-06
  -.66976326E-06  -.61744901E-06  -.56133545E-06  -.50187238E-06  -.43952797E-06
  -.37478532E-06  -.30813876E-06  -.24009032E-06  -.17114600E-06  -.10181220E-06
  -.32592105E-07   .36017860E-07   .10353144E-06   .16947589E-06   .23339520E-06
   .29485311E-06   .35343599E-06   .40875556E-06   .46045131E-06   .50819281E-06
   .55168171E-06   .59065351E-06   .62487908E-06   .65416591E-06   .67835911E-06
   .69734208E-06   .71103696E-06   .71940477E-06   .72244527E-06   .72019657E-06
   .71273443E-06   .70017137E-06   .68265540E-06   .66036869E-06   .63352581E-06
   .60237193E-06   .56718070E-06   .52825198E-06   .48590947E-06   .44049808E-06
   .39238127E-06   .34193821E-06   .28956092E-06   .23565131E-06   .18061816E-06
   .12487414E-06   .68832782E-07   .12905467E-07  -.42501496E-07  -.96989770E-07
  -.15017178E-06  -.20167343E-06  -.25113665E-06  -.29822185E-06  -.34261019E-06
  -.38400572E-06  -.42213726E-06  -.45676018E-06  -.48765786E-06  -.51464307E-06
  -.53755899E-06  -.55628009E-06  -.57071273E-06  -.58079557E-06  -.58649965E-06
  -.58782837E-06  -.58481708E-06  -.57753256E-06  -.56607225E-06  -.55056318E-06
  -.53116084E-06  -.50804771E-06  -.48143171E-06  -.45154440E-06  -.41863910E-06
  -.38298880E-06  -.34488397E-06  -.30463030E-06  -.26254628E-06  -.21896076E-06
  -.17421041E-06  -.12863723E-06  -.82585926E-07  -.36401385E-07   .95738799E-08
   .55002225E-07   .99553319E-07   .14290651E-06   .18475311E-06   .22479855E-06
   .26276443E-06   .29839042E-06   .33143604E-06   .36168222E-06   .38893275E-06
   .41301550E-06   .43378348E-06   .45111570E-06   .46491783E-06   .47512260E-06
   .48169011E-06   .48460785E-06   .48389052E-06   .47957967E-06   .47174316E-06
   .46047440E-06   .44589140E-06   .42813572E-06   .40737110E-06   .38378214E-06
   .35757268E-06   .32896409E-06   .29819351E-06   .26551188E-06   .23118198E-06
   .19547636E-06   .15867519E-06   .12106410E-06   .82932031E-07   .44569007E-07
   .62639712E-08  -.31697368E-07  -.69034645E-07  -.10547488E-06  -.14075448E-06
  -.17462107E-06  -.20683535E-06  -.23717269E-06  -.26542475E-06  -.29140083E-06
  -.31492914E-06  -.33585794E-06  -.35405644E-06  -.36941562E-06  -.38184882E-06
  -.39129217E-06  -.39770485E-06  -.40106920E-06  -.40139060E-06  -.39869722E-06
  -.39303958E-06  -.38448999E-06  -.37314174E-06  -.35910826E-06  -.34252202E-06
  -.32353339E-06  -.30230933E-06  -.27903195E-06  -.25389701E-06  -.22711233E-06
  -.19889608E-06  -.16947504E-06  -.13908281E-06  -.10795799E-06  -.76342315E-07
  -.44478792E-07  -.12609871E-07   .19024393E-07   .50188132E-07   .80651406E-07
   .11019188E-06   .13859643E-06   .16566267E-06   .19120035E-06   .21503272E-06
   .23699766E-06   .25694883E-06   .27475656E-06   .29030870E-06   .30351126E-06
   .31428897E-06   .32258561E-06   .32836429E-06   .33160752E-06   .33231712E-06
   .33051404E-06   .32623801E-06   .31954702E-06   .31051673E-06   .29923969E-06
   .28582449E-06   .27039477E-06   .25308812E-06   .23405491E-06   .21345699E-06
   .19146639E-06   .16826386E-06   .14403747E-06   .11898104E-06   .93292654E-07
   .67173090E-07   .40824282E-07   .14447765E-07  -.11756845E-07  -.37593349E-07
  -.62870414E-07  -.87402976E-07  -.11101357E-06  -.13353362E-06  -.15480458E-06
  -.17467905E-06  -.19302180E-06  -.20971061E-06  -.22463712E-06  -.23770743E-06
  -.24884273E-06  -.25797970E-06  -.26507080E-06  -.27008451E-06  -.27300539E-06
  -.27383399E-06  -.27258669E-06  -.26929544E-06  -.26400730E-06  -.25678394E-06
  -.24770104E-06  -.23684752E-06  -.22432472E-06  -.21024556E-06  -.19473346E-06
  -.17792137E-06  -.15995060E-06  -.14096968E-06  -.12113313E-06  -.10060026E-06
  -.79533870E-07  -.58098974E-07  -.36461551E-07  -.14787260E-07   .67598138E-08
   .28018377E-07   .48831123E-07   .69045875E-07   .88516680E-07   .10710484E-06
   .12467989E-06   .14112047E-06   .15631517E-06   .17016322E-06   .18257519E-06
   .19347347E-06   .20279280E-06   .21048054E-06   .21649702E-06   .22081561E-06
   .22342283E-06   .22431828E-06   .22351449E-06   .22103670E-06   .21692251E-06
   .21122145E-06   .20399447E-06   .19531334E-06   .18526000E-06   .17392579E-06
   .16141069E-06   .14782241E-06   .13327553E-06   .11789051E-06   .10179275E-06
   .85111548E-07   .67979116E-07   .50529511E-07   .32897619E-07   .15218129E-07
  -.23754820E-08  -.19751941E-07  -.36783139E-07  -.53345058E-07  -.69318658E-07
  -.84590709E-07  -.99054577E-07  -.11261095E-06  -.12516850E-06  -.13664448E-06
  -.14696522E-06  -.15606662E-06  -.16389448E-06  -.17040480E-06  -.17556401E-06
 14.3619175131998169 T
 Non local Part
 0 2 1.67715544361809332
 -17.8643244939969534 -0.219604490477363468 -0.219604490477363468 -9.23507190610267870
 Reciprocal Space Part
   .84061750E+01   .83895833E+01   .83399698E+01   .82578171E+01   .81439222E+01
   .79993853E+01   .78255950E+01   .76242091E+01   .73971320E+01   .71464891E+01
   .68745982E+01   .65839386E+01   .62771188E+01   .59568425E+01   .56258739E+01
   .52870031E+01   .49430117E+01   .45966396E+01   .42505525E+01   .39073120E+01
   .35693476E+01   .32389316E+01   .29181567E+01   .26089176E+01   .23128946E+01
   .20315428E+01   .17660833E+01   .15174990E+01   .12865337E+01   .10736949E+01
   .87925979E+00   .70328450E+00   .54561600E+00   .40590673E+00   .28363128E+00
   .17810487E+00   .88503316E-01   .13883924E-01  -.46792972E-01  -.94642269E-01
  -.13083252E+00  -.15656492E+00  -.17305309E+00  -.18150414E+00  -.18310105E+00
  -.17898676E+00  -.17025015E+00  -.15791391E+00  -.14292450E+00  -.12614432E+00
  -.10834581E+00  -.90207850E-01  -.72313998E-01  -.55152691E-01  -.39119187E-01
  -.24519079E-01  -.11573203E-01  -.42372666E-03   .88587920E-02   .16267607E-01
   .21851462E-01   .25705964E-01   .27964865E-01   .28791445E-01   .28370168E-01
   .26898792E-01   .24581040E-01   .21619977E-01   .18212154E-01   .14542610E-01
   .10780743E-01   .70770955E-02   .35610155E-02   .33919137E-03  -.25050042E-02
  -.49114177E-02  -.68423453E-02  -.82811772E-02  -.92305520E-02  -.97101215E-02
  -.97540274E-02  -.94081909E-02  -.87275120E-02  -.77730704E-02  -.66094110E-02
  -.53019874E-02  -.39148265E-02  -.25084656E-02  -.11382009E-02   .14732755E-03
   .13071984E-02   .23089178E-02   .31287824E-02   .37519152E-02   .41720012E-02
   .43907554E-02   .44171651E-02   .42665471E-02   .39594688E-02   .35205767E-02
 Real Space Part
   .37269298E+01   .37266306E+01   .37257090E+01   .37240948E+01   .37216733E+01
   .37182899E+01   .37137552E+01   .37078518E+01   .37003419E+01   .36909757E+01
   .36794996E+01   .36656656E+01   .36492389E+01   .36300063E+01   .36077832E+01
   .35824193E+01   .35538030E+01   .35218652E+01   .34865805E+01   .34479674E+01
   .34060868E+01   .33610395E+01   .33129616E+01   .32620195E+01   .32084041E+01
   .31523232E+01   .30939956E+01   .30336432E+01   .29714844E+01   .29077280E+01
   .28425672E+01   .27761754E+01   .27087026E+01   .26402729E+01   .25709840E+01
   .25009074E+01   .24300900E+01   .23585570E+01   .22863158E+01   .22133609E+01
   .21396794E+01   .20652562E+01   .19900811E+01   .19141535E+01   .18374892E+01
   .17601243E+01   .16821206E+01   .16035678E+01   .15245866E+01   .14453293E+01
   .13659800E+01   .12867528E+01   .12078896E+01   .11296564E+01   .10523386E+01
   .97623563E+00   .90165510E+00   .82890619E+00   .75829310E+00   .69010848E+00
   .62462709E+00   .56209983E+00   .50274849E+00   .44676122E+00   .39428890E+00
   .34544248E+00   .30029143E+00   .25886318E+00   .22114359E+00   .18707853E+00
   .15657620E+00   .12951041E+00   .10572442E+00   .85035414E-01   .67239236E-01
   .52115465E-01   .39432481E-01   .28952477E-01   .20436250E-01   .13647651E-01
   .83576056E-02   .43476029E-02   .14126181E-02  -.63658028E-03  -.19717434E-02
  -.27460686E-02  -.30937095E-02  -.31298249E-02  -.29511080E-02  -.26367257E-02
  -.22495927E-02  -.18379014E-02  -.14368263E-02  -.10703282E-02  -.75298507E-03
  -.49178558E-03  -.28783199E-03  -.13790610E-03  -.35865512E-04   .26152760E-04
 Reciprocal Space Part
   .10301140E+02   .10253913E+02   .10112854E+02   .98798138E+01   .95578438E+01
   .91511482E+01   .86650150E+01   .81057319E+01   .74804865E+01   .67972516E+01
   .60646603E+01   .52918705E+01   .44884232E+01   .36640957E+01   .28287538E+01
   .19922041E+01   .11640494E+01   .35355072E+00  -.43050315E+00  -.11799159E+01
  -.18871915E+01  -.25456285E+01  -.31493986E+01  -.36936100E+01  -.41743522E+01
  -.45887251E+01  -.49348491E+01  -.52118590E+01  -.54198809E+01  -.55599929E+01
  -.56341719E+01  -.56452268E+01  -.55967196E+01  -.54928777E+01  -.53384971E+01
  -.51388407E+01  -.48995322E+01  -.46264481E+01  -.43256107E+01  -.40030827E+01
  -.36648659E+01  -.33168065E+01  -.29645067E+01  -.26132459E+01  -.22679112E+01
  -.19329386E+01  -.16122661E+01  -.13092976E+01  -.10268791E+01  -.76728693E+00
  -.53222646E+00  -.32284229E+00  -.13973818E+00   .16993955E-01   .14773702E+00
   .25330491E+00   .33489316E+00   .39402540E+00   .43249698E+00   .45231705E+00
   .45565044E+00   .44476058E+00   .42195464E+00   .38953176E+00   .34973550E+00
   .30471116E+00   .25646856E+00   .20685072E+00   .15750890E+00   .10988386E+00
   .65193531E-01   .24426849E-01  -.11656578E-01  -.42521333E-01  -.67846151E-01
  -.87509557E-01  -.10157188E+00  -.11025433E+00  -.11391589E+00  -.11302879E+00
  -.10815327E+00  -.99912252E-01  -.88966813E-01  -.75992722E-01  -.61658821E-01
  -.46607551E-01  -.31438013E-01  -.16691816E-01  -.28418682E-02   .97158058E-02
   .20667242E-01   .29782801E-01   .36916692E-01   .42003983E-01   .45055390E-01
   .46150176E-01   .45427510E-01   .43076673E-01   .39326503E-01   .34434434E-01
 Real Space Part
  -.17511132E+02  -.17482923E+02  -.17398652E+02  -.17259370E+02  -.17066802E+02
  -.16823289E+02  -.16531730E+02  -.16195501E+02  -.15818358E+02  -.15404344E+02
  -.14957681E+02  -.14482664E+02  -.13983556E+02  -.13464493E+02  -.12929391E+02
  -.12381873E+02  -.11825208E+02  -.11262260E+02  -.10695465E+02  -.10126819E+02
  -.95578833E+01  -.89898144E+01  -.84233999E+01  -.78591140E+01  -.72971821E+01
  -.67376535E+01  -.61804788E+01  -.56255898E+01  -.50729764E+01  -.45227597E+01
  -.39752564E+01  -.34310336E+01  -.28909502E+01  -.23561842E+01  -.18282452E+01
  -.13089707E+01  -.80050645E+00  -.30527249E+00   .17408475E+00   .63475212E+00
   .10738190E+01   .14883534E+01   .18754829E+01   .22324759E+01   .25568225E+01
   .28463099E+01   .30990914E+01   .33137458E+01   .34893257E+01   .36253923E+01
   .37220367E+01   .37798868E+01   .38000990E+01   .37843363E+01   .37347328E+01
   .36538465E+01   .35446015E+01   .34102221E+01   .32541612E+01   .30800237E+01
   .28914898E+01   .26922385E+01   .24858738E+01   .22758567E+01   .20654434E+01
   .18576317E+01   .16551171E+01   .14602591E+01   .12750569E+01   .11011372E+01
   .93975093E+00   .79178052E+00   .65775523E+00   .53787459E+00   .43203809E+00
   .33987992E+00   .26080730E+00   .19404095E+00   .13865637E+00   .93624544E-01
   .57850919E-01   .30211720E-01   .95866645E-02  -.51124846E-02  -.14917978E-01
  -.20786976E-01  -.23587327E-01  -.24088083E-01  -.22954483E-01  -.20746978E-01
  -.17923801E-01  -.14846497E-01  -.11787807E-01  -.89412753E-02  -.64319718E-02
  -.43277535E-02  -.26505544E-02  -.13872525E-02  -.49974922E-03   .66018854E-04
 Non local Part
 1 2 1.67715544361809332
 -6.74227627979000044 -0.377094300531840732 -0.377094300531840732 -0.270033532587884484
 Reciprocal Space Part
   .00000000E+00   .42074226E+00   .83753782E+00   .12464930E+01   .16438191E+01
   .20258833E+01   .23892559E+01   .27307550E+01   .30474875E+01   .33368840E+01
   .35967303E+01   .38251914E+01   .40208311E+01   .41826240E+01   .43099620E+01
   .44026540E+01   .44609191E+01   .44853744E+01   .44770160E+01   .44371959E+01
   .43675928E+01   .42701796E+01   .41471865E+01   .40010619E+01   .38344308E+01
   .36500513E+01   .34507714E+01   .32394853E+01   .30190901E+01   .27924454E+01
   .25623337E+01   .23314240E+01   .21022393E+01   .18771272E+01   .16582346E+01
   .14474874E+01   .12465740E+01   .10569340E+01   .87975160E+00   .71595307E+00
   .56620917E+00   .43094147E+00   .31033254E+00   .20433967E+00   .11271160E+00
   .35007806E-01  -.29380062E-01  -.81205255E-01  -.12134188E+00  -.15076036E+00
  -.17050282E+00  -.18165889E+00  -.18534250E+00  -.18266973E+00  -.17473853E+00
  -.16261013E+00  -.14729281E+00  -.12972784E+00  -.11077804E+00  -.91218764E-01
  -.71731454E-01  -.52899702E-01  -.35207670E-01  -.19040770E-01  -.46883882E-02
   .76515374E-02   .17866359E-01   .25921220E-01   .31850515E-01   .35748561E-01
   .37759796E-01   .38068738E-01   .36889991E-01   .34458519E-01   .31020404E-01
   .26824284E-01   .22113606E-01   .17119840E-01   .12056725E-01   .71156191E-02
   .24619635E-02  -.17671328E-02  -.54642318E-02  -.85518848E-02  -.10982016E-01
  -.12734470E-01  -.13814848E-01  -.14251741E-01  -.14093521E-01  -.13404798E-01
  -.12262697E-01  -.10753071E-01  -.89667755E-02  -.69961210E-02  -.49315795E-02
  -.28588457E-02  -.85630458E-03   .10070434E-02   .26731727E-02   .40961252E-02
 Real Space Part
   .00000000E+00   .20205252E+00   .40250156E+00   .59977842E+00   .79238300E+00
   .97891554E+00   .11581055E+01   .13288367E+01   .14901678E+01   .16413480E+01
   .17818274E+01   .19112612E+01   .20295087E+01   .21366262E+01   .22328553E+01
   .23186056E+01   .23944335E+01   .24610175E+01   .25191309E+01   .25696120E+01
   .26133344E+01   .26511770E+01   .26839944E+01   .27125903E+01   .27376924E+01
   .27599319E+01   .27798256E+01   .27977639E+01   .28140020E+01   .28286571E+01
   .28417098E+01   .28530102E+01   .28622884E+01   .28691689E+01   .28731882E+01
   .28738153E+01   .28704737E+01   .28625649E+01   .28494926E+01   .28306857E+01
   .28056214E+01   .27738452E+01   .27349898E+01   .26887902E+01   .26350963E+01
   .25738808E+01   .25052451E+01   .24294196E+01   .23467615E+01   .22577486E+01
   .21629701E+01   .20631142E+01   .19589536E+01   .18513287E+01   .17411300E+01
   .16292793E+01   .15167102E+01   .14043498E+01   .12931006E+01   .11838237E+01
   .10773235E+01   .97433481E+00   .87551196E+00   .78142005E+00   .69252906E+00
   .60921038E+00   .53173578E+00   .46027867E+00   .39491764E+00   .33564180E+00
   .28235785E+00   .23489841E+00   .19303151E+00   .15647058E+00   .12488500E+00
   .97910600E-01   .75160015E-01   .56232508E-01   .40723164E-01   .28231181E-01
   .18367185E-01   .10759431E-01   .50588713E-02   .94305840E-03  -.18810865E-02
  -.36755844E-02  -.46707068E-02  -.50651785E-02  -.50271532E-02  -.46958344E-02
  -.41836056E-02  -.35785356E-02  -.29471319E-02  -.23372193E-02  -.17808366E-02
  -.12970584E-02  -.89466105E-03  -.57457418E-03  -.33207052E-03  -.15866656E-03
 Reciprocal Space Part
   .00000000E+00   .99053341E+00   .19650696E+01   .29078510E+01   .38035967E+01
   .46377309E+01   .53966028E+01   .60676915E+01   .66397949E+01   .71031990E+01
   .74498249E+01   .76733513E+01   .77693112E+01   .77351593E+01   .75703117E+01
   .72761542E+01   .68560211E+01   .63151431E+01   .56605662E+01   .49010412E+01
   .40468866E+01   .31098264E+01   .21028050E+01   .10397824E+01  -.64487101E-01
  -.11946891E+01  -.23351930E+01  -.34703002E+01  -.45844942E+01  -.56626864E+01
  -.66904553E+01  -.76542726E+01  -.85417150E+01  -.93416552E+01  -.10044430E+02
  -.10641984E+02  -.11127981E+02  -.11497889E+02  -.11749030E+02  -.11880596E+02
  -.11893635E+02  -.11791004E+02  -.11577282E+02  -.11258668E+02  -.10842833E+02
  -.10338765E+02  -.97565766E+01  -.91073075E+01  -.84027047E+01  -.76549981E+01
  -.68766699E+01  -.60802243E+01  -.52779623E+01  -.44817656E+01  -.37028937E+01
  -.29517988E+01  -.22379612E+01  -.15697495E+01  -.95430592E+00  -.39746099E+00
   .96323339E-01   .52398019E+00   .88383481E+00   .11755727E+01   .14001807E+01
   .15598625E+01   .16579315E+01   .16986851E+01   .16872612E+01   .16294840E+01
   .15317006E+01   .14006134E+01   .12431127E+01   .10661118E+01   .87639092E+00
   .68045084E+00   .48438084E+00   .29374310E+00   .11347560E+00  -.52184629E-01
  -.19975715E+00  -.32655199E+00  -.43068197E+00  -.51105410E+00  -.56734125E+00
  -.59993577E+00  -.60988698E+00  -.59882520E+00  -.56887465E+00  -.52255837E+00
  -.46269795E+00  -.39231110E+00  -.31450992E+00  -.23240278E+00  -.14900208E+00
  -.67140549E-01   .10602367E-01   .81962174E-01   .14503805E+00   .19832784E+00
 Real Space Part
   .00000000E+00   .21564206E+00   .39935686E+00   .52024119E+00   .54940888E+00
   .46092279E+00   .23263763E+00  -.15307164E+00  -.70871769E+00  -.14412623E+01
  -.23518442E+01  -.34356808E+01  -.46821460E+01  -.60750209E+01  -.75929090E+01
  -.92098018E+01  -.10895779E+02  -.12617818E+02  -.14340694E+02  -.16027933E+02
  -.17642804E+02  -.19149308E+02  -.20513138E+02  -.21702590E+02  -.22689395E+02
  -.23449438E+02  -.23963372E+02  -.24217079E+02  -.24201997E+02  -.23915285E+02
  -.23359839E+02  -.22544151E+02  -.21482031E+02  -.20192186E+02  -.18697696E+02
  -.17025374E+02  -.15205062E+02  -.13268863E+02  -.11250336E+02  -.91836882E+01
  -.71029760E+01  -.50413357E+01  -.30302722E+01  -.10990155E+01   .72603783E+00
   .24217868E+01   .39687844E+01   .53514865E+01   .65583916E+01   .75820717E+01
   .84190998E+01   .90698827E+01   .95384077E+01   .98319160E+01   .99605162E+01
   .99367520E+01   .97751387E+01   .94916840E+01   .91034060E+01   .86278636E+01
   .80827095E+01   .74852774E+01   .68522122E+01   .61991495E+01   .55404493E+01
   .48889874E+01   .42560047E+01   .36510135E+01   .30817589E+01   .25542302E+01
   .20727184E+01   .16399124E+01   .12570282E+01   .92396330E+00   .63946958E+00
   .40133698E+00   .20658192E+00   .51633868E-01  -.67485242E-01  -.15499336E+00
  -.21519626E+00  -.25235378E+00  -.27056632E+00  -.27368260E+00  -.26522875E+00
  -.24835826E+00  -.22582144E+00  -.19995279E+00  -.17267403E+00  -.14551042E+00
  -.11961774E+00  -.95817501E-01  -.74637579E-01  -.56356163E-01  -.41046670E-01
  -.28621835E-01  -.18875391E-01  -.11520106E-01  -.62212989E-02  -.26252624E-02
 Non local Part
 2 2 1.67715544361809332
 -0.450175667452960837 0.297310887251298950 0.297310887251298950 0.369340868517538598E-01
 Reciprocal Space Part
   .00000000E+00   .16116963E-01   .64229398E-01   .14362576E+00   .25313279E+00
   .39113421E+00   .55559652E+00   .74410136E+00   .95388386E+00   .11818764E+01
   .14247570E+01   .16790016E+01   .19409386E+01   .22068068E+01   .24728125E+01
   .27351878E+01   .29902478E+01   .32344456E+01   .34644246E+01   .36770670E+01
   .38695381E+01   .40393252E+01   .41842709E+01   .43026001E+01   .43929401E+01
   .44543347E+01   .44862501E+01   .44885747E+01   .44616116E+01   .44060647E+01
   .43230185E+01   .42139117E+01   .40805063E+01   .39248516E+01   .37492440E+01
   .35561851E+01   .33483359E+01   .31284704E+01   .28994291E+01   .26640719E+01
   .24252325E+01   .21856752E+01   .19480535E+01   .17148725E+01   .14884554E+01
   .12709139E+01   .10641238E+01   .86970538E+00   .68900931E+00   .52310780E+00
   .37279110E+00   .23856921E+00   .12067852E+00   .19093184E-01  -.66459366E-01
  -.13647903E+00  -.19167049E+00  -.23291797E+00  -.26125795E+00  -.27785051E+00
  -.28394984E+00  -.28087473E+00  -.26997937E+00  -.25262533E+00  -.23015505E+00
  -.20386737E+00  -.17499551E+00  -.14468786E+00  -.11399177E+00  -.83840606E-01
  -.55044080E-01  -.28281961E-01  -.41010590E-02   .17084628E-01   .34990804E-01
   .49457047E-01   .60438573E-01   .67995935E-01   .72283023E-01   .73533778E-01
   .72048002E-01   .68176688E-01   .62307260E-01   .54849080E-01   .46219601E-01
   .36831439E-01   .27080667E-01   .17336522E-01   .79327243E-02  -.83949102E-03
  -.87365542E-02  -.15565937E-01  -.21187763E-01  -.25514724E-01  -.28510439E-01
  -.30186391E-01  -.30597649E-01  -.29837575E-01  -.28031744E-01  -.25331316E-01
 Real Space Part
   .00000000E+00   .72573748E-02   .28918188E-01   .64652196E-01   .11392114E+00
   .17599648E+00   .24998309E+00   .33484822E+00   .42945419E+00   .53259379E+00
   .64302679E+00   .75951615E+00   .88086244E+00   .10059351E+01   .11336995E+01
   .12632381E+01   .13937663E+01   .15246402E+01   .16553587E+01   .17855578E+01
   .19149983E+01   .20435478E+01   .21711572E+01   .22978337E+01   .24236099E+01
   .25485129E+01   .26725324E+01   .27955906E+01   .29175151E+01   .30380157E+01
   .31566665E+01   .32728946E+01   .33859747E+01   .34950320E+01   .35990512E+01
   .36968934E+01   .37873194E+01   .38690186E+01   .39406427E+01   .40008434E+01
   .40483121E+01   .40818209E+01   .41002623E+01   .41026878E+01   .40883424E+01
   .40566947E+01   .40074615E+01   .39406256E+01   .38564459E+01   .37554609E+01
   .36384831E+01   .35065871E+01   .33610896E+01   .32035229E+01   .30356033E+01
   .28591942E+01   .26762657E+01   .24888528E+01   .22990113E+01   .21087751E+01
   .19201151E+01   .17349001E+01   .15548623E+01   .13815673E+01   .12163890E+01
   .10604911E+01   .91481460E+00   .78007079E+00   .65674146E+00   .54508413E+00
   .44514287E+00   .35676373E+00   .27961412E+00   .21320532E+00   .15691715E+00
   .11002410E+00   .71721863E-01   .41153543E-01   .17434819E-01  -.32269340E-03
  -.12990340E-01  -.21404064E-01  -.26349051E-01  -.28547575E-01  -.28650080E-01
  -.27229437E-01  -.24778211E-01  -.21708667E-01  -.18355210E-01  -.14978865E-01
  -.11773389E-01  -.88726040E-02  -.63585200E-02  -.42698508E-02  -.26105649E-02
  -.13581421E-02  -.47127228E-03   .10321690E-03   .42435514E-03   .55203987E-03
 Reciprocal Space Part
   .00000000E+00  -.21863588E+00  -.86688605E+00  -.19220056E+01  -.33468383E+01
  -.50909213E+01  -.70919868E+01  -.92778167E+01  -.11568396E+02  -.13878302E+02
  -.16119265E+02  -.18202812E+02  -.20042941E+02  -.21558719E+02  -.22676752E+02
  -.23333451E+02  -.23477011E+02  -.23069075E+02  -.22086008E+02  -.20519766E+02
  -.18378321E+02  -.15685633E+02  -.12481176E+02  -.88190265E+01  -.47665422E+01
  -.40266698E+00   .41840856E+01   .88979163E+01   .13638226E+02   .18302232E+02
   .22787645E+02   .26995328E+02   .30831867E+02   .34211981E+02   .37060707E+02
   .39315296E+02   .40926785E+02   .41861185E+02   .42100269E+02   .41641936E+02
   .40500151E+02   .38704464E+02   .36299117E+02   .33341791E+02   .29902007E+02
   .26059242E+02   .21900818E+02   .17519610E+02   .13011659E+02   .84737394E+01
   .40009483E+01  -.31560374E+00  -.43909564E+01  -.81482534E+01  -.11520440E+02
  -.14451663E+02  -.16898344E+02  -.18829897E+02  -.20229097E+02  -.21092071E+02
  -.21427949E+02  -.21258178E+02  -.20615525E+02  -.19542819E+02  -.18091463E+02
  -.16319760E+02  -.14291127E+02  -.12072215E+02  -.97310315E+01  -.73350778E+01
  -.49495844E+01  -.26358717E+01  -.44988509E+00   .15590604E+01   .33493006E+01
   .48875846E+01   .61495691E+01   .71200394E+01   .77928618E+01   .81706793E+01
   .82643702E+01   .80922933E+01   .76793527E+01   .70559160E+01   .62566236E+01
   .53191300E+01   .42828172E+01   .31875195E+01   .20722985E+01   .97430121E+00
  -.72264929E-01  -.10370168E+01  -.18941179E+01  -.26228233E+01  -.32078391E+01
  -.36394934E+01  -.39137218E+01  -.40318771E+01  -.40003763E+01  -.38302050E+01
 Real Space Part
   .00000000E+00  -.17289045E+00  -.68966755E+00  -.15445857E+01  -.27278649E+01
  -.42254049E+01  -.60184242E+01  -.80830595E+01  -.10389970E+02  -.12903992E+02
  -.15583897E+02  -.18382297E+02  -.21245742E+02  -.24115047E+02  -.26925883E+02
  -.29609631E+02  -.32094524E+02  -.34307050E+02  -.36173600E+02  -.37622319E+02
  -.38585109E+02  -.38999727E+02  -.38811895E+02  -.37977358E+02  -.36463801E+02
  -.34252548E+02  -.31339972E+02  -.27738530E+02  -.23477395E+02  -.18602604E+02
  -.13176722E+02  -.72779924E+01  -.99898430E+00   .55552364E+01   .12269375E+02
   .19020554E+02   .25681257E+02   .32122499E+02   .38217106E+02   .43843022E+02
   .48886526E+02   .53245260E+02   .56830972E+02   .59571880E+02   .61414592E+02
   .62325503E+02   .62291641E+02   .61320925E+02   .59441840E+02   .56702528E+02
   .53169343E+02   .48924908E+02   .44065750E+02   .38699586E+02   .32942352E+02
   .26915071E+02   .20740657E+02   .14540764E+02   .84327604E+01   .25269306E+01
  -.30760239E+01  -.82871168E+01  -.13030789E+02  -.17246168E+02  -.20887850E+02
  -.23926205E+02  -.26347219E+02  -.28151896E+02  -.29355266E+02  -.29985047E+02
  -.30080028E+02  -.29688234E+02  -.28864949E+02  -.27670662E+02  -.26169020E+02
  -.24424833E+02  -.22502215E+02  -.20462884E+02  -.18364697E+02  -.16260413E+02
  -.14196740E+02  -.12213649E+02  -.10343971E+02  -.86132551E+01  -.70398762E+01
  -.56353607E+01  -.44048989E+01  -.33480093E+01  -.24593139E+01  -.17293864E+01
  -.11456352E+01  -.69318421E+00  -.35571960E+00  -.11627554E+00   .42064696E-01
   .13556828E+00   .17936411E+00   .18707098E+00   .17054242E+00   .13972305E+00
 PAW radial sets
 321 1.19873651502919287
(5E20.12)                                
 augmentation charges (non sperical)
   .164160165495E+00   .407167509877E+00   .291409622441E+00  -.615038035810E-02   .146512959575E+00
   .116903842004E-01   .407167509877E+00   .831128030927E-01   .324957850471E+00  -.349869771633E-01
   .157920246412E+00   .768067695776E-02   .291409622441E+00   .324957850471E+00   .345519384839E+00
  -.195409824073E-01   .169649572318E+00   .120031794885E-01  -.615038035810E-02  -.349869771633E-01
  -.195409824073E-01  -.454056939083E-03  -.100063285697E-01  -.585780254278E-03   .146512959575E+00
   .157920246412E+00   .169649572318E+00  -.100063285697E-01   .879140397615E-01   .675336820041E-02
   .116903842004E-01   .768067695776E-02   .120031794885E-01  -.585780254278E-03   .675336820041E-02
   .283510181824E-03
 uccopancies in atom
   .241221628633E+01  -.763001544385E+00   .000000000000E+00   .000000000000E+00   .000000000000E+00
   .000000000000E+00  -.763001544385E+00   .141229587235E+01   .000000000000E+00   .000000000000E+00
   .000000000000E+00   .000000000000E+00   .000000000000E+00   .000000000000E+00   .200000000002E+01
   .000000000000E+00   .000000000000E+00   .000000000000E+00   .000000000000E+00   .000000000000E+00
   .000000000000E+00   .000000000000E+00   .000000000000E+00   .000000000000E+00   .000000000000E+00
   .000000000000E+00   .000000000000E+00   .000000000000E+00   .399999996269E+00   .000000000000E+00
   .000000000000E+00   .000000000000E+00   .000000000000E+00   .000000000000E+00   .000000000000E+00
   .000000000000E+00
 grid
   .518719746019E-04   .535587218112E-04   .553003178318E-04   .570985462103E-04   .589552484896E-04
   .608723260951E-04   .628517422819E-04   .648955241450E-04   .670057646956E-04   .691846250046E-04
   .714343364152E-04   .737572028286E-04   .761556030628E-04   .786319932894E-04   .811889095484E-04
   .838289703453E-04   .865548793333E-04   .893694280812E-04   .922754989329E-04   .952760679590E-04
   .983742080043E-04   .101573091835E-03   .104875995388E-03   .108286301124E-03   .111807501495E-03
   .115443202518E-03   .119197127469E-03   .123073120693E-03   .127075151548E-03   .131207318463E-03
   .135473853137E-03   .139879124875E-03   .144427645061E-03   .149124071775E-03   .153973214570E-03
   .158980039392E-03   .164149673666E-03   .169487411550E-03   .174998719355E-03   .180689241140E-03
   .186564804497E-03   .192631426517E-03   .198895319951E-03   .205362899572E-03   .212040788749E-03
   .218935826222E-03   .226055073112E-03   .233405820151E-03   .240995595146E-03   .248832170690E-03
   .256923572121E-03   .265278085740E-03   .273904267300E-03   .282810950765E-03   .292007257357E-03
   .301502604898E-03   .311306717452E-03   .321429635288E-03   .331881725159E-03   .342673690917E-03
   .353816584480E-03   .365321817143E-03   .377201171270E-03   .389466812357E-03   .402131301494E-03
   .415207608224E-03   .428709123827E-03   .442649675036E-03   .457043538192E-03   .471905453870E-03
   .487250641969E-03   .503094817305E-03   .519454205695E-03   .536345560585E-03   .553786180196E-03
   .571793925249E-03   .590387237247E-03   .609585157366E-03   .629407345954E-03   .649874102666E-03
   .671006387247E-03   .692825841004E-03   .715354808964E-03   .738616362760E-03   .762634324254E-03
   .787433289939E-03   .813038656122E-03   .839476644936E-03   .866774331191E-03   .894959670104E-03
   .924061525924E-03   .954109701496E-03   .985134968776E-03   .101716910035E-02   .105024490197E-02
   .108439624614E-02   .111965810682E-02   .115606659525E-02   .119365899690E-02   .123247380966E-02
   .127255078330E-02   .131393096015E-02   .135665671712E-02   .140077180912E-02   .144632141385E-02
   .149335217810E-02   .154191226547E-02   .159205140574E-02   .164382094578E-02   .169727390210E-02
   .175246501522E-02   .180945080565E-02   .186828963182E-02   .192904174983E-02   .199176937517E-02
   .205653674639E-02   .212341019095E-02   .219245819310E-02   .226375146402E-02   .233736301427E-02
   .241336822848E-02   .249184494265E-02   .257287352380E-02   .265653695226E-02   .274292090669E-02
   .283211385183E-02   .292420712903E-02   .301929504986E-02   .311747499266E-02   .321884750228E-02
   .332351639301E-02   .343158885495E-02   .354317556375E-02   .365839079394E-02   .377735253599E-02
   .390018261712E-02   .402700682606E-02   .415795504189E-02   .429316136702E-02   .443276426455E-02
   .457690670004E-02   .472573628794E-02   .487940544275E-02   .503807153512E-02   .520189705299E-02
   .537104976801E-02   .554570290734E-02   .572603533105E-02   .591223171530E-02   .610448274147E-02
   .630298529140E-02   .650794264905E-02   .671956470867E-02   .693806818973E-02   .716367685889E-02
   .739662175916E-02   .763714144645E-02   .788548223395E-02   .814189844433E-02   .840665267018E-02
   .868001604299E-02   .896226851071E-02   .925369912455E-02   .955460633493E-02   .986529829711E-02
   .101860931868E-01   .105173195261E-01   .108593165196E-01   .112124344021E-01   .115770347972E-01
   .119534910877E-01   .123421887975E-01   .127435259872E-01   .131579136611E-01   .135857761884E-01
   .140275517377E-01   .144836927257E-01   .149546662808E-01   .154409547209E-01   .159430560480E-01
   .164614844576E-01   .169967708658E-01   .175494634526E-01   .181201282235E-01   .187093495891E-01
   .193177309636E-01   .199458953827E-01   .205944861417E-01   .212641674540E-01   .219556251320E-01
   .226695672887E-01   .234067250633E-01   .241678533697E-01   .249537316699E-01   .257651647718E-01
   .266029836540E-01   .274680463161E-01   .283612386579E-01   .292834753864E-01   .302357009526E-01
   .312188905188E-01   .322340509568E-01   .332822218798E-01   .343644767064E-01   .354819237600E-01
   .366357074041E-01   .378270092140E-01   .390570491868E-01   .403270869909E-01   .416384232561E-01
   .429924009052E-01   .443904065297E-01   .458338718095E-01   .473242749792E-01   .488631423419E-01
   .504520498323E-01   .520926246303E-01   .537865468281E-01   .555355511499E-01   .573414287291E-01
   .592060289420E-01   .611312613022E-01   .631190974159E-01   .651715730010E-01   .672907899718E-01
   .694789185917E-01   .717381996956E-01   .740709469848E-01   .764795493963E-01   .789664735495E-01
   .815342662721E-01   .841855572081E-01   .869230615113E-01   .897495826251E-01   .926680151542E-01
   .956813478286E-01   .987926665642E-01   .102005157623E+00   .105322110878E+00   .108746923177E+00
   .112283101828E+00   .115934268187E+00   .119704161368E+00   .123596642071E+00   .127615696535E+00
   .131765440624E+00   .136050124038E+00   .140474134669E+00   .145042003088E+00   .149758407193E+00
   .154628176993E+00   .159656299559E+00   .164847924127E+00   .170208367374E+00   .175743118863E+00
   .181457846663E+00   .187358403155E+00   .193450831023E+00   .199741369447E+00   .206236460488E+00
   .212942755686E+00   .219867122874E+00   .227016653208E+00   .234398668433E+00   .242020728377E+00
   .249890638696E+00   .258016458866E+00   .266406510436E+00   .275069385552E+00   .284013955756E+00
   .293249381069E+00   .302785119374E+00   .312630936100E+00   .322796914223E+00   .333293464593E+00
   .344131336596E+00   .355321629160E+00   .366875802121E+00   .378805687963E+00   .391123503931E+00
   .403841864545E+00   .416973794518E+00   .430532742093E+00   .444532592818E+00   .458987683763E+00
   .473912818205E+00   .489323280785E+00   .505234853164E+00   .521663830182E+00   .538627036548E+00
   .556141844066E+00   .574226189431E+00   .592898592592E+00   .612178175722E+00   .632084682799E+00
   .652638499825E+00   .673860675705E+00   .695772943802E+00   .718397744194E+00   .741758246652E+00
   .765878374372E+00   .790782828474E+00   .816497113294E+00   .843047562507E+00   .870461366094E+00
   .898766598183E+00   .927992245808E+00   .958168238584E+00   .989325479365E+00   .102149587589E+01
   .105471237345E+01   .108900898865E+01   .112442084422E+01   .116098420498E+01   .119873651503E+01
   .123771643602E+01   .127796388679E+01   .131952008426E+01   .136242758560E+01   .140673033184E+01
   .145247369287E+01
 aepotential
   .101112543735E+05   .102642731701E+05   .104044413257E+05   .105307689065E+05   .106423350748E+05
   .107382942475E+05   .108178887481E+05   .108804550733E+05   .109254453504E+05   .109524260376E+05
   .109610880765E+05   .109512567906E+05   .109228927317E+05   .108760937862E+05   .108110964264E+05
   .107282700227E+05   .106281197754E+05   .105112691884E+05   .103784632115E+05   .102305497899E+05
   .100684720160E+05   .989325698784E+04   .970599603747E+04   .950783584055E+04   .929996317990E+04
   .908358773015E+04   .885992920553E+04   .863020362332E+04   .839561053392E+04   .815732003792E+04
   .791646299408E+04   .767412075825E+04   .743131750545E+04   .718901406278E+04   .694810151887E+04
   .670939869657E+04   .647364902816E+04   .624151970725E+04   .601360162491E+04   .579041060386E+04
   .557238925090E+04   .535990984082E+04   .515327772017E+04   .495273520061E+04   .475846590727E+04
   .457059928842E+04   .438921535059E+04   .421434939212E+04   .404599672116E+04   .388411726333E+04
   .372864000370E+04   .357946721612E+04   .343647844686E+04   .329953422180E+04   .316847946909E+04
   .304314664831E+04   .292335856849E+04   .280893094034E+04   .269967460279E+04   .259539754572E+04
   .249590658611E+04   .240100889828E+04   .231051327005E+04   .222423114764E+04   .214197757541E+04
   .206357184650E+04   .198883815000E+04   .191760595287E+04   .184971040254E+04   .178499247682E+04
   .172329923288E+04   .166448380504E+04   .160840546070E+04   .155492954401E+04   .150392744530E+04
   .145527642147E+04   .140885950894E+04   .136456535035E+04   .132228800057E+04   .128192675755E+04
   .124338595805E+04   .120657478026E+04   .117140700986E+04   .113780088215E+04   .110567886095E+04
   .107496738124E+04   .104559676973E+04   .101750092862E+04   .990617249166E+03   .964886360516E+03
   .940252026855E+03   .916660902901E+03   .894062442143E+03   .872408721741E+03   .851654271491E+03
   .831755994777E+03   .812672991561E+03   .794366440078E+03   .776799508996E+03   .759937201766E+03
   .743746292815E+03   .728195199967E+03   .713253904129E+03   .698893849845E+03   .685087873654E+03
   .671810112779E+03   .659035931424E+03   .646741857511E+03   .634905504103E+03   .623505516053E+03
   .612521498589E+03   .601933972296E+03   .591724309469E+03   .581874686656E+03   .572368036678E+03
   .563188002626E+03   .554318892775E+03   .545745641308E+03   .537453767677E+03   .529429339688E+03
   .521658939052E+03   .514129627567E+03   .506828913301E+03   .499744724271E+03   .492865372171E+03
   .486179538261E+03   .479676227286E+03   .473344763356E+03   .467174751940E+03   .461156062019E+03
   .455278803988E+03   .449533312517E+03   .443910118990E+03   .438399942674E+03   .432993665424E+03
   .427682318609E+03   .422457069747E+03   .417309201154E+03   .412230105012E+03   .407211264253E+03
   .402244243015E+03   .397320679460E+03   .392432271361E+03   .387570773420E+03   .382727986948E+03
   .377895757337E+03   .373065969510E+03   .368230546073E+03   .363381448325E+03   .358510677039E+03
   .353610277150E+03   .348672344602E+03   .343689034529E+03   .338652573448E+03   .333555273961E+03
   .328389552482E+03   .323147950815E+03   .317823161183E+03   .312408055807E+03   .306895720563E+03
   .301279493270E+03   .295553007438E+03   .289710240810E+03   .283745570126E+03   .277653830953E+03
   .271430384374E+03   .265071188662E+03   .258572877929E+03   .251932845299E+03   .245149331741E+03
   .238221518494E+03   .231149621993E+03   .223934989179E+03   .216580190454E+03   .209089106258E+03
   .201467002967E+03   .193720591862E+03   .185858064459E+03   .177889096000E+03   .169824808560E+03
   .161677684909E+03   .153461425910E+03   .145190746772E+03   .136881113988E+03   .128548433609E+03
   .120208716903E+03   .111877768708E+03   .103570970201E+03   .953032568039E+02   .870894201759E+02
   .789448797368E+02   .708870572033E+02   .629374247266E+02   .551241574972E+02   .474850928311E+02
   .400703957831E+02   .329440167128E+02   .261829035877E+02   .198730120601E+02   .141018251982E+02
   .894803437558E+01   .447009830026E+01   .696075384664E+00  -.238297581906E+01  -.481458711830E+01
  -.668121513472E+01  -.809209191216E+01  -.917201936416E+01  -.100489794545E+02  -.108427433352E+02
  -.116565373886E+02  -.125729405873E+02  -.136537882796E+02  -.149427298082E+02  -.164687961395E+02
  -.182497936474E+02  -.202950321940E+02  -.226073822878E+02  -.251848366524E+02  -.280217298253E+02
  -.311096886944E+02  -.344383374243E+02  -.379957642930E+02  -.417687656421E+02  -.457428991294E+02
  -.499023866121E+02  -.542299139621E+02  -.587063769981E+02  -.633106304704E+02  -.680192999881E+02
  -.728067281178E+02  -.776451283726E+02  -.825050078901E+02  -.873558741761E+02  -.921671379384E+02
  -.969089441044E+02  -.101552412903E+03  -.106068520707E+03  -.110424789464E+03  -.114579419492E+03
  -.118473849422E+03  -.122026944609E+03  -.125136149568E+03  -.127691035330E+03  -.129601181515E+03
  -.130833189747E+03  -.131442480458E+03  -.131577871072E+03  -.131442913380E+03  -.131228176205E+03
  -.131058639312E+03  -.130987208230E+03  -.131022682825E+03  -.131161229891E+03  -.131403675977E+03
  -.131758654838E+03  -.132238582167E+03  -.132854543351E+03  -.133613100739E+03  -.134515495703E+03
  -.135558452739E+03  -.136735585393E+03  -.138038709429E+03  -.139458761238E+03  -.140986275975E+03
  -.142611509322E+03  -.144324298785E+03  -.146113756200E+03  -.147967860160E+03  -.149873000816E+03
  -.151813540167E+03  -.153771470136E+03  -.155726281499E+03  -.157655197219E+03  -.159533933614E+03
  -.161338077196E+03  -.163045024696E+03  -.164636009786E+03  -.166097255545E+03  -.167418589856E+03
  -.168587852054E+03  -.169580680840E+03  -.170349780786E+03  -.170823961614E+03  -.170928358637E+03
  -.170623585674E+03  -.169937819836E+03  -.168960020695E+03  -.167794822726E+03  -.166517629546E+03
  -.165161703973E+03  -.163731827905E+03  -.162222441560E+03  -.160628152079E+03  -.158946728502E+03
  -.157178523976E+03  -.155325212170E+03  -.153388981483E+03  -.151372307042E+03  -.149278050376E+03
  -.147109636925E+03  -.144870886773E+03  -.142564647508E+03  -.140198628915E+03  -.137778596419E+03
  -.135310465361E+03  -.132800140313E+03  -.130253331153E+03  -.127675479772E+03  -.125071749928E+03
  -.122447102136E+03  -.119806431238E+03  -.117154704224E+03  -.114497121882E+03  -.111839112725E+03
  -.109186247059E+03  -.106543963081E+03  -.103917153098E+03  -.101309690701E+03  -.987240674161E+02
  -.961613751300E+02
 core charge-density
   .424362774609E-02   .451101045151E-02   .479520079684E-02   .509725144349E-02   .541828060485E-02
   .575947609209E-02   .612209960605E-02   .650749129000E-02   .691707455870E-02   .735236122014E-02
   .781495690727E-02   .830656683783E-02   .882900192181E-02   .938418523668E-02   .997415889197E-02
   .106010913060E-01   .112672849184E-01   .119751843639E-01   .127273851340E-01   .135266427544E-01
   .143758825080E-01   .152782097340E-01   .162369207367E-01   .172555143384E-01   .183377041112E-01
   .194874313283E-01   .207088786731E-01   .220064847487E-01   .233849594323E-01   .248493001209E-01
   .264048089169E-01   .280571108046E-01   .298121728718E-01   .316763246317E-01   .336562795042E-01
   .357591575186E-01   .379925093008E-01   .403643414128E-01   .428831431142E-01   .455579146180E-01
   .483981969186E-01   .514141032681E-01   .546163523858E-01   .580163034844E-01   .616259932023E-01
   .654581745334E-01   .695263578491E-01   .738448541103E-01   .784288203712E-01   .832943076775E-01
   .884583114672E-01   .939388245829E-01   .997548930072E-01   .105926674437E+00   .112475499813E+00
   .119423937918E+00   .126795863177E+00   .134616526757E+00   .142912631116E+00   .151712408094E+00
   .161045700689E+00   .170944048622E+00   .181440777815E+00   .192571093892E+00   .204372179811E+00
   .216883297731E+00   .230145895218E+00   .244203715860E+00   .259102914386E+00   .274892176346E+00
   .291622842407E+00   .309349037301E+00   .328127803440E+00   .348019239191E+00   .369086641795E+00
   .391396654861E+00   .415019420346E+00   .440028734918E+00   .466502210516E+00   .494521438919E+00
   .524172160063E+00   .555544433802E+00   .588732814737E+00   .623836529700E+00   .660959657358E+00
   .700211309373E+00   .741705812449E+00   .785562890477E+00   .831907845922E+00   .880871739478E+00
   .932591566861E+00   .987210431522E+00   .104487771189E+01   .110574922163E+01   .116998736119E+01
   .123776125876E+01   .130924689868E+01   .138462723485E+01   .146409228683E+01   .154783921590E+01
   .163607237807E+01   .172900335091E+01   .182685093082E+01   .192984109686E+01   .203820693732E+01
   .215218853460E+01   .227203280397E+01   .239799328110E+01   .253032985346E+01   .266930842981E+01
   .281520054212E+01   .296828287389E+01   .312883670820E+01   .329714728923E+01   .347350308996E+01
   .365819497909E+01   .385151527995E+01   .405375671367E+01   .426521121925E+01   .448616864293E+01
   .471691528912E+01   .495773232577E+01   .520889403665E+01   .547066591402E+01   .574330258500E+01
   .602704556622E+01   .632212084144E+01   .662873625846E+01   .694707874225E+01   .727731132303E+01
   .761956997949E+01   .797396029918E+01   .834055396063E+01   .871938504370E+01   .911044617813E+01
   .951368454300E+01   .992899773338E+01   .103562295146E+02   .107951654889E+02   .112455287029E+02
   .117069752311E+02   .121790897752E+02   .126613813234E+02   .131532789230E+02   .136541276231E+02
   .141631846528E+02   .146796159055E+02   .152024928084E+02   .157307896623E+02   .162633815420E+02
   .167990428588E+02   .173364466850E+02   .178741649545E+02   .184106696501E+02   .189443350963E+02
   .194734414779E+02   .199961797026E+02   .205106577276E+02   .210149084638E+02   .215068993667E+02
   .219845438127E+02   .224457143474E+02   .228882578763E+02   .233100128486E+02   .237088284597E+02
   .240825858703E+02   .244292214063E+02   .247467516646E+02   .250333004099E+02   .252871270956E+02
   .255066567954E+02   .256905112721E+02   .258375408510E+02   .259468567074E+02   .260178631070E+02
   .260502890807E+02   .260442189463E+02   .260001210319E+02   .259188738985E+02   .258017893099E+02
   .256506311576E+02   .254676295179E+02   .252554890070E+02   .250173905981E+02   .247569860894E+02
   .244783844540E+02   .241861293717E+02   .238851673377E+02   .235808058647E+02   .232786614478E+02
   .229845971387E+02   .227046497861E+02   .224449472280E+02   .222116159811E+02   .220106802441E+02
   .218479533228E+02   .217289228840E+02   .216586317539E+02   .216415562693E+02   .216814845342E+02
   .217813971681E+02   .219433534421E+02   .221683859087E+02   .224564067968E+02   .228061295338E+02
   .232150087530E+02   .236792020394E+02   .241935564441E+02   .247516224608E+02   .253456976876E+02
   .259669018253E+02   .266052839872E+02   .272499625561E+02   .278892970079E+02   .285110902428E+02
   .291028190085E+02   .296518890001E+02   .301459101959E+02   .305729869801E+02   .309220166568E+02
   .311829891065E+02   .313472796152E+02   .314079263536E+02   .313598836373E+02   .312002419857E+02
   .309284061668E+02   .305462228760E+02   .300580504966E+02   .294707645162E+02   .287936936602E+02
   .280384836170E+02   .272188873617E+02   .263504834832E+02   .254503265296E+02   .245365361030E+02
   .236278341632E+02   .227430425786E+02   .219005552490E+02   .211178009318E+02   .204107140764E+02
   .197932314095E+02   .192768317093E+02   .188701353105E+02   .185785787137E+02   .184041783715E+02
   .183453967711E+02   .183971226337E+02   .185507748110E+02   .187945340611E+02   .191136971044E+02
   .194911359913E+02   .199078390366E+02   .203435098501E+02   .207772041183E+02   .211879848052E+02
   .215555747862E+02   .218609837530E+02   .220870853935E+02   .222191221414E+02   .222451180925E+02
   .221561854611E+02   .219467154917E+02   .216144504754E+02   .211604389780E+02   .205888813365E+02
   .199068766623E+02   .191240859863E+02   .182523285906E+02   .173051300856E+02   .162972413903E+02
   .152441475384E+02   .141615843065E+02   .130650791831E+02   .119695312640E+02   .108888424319E+02
   .983560978126E+01   .882088625026E+01   .785401371172E+01   .694252898107E+01   .609213975885E+01
   .530676278149E+01   .458861402744E+01   .393833845017E+01   .335516871925E+01   .283710749869E+01
   .238113295705E+01   .198342625214E+01   .163961012799E+01   .134497718289E+01   .109468602670E+01
   .883915574945E+00   .707981762512E+00   .562424866627E+00   .443074020608E+00   .346092290897E+00
   .268004239504E+00   .205707837812E+00   .156472984011E+00   .117929163556E+00   .880448455501E-01
   .651010701007E-01   .476614265368E-01   .345402991387E-01   .247709359753E-01   .175745727048E-01
   .123314337588E-01   .855422971285E-02   .586449602562E-02   .397190526489E-02   .265652343629E-02
   .175386290567E-02   .114250497213E-02   .734018449427E-03   .464880149102E-03   .290102668044E-03
   .178288610675E-03   .107853491984E-03   .641881106232E-04   .375620881810E-04   .216012582833E-04
   .122010374816E-04
 pspotential
  -.209247998070E+03  -.209248243944E+03  -.209248482072E+03  -.209248712698E+03  -.209248936058E+03
  -.209249152381E+03  -.209249361887E+03  -.209249564792E+03  -.209249761303E+03  -.209249951621E+03
  -.209250135941E+03  -.209250314451E+03  -.209250487335E+03  -.209250654769E+03  -.209250816924E+03
  -.209250973967E+03  -.209251126057E+03  -.209251273351E+03  -.209251415998E+03  -.209251554146E+03
  -.209251687935E+03  -.209251817502E+03  -.209251942979E+03  -.209252064494E+03  -.209252182172E+03
  -.209252296133E+03  -.209252406492E+03  -.209252513364E+03  -.209252616856E+03  -.209252717074E+03
  -.209252814120E+03  -.209252908094E+03  -.209252999091E+03  -.209253087203E+03  -.209253172520E+03
  -.209253255129E+03  -.209253335114E+03  -.209253412555E+03  -.209253487532E+03  -.209253560120E+03
  -.209253630393E+03  -.209253698421E+03  -.209253764274E+03  -.209253828017E+03  -.209253889715E+03
  -.209253949429E+03  -.209254007220E+03  -.209254063145E+03  -.209254117260E+03  -.209254169618E+03
  -.209254220272E+03  -.209254269271E+03  -.209254316664E+03  -.209254362497E+03  -.209254406815E+03
  -.209254449661E+03  -.209254491076E+03  -.209254531099E+03  -.209254569769E+03  -.209254607123E+03
  -.209254643195E+03  -.209254678018E+03  -.209254711625E+03  -.209254744046E+03  -.209254775310E+03
  -.209254805444E+03  -.209254834474E+03  -.209254862425E+03  -.209254889320E+03  -.209254915181E+03
  -.209254940027E+03  -.209254963878E+03  -.209254986750E+03  -.209255008660E+03  -.209255029622E+03
  -.209255049648E+03  -.209255068750E+03  -.209255086938E+03  -.209255104220E+03  -.209255120602E+03
  -.209255136088E+03  -.209255150683E+03  -.209255164388E+03  -.209255177202E+03  -.209255189123E+03
  -.209255200146E+03  -.209255210266E+03  -.209255219474E+03  -.209255227759E+03  -.209255235109E+03
  -.209255241509E+03  -.209255246941E+03  -.209255251385E+03  -.209255254819E+03  -.209255257215E+03
  -.209255258547E+03  -.209255258781E+03  -.209255257882E+03  -.209255255813E+03  -.209255252530E+03
  -.209255247987E+03  -.209255242135E+03  -.209255234917E+03  -.209255226275E+03  -.209255216144E+03
  -.209255204455E+03  -.209255191132E+03  -.209255176096E+03  -.209255159259E+03  -.209255140527E+03
  -.209255119800E+03  -.209255096969E+03  -.209255071919E+03  -.209255044526E+03  -.209255014656E+03
  -.209254982167E+03  -.209254946905E+03  -.209254908708E+03  -.209254867400E+03  -.209254822794E+03
  -.209254774690E+03  -.209254722875E+03  -.209254667119E+03  -.209254607178E+03  -.209254542792E+03
  -.209254473682E+03  -.209254399551E+03  -.209254320081E+03  -.209254234932E+03  -.209254143744E+03
  -.209254046130E+03  -.209253941678E+03  -.209253829948E+03  -.209253710471E+03  -.209253582746E+03
  -.209253446239E+03  -.209253300381E+03  -.209253144564E+03  -.209252978140E+03  -.209252800417E+03
  -.209252610658E+03  -.209252408078E+03  -.209252191837E+03  -.209251961041E+03  -.209251714736E+03
  -.209251451907E+03  -.209251171467E+03  -.209250872262E+03  -.209250553058E+03  -.209250212541E+03
  -.209249849308E+03  -.209249461867E+03  -.209249048622E+03  -.209248607875E+03  -.209248137815E+03
  -.209247636510E+03  -.209247101902E+03  -.209246531794E+03  -.209245923847E+03  -.209245275565E+03
  -.209244584288E+03  -.209243847179E+03  -.209243061215E+03  -.209242223172E+03  -.209241329612E+03
  -.209240376873E+03  -.209239361048E+03  -.209238277972E+03  -.209237123206E+03  -.209235892017E+03
  -.209234579360E+03  -.209233179855E+03  -.209231687769E+03  -.209230096988E+03  -.209228400995E+03
  -.209226592844E+03  -.209224665127E+03  -.209222609951E+03  -.209220418898E+03  -.209218082997E+03
  -.209215592683E+03  -.209212937761E+03  -.209210107361E+03  -.209207089898E+03  -.209203873022E+03
  -.209200443566E+03  -.209196787497E+03  -.209192889856E+03  -.209188734695E+03  -.209184305018E+03
  -.209179582704E+03  -.209174548443E+03  -.209169181646E+03  -.209163460372E+03  -.209157361232E+03
  -.209150859297E+03  -.209143927997E+03  -.209136539012E+03  -.209128662156E+03  -.209120265261E+03
  -.209111314038E+03  -.209101771946E+03  -.209091600040E+03  -.209080756818E+03  -.209069198048E+03
  -.209056876595E+03  -.209043742232E+03  -.209029741433E+03  -.209014817163E+03  -.208998908650E+03
  -.208981951139E+03  -.208963875637E+03  -.208944608636E+03  -.208924071822E+03  -.208902181764E+03
  -.208878849584E+03  -.208853980605E+03  -.208827473983E+03  -.208799222302E+03  -.208769111162E+03
  -.208737018729E+03  -.208702815259E+03  -.208666362599E+03  -.208627513650E+03  -.208586111801E+03
  -.208541990333E+03  -.208494971779E+03  -.208444867251E+03  -.208391475731E+03  -.208334583313E+03
  -.208273962404E+03  -.208209370887E+03  -.208140551222E+03  -.208067229513E+03  -.207989114512E+03
  -.207905896573E+03  -.207817246553E+03  -.207722814653E+03  -.207622229201E+03  -.207515095369E+03
  -.207400993838E+03  -.207279479389E+03  -.207150079438E+03  -.207012292497E+03  -.206865586580E+03
  -.206709397536E+03  -.206543127321E+03  -.206366142212E+03  -.206177770951E+03  -.205977302846E+03
  -.205763985811E+03  -.205537024365E+03  -.205295577588E+03  -.205038757057E+03  -.204765624757E+03
  -.204475190990E+03  -.204166412296E+03  -.203838189403E+03  -.203489365237E+03  -.203118722997E+03
  -.202724984351E+03  -.202306807767E+03  -.201862787030E+03  -.201391449980E+03  -.200891257536E+03
  -.200360603049E+03  -.199797812053E+03  -.199201142503E+03  -.198568785552E+03  -.197898866984E+03
  -.197189449398E+03  -.196438535242E+03  -.195644070840E+03  -.194803951530E+03  -.193916028079E+03
  -.192978114514E+03  -.191987997564E+03  -.190943447889E+03  -.189842233302E+03  -.188682134198E+03
  -.187460961428E+03  -.186176576853E+03  -.184826916839E+03  -.183410018970E+03  -.181924052260E+03
  -.180367351157E+03  -.178738453647E+03  -.177036143764E+03  -.175259498803E+03  -.173407941515E+03
  -.171481297509E+03  -.169479857953E+03  -.167404447524E+03  -.165256497169E+03  -.163038120726E+03
  -.160752193569E+03  -.158402430020E+03  -.155993454177E+03  -.153530855530E+03  -.151021215947E+03
  -.148470570431E+03  -.145888617319E+03  -.143284728056E+03  -.140668257722E+03  -.138048185006E+03
  -.135432202074E+03  -.132825558658E+03  -.130229849976E+03  -.127642162424E+03  -.125055124601E+03
  -.122458116081E+03  -.119838880656E+03  -.117183601631E+03  -.114474605471E+03  -.111703917908E+03
  -.109100861847E+03  -.106509997382E+03  -.103919964948E+03  -.101321355122E+03  -.987237018537E+02
  -.961613751300E+02
 core charge-density (pseudized)
   .268281946712E-09   .286013343982E-09   .304916651811E-09   .325069324579E-09   .346553935809E-09
   .369458516504E-09   .393876915849E-09   .419909185747E-09   .447661990768E-09   .477249045200E-09
   .508791578982E-09   .542418834426E-09   .578268595781E-09   .616487753784E-09   .657232907534E-09
   .700671006137E-09   .746980032764E-09   .796349733922E-09   .848982396913E-09   .905093678695E-09
   .964913489504E-09   .102868693490E-08   .109667532003E-08   .116915722037E-08   .124642962306E-08
   .132880914385E-08   .141663332439E-08   .151026201524E-08   .161007885035E-08   .171649281896E-08
   .182993994136E-08   .195088505546E-08   .207982372142E-08   .221728425215E-08   .236382987799E-08
   .252006105453E-08   .268661792287E-08   .286418293256E-08   .305348363785E-08   .325529567876E-08
   .347044595919E-08   .369981603506E-08   .394434572641E-08   .420503696815E-08   .448295791546E-08
   .477924732036E-08   .509511919767E-08   .543186779927E-08   .579087291715E-08   .617360553697E-08
   .658163386522E-08   .701662975480E-08   .748037555519E-08   .797477141548E-08   .850184306994E-08
   .906375013826E-08   .966279497429E-08   .103014320997E-07   .109822782610E-07   .117081231514E-07
   .124819408412E-07   .133069019637E-07   .141863867061E-07   .151239986600E-07   .161235795860E-07
   .171892251552E-07   .183253017306E-07   .195364642571E-07   .208276753352E-07   .222042255541E-07
   .236717551691E-07   .252362772118E-07   .269042021272E-07   .286823640400E-07   .305780487556E-07
   .325990236130E-07   .347535693097E-07   .370505138306E-07   .394992686188E-07   .421098671372E-07
   .448930059788E-07   .478600886933E-07   .510232725113E-07   .543955181554E-07   .579906429439E-07
   .618233774041E-07   .659094256268E-07   .702655296099E-07   .749095378543E-07   .798604784928E-07
   .851386372530E-07   .907656405713E-07   .967645442008E-07   .103159927675E-06   .109977995011E-06
   .117246682078E-06   .124995771045E-06   .133257012408E-06   .142064255073E-06   .151453585034E-06
   .161463473223E-06   .172134933124E-06   .183511688805E-06   .195640354053E-06   .208570623353E-06
   .222355475472E-06   .237051390516E-06   .252718581314E-06   .269421240102E-06   .287227801497E-06
   .306211222864E-06   .326449283189E-06   .348024901718E-06   .371026477638E-06   .395548252208E-06
   .421690694813E-06   .449560914531E-06   .479273098883E-06   .510948981582E-06   .544718341171E-06
   .580719532614E-06   .619100054003E-06   .660017150699E-06   .703638459386E-06   .750142694662E-06
   .799720380997E-06   .852574633017E-06   .908921987348E-06   .968993289379E-06   .103303463861E-05
   .110130839640E-05   .117409426032E-05   .125169040937E-05   .133441472489E-05   .142260609202E-05
   .151662578713E-05   .161685895680E-05   .172371619449E-05   .183763522118E-05   .195908267703E-05
   .208855603121E-05   .222658561781E-05   .237373680600E-05   .253061231344E-05   .269785467226E-05
   .287614885764E-05   .306622508982E-05   .326886182079E-05   .348488891795E-05   .371519105755E-05
   .396071134180E-05   .422245515435E-05   .450149426973E-05   .479897123341E-05   .511610403037E-05
   .545419106093E-05   .581461644414E-05   .619885567001E-05   .660848162364E-05   .704517100541E-05
   .751071117318E-05   .800700743415E-05   .853609081562E-05   .910012634599E-05   .970142187919E-05
   .103424374981E-04   .110257955342E-04   .117542912443E-04   .125309041860E-04   .133588103380E-04
   .142413950129E-04   .151822666147E-04   .161852712941E-04   .172545085604E-04   .183943479122E-04
   .196094465502E-04   .209047682445E-04   .222856034269E-04   .237575905897E-04   .253267390715E-04
   .269994533201E-04   .287825587244E-04   .306833291158E-04   .327095160437E-04   .348693799360E-04
   .371717232627E-04   .396259258282E-04   .422419823223E-04   .450305422719E-04   .480029525381E-04
   .511713025162E-04   .545484722024E-04   .581481832989E-04   .619850535414E-04   .660746544393E-04
   .704335726308E-04   .750794750643E-04   .800311782278E-04   .853087216584E-04   .909334459754E-04
   .969280756898E-04   .103316807055E-03   .110125401230E-03   .117381283051E-03   .125113645683E-03
   .133353561490E-03   .142134099395E-03   .151490449091E-03   .161460052398E-03   .172082742114E-03
   .183400888690E-03   .195459555061E-03   .208306659976E-03   .221993150135E-03   .236573181476E-03
   .252104309891E-03   .268647691673E-03   .286268293936E-03   .305035115252E-03   .325021416659E-03
   .346304963189E-03   .368968275974E-03   .393098894907E-03   .418789651754E-03   .446138953500E-03
   .475251075564E-03   .506236464375E-03   .539212048626E-03   .574301558280E-03   .611635850184E-03
   .651353238847E-03   .693599830598E-03   .738529858971E-03   .786306018727E-03   .837099795403E-03
   .891091786716E-03   .948472011521E-03   .100944020123E-02   .107420606780E-02   .114298954146E-02
   .121602097025E-02   .129354127218E-02   .137580202973E-02   .146306551448E-02   .155560462844E-02
   .165370274645E-02   .175765344213E-02   .186776007748E-02   .198433523389E-02   .210769995941E-02
   .223818280423E-02   .237611861317E-02   .252184704034E-02   .267571074773E-02   .283805324527E-02
   .300921632593E-02   .318953704544E-02   .337934419140E-02   .357895418288E-02   .378866633680E-02
   .400875743424E-02   .423947551556E-02   .448103283143E-02   .473359787430E-02   .499728641523E-02
   .527215147204E-02   .555817213871E-02   .585524121302E-02   .616315156963E-02   .648158124154E-02
   .681007719341E-02   .714803779831E-02   .749469406560E-02   .784908971316E-02   .821006023472E-02
   .857621118332E-02   .894589597719E-02   .931719363721E-02   .968788698571E-02   .100554419787E-01
   .104169890059E-01   .107693071802E-01   .111088128434E-01   .114315537454E-01   .117332105954E-01
   .120091079433E-01   .122542365981E-01   .124632900418E-01   .126307175006E-01   .127507964956E-01
   .128177277521E-01   .128257552817E-01   .127693141895E-01   .126432082530E-01   .124428184851E-01
   .121643426445E-01   .118050638979E-01   .113636444708E-01   .108404370400E-01   .102378027411E-01
   .956041992368E-02   .881556217562E-02   .801331772413E-02   .716671529325E-02   .629171419628E-02
   .540700944158E-02   .453359677401E-02   .369403905382E-02   .291137578264E-02   .220762395057E-02
   .160183316357E-02   .110768404599E-02   .730659215176E-03   .464873580253E-03   .290102668044E-03
   .178288610675E-03   .107853491984E-03   .641881106232E-04   .375620881810E-04   .216012582833E-04
   .122010374816E-04
 pseudo wavefunction
   .158073761138E-03   .163213925464E-03   .168521235107E-03   .174001125216E-03   .179659207675E-03
   .185501276855E-03   .191533315544E-03   .197761501078E-03   .204192211660E-03   .210832032900E-03
   .217687764553E-03   .224766427487E-03   .232075270871E-03   .239621779596E-03   .247413681946E-03
   .255458957508E-03   .263765845346E-03   .272342852435E-03   .281198762380E-03   .290342644403E-03
   .299783862635E-03   .309532085706E-03   .319597296645E-03   .329989803104E-03   .340720247913E-03
   .351799619982E-03   .363239265551E-03   .375050899811E-03   .387246618902E-03   .399838912299E-03
   .412840675604E-03   .426265223752E-03   .440126304643E-03   .454438113227E-03   .469215306035E-03
   .484473016194E-03   .500226868918E-03   .516492997516E-03   .533288059909E-03   .550629255692E-03
   .568534343747E-03   .587021660427E-03   .606110138338E-03   .625819325725E-03   .646169406490E-03
   .667181220865E-03   .688876286750E-03   .711276821753E-03   .734405765938E-03   .758286805322E-03
   .782944396127E-03   .808403789827E-03   .834691059008E-03   .861833124065E-03   .889857780775E-03
   .918793728755E-03   .948670600859E-03   .979518993520E-03   .101137049808E-02   .104425773316E-02
   .107821437802E-02   .111327520710E-02   .114947612559E-02   .118685420624E-02   .122544772728E-02
   .126529621164E-02   .130644046743E-02   .134892262971E-02   .139278620365E-02   .143807610909E-02
   .148483872651E-02   .153312194457E-02   .158297520909E-02   .163444957373E-02   .168759775225E-02
   .174247417250E-02   .179913503214E-02   .185763835619E-02   .191804405645E-02   .198041399287E-02
   .204481203683E-02   .211130413660E-02   .217995838488E-02   .225084508844E-02   .232403684021E-02
   .239960859353E-02   .247763773895E-02   .255820418344E-02   .264139043221E-02   .272728167321E-02
   .281596586431E-02   .290753382339E-02   .300207932131E-02   .309969917791E-02   .320049336115E-02
   .330456508942E-02   .341202093726E-02   .352297094442E-02   .363752872855E-02   .375581160147E-02
   .387794068929E-02   .400404105638E-02   .413424183339E-02   .426867634944E-02   .440748226856E-02
   .455080173063E-02   .469878149680E-02   .485157309977E-02   .500933299877E-02   .517222273974E-02
   .534040912063E-02   .551406436203E-02   .569336628346E-02   .587849848520E-02   .606965053622E-02
   .626701816805E-02   .647080347501E-02   .668121512093E-02   .689846855254E-02   .712278621982E-02
   .735439780347E-02   .759354044975E-02   .784045901291E-02   .809540630553E-02   .835864335690E-02
   .863043967981E-02   .891107354592E-02   .920083227014E-02   .950001250408E-02   .980892053906E-02
   .101278726189E-01   .104571952629E-01   .107972255991E-01   .111483117080E-01   .115108129786E-01
   .118851004740E-01   .122715573108E-01   .126705790488E-01   .130825740949E-01   .135079641190E-01
   .139471844835E-01   .144006846866E-01   .148689288199E-01   .153523960408E-01   .158515810593E-01
   .163669946414E-01   .168991641281E-01   .174486339705E-01   .180159662827E-01   .186017414123E-01
   .192065585282E-01   .198310362276E-01   .204758131629E-01   .211415486870E-01   .218289235201E-01
   .225386404369E-01   .232714249761E-01   .240280261709E-01   .248092173040E-01   .256157966847E-01
   .264485884509E-01   .273084433959E-01   .281962398209E-01   .291128844131E-01   .300593131518E-01
   .310364922412E-01   .320454190721E-01   .330871232128E-01   .341626674297E-01   .352731487384E-01
   .364196994863E-01   .376034884673E-01   .388257220690E-01   .400876454542E-01   .413905437751E-01
   .427357434243E-01   .441246133200E-01   .455585662277E-01   .470390601195E-01   .485675995696E-01
   .501457371892E-01   .517750750982E-01   .534572664376E-01   .551940169196E-01   .569870864180E-01
   .588382905984E-01   .607495025880E-01   .627226546848E-01   .647597401074E-01   .668628147829E-01
   .690339991746E-01   .712754801477E-01   .735895128713E-01   .759784227581E-01   .784446074372E-01
   .809905387612E-01   .836187648434E-01   .863319121241E-01   .891326874621E-01   .920238802489E-01
   .950083645414E-01   .980891012085E-01   .101269140087E+00   .104551622142E+00   .107939781621E+00
   .111436948199E+00   .115046549107E+00   .118772111230E+00   .122617263162E+00   .126585737218E+00
   .130681371377E+00   .134908111143E+00   .139270011317E+00   .143771237650E+00   .148416068359E+00
   .153208895492E+00   .158154226102E+00   .163256683213E+00   .168521006540E+00   .173952052934E+00
   .179554796505E+00   .185334328394E+00   .191295856131E+00   .197444702537E+00   .203786304112E+00
   .210326208848E+00   .217070073386E+00   .224023659456E+00   .231192829510E+00   .238583541452E+00
   .246201842371E+00   .254053861160E+00   .262145799909E+00   .270483923928E+00   .279074550267E+00
   .287924034562E+00   .297038756050E+00   .306425100553E+00   .316089441226E+00   .326038116863E+00
   .336277407496E+00   .346813507045E+00   .357652492724E+00   .368800290907E+00   .380262639112E+00
   .392045043757E+00   .404152733310E+00   .416590606403E+00   .429363174505E+00   .442474498655E+00
   .455928119789E+00   .469726982115E+00   .483873348992E+00   .498368710743E+00   .513213683779E+00
   .528407900420E+00   .543949888762E+00   .559836941939E+00   .576064976105E+00   .592628376478E+00
   .609519830805E+00   .626730149614E+00   .644248072695E+00   .662060061272E+00   .680150075474E+00
   .698499336774E+00   .717086075259E+00   .735885261774E+00   .754868325214E+00   .774002855559E+00
   .793252293589E+00   .812575608663E+00   .831926966465E+00   .851255389238E+00   .870504411759E+00
   .889611737139E+00   .908508897537E+00   .927120925988E+00   .945366046844E+00   .963155393775E+00
   .980392765932E+00   .996974434670E+00   .101278901525E+01   .102771742013E+01   .104163291270E+01
   .105440128299E+01   .106588116909E+01   .107592455091E+01   .108437744517E+01   .109108083276E+01
   .109587185161E+01   .109858528941E+01   .109905541089E+01   .109711815380E+01   .109261372507E+01
   .108538962465E+01   .107530411704E+01   .106223016066E+01   .104605979048E+01   .102670893095E+01
   .100412259094E+01   .978280362207E+00   .949202104096E+00   .916953652039E+00   .881652333042E+00
   .843472009903E+00   .802647306858E+00   .759476594974E+00   .714323238634E+00   .667614529369E+00
   .619837666627E+00   .571532095651E+00   .523277492397E+00   .475676709054E+00   .429333079754E+00
   .384821655633E+00   .342654215775E+00   .303238310640E+00   .266831161685E+00   .233493419558E+00
   .203152805354E+00
 ae wavefunction
  -.422145599208E-02  -.435240498408E-02  -.448739649079E-02  -.462655408386E-02  -.477000503330E-02
  -.491788041321E-02  -.507031521021E-02  -.522744843468E-02  -.538942323457E-02  -.555638701229E-02
  -.572849154436E-02  -.590589310385E-02  -.608875258592E-02  -.627723563618E-02  -.647151278219E-02
  -.667175956780E-02  -.687815669069E-02  -.709089014287E-02  -.731015135426E-02  -.753613733941E-02
  -.776905084722E-02  -.800910051384E-02  -.825650101861E-02  -.851147324308E-02  -.877424443305E-02
  -.904504836377E-02  -.932412550800E-02  -.961172320717E-02  -.990809584533E-02  -.102135050261E-01
  -.105282197522E-01  -.108525166082E-01  -.111866799451E-01  -.115310020682E-01  -.118857834267E-01
  -.122513328064E-01  -.126279675235E-01  -.130160136212E-01  -.134158060673E-01  -.138276889542E-01
  -.142520156991E-01  -.146891492463E-01  -.151394622695E-01  -.156033373747E-01  -.160811673034E-01
  -.165733551350E-01  -.170803144889E-01  -.176024697253E-01  -.181402561442E-01  -.186941201820E-01
  -.192645196057E-01  -.198519237034E-01  -.204568134705E-01  -.210796817914E-01  -.217210336154E-01
  -.223813861256E-01  -.230612689010E-01  -.237612240697E-01  -.244818064528E-01  -.252235836972E-01
  -.259871363971E-01  -.267730582016E-01  -.275819559080E-01  -.284144495388E-01  -.292711724004E-01
  -.301527711235E-01  -.310599056801E-01  -.319932493792E-01  -.329534888352E-01  -.339413239094E-01
  -.349574676211E-01  -.360026460258E-01  -.370775980582E-01  -.381830753360E-01  -.393198419235E-01
  -.404886740489E-01  -.416903597748E-01  -.429256986157E-01  -.441955010998E-01  -.455005882716E-01
  -.468417911293E-01  -.482199499936E-01  -.496359138019E-01  -.510905393251E-01  -.525846902977E-01
  -.541192364591E-01  -.556950524983E-01  -.573130168951E-01  -.589740106528E-01  -.606789159135E-01
  -.624286144501E-01  -.642239860256E-01  -.660659066137E-01  -.679552464692E-01  -.698928680428E-01
  -.718796237272E-01  -.739163534280E-01  -.760038819465E-01  -.781430161663E-01  -.803345420303E-01
  -.825792212983E-01  -.848777880724E-01  -.872309450787E-01  -.896393596912E-01  -.921036596863E-01
  -.946244287136E-01  -.972022014691E-01  -.998374585566E-01  -.102530621023E+00  -.105282044551E+00
  -.108092013300E+00  -.110960733370E+00  -.113888325880E+00  -.116874819648E+00  -.119920143448E+00
  -.123024117836E+00  -.126186446527E+00  -.129406707312E+00  -.132684342488E+00  -.136018648808E+00
  -.139408766915E+00  -.142853670268E+00  -.146352153530E+00  -.149902820430E+00  -.153504071059E+00
  -.157154088635E+00  -.160850825688E+00  -.164591989704E+00  -.168375028190E+00  -.172197113200E+00
  -.176055125297E+00  -.179945636988E+00  -.183864895630E+00  -.187808805830E+00  -.191772911378E+00
  -.195752376725E+00  -.199741968060E+00  -.203736034020E+00  -.207728486098E+00  -.211712778803E+00
  -.215681889647E+00  -.219628299043E+00  -.223543970201E+00  -.227420329141E+00  -.231248244923E+00
  -.235018010254E+00  -.238719322588E+00  -.242341265908E+00  -.245872293368E+00  -.249300210985E+00
  -.252612162608E+00  -.255794616406E+00  -.258833353133E+00  -.261713456451E+00  -.264419305632E+00
  -.266934570951E+00  -.269242212147E+00  -.271324480321E+00  -.273162923684E+00  -.274738397602E+00
  -.276031079373E+00  -.277020488259E+00  -.277685511261E+00  -.278004435188E+00  -.277954985582E+00
  -.277514373084E+00  -.276659347844E+00  -.275366262600E+00  -.273611145055E+00  -.271369780203E+00
  -.268617803243E+00  -.265330803725E+00  -.261484441573E+00  -.257054575591E+00  -.252017405038E+00
  -.246349624844E+00  -.240028594947E+00  -.233032524208E+00  -.225340669267E+00  -.216933548604E+00
  -.207793171993E+00  -.197903285364E+00  -.187249630981E+00  -.175820222662E+00  -.163605635574E+00
  -.150599309916E+00  -.136797867599E+00  -.122201440705E+00  -.106814010269E+00  -.906437535665E-01
  -.737033977641E-01  -.560105773923E-01  -.375881927437E-01  -.184647658957E-01   .132520929687E-02
   .217409272225E-01   .427349448014E-01   .642528745255E-01   .862331009512E-01   .108606525614E+00
   .131296345755E+00   .154217872851E+00   .177278397795E+00   .200377110526E+00   .223405082875E+00
   .246245324158E+00   .268772919488E+00   .290855260761E+00   .312352379783E+00   .333117392118E+00
   .352997059009E+00   .371832473544E+00   .389459876130E+00   .405711603480E+00   .420417174374E+00
   .433404514429E+00   .444501320700E+00   .453536565279E+00   .460342135136E+00   .464754603294E+00
   .466617124144E+00   .465781443168E+00   .462110008613E+00   .455478169725E+00   .445776443013E+00
   .432912824670E+00   .416815123894E+00   .397433288325E+00   .374741689337E+00   .348741331653E+00
   .319461948602E+00   .286963941726E+00   .251340121261E+00   .212717202521E+00   .171257012422E+00
   .127157360281E+00   .806525277056E-01   .320133339915E-01  -.184532633358E-01  -.704050670055E-01
  -.123466060448E+00  -.177228355185E+00  -.231254646703E+00  -.285081138531E+00  -.338220887775E+00
  -.390167549004E+00  -.440399550678E+00  -.488384806269E+00  -.533586082945E+00  -.575467064387E+00
  -.613498973511E+00  -.647167494431E+00  -.675979748156E+00  -.699471181695E+00  -.717212310720E+00
  -.728815266687E+00  -.733940068074E+00  -.732300501464E+00  -.723669483651E+00  -.707883783229E+00
  -.684848001689E+00  -.654537739668E+00  -.617001897407E+00  -.572364076104E+00  -.520823059618E+00
  -.462652364012E+00  -.398198848370E+00  -.327880383849E+00  -.252182581642E+00  -.171654585261E+00
  -.869039398378E-01   .140943697616E-02   .925801405975E-01   .185864957214E+00   .280491243912E+00
   .375665899393E+00   .470584802204E+00   .564442601200E+00   .656442767356E+00   .745807834241E+00
   .831789706377E+00   .913679713639E+00   .990817685812E+00   .106259888184E+01   .112847765717E+01
   .118796792785E+01   .124064258822E+01   .128613533142E+01   .132414687580E+01   .135445414843E+01
   .137691883728E+01   .139149264842E+01   .139821883774E+01   .139723090066E+01   .138874934585E+01
   .137307703795E+01   .135059324859E+01   .132174644356E+01   .128704587403E+01   .124705213711E+01
   .120236694899E+01   .115362241685E+01   .110146998882E+01   .104656937492E+01   .989578257329E+00
   .931142354126E+00   .871886089563E+00   .812404132159E+00   .753253902324E+00   .694949160743E+00
   .637954767681E+00   .582682684320E+00   .529489263441E+00   .478673839989E+00   .430478590296E+00
   .385089576284E+00   .342638840924E+00   .303207379995E+00   .266828792875E+00   .233493419558E+00
   .203152805354E+00
 pseudo wavefunction
  -.975217835566E-04  -.100692948599E-03  -.103967232011E-03  -.107347986943E-03  -.110838675582E-03
  -.114442872698E-03  -.118164269303E-03  -.122006676430E-03  -.125974029038E-03  -.130070390041E-03
  -.134299954469E-03  -.138667053764E-03  -.143176160215E-03  -.147831891538E-03  -.152639015607E-03
  -.157602455332E-03  -.162727293708E-03  -.168018779012E-03  -.173482330184E-03  -.179123542373E-03
  -.184948192669E-03  -.190962246018E-03  -.197171861329E-03  -.203583397784E-03  -.210203421351E-03
  -.217038711504E-03  -.224096268168E-03  -.231383318889E-03  -.238907326233E-03  -.246675995430E-03
  -.254697282263E-03  -.262979401216E-03  -.271530833887E-03  -.280360337675E-03  -.289476954743E-03
  -.298890021284E-03  -.308609177078E-03  -.318644375364E-03  -.329005893035E-03  -.339704341161E-03
  -.350750675854E-03  -.362156209489E-03  -.373932622289E-03  -.386091974286E-03  -.398646717670E-03
  -.411609709541E-03  -.424994225076E-03  -.438813971125E-03  -.453083100243E-03  -.467816225186E-03
  -.483028433875E-03  -.498735304845E-03  -.514952923199E-03  -.531697897081E-03  -.548987374678E-03
  -.566839061787E-03  -.585271239940E-03  -.604302785129E-03  -.623953187132E-03  -.644242569472E-03
  -.665191710022E-03  -.686822062283E-03  -.709155777352E-03  -.732215726601E-03  -.756025525101E-03
  -.780609555800E-03  -.805992994490E-03  -.832201835586E-03  -.859262918742E-03  -.887203956336E-03
  -.916053561838E-03  -.945841279114E-03  -.976597612671E-03  -.100835405889E-02  -.104114313829E-02
  -.107499842877E-02  -.110995460008E-02  -.114604744922E-02  -.118331393715E-02  -.122179222660E-02
  -.126152172116E-02  -.130254310560E-02  -.134489838752E-02  -.138863094037E-02  -.143378554785E-02
  -.148040844970E-02  -.152854738911E-02  -.157825166153E-02  -.162957216513E-02  -.168256145294E-02
  -.173727378657E-02  -.179376519179E-02  -.185209351583E-02  -.191231848662E-02  -.197450177384E-02
  -.203870705210E-02  -.210500006601E-02  -.217344869752E-02  -.224412303529E-02  -.231709544643E-02
  -.239244065052E-02  -.247023579602E-02  -.255056053917E-02  -.263349712545E-02  -.271913047369E-02
  -.280754826286E-02  -.289884102174E-02  -.299310222144E-02  -.309042837091E-02  -.319091911560E-02
  -.329467733927E-02  -.340180926906E-02  -.351242458405E-02  -.362663652723E-02  -.374456202116E-02
  -.386632178732E-02  -.399204046933E-02  -.412184676014E-02  -.425587353335E-02  -.439425797870E-02
  -.453714174200E-02  -.468467106949E-02  -.483699695689E-02  -.499427530324E-02  -.515666706965E-02
  -.532433844317E-02  -.549746100594E-02  -.567621190966E-02  -.586077405577E-02  -.605133628128E-02
  -.624809355061E-02  -.645124715353E-02  -.666100490935E-02  -.687758137765E-02  -.710119807575E-02
  -.733208370295E-02  -.757047437197E-02  -.781661384768E-02  -.807075379332E-02  -.833315402448E-02
  -.860408277110E-02  -.888381694760E-02  -.917264243150E-02  -.947085435071E-02  -.977875737969E-02
  -.100966660449E-01  -.104249050394E-01  -.107638095476E-01  -.111137255794E-01  -.114750103150E-01
  -.118480324598E-01  -.122331726100E-01  -.126308236299E-01  -.130413910394E-01  -.134652934135E-01
  -.139029627942E-01  -.143548451132E-01  -.148214006279E-01  -.153031043696E-01  -.158004466043E-01
  -.163139333070E-01  -.168440866490E-01  -.173914454983E-01  -.179565659348E-01  -.185400217780E-01
  -.191424051297E-01  -.197643269304E-01  -.204064175301E-01  -.210693272737E-01  -.217537271004E-01
  -.224603091575E-01  -.231897874292E-01  -.239428983789E-01  -.247204016058E-01  -.255230805160E-01
  -.263517430063E-01  -.272072221616E-01  -.280903769654E-01  -.290020930217E-01  -.299432832892E-01
  -.309148888251E-01  -.319178795395E-01  -.329532549578E-01  -.340220449902E-01  -.351253107069E-01
  -.362641451174E-01  -.374396739512E-01  -.386530564385E-01  -.399054860874E-01  -.411981914555E-01
  -.425324369123E-01  -.439095233879E-01  -.453307891052E-01  -.467976102902E-01  -.483114018544E-01
  -.498736180445E-01  -.514857530534E-01  -.531493415824E-01  -.548659593499E-01  -.566372235353E-01
  -.584647931486E-01  -.603503693146E-01  -.622956954600E-01  -.643025573874E-01  -.663727832245E-01
  -.685082432281E-01  -.707108494272E-01  -.729825550824E-01  -.753253539407E-01  -.777412792599E-01
  -.802324025749E-01  -.828008321761E-01  -.854487112663E-01  -.881782157588E-01  -.909915516779E-01
  -.938909521157E-01  -.968786736971E-01  -.999569925010E-01  -.103128199377E+00  -.106394594594E+00
  -.109758481755E+00  -.113222160889E+00  -.116787920656E+00  -.120458029555E+00  -.124234726041E+00
  -.128120207451E+00  -.132116617608E+00  -.136226032983E+00  -.140450447269E+00  -.144791754221E+00
  -.149251728597E+00  -.153832005018E+00  -.158534054561E+00  -.163359158878E+00  -.168308381612E+00
  -.173382536884E+00  -.178582154591E+00  -.183907442227E+00  -.189358242974E+00  -.194933989716E+00
  -.200633654676E+00  -.206455694326E+00  -.212397989212E+00  -.218457778327E+00  -.224631587630E+00
  -.230915152341E+00  -.237303332586E+00  -.243790021999E+00  -.250368048875E+00  -.257029069498E+00
  -.263763453245E+00  -.270560159165E+00  -.277406603699E+00  -.284288519342E+00  -.291189804057E+00
  -.298092361417E+00  -.304975931527E+00  -.311817912963E+00  -.318593176162E+00  -.325273868922E+00
  -.331829214957E+00  -.338225306806E+00  -.344424894779E+00  -.350387174111E+00  -.356067573024E+00
  -.361417545081E+00  -.366384369883E+00  -.370910967070E+00  -.374935729480E+00  -.378392382421E+00
  -.381209877198E+00  -.383312328318E+00  -.384619005279E+00  -.385044391342E+00  -.384498323334E+00
  -.382886228237E+00  -.380109474020E+00  -.376065853865E+00  -.370650224534E+00  -.363755320965E+00
  -.355272770262E+00  -.345094328765E+00  -.333113365744E+00  -.319226616186E+00  -.303336222859E+00
  -.285352083948E+00  -.265194516844E+00  -.242797240447E+00  -.218110667460E+00  -.191105483807E+00
  -.161776474328E+00  -.130146531608E+00  -.962707580029E-01  -.602405394802E-01  -.221874337785E-01
   .177133246753E-01   .592399437588E-01   .102122101449E+00   .146040209913E+00   .190626280391E+00
   .235466779314E+00   .280107874023E+00   .324063447340E+00   .366826203572E+00   .407882081761E+00
   .446728021806E+00   .482892881651E+00   .515960966780E+00   .545597198267E+00   .571572410997E+00
   .593786649499E+00   .612287642165E+00   .627280935994E+00   .639127544694E+00   .648324521159E+00
   .655463771271E+00   .661164882033E+00   .665978981073E+00   .670262931519E+00   .674032223736E+00
   .677106670623E+00
 ae wavefunction
  -.126524985758E-02  -.130449774219E-02  -.134495724551E-02  -.138666540437E-02  -.142966036404E-02
  -.147398141000E-02  -.151966900034E-02  -.156676479920E-02  -.161531171081E-02  -.166535391455E-02
  -.171693690080E-02  -.177010750768E-02  -.182491395862E-02  -.188140590087E-02  -.193963444490E-02
  -.199965220465E-02  -.206151333881E-02  -.212527359285E-02  -.219099034213E-02  -.225872263582E-02
  -.232853124182E-02  -.240047869254E-02  -.247462933167E-02  -.255104936186E-02  -.262980689325E-02
  -.271097199299E-02  -.279461673564E-02  -.288081525443E-02  -.296964379345E-02  -.306118076064E-02
  -.315550678164E-02  -.325270475450E-02  -.335285990510E-02  -.345605984335E-02  -.356239462019E-02
  -.367195678510E-02  -.378484144441E-02  -.390114632011E-02  -.402097180916E-02  -.414442104330E-02
  -.427159994925E-02  -.440261730917E-02  -.453758482140E-02  -.467661716126E-02  -.481983204190E-02
  -.496735027508E-02  -.511929583167E-02  -.527579590182E-02  -.543698095466E-02  -.560298479724E-02
  -.577394463272E-02  -.595000111746E-02  -.613129841687E-02  -.631798425989E-02  -.651020999160E-02
  -.670813062406E-02  -.691190488474E-02  -.712169526253E-02  -.733766805084E-02  -.755999338748E-02
  -.778884529101E-02  -.802440169307E-02  -.826684446636E-02  -.851635944767E-02  -.877313645567E-02
  -.903736930276E-02  -.930925580055E-02  -.958899775823E-02  -.987680097341E-02  -.101728752145E-01
  -.104774341941E-01  -.107906955327E-01  -.111128807111E-01  -.114442150127E-01  -.117849274516E-01
  -.121352506885E-01  -.124954209320E-01  -.128656778237E-01  -.132462643075E-01  -.136374264799E-01
  -.140394134220E-01  -.144524770100E-01  -.148768717042E-01  -.153128543139E-01  -.157606837372E-01
  -.162206206735E-01  -.166929273071E-01  -.171778669609E-01  -.176757037158E-01  -.181867019961E-01
  -.187111261180E-01  -.192492397978E-01  -.198013056187E-01  -.203675844528E-01  -.209483348364E-01
  -.215438122948E-01  -.221542686141E-01  -.227799510576E-01  -.234211015227E-01  -.240779556351E-01
  -.247507417775E-01  -.254396800484E-01  -.261449811484E-01  -.268668451889E-01  -.276054604198E-01
  -.283610018732E-01  -.291336299168E-01  -.299234887144E-01  -.307307045892E-01  -.315553842838E-01
  -.323976131145E-01  -.332574530138E-01  -.341349404570E-01  -.350300842683E-01  -.359428633021E-01
  -.368732239941E-01  -.378210777780E-01  -.387862983635E-01  -.397687188719E-01  -.407681288227E-01
  -.417842709709E-01  -.428168379877E-01  -.438654689839E-01  -.449297458719E-01  -.460091895628E-01
  -.471032559995E-01  -.482113320210E-01  -.493327310597E-01  -.504666886706E-01  -.516123578945E-01
  -.527688044558E-01  -.539350018001E-01  -.551098259742E-01  -.562920503567E-01  -.574803402449E-01
  -.586732473090E-01  -.598692039242E-01  -.610665173946E-01  -.622633640858E-01  -.634577834832E-01
  -.646476721995E-01  -.658307779547E-01  -.670046935572E-01  -.681668509180E-01  -.693145151328E-01
  -.704447786734E-01  -.715545557307E-01  -.726405767606E-01  -.736993832865E-01  -.747273230175E-01
  -.757205453498E-01  -.766749973215E-01  -.775864200999E-01  -.784503460868E-01  -.792620967329E-01
  -.800167811609E-01  -.807092957050E-01  -.813343244801E-01  -.818863411040E-01  -.823596117024E-01
  -.827481993349E-01  -.830459699889E-01  -.832466002941E-01  -.833435871194E-01  -.833302592209E-01
  -.831997911148E-01  -.829452193570E-01  -.825594614146E-01  -.820353373175E-01  -.813655942841E-01
  -.805429345131E-01  -.795600463324E-01  -.784096388961E-01  -.770844806123E-01  -.755774414774E-01
  -.738815394808E-01  -.719899912313E-01  -.698962669336E-01  -.675941498260E-01  -.650778001576E-01
  -.623418237554E-01  -.593813451906E-01  -.561920855109E-01  -.527704444563E-01  -.491135870165E-01
  -.452195341281E-01  -.410872572337E-01  -.367167763474E-01  -.321092611839E-01  -.272671348095E-01
  -.221941791699E-01  -.168956417404E-01  -.113783424255E-01  -.565077972614E-02   .276764920437E-03
   .639212581545E-02   .126811559587E-01   .191276356307E-01   .257131879961E-01   .324172032098E-01
   .392167726244E-01   .460866348855E-01   .529991359427E-01   .599242052982E-01   .668293510941E-01
   .736796768699E-01   .804379229494E-01   .870645354065E-01   .935177654177E-01   .997538015278E-01
   .105726936999E+00   .111389774043E+00   .116693466416E+00   .121588001573E+00   .126022523327E+00
   .129945695615E+00   .133306107565E+00   .136052719576E+00   .138135349510E+00   .139505197497E+00
   .140115407152E+00   .139921660228E+00   .138882800980E+00   .136961485581E+00   .134124851050E+00
   .130345197152E+00   .125600673736E+00   .119875964941E+00   .113162960706E+00   .105461405037E+00
   .967795096101E-01   .871345205195E-01   .765532253851E-01   .650723876154E-01   .527390944415E-01
   .396110053530E-01   .257564878181E-01   .112546276987E-01  -.380489722768E-02  -.193220903446E-01
  -.351870622006E-01  -.512806103826E-01  -.674749471522E-01  -.836345621223E-01  -.996172051524E-01
  -.115274981482E+00  -.130455568108E+00  -.145003580759E+00  -.158762127404E+00  -.171574559005E+00
  -.183286377577E+00  -.193747223723E+00  -.202812869914E+00  -.210347177067E+00  -.216223996154E+00
  -.220329000233E+00  -.222561423213E+00  -.222835671825E+00  -.221082773007E+00  -.217251621282E+00
  -.211309997348E+00  -.203245337070E+00  -.193065237417E+00  -.180797691631E+00  -.166491050182E+00
  -.150213706957E+00  -.132053512435E+00  -.112116917058E+00  -.905278495723E-01  -.674263367572E-01
  -.429668733452E-01  -.173165544372E-01   .934701223354E-02   .368379903978E-01   .649647646241E-01
   .935325174485E-01   .122345893455E+00   .151211711866E+00   .179941697082E+00   .208355203776E+00
   .236281902462E+00   .263564335880E+00   .290060137216E+00   .315643560300E+00   .340205962028E+00
   .363655203212E+00   .385914570527E+00   .406922273806E+00   .426632218055E+00   .445015725347E+00
   .462063171006E+00   .477784707669E+00   .492209914480E+00   .505386636366E+00   .517379318005E+00
   .528267009911E+00   .538141111488E+00   .547102871388E+00   .555260669730E+00   .562727133270E+00
   .569616158155E+00   .576039929090E+00   .582105968179E+00   .587914295071E+00   .593555070628E+00
   .599106469569E+00   .604632851881E+00   .610183313173E+00   .615790611052E+00   .621470470319E+00
   .627221262559E+00   .633024057241E+00   .638843048923E+00   .644626369228E+00   .650307298750E+00
   .655805880033E+00   .661030902619E+00   .665882179227E+00   .670252955652E+00   .674032223736E+00
   .677106670623E+00
 pseudo wavefunction
   .109524141412E-07   .116762854609E-07   .124479991721E-07   .132707172931E-07   .141478108278E-07
   .150828735774E-07   .160797368665E-07   .171424852407E-07   .182754732034E-07   .194833430572E-07
   .207710439259E-07   .221438520326E-07   .236073923185E-07   .251676614909E-07   .268310525936E-07
   .286043812022E-07   .304949133497E-07   .325103952989E-07   .346590852815E-07   .369497873355E-07
   .393918873788E-07   .419953916672E-07   .447709677936E-07   .477299883980E-07   .508845777650E-07
   .542476615023E-07   .578330195019E-07   .616553424017E-07   .657302917789E-07   .700745643218E-07
   .747059602427E-07   .796434562122E-07   .849072831144E-07   .905190089409E-07   .965016271628E-07
   .102879650945E-06   .109679213585E-06   .116928175593E-06   .124656238847E-06   .132895068290E-06
   .141678421678E-06   .151042287899E-06   .161025034429E-06   .171667564543E-06   .183013484909E-06
   .195109284264E-06   .208004523895E-06   .221752040710E-06   .236408163736E-06   .252032944914E-06
   .268690405164E-06   .286448796693E-06   .305380882661E-06   .325564235314E-06   .347081553828E-06
   .370021003163E-06   .394476575303E-06   .420548474385E-06   .448343527267E-06   .477975621240E-06
   .509566170673E-06   .543244614488E-06   .579148946521E-06   .617426280939E-06   .658233455019E-06
   .701737671771E-06   .748117185030E-06   .797562029831E-06   .850274801048E-06   .906471483508E-06
   .966382336955E-06   .103025283951E-05   .109834469348E-05   .117093689765E-05   .124832689046E-05
   .133083176868E-05   .141878958670E-05   .151256074162E-05   .161252944998E-05   .171910532198E-05
   .183272503980E-05   .195385414685E-05   .208298895525E-05   .222065857938E-05   .236742710385E-05
   .252389589470E-05   .269070606342E-05   .286854109377E-05   .305812964223E-05   .326024852349E-05
   .347572589334E-05   .370544464180E-05   .395034601061E-05   .421143344973E-05   .448977672873E-05
   .478651631991E-05   .510286807110E-05   .544012818725E-05   .579967854128E-05   .618299233588E-05
   .659164013955E-05   .702729632144E-05   .749174591157E-05   .798689191435E-05   .851476310544E-05
   .907752234392E-05   .967747543366E-05   .103170805705E-04   .109989584134E-04   .117259028217E-04
   .125008923014E-04   .133271022079E-04   .142079177556E-04   .151469478869E-04   .161480400572E-04
   .172152959980E-04   .183530885207E-04   .195660794311E-04   .208592386277E-04   .222378644620E-04
   .237076054439E-04   .252744833818E-04   .269449180510E-04   .287257534924E-04   .306242860491E-04
   .326482942546E-04   .348060706966E-04   .371064559853E-04   .395588749660E-04   .421733753243E-04
   .449606687415E-04   .479321747687E-04   .511000675991E-04   .544773259302E-04   .580777861192E-04
   .619161988499E-04   .660082895413E-04   .703708227476E-04   .750216708095E-04   .799798870407E-04
   .852657837464E-04   .909010153937E-04   .969086672738E-04   .103313350018E-03   .110141300353E-03
   .117420488508E-03   .125180732712E-03   .133453821248E-03   .142273642562E-03   .151676323956E-03
   .161700379440E-03   .172386867331E-03   .183779558252E-03   .195925114213E-03   .208873279500E-03
   .222677084159E-03   .237393060887E-03   .253081476229E-03   .269806577011E-03   .287636853011E-03
   .306645316940E-03   .326909802867E-03   .348513284294E-03   .371544213181E-03   .396096881280E-03
   .422271805258E-03   .450176137151E-03   .479924101816E-03   .511637463148E-03   .545446020941E-03
   .581488140389E-03   .619911316370E-03   .660872774773E-03   .704540113286E-03   .751091984210E-03
   .800718822041E-03   .853623618720E-03   .910022749652E-03   .970146853776E-03   .103424177120E-02
   .110256954210E-02   .117540947086E-02   .125305925966E-02   .133583621595E-02   .142407853855E-02
   .151814668751E-02   .161842484293E-02   .172532245856E-02   .183927591615E-02   .196075028691E-02
   .209024120691E-02   .222827687366E-02   .237542017136E-02   .253227093302E-02   .269946834790E-02
   .287769352336E-02   .306767221072E-02   .327017770515E-02   .348603393030E-02   .371611871903E-02
   .396136730195E-02   .422277601651E-02   .450140624963E-02   .479838862793E-02   .511492746999E-02
   .545230551608E-02   .581188895131E-02   .619513273902E-02   .660358628207E-02   .703889943019E-02
   .750282885255E-02   .799724479546E-02   .852413824558E-02   .908562852011E-02   .968397130570E-02
   .103215671687E-01   .110009705600E-01   .117248993372E-01   .124962448293E-01   .133180824665E-01
   .141936830000E-01   .151265243352E-01   .161203040022E-01   .171789522857E-01   .183066460364E-01
   .195078231830E-01   .207871979649E-01   .221497768990E-01   .236008754946E-01   .251461357244E-01
   .267915442553E-01   .285434514381E-01   .304085910455E-01   .323941007435E-01   .345075432671E-01
   .367569282658E-01   .391507347632E-01   .416979341679E-01   .444080137487E-01   .472910004689E-01
   .503574850508E-01   .536186461134E-01   .570862741947E-01   .607727954337E-01   .646912946486E-01
   .688555374974E-01   .732799913587E-01   .779798445063E-01   .829710230899E-01   .882702053536E-01
   .938948324422E-01   .998631150524E-01   .106194035078E+00   .112907341284E+00   .120023537918E+00
   .127563865021E+00   .135550269045E+00   .144005362229E+00   .152952368975E+00   .162415057294E+00
   .172417653171E+00   .182984735461E+00   .194141108706E+00   .205911651024E+00   .218321133937E+00
   .231394010782E+00   .245154170080E+00   .259624650021E+00   .274827309960E+00   .290782454701E+00
   .307508407143E+00   .325021024857E+00   .343333156132E+00   .362454031222E+00   .382388584784E+00
   .403136706007E+00   .424692413629E+00   .447042954096E+00   .470167822414E+00   .494037707094E+00
   .518613362788E+00   .543844417120E+00   .569668121669E+00   .596008061330E+00   .622772841379E+00
   .649854777534E+00   .677128621337E+00   .704450361185E+00   .731656148394E+00   .758561407758E+00
   .784960202998E+00   .810624939083E+00   .835306495325E+00   .858734894870E+00   .880620626968E+00
   .900656747328E+00   .918521887557E+00   .933884305633E+00   .946407103476E+00   .955754722613E+00
   .961600801784E+00   .963637437949E+00   .961585831031E+00   .955208209252E+00   .944320822757E+00
   .928807655525E+00   .908634337926E+00   .883861545150E+00   .854656943936E+00   .821304509729E+00
   .784209792970E+00   .743899488840E+00   .701013491217E+00   .656287531909E+00   .610524575674E+00
   .564553427209E+00   .519173585360E+00   .475086334065E+00   .432813466430E+00   .392612478558E+00
   .354568440794E+00
 ae wavefunction
   .797713269216E-05   .844272214029E-05   .893408168927E-05   .945272331636E-05   .100002443386E-04
   .105783325057E-04   .111887713905E-04   .118334460923E-04   .125143492794E-04   .132335875835E-04
   .139933883708E-04   .147961069193E-04   .156442340160E-04   .165404040099E-04   .174874033424E-04
   .184881795896E-04   .195458510442E-04   .206637168725E-04   .218452678815E-04   .230941979352E-04
   .244144160563E-04   .258100592613E-04   .272855061682E-04   .288453914299E-04   .304946210429E-04
   .322383885802E-04   .340821924146E-04   .360318539852E-04   .380935371779E-04   .402737688829E-04
   .425794608070E-04   .450179326137E-04   .475969364770E-04   .503246831356E-04   .532098695332E-04
   .562617081566E-04   .594899581619E-04   .629049584086E-04   .665176625156E-04   .703396760648E-04
   .743832960844E-04   .786615529523E-04   .831882548692E-04   .879780350598E-04   .930464018689E-04
   .984097919310E-04   .104085626603E-03   .110092371858E-03   .116449601855E-03   .123178066410E-03
   .130299762599E-03   .137838010756E-03   .145817535131E-03   .154264549484E-03   .163206847922E-03
   .172673901297E-03   .182696959494E-03   .193309159976E-03   .204545642947E-03   .216443673548E-03
   .229042771491E-03   .242384848583E-03   .256514354616E-03   .271478432101E-03   .287327080386E-03
   .304113329713E-03   .321893425775E-03   .340727025416E-03   .360677404107E-03   .381811675888E-03
   .404201026490E-03   .427920960403E-03   .453051562695E-03   .479677776402E-03   .507889696390E-03
   .537782880626E-03   .569458679801E-03   .603024586372E-03   .638594604064E-03   .676289638984E-03
   .716237913507E-03   .758575404192E-03   .803446305018E-03   .851003517263E-03   .901409167506E-03
   .954835155153E-03   .101146373108E-02   .107148810899E-02   .113511311107E-02   .120255584987E-02
   .127404644797E-02   .134982879749E-02   .143016136125E-02   .151531801766E-02   .160558895137E-02
   .170128159177E-02   .180272160156E-02   .191025391763E-02   .202424384654E-02   .214507821691E-02
   .227316659111E-02   .240894253872E-02   .255286497412E-02   .270541956076E-02   .286712018448E-02
   .303851049845E-02   .322016554208E-02   .341269343639E-02   .361673715814E-02   .383297639499E-02
   .406212948390E-02   .430495543484E-02   .456225604159E-02   .483487808153E-02   .512371560566E-02
   .542971232026E-02   .575386406098E-02   .609722135989E-02   .646089210566E-02   .684604429640E-02
   .725390888432E-02   .768578271064E-02   .814303152844E-02   .862709311050E-02   .913948043809E-02
   .968178496585E-02   .102556799567E-01   .108629238794E-01   .115053638606E-01   .121849391802E-01
   .129036847993E-01   .136637349070E-01   .144673264692E-01   .153168027631E-01   .162146168761E-01
   .171633351474E-01   .181656405244E-01   .192243358079E-01   .203423467519E-01   .215227249834E-01
   .227686507014E-01   .240834351129E-01   .254705225564E-01   .269334922602E-01   .284760596772E-01
   .301020773332E-01   .318155351181E-01   .336205599459E-01   .355214147008E-01   .375224963807E-01
   .396283333425E-01   .418435815469E-01   .441730196908E-01   .466215431092E-01   .491941563209E-01
   .518959640815E-01   .547321608021E-01   .577080181814E-01   .608288708911E-01   .641001001479E-01
   .675271149952E-01   .711153311117E-01   .748701469560E-01   .787969170526E-01   .829009222155E-01
   .871873365045E-01   .916611907058E-01   .963273321266E-01   .101190380494E+00   .106254679756E+00
   .111524245572E+00   .117002708322E+00   .122693251433E+00   .128598544866E+00   .134720673629E+00
   .141061061175E+00   .147620387613E+00   .154398502675E+00   .161394333409E+00   .168605786661E+00
   .176029646419E+00   .183661466175E+00   .191495456557E+00   .199524368510E+00   .207739372467E+00
   .216129933991E+00   .224683686532E+00   .233386302028E+00   .242221360246E+00   .251170217869E+00
   .260211878481E+00   .269322864757E+00   .278477094234E+00   .287645760185E+00   .296797219151E+00
   .305896886736E+00   .314907143311E+00   .323787251341E+00   .332493286210E+00   .340978082738E+00
   .349191200071E+00   .357078908291E+00   .364584200809E+00   .371646837257E+00   .378203422043E+00
   .384187523808E+00   .389529840845E+00   .394158416952E+00   .397998911406E+00   .400974925843E+00
   .403008389949E+00   .404020007304E+00   .403929762416E+00   .402657489914E+00   .400123506734E+00
   .396249307815E+00   .390958325251E+00   .384176750054E+00   .375834414757E+00   .365865734076E+00
   .354210699740E+00   .340815924401E+00   .325635728157E+00   .308633259812E+00   .289781643368E+00
   .269065138584E+00   .246480302670E+00   .222037138414E+00   .195760212226E+00   .167689723955E+00
   .137882508702E+00   .106412949572E+00   .733737792157E-01   .388767472400E-01   .305313013260E-02
  -.339459397679E-01  -.719493494699E-01  -.110766106964E+00  -.150185689283E+00  -.189978652130E+00
  -.229897507280E+00  -.269677860377E+00  -.309039785717E+00  -.347689403430E+00  -.385320629591E+00
  -.421617100998E+00  -.456254332249E+00  -.488902218404E+00  -.519228001183E+00  -.546899726348E+00
  -.571590069637E+00  -.592980317388E+00  -.610764326776E+00  -.624652396389E+00  -.634375047334E+00
  -.639686718302E+00  -.640369346186E+00  -.636235772476E+00  -.627132902115E+00  -.612944545997E+00
  -.593593893576E+00  -.569045579498E+00  -.539307322865E+00  -.504431127131E+00  -.464514033903E+00
  -.419698425187E+00  -.370171868251E+00  -.316166494880E+00  -.257957904417E+00  -.195863578224E+00
  -.130240793286E+00  -.614840261381E-01   .997815377105E-02   .836866899615E-01   .159156117301E+00
   .235879071932E+00   .313331184646E+00   .390976316175E+00   .468272112849E+00   .544675878145E+00
   .619650723903E+00   .692671812400E+00   .763232176336E+00   .830847221194E+00   .895056982745E+00
   .955426078476E+00   .101154298340E+01   .106302144489E+01   .110950587101E+01   .115067977008E+01
   .118627442053E+01   .121607551067E+01   .123992724543E+01   .125773452706E+01   .126946389836E+01
   .127514358444E+01   .127486266923E+01   .126876933103E+01   .125706808267E+01   .124001604186E+01
   .121791832877E+01   .119112273551E+01   .116001371135E+01   .112500583413E+01   .108653751655E+01
   .104506442093E+01   .100105274986E+01   .954972661314E+00   .907291847724E+00   .858469400671E+00
   .808950062002E+00   .759158967194E+00   .709497031449E+00   .660336981992E+00   .612020239786E+00
   .564854579728E+00   .519112581406E+00   .475030780117E+00   .432809392330E+00   .392612478558E+00
   .354568440794E+00
 pseudo wavefunction
  -.348542341986E-08  -.371578341258E-08  -.396136844956E-08  -.422318479045E-08  -.450230520103E-08
  -.479987334872E-08  -.511710848868E-08  -.545531045955E-08  -.581586500941E-08  -.620024947375E-08
  -.661003882871E-08  -.704691214435E-08  -.751265946448E-08  -.800918914122E-08  -.853853565422E-08
  -.910286794674E-08  -.970449831269E-08  -.103458918710E-07  -.110296766663E-07  -.117586544367E-07
  -.125358120942E-07  -.133643339627E-07  -.142476148258E-07  -.151892738362E-07  -.161931693454E-07
  -.172634147122E-07  -.184043951573E-07  -.196207857309E-07  -.209175704685E-07  -.223000628123E-07
  -.237739273826E-07  -.253452031877E-07  -.270203283685E-07  -.288061665778E-07  -.307100351033E-07
  -.327397348499E-07  -.349035823024E-07  -.372104436020E-07  -.396697708740E-07  -.422916409566E-07
  -.450867966906E-07  -.480666909357E-07  -.512435334986E-07  -.546303411603E-07  -.582409910114E-07
  -.620902773121E-07  -.661939721093E-07  -.705688898617E-07  -.752329563343E-07  -.802052820474E-07
  -.855062405801E-07  -.911575520481E-07  -.971823720995E-07  -.103605386792E-06  -.110452913743E-06
  -.117753009959E-06  -.125535586798E-06  -.133832532529E-06  -.142677842988E-06  -.152107760871E-06
  -.162160924236E-06  -.172878524816E-06  -.184304476797E-06  -.196485596748E-06  -.209471795451E-06
  -.223316282397E-06  -.238075783809E-06  -.253810775067E-06  -.270585728498E-06  -.288469377539E-06
  -.307534998366E-06  -.327860710126E-06  -.349529795024E-06  -.372631039551E-06  -.397259098277E-06
  -.423514881678E-06  -.451505969598E-06  -.481347052041E-06  -.513160399088E-06  -.547076361876E-06
  -.583233906685E-06  -.621781184320E-06  -.662876137131E-06  -.706687146145E-06  -.753393720964E-06
  -.803187235268E-06  -.856271710914E-06  -.912864653868E-06  -.973197945370E-06  -.103751879201E-05
  -.110609073857E-05  -.117919474783E-05  -.125713035172E-05  -.134021687854E-05  -.142879476131E-05
  -.152322693257E-05  -.162390031133E-05  -.173122738834E-05  -.184564791607E-05  -.196763071043E-05
  -.209767557151E-05  -.223631533122E-05  -.238411803637E-05  -.254168927587E-05  -.270967466180E-05
  -.288876247441E-05  -.307968648189E-05  -.328322894651E-05  -.350022382937E-05  -.373156020691E-05
  -.397818591318E-05  -.424111142283E-05  -.452141399056E-05  -.482024206420E-05  -.513881998927E-05
  -.547845302446E-05  -.584053268845E-05  -.622654245998E-05  -.663806385449E-05  -.707678290230E-05
  -.754449705466E-05  -.804312254610E-05  -.857470224307E-05  -.914141401114E-05  -.974557963480E-05
  -.103896743265E-04  -.110763368637E-04  -.118083803955E-04  -.125888039632E-04  -.134208047811E-04
  -.143077913290E-04  -.152533973086E-04  -.162614965222E-04  -.173362187332E-04  -.184819665737E-04
  -.197034335689E-04  -.210056233508E-04  -.223938701400E-04  -.238738605803E-04  -.254516570131E-04
  -.271337222883E-04  -.289269462124E-04  -.308386737411E-04  -.328767350319E-04  -.350494774790E-04
  -.373657998612E-04  -.398351887403E-04  -.424677572614E-04  -.452742865088E-04  -.482662695889E-04
  -.514559586178E-04  -.548564148042E-04  -.584815618319E-04  -.623462427574E-04  -.664662806532E-04
  -.708585432443E-04  -.755410117963E-04  -.805328545363E-04  -.858545049026E-04  -.915277449383E-04
  -.975757941658E-04  -.104023404300E-03  -.110896960180E-03  -.118224587331E-03  -.126036266576E-03
  -.134363956168E-03  -.143241721931E-03  -.152705875918E-03  -.162795124151E-03  -.173550724035E-03
  -.185016652047E-03  -.197239782402E-03  -.210270077364E-03  -.224160789991E-03  -.238968680074E-03
  -.254754244154E-03  -.271581960494E-03  -.289520549964E-03  -.308643253870E-03  -.329028129789E-03
  -.350758366547E-03  -.373922619578E-03  -.398615367913E-03  -.424937294191E-03  -.452995689109E-03
  -.482904881852E-03  -.514786698105E-03  -.548770947361E-03  -.584995941326E-03  -.623609045320E-03
  -.664767264688E-03  -.708637868345E-03  -.755399051670E-03  -.805240641118E-03  -.858364843007E-03
  -.914987039081E-03  -.975336631571E-03  -.103965794061E-02  -.110821115696E-02  -.118127335325E-02
  -.125913955681E-02  -.134212388770E-02  -.143056076529E-02  -.152480618700E-02  -.162523908318E-02
  -.173226275167E-02  -.184630637631E-02  -.196782663326E-02  -.209730938934E-02  -.223527149646E-02
  -.238226268649E-02  -.253886757057E-02  -.270570774700E-02  -.288344402192E-02  -.307277874625E-02
  -.327445827297E-02  -.348927553766E-02  -.371807276555E-02  -.396174430733E-02  -.422123960555E-02
  -.449756629277E-02  -.479179342146E-02  -.510505482471E-02  -.543855260531E-02  -.579356074944E-02
  -.617142885898E-02  -.657358599446E-02  -.700154461809E-02  -.745690462317E-02  -.794135743277E-02
  -.845669014651E-02  -.900478970951E-02  -.958764707235E-02  -.102073613045E-01  -.108661436166E-01
  -.115663212395E-01  -.123103410969E-01  -.131007732010E-01  -.139403136854E-01  -.148317873778E-01
  -.157781497999E-01  -.167824884635E-01  -.178480233135E-01  -.189781061466E-01  -.201762188087E-01
  -.214459699500E-01  -.227910900826E-01  -.242154246546E-01  -.257229248169E-01  -.273176355163E-01
  -.290036805055E-01  -.307852438101E-01  -.326665471375E-01  -.346518226579E-01  -.367452805197E-01
  -.389510703987E-01  -.412732363053E-01  -.437156638016E-01  -.462820186977E-01  -.489756762205E-01
  -.517996395616E-01  -.547564466339E-01  -.578480637861E-01  -.610757651530E-01  -.644399962586E-01
  -.679402204380E-01  -.715747466189E-01  -.753405369983E-01  -.792329931863E-01  -.832457194617E-01
  -.873702619207E-01  -.915958224966E-01  -.959089471179E-01  -.100293187653E+00  -.104728737801E+00
  -.109192043720E+00  -.113655391018E+00  -.118086470691E+00  -.122447927818E+00  -.126696898243E+00
  -.130784540147E+00  -.134655569341E+00  -.138247809300E+00  -.141491769394E+00  -.144310267399E+00
  -.146618115156E+00  -.148321889100E+00  -.149319810070E+00  -.149501759278E+00  -.148749459106E+00
  -.146936848292E+00  -.143930680472E+00  -.139591372409E+00  -.133774122844E+00  -.126330313816E+00
  -.117109192540E+00  -.105959812399E+00  -.927331850168E-01  -.772845606648E-01  -.594757102298E-01
  -.391770280674E-01  -.162692110712E-01   .935580382028E-02   .377950413041E-01   .691363082249E-01
   .103462189246E+00   .140856833976E+00   .181416178811E+00   .225262218435E+00   .272561829231E+00
   .323550413208E+00   .378560232681E+00   .438052693213E+00   .502652953287E+00   .573184045330E+00
   .650696149424E+00   .736484762106E+00   .832089291086E+00   .939261202250E+00   .105990294215E+01
   .119631450828E+01
 ae wavefunction
  -.122014040502E-05  -.129135465676E-05  -.136651057179E-05  -.144583941484E-05  -.152958550382E-05
  -.161800698880E-05  -.171137667646E-05  -.180998290248E-05  -.191413045580E-05  -.202414155664E-05
  -.214035689221E-05  -.226313671448E-05  -.239286200226E-05  -.252993569289E-05  -.267478398707E-05
  -.282785773191E-05  -.298963388650E-05  -.316061707553E-05  -.334134123614E-05  -.353237136414E-05
  -.373430536500E-05  -.394777601704E-05  -.417345305288E-05  -.441204536697E-05  -.466430335729E-05
  -.493102140813E-05  -.521304052462E-05  -.551125112657E-05  -.582659601286E-05  -.616007350586E-05
  -.651274078775E-05  -.688571743981E-05  -.728018919820E-05  -.769741193899E-05  -.813871590597E-05
  -.860551019799E-05  -.909928752995E-05  -.962162928551E-05  -.101742108791E-04  -.107588074463E-04
  -.113772998834E-04  -.120316812562E-04  -.127240636027E-04  -.134566851529E-04  -.142319179911E-04
  -.150522761882E-04  -.159204244340E-04  -.168391871976E-04  -.178115584513E-04  -.188407119900E-04
  -.199300123837E-04  -.210830266019E-04  -.223035363501E-04  -.235955511621E-04  -.249633222941E-04
  -.264113574687E-04  -.279444365212E-04  -.295676280010E-04  -.312863067871E-04  -.331061727780E-04
  -.350332707200E-04  -.370740112425E-04  -.392351931711E-04  -.415240271963E-04  -.439481609754E-04
  -.465157057546E-04  -.492352645982E-04  -.521159623221E-04  -.551674772266E-04  -.584000747382E-04
  -.618246430660E-04  -.654527309917E-04  -.692965879146E-04  -.733692062801E-04  -.776843665261E-04
  -.822566846921E-04  -.871016628363E-04  -.922357424215E-04  -.976763608311E-04  -.103442011190E-03
  -.109552305670E-03  -.116028042466E-03  -.122891276652E-03  -.130165395104E-03  -.137875195732E-03
  -.146046971219E-03  -.154708597527E-03  -.163889627398E-03  -.173621389115E-03  -.183937090782E-03
  -.194871930399E-03  -.206463212027E-03  -.218750468320E-03  -.231775589749E-03  -.245582960814E-03
  -.260219603586E-03  -.275735328900E-03  -.292182895550E-03  -.309618177826E-03  -.328100341764E-03
  -.347692030457E-03  -.368459558816E-03  -.390473118131E-03  -.413806990832E-03  -.438539775812E-03
  -.464754624687E-03  -.492539489385E-03  -.521987381404E-03  -.553196643125E-03  -.586271231506E-03
  -.621321014510E-03  -.658462080552E-03  -.697817061289E-03  -.739515467974E-03  -.783694041638E-03
  -.830497117244E-03  -.880077001980E-03  -.932594367754E-03  -.988218657907E-03  -.104712850809E-02
  -.110951218114E-02  -.117556801579E-02  -.124550488869E-02  -.131954268954E-02  -.139791280846E-02
  -.148085863497E-02  -.156863606770E-02  -.166151403358E-02  -.175977501528E-02  -.186371558528E-02
  -.197364694485E-02  -.208989546571E-02  -.221280323212E-02  -.234272858046E-02  -.248004663345E-02
  -.262514982529E-02  -.277844841383E-02  -.294037097543E-02  -.311136487746E-02  -.329189672303E-02
  -.348245276190E-02  -.368353926068E-02  -.389568282515E-02  -.411943066637E-02  -.435535080166E-02
  -.460403218086E-02  -.486608472696E-02  -.514213927971E-02  -.543284742953E-02  -.573888122820E-02
  -.606093276151E-02  -.639971356815E-02  -.675595388778E-02  -.713040172013E-02  -.752382167558E-02
  -.793699359667E-02  -.837071092832E-02  -.882577881371E-02  -.930301189113E-02  -.980323176598E-02
  -.103272641310E-01  -.108759355064E-01  -.114500695708E-01  -.120504830527E-01  -.126779811514E-01
  -.133333524555E-01  -.140173633279E-01  -.147307517228E-01  -.154742204055E-01  -.162484295401E-01
  -.170539886166E-01  -.178914476866E-01  -.187612878798E-01  -.196639111764E-01  -.205996294128E-01
  -.215686525012E-01  -.225710758507E-01  -.236068669799E-01  -.246758513191E-01  -.257776972086E-01
  -.269119001047E-01  -.280777660207E-01  -.292743942342E-01  -.305006593126E-01  -.317551925158E-01
  -.330363626560E-01  -.343422565108E-01  -.356706589024E-01  -.370190325805E-01  -.383844980642E-01
  -.397638136208E-01  -.411533555808E-01  -.425490992053E-01  -.439466003378E-01  -.453409780822E-01
  -.467268987558E-01  -.480985613740E-01  -.494496849317E-01  -.507734977757E-01  -.520627294085E-01
  -.533096051417E-01  -.545058441181E-01  -.556426613346E-01  -.567107743951E-01  -.577004157941E-01
  -.586013515458E-01  -.594029069426E-01  -.600940001413E-01  -.606631841571E-01  -.610986977042E-01
  -.613885251953E-01  -.615204661204E-01  -.614822139862E-01  -.612614449818E-01  -.608459165207E-01
  -.602235757587E-01  -.593826780995E-01  -.583119155773E-01  -.570005548661E-01  -.554385845050E-01
  -.536168707612E-01  -.515273213575E-01  -.491630560878E-01  -.465185831112E-01  -.435899794674E-01
  -.403750740894E-01  -.368736313145E-01  -.330875326078E-01  -.290209539290E-01  -.246805359042E-01
  -.200755437074E-01  -.152180133386E-01  -.101228808029E-01  -.480809055974E-02   .705320476891E-03
   .639316714284E-02   .122280921709E-01   .181795778913E-01   .242139967612E-01   .302947032652E-01
   .363821683632E-01   .424341555880E-01   .484059354652E-01   .542505332893E-01   .599190061835E-01
   .653607502942E-01   .705238476177E-01   .753554704164E-01   .798023616316E-01   .838113955091E-01
   .873301994652E-01   .903078044193E-01   .926952970974E-01   .944464641517E-01   .955184284951E-01
   .958722785330E-01   .954736859679E-01   .942935029924E-01   .923083276161E-01   .895010265565E-01
   .858612074261E-01   .813856345171E-01   .760785845845E-01   .699521402890E-01   .630264195514E-01
   .553297390487E-01   .468987098004E-01   .377782622116E-01   .280215974024E-01   .176900612515E-01
   .685293754634E-02  -.441284279560E-02  -.160230781389E-01  -.278867578245E-01  -.399066062737E-01
  -.519797043835E-01  -.639981820750E-01  -.758499770617E-01  -.874196579061E-01  -.985893111759E-01
  -.109239485122E+00  -.119250154688E+00  -.128501619078E+00  -.136875186800E+00  -.144253512976E+00
  -.150520610404E+00  -.155561825678E+00  -.159264224633E+00  -.161517624023E+00  -.162216051678E+00
  -.161259150714E+00  -.158553173054E+00  -.154011499346E+00  -.147554771322E+00  -.139110724326E+00
  -.128613738607E+00  -.116004082130E+00  -.101226801321E+00  -.842302189365E-01  -.649640063714E-01
  -.433768013709E-01  -.194133391522E-01   .698894531468E-02   .359038892097E-01   .674212215054E-01
   .101651943510E+00   .138734585090E+00   .178842478729E+00   .222192234941E+00   .269053645799E+00
   .319761302290E+00   .374728330690E+00   .434462513378E+00   .499585974065E+00   .570858521639E+00
   .649206285324E+00   .735756777952E+00   .831882135681E+00   .939252621689E+00   .105990294215E+01
   .119631450828E+01
 pseudo wavefunction
   .468141887348E-12   .515311425597E-12   .567233722347E-12   .624387661089E-12   .687300377170E-12
   .756552119599E-12   .832781602731E-12   .916691897179E-12   .100905691429E-11   .111072854401E-11
   .122264451188E-11   .134583702782E-11   .148144230624E-11   .163071104545E-11   .179501996295E-11
   .197588449299E-11   .217497276357E-11   .239412098169E-11   .263535036883E-11   .290088580287E-11
   .319317633828E-11   .351491779396E-11   .386907761699E-11   .425892225161E-11   .468804726593E-11
   .516041051408E-11   .568036863990E-11   .625271725849E-11   .688273518667E-11   .757623312982E-11
   .833960727452E-11   .917989828109E-11   .101048562201E-10   .111230120519E-10   .122437563084E-10
   .134774257025E-10   .148353984646E-10   .163301992848E-10   .179756148290E-10   .197868208946E-10
   .217805223777E-10   .239751073441E-10   .263908166233E-10   .290499304918E-10   .319769741652E-10
   .351989439965E-10   .387455564654E-10   .426495222553E-10   .469468479472E-10   .516771681099E-10
   .568841108537E-10   .626157002147E-10   .689247990848E-10   .758695967692E-10   .835141456712E-10
   .919289520518E-10   .101191626314E-09   .111387598808E-09   .122610907764E-09   .134965066611E-09
   .148564018686E-09   .163533188148E-09   .180010636765E-09   .198148337274E-09   .218113575031E-09
   .240090490894E-09   .264281779569E-09   .290910559074E-09   .320222428569E-09   .352487733532E-09
   .388004059171E-09   .427098975071E-09   .470133056381E-09   .517503209422E-09   .569646332373E-09
   .627043344802E-09   .690223623212E-09   .759769883504E-09   .836323555388E-09   .920590698317E-09
   .101334851350E-08   .111545251204E-08   .122784440538E-08   .135156079067E-08   .148774271140E-08
   .163764618121E-08   .180265376814E-08   .198428734609E-08   .218422213107E-08   .240430213169E-08
   .264655715648E-08   .291322153481E-08   .320675472404E-08   .352986399308E-08   .388552939143E-08
   .427703123412E-08   .470798035588E-08   .518235141372E-08   .570451954497E-08   .627930071884E-08
   .691199615380E-08   .760844121021E-08   .837505920931E-08   .921892067480E-08   .101478085434E-07
   .111702899460E-07   .122957952206E-07   .135347048874E-07   .148984453860E-07   .163995944591E-07
   .180519971550E-07   .198708935163E-07   .218730591357E-07   .240769598723E-07   .265029221565E-07
   .291733204542E-07   .321127836187E-07   .353484220329E-07   .389100776375E-07   .428305991495E-07
   .471461450106E-07   .518965168575E-07   .571255265902E-07   .628814004230E-07   .692172236441E-07
   .761914301839E-07   .838683415082E-07   .923187598036E-07   .101620620926E-06   .111859713129E-06
   .123130468211E-06   .135536832351E-06   .149193224696E-06   .164225592504E-06   .180772572597E-06
   .198986769812E-06   .219036164256E-06   .241105660313E-06   .265398791711E-06   .292139598339E-06
   .321574692138E-06   .353975531090E-06   .389640922275E-06   .428899777062E-06   .472114143832E-06
   .519682546169E-06   .572043657300E-06   .629680344626E-06   .693124121622E-06   .762960048127E-06
   .839832124154E-06   .924449226935E-06   .101759164587E-05   .112011827558E-05   .123297453332E-05
   .135720107367E-05   .149394338073E-05   .164446232613E-05   .181014579016E-05   .199252145281E-05
   .219327087262E-05   .241424498286E-05   .265748114755E-05   .292522193434E-05   .321993577686E-05
   .354433971670E-05   .390142443389E-05   .429448179630E-05   .472713518092E-05   .520337284588E-05
   .572758465953E-05   .630460252426E-05   .693974486596E-05   .763886559765E-05   .840840800659E-05
   .925546405920E-05   .101878396676E-04   .112141265161E-04   .123437811058E-04   .135872117412E-04
   .149558742556E-04   .164623773501E-04   .181205985108E-04   .199458115638E-04   .219548270316E-04
   .241661465739E-04   .266001329212E-04   .292791968506E-04   .322280029054E-04   .354736957341E-04
   .390461491036E-04   .429782398508E-04   .473061492590E-04   .520696945905E-04   .573126937774E-04
   .630833665712E-04   .694347757713E-04   .764253125149E-04   .841192299984E-04   .925872304279E-04
   .101907110470E-03   .112164470986E-03   .123453497391E-03   .135877817612E-03   .149551445278E-03
   .164599816512E-03   .181160929532E-03   .199386597109E-03   .219443822925E-03   .241516313920E-03
   .265806141863E-03   .292535568630E-03   .321949051057E-03   .354315442708E-03   .389930411514E-03
   .429119094016E-03   .472239008841E-03   .519683254115E-03   .571884015775E-03   .629316416161E-03
   .692502734904E-03   .762017036974E-03   .838490245776E-03   .922615702517E-03   .101515525655E-02
   .111694593525E-02   .122890724582E-02   .135204916618E-02   .148748088592E-02   .163642036398E-02
   .180020477411E-02   .198030191492E-02   .217832266676E-02   .239603458335E-02   .263537671229E-02
   .289847574431E-02   .318766359745E-02   .350549654835E-02   .385477602867E-02   .423857121052E-02
   .466024350961E-02   .512347313984E-02   .563228785619E-02   .619109402569E-02   .680471016686E-02
   .747840309707E-02   .821792682365E-02   .902956430807E-02   .992017222206E-02   .108972287995E-01
   .119688848677E-01   .131440181135E-01   .144322906066E-01   .158442095552E-01   .173911912163E-01
   .190856278116E-01   .209409572197E-01   .229717351100E-01   .251937090666E-01   .276238941018E-01
   .302806487911E-01   .331837510576E-01   .363544724015E-01   .398156490960E-01   .435917485570E-01
   .477089287340E-01   .521950879591E-01   .570799022275E-01   .623948463633E-01   .681731949445E-01
   .744499982257E-01   .812620276016E-01   .886476844049E-01   .966468650427E-01   .105300774648E+00
   .114651680587E+00   .124742596331E+00   .135616885438E+00   .147317774700E+00   .159887764988E+00
   .173367928051E+00   .187797077557E+00   .203210803174E+00   .219640357549E+00   .237111387905E+00
   .255642506753E+00   .275243700189E+00   .295914577592E+00   .317642473612E+00   .340400422285E+00
   .364145034288E+00   .388814321935E+00   .414325532635E+00   .440573070304E+00   .467426605416E+00
   .494729497707E+00   .522297680180E+00   .549919177931E+00   .577354458507E+00   .604337829716E+00
   .630580112478E+00   .655772816232E+00   .679594027077E+00   .701716177787E+00   .721815796483E+00
   .739585219056E+00   .754746091092E+00   .767064270753E+00   .776365469896E+00   .782550636039E+00
   .785609689322E+00   .785631803446E+00   .782809989700E+00   .777437359449E+00   .769892177218E+00
   .760608774450E+00   .750031701101E+00   .738551299607E+00   .726420357099E+00   .713661819076E+00
   .700232084472E+00
 ae wavefunction
  -.861180998066E-09  -.941118860991E-09  -.102787342009E-08  -.112207602587E-08  -.122441284315E-08
  -.133562995108E-08  -.145653889615E-08  -.158802273978E-08  -.173104264916E-08  -.188664507973E-08
  -.205596960548E-08  -.224025745985E-08  -.244086085014E-08  -.265925312040E-08  -.289703984064E-08
  -.315597091012E-08  -.343795376788E-08  -.374506781573E-08  -.407958016568E-08  -.444396283734E-08
  -.484091153865E-08  -.527336618105E-08  -.574453328924E-08  -.625791048460E-08  -.681731323803E-08
  -.742690410122E-08  -.809122465512E-08  -.881523042639E-08  -.960432905483E-08  -.104644220158E-07
  -.114019502348E-07  -.124239439593E-07  -.135380772942E-07  -.147527278385E-07  -.160770419056E-07
  -.175210058614E-07  -.190955241535E-07  -.208125046724E-07  -.226849521367E-07  -.247270702697E-07
  -.269543735986E-07  -.293838097974E-07  -.320338935758E-07  -.349248532144E-07  -.380787909571E-07
  -.415198585778E-07  -.452744495786E-07  -.493714096041E-07  -.538422668190E-07  -.587214841577E-07
  -.640467355427E-07  -.698592083693E-07  -.762039347743E-07  -.831301544524E-07  -.906917120462E-07
  -.989474924320E-07  -.107961897540E-06  -.117805368703E-06  -.128554958902E-06  -.140294959725E-06
  -.153117588272E-06  -.167123739806E-06  -.182423812445E-06  -.199138610854E-06  -.217400336511E-06
  -.237353672916E-06  -.259156974835E-06  -.282983571635E-06  -.309023195658E-06  -.337483547690E-06
  -.368592012686E-06  -.402597540244E-06  -.439772705636E-06  -.480415968784E-06  -.524854150188E-06
  -.573445144677E-06  -.626580895796E-06  -.684690655889E-06  -.748244559268E-06  -.817757538520E-06
  -.893793616823E-06  -.976970612331E-06  -.106796529407E-05  -.116751903248E-05  -.127644399206E-05
  -.139562991771E-05  -.152605157156E-05  -.166877688232E-05  -.182497587490E-05  -.199593045483E-05
  -.218304512842E-05  -.238785874782E-05  -.261205737795E-05  -.285748839181E-05  -.312617591020E-05
  -.342033771292E-05  -.374240376035E-05  -.409503647707E-05  -.448115296308E-05  -.490394931392E-05
  -.536692724702E-05  -.587392325031E-05  -.642914048841E-05  -.703718372358E-05  -.770309753155E-05
  -.843240811836E-05  -.923116907116E-05  -.101060114067E-04  -.110641983133E-04  -.121136850177E-04
  -.132631842469E-04  -.145222377950E-04  -.159012947535E-04  -.174117970086E-04  -.190662726646E-04
  -.208784381086E-04  -.228633094935E-04  -.250373244837E-04  -.274184751801E-04  -.300264532180E-04
  -.328828081161E-04  -.360111200456E-04  -.394371882851E-04  -.431892367318E-04  -.472981379522E-04
  -.517976573758E-04  -.567247193653E-04  -.621196970349E-04  -.680267278353E-04  -.744940570860E-04
  -.815744117991E-04  -.893254073231E-04  -.978099895246E-04  -.107096915428E-03  -.117261275451E-03
  -.128385060600E-03  -.140557778228E-03  -.153877120215E-03  -.168449687695E-03  -.184391776733E-03
  -.201830229642E-03  -.220903356944E-03  -.241761935287E-03  -.264570286955E-03  -.289507446946E-03
  -.316768423946E-03  -.346565561851E-03  -.379130008877E-03  -.414713301636E-03  -.453589071896E-03
  -.496054884142E-03  -.542434212325E-03  -.593078564578E-03  -.648369764941E-03  -.708722401426E-03
  -.774586450000E-03  -.846450084250E-03  -.924842680662E-03  -.101033802948E-02  -.110355776118E-02
  -.120517499841E-02  -.131591824314E-02  -.143657550840E-02  -.156799870347E-02  -.171110828090E-02
  -.186689815263E-02  -.203644088186E-02  -.222089315558E-02  -.242150154158E-02  -.263960853147E-02
  -.287665886942E-02  -.313420616363E-02  -.341391977456E-02  -.371759197055E-02  -.404714533780E-02
  -.440464042683E-02  -.479228361306E-02  -.521243514325E-02  -.566761733338E-02  -.616052287673E-02
  -.669402321316E-02  -.727117690237E-02  -.789523793470E-02  -.856966390305E-02  -.929812394910E-02
  -.100845063854E-01  -.109329258826E-01  -.118477300993E-01  -.128335056166E-01  -.138950830266E-01
  -.150375410096E-01  -.162662092145E-01  -.175866697418E-01  -.190047570050E-01  -.205265557196E-01
  -.221583967385E-01  -.239068504170E-01  -.257787171494E-01  -.277810146859E-01  -.299209618049E-01
  -.322059579097E-01  -.346435581276E-01  -.372414435279E-01  -.400073861318E-01  -.429492084478E-01
  -.460747373264E-01  -.493917519643E-01  -.529079259084E-01  -.566307628909E-01  -.605675262922E-01
  -.647251619770E-01  -.691102142184E-01  -.737287344478E-01  -.785861826400E-01  -.836873212512E-01
  -.890361017574E-01  -.946355439599E-01  -.100487608350E+00  -.106593061953E+00  -.112951338235E+00
  -.119560391801E+00  -.126416548851E+00  -.133514354536E+00  -.140846418613E+00  -.148403261025E+00
  -.156173159272E+00  -.164141999689E+00  -.172293134967E+00  -.180607250451E+00  -.189062241953E+00
  -.197633107949E+00  -.206291859143E+00  -.215007448510E+00  -.223745724974E+00  -.232469414023E+00
  -.241138128535E+00  -.249708413030E+00  -.258133823927E+00  -.266365046885E+00  -.274350049247E+00
  -.282034260743E+00  -.289360769657E+00  -.296270517254E+00  -.302702475146E+00  -.308593803066E+00
  -.313880009686E+00  -.318495170110E+00  -.322372273231E+00  -.325443754903E+00  -.327642207407E+00
  -.328901177903E+00  -.329155944673E+00  -.328344208288E+00  -.326406701916E+00  -.323287756680E+00
  -.318935850900E+00  -.313304150528E+00  -.306351031130E+00  -.298040565606E+00  -.288342964228E+00
  -.277234960073E+00  -.264700139200E+00  -.250729219342E+00  -.235320282639E+00  -.218478967951E+00
  -.200218626766E+00  -.180560444731E+00  -.159533528080E+00  -.137174951557E+00  -.113529761911E+00
  -.886509290311E-01  -.625992358714E-01  -.354430989282E-01  -.725831314972E-02   .218722813094E-01
   .518592096430E-01   .826068480809E-01   .114013986050E+00   .145974475193E+00   .178377985310E+00
   .211110881187E+00   .244057183314E+00   .277099452909E+00   .310119276738E+00   .342996969187E+00
   .375610392032E+00   .407833451729E+00   .439535397906E+00   .470581803767E+00   .500837065353E+00
   .530167401718E+00   .558443428782E+00   .585542035429E+00   .611347765805E+00   .635753981128E+00
   .658663941923E+00   .679991817798E+00   .699663568382E+00   .717617633672E+00   .733805398744E+00
   .748191426635E+00   .760753475146E+00   .771482246815E+00   .780380894126E+00   .787464699320E+00
   .792760534674E+00   .796306132490E+00   .798149258744E+00   .798346745910E+00   .796963400289E+00
   .794070792417E+00   .789745960586E+00   .784070080145E+00   .777127165375E+00   .769002883873E+00
   .759783543720E+00   .749555276158E+00   .738403376285E+00   .726411683472E+00   .713661819076E+00
   .700232084472E+00
 pseudo wavefunction
   .282319640327E-13   .310765902900E-13   .342078384241E-13   .376545881866E-13   .414486292258E-13
   .456249542852E-13   .502220819440E-13   .552824118777E-13   .608526159130E-13   .669840684860E-13
   .737333204729E-13   .811626207628E-13   .893404903847E-13   .983423544816E-13   .108251237963E-12
   .119158531252E-12   .131164833180E-12   .144380878828E-12   .158928560835E-12   .174942053629E-12
   .192569050927E-12   .211972127925E-12   .233330240744E-12   .256840376952E-12   .282719372401E-12
   .311205911117E-12   .342562726702E-12   .377079025549E-12   .415073154213E-12   .456895535544E-12
   .502931900667E-12   .553606846610E-12   .609387752394E-12   .670789089703E-12   .738377167900E-12
   .812775357139E-12   .894669837755E-12   .984815928959E-12   .108404505520E-11   .119327241446E-11
   .131350541919E-11   .144585298775E-11   .159153577205E-11   .175189741571E-11   .192841694656E-11
   .212272241786E-11   .233660592394E-11   .257204012879E-11   .283119646013E-11   .311646513656E-11
   .343047721282E-11   .377612884608E-11   .415660800748E-11   .457542388495E-11   .503643924873E-11
   .554390607790E-11   .610250477671E-11   .671738734220E-11   .739422488144E-11   .813925991647E-11
   .895936395946E-11   .986210088909E-11   .108557967126E-10   .119496163571E-10   .131536481981E-10
   .144789971053E-10   .159378868629E-10   .175437729110E-10   .193114664450E-10   .212572710201E-10
   .233991329201E-10   .257568066761E-10   .283520372637E-10   .312087606577E-10   .343533245938E-10
   .378147315753E-10   .416249063635E-10   .458189904204E-10   .504356660192E-10   .555175130114E-10
   .611114015413E-10   .672689243294E-10   .740468725119E-10   .815077594255E-10   .897203971668E-10
   .987605312452E-10   .108711539182E-09   .119665199500E-09   .131722538189E-09   .144994760469E-09
   .159604276430E-09   .175685830006E-09   .193387741717E-09   .212873276610E-09   .234322150044E-09
   .257932185180E-09   .283921137484E-09   .312528703057E-09   .344018729318E-09   .378681648426E-09
   .416837155888E-09   .458837159046E-09   .505069022648E-09   .555959141422E-09   .611976872615E-09
   .673638864739E-09   .741513822477E-09   .816227751664E-09   .898469732720E-09   .988998275789E-09
   .108864831617E-08   .119833891455E-08   .131908173312E-08   .145199036555E-08   .159829060712E-08
   .175933175951E-08   .193659907454E-08   .213172745164E-08   .234651651538E-08   .258294721201E-08
   .284320007803E-08   .312967534938E-08   .344501509649E-08   .379212758939E-08   .417421411750E-08
   .459479851134E-08   .505775963838E-08   .556736717260E-08   .612832096754E-08   .674579439578E-08
   .742548205443E-08   .817365227631E-08   .899720493099E-08   .990373504832E-08   .109016028511E-07
   .120000108419E-07   .132090886555E-07   .145399864576E-07   .160049777513E-07   .176175725391E-07
   .193926418825E-07   .213465550064E-07   .234973302132E-07   .258648009948E-07   .284707988750E-07
   .313393546643E-07   .344969199819E-07   .379726110856E-07   .417984772536E-07   .460097961902E-07
   .506453991755E-07   .557480289510E-07   .613647336374E-07   .675473003078E-07   .743527322071E-07
   .818437740089E-07   .900894899408E-07   .991659000957E-07   .109156680781E-06   .120153935346E-06
   .132259042567E-06   .145583590399E-06   .160250403661E-06   .176394675096E-06   .194165210209E-06
   .213725797286E-06   .235256715185E-06   .258956392729E-06   .285043234922E-06   .313757632717E-06
   .345364174781E-06   .380154081489E-06   .418447883461E-06   .460598369131E-06   .506993828327E-06
   .558061621518E-06   .614272107324E-06   .676142964164E-06   .744243945483E-06   .819202111904E-06
   .901707587991E-06   .992519896034E-06   .109247492446E-05   .120249259424E-05   .132358529279E-05
   .145686715203E-05   .160356425451E-05   .176502585997E-05   .194273675385E-05   .213833082920E-05
   .235360602422E-05   .259054075007E-05   .285131195626E-05   .313831499580E-05   .345418546771E-05
   .380182323209E-05   .418441881164E-05   .460548241440E-05   .506887583506E-05   .557884751697E-05
   .614007108400E-05   .675768768106E-05   .743735249422E-05   .818528585665E-05   .900832938481E-05
   .991400763124E-05   .109105957857E-04   .120071940059E-04   .132138090119E-04   .145414436389E-04
   .160021951029E-04   .176093628049E-04   .193775665718E-04   .213228763123E-04   .234629541528E-04
   .258172102086E-04   .284069732483E-04   .312556776127E-04   .343890678655E-04   .378354227713E-04
   .416258003295E-04   .457943057241E-04   .503783841953E-04   .554191409896E-04   .609616907009E-04
   .670555384773E-04   .737549957366E-04   .811196332032E-04   .892147742489E-04   .981120316924E-04
   .107889891374E-03   .118634345981E-03   .130439582744E-03   .143408728735E-03   .157654657616E-03
   .173300861723E-03   .190482393397E-03   .209346879420E-03   .230055612293E-03   .252784721868E-03
   .277726430524E-03   .305090394571E-03   .335105133959E-03   .368019551454E-03   .404104541380E-03
   .443654686572E-03   .486990040436E-03   .534457988824E-03   .586435183700E-03   .643329537342E-03
   .705582261819E-03   .773669933735E-03   .848106558535E-03   .929445601897E-03   .101828194774E-02
   .111525373298E-02   .122104399804E-02   .133638207946E-02   .146204465575E-02   .159885634064E-02
   .174768969778E-02   .190946452842E-02   .208514625756E-02   .227574321481E-02   .248230257314E-02
   .270590467166E-02   .294765540768E-02   .320867633763E-02   .349009207736E-02   .379301453828E-02
   .411852347911E-02   .446764279232E-02   .484131188228E-02   .524035142941E-02   .566542277263E-02
   .611698008535E-02   .659521446937E-02   .709998905276E-02   .763076415556E-02   .818651158874E-02
   .876561718455E-02   .936577072913E-02   .998384259212E-02   .106157465344E-01   .112562884374E-01
   .118990010480E-01   .125359652900E-01   .131576192598E-01   .137525567252E-01   .143073177730E-01
   .148061752138E-01   .152309214371E-01   .155606615881E-01   .157716201755E-01   .158369694392E-01
   .157266889202E-01   .154074665480E-01   .148426520216E-01   .139922731042E-01   .128131244254E-01
   .112589362223E-01   .928062686532E-02   .682663776828E-02   .384334221319E-02   .275510745336E-03
  -.393319456972E-02  -.883973584123E-02  -.145012742661E-01  -.209748610740E-01  -.283173026248E-01
  -.365852481899E-01  -.458355223783E-01  -.561256731331E-01  -.675146221792E-01  -.800631790015E-01
  -.938340044440E-01  -.108890382243E+00  -.125292880166E+00  -.143092673430E+00  -.162319782918E+00
  -.183024324445E+00
 ae wavefunction
  -.521959151786E-10  -.570409365110E-10  -.622991161601E-10  -.680087202138E-10  -.742113370451E-10
  -.809521864283E-10  -.882804561049E-10  -.962496683275E-10  -.104918079332E-09  -.114349114666E-09
  -.124611843786E-09  -.135781497715E-09  -.147940033599E-09  -.161176750670E-09  -.175588962370E-09
  -.191282729926E-09  -.208373663046E-09  -.226987794093E-09  -.247262532539E-09  -.269347707299E-09
  -.293406705034E-09  -.319617713571E-09  -.348175080170E-09  -.379290795452E-09  -.413196114904E-09
  -.450143330576E-09  -.490407707492E-09  -.534289599930E-09  -.582116764757E-09  -.634246890229E-09
  -.691070360688E-09  -.753013279323E-09  -.820540773529E-09  -.894160609537E-09  -.974427145392E-09
  -.106194565477E-08  -.115737705637E-08  -.126144308760E-08  -.137493196476E-08  -.149870457587E-08
  -.163370125694E-08  -.178094920713E-08  -.194157060379E-08  -.211679148400E-08  -.230795146594E-08
  -.251651439006E-08  -.274407996821E-08  -.299239653691E-08  -.326337502057E-08  -.355910422036E-08
  -.388186755589E-08  -.423416139883E-08  -.461871515117E-08  -.503851323560E-08  -.549681918136E-08
  -.599720200700E-08  -.654356512057E-08  -.714017797909E-08  -.779171077281E-08  -.850327242478E-08
  -.928045222477E-08  -.101293654471E-07  -.110567033359E-07  -.120697878772E-07  -.131766318201E-07
  -.143860044503E-07  -.157075036712E-07  -.171516349990E-07  -.187298981361E-07  -.204548818548E-07
  -.223403679873E-07  -.244014454014E-07  -.266546349196E-07  -.291180262357E-07  -.318114279811E-07
  -.347565322046E-07  -.379770946506E-07  -.414991323520E-07  -.453511402001E-07  -.495643283112E-07
  -.541728821840E-07  -.592142478309E-07  -.647294442760E-07  -.707634060345E-07  -.773653584456E-07
  -.845892289914E-07  -.924940980418E-07  -.101144692782E-06  -.110611928434E-06  -.120973501287E-06
  -.132314538440E-06  -.144728309661E-06  -.158317007249E-06  -.173192600337E-06  -.189477770686E-06
  -.207306937657E-06  -.226827380787E-06  -.248200469164E-06  -.271603007626E-06  -.297228710773E-06
  -.325289816764E-06  -.356018853972E-06  -.389670574781E-06  -.426524072086E-06  -.466885095499E-06
  -.511088585792E-06  -.559501447773E-06  -.612525583622E-06  -.670601210690E-06  -.734210489895E-06
  -.803881493184E-06  -.880192541046E-06  -.963776943807E-06  -.105532818337E-05  -.115560557533E-05
  -.126544045470E-05  -.138574293259E-05  -.151750927464E-05  -.166182995711E-05  -.181989846057E-05
  -.199302086671E-05  -.218262632895E-05  -.239027849372E-05  -.261768795523E-05  -.286672583381E-05
  -.313943857487E-05  -.343806407347E-05  -.376504923806E-05  -.412306911544E-05  -.451504770931E-05
  -.494418063422E-05  -.541395975821E-05  -.592819999870E-05  -.649106844858E-05  -.710711602259E-05
  -.778131182750E-05  -.851908047470E-05  -.932634256858E-05  -.102095586206E-04  -.111757766557E-04
  -.122326837950E-04  -.133886621174E-04  -.146528491226E-04  -.160352031357E-04  -.175465740150E-04
  -.191987795470E-04  -.210046879300E-04  -.229783067727E-04  -.251348790531E-04  -.274909865067E-04
  -.300646609312E-04  -.328755039182E-04  -.359448155390E-04  -.392957325340E-04  -.429533765649E-04
  -.469450131119E-04  -.513002216017E-04  -.560510773652E-04  -.612323460271E-04  -.668816909275E-04
  -.730398941712E-04  -.797510918865E-04  -.870630242548E-04  -.950273008438E-04  -.103699681736E-03
  -.113140374894E-03  -.123414350138E-03  -.134591670039E-03  -.146747837919E-03  -.159964163060E-03
  -.174328143062E-03  -.189933863158E-03  -.206882412090E-03  -.225282313954E-03  -.245249975183E-03
  -.266910145555E-03  -.290396391813E-03  -.315851582144E-03  -.343428379369E-03  -.373289740279E-03
  -.405609418077E-03  -.440572464370E-03  -.478375726589E-03  -.519228336116E-03  -.563352181707E-03
  -.610982362135E-03  -.662367611199E-03  -.717770687455E-03  -.777468720191E-03  -.841753502271E-03
  -.910931719531E-03  -.985325105348E-03  -.106527050785E-02  -.115111985586E-02  -.124324000805E-02
  -.134201246781E-02  -.144783294435E-02  -.156111073761E-02  -.168226792304E-02  -.181173830968E-02
  -.194996614505E-02  -.209740454038E-02  -.225451359245E-02  -.242175818131E-02  -.259960542699E-02
  -.278852179176E-02  -.298896981687E-02  -.320140448345E-02  -.342626918656E-02  -.366399130887E-02
  -.391497737736E-02  -.417960778487E-02  -.445823105926E-02  -.475115766753E-02  -.505865334911E-02
  -.538093197977E-02  -.571814797560E-02  -.607038825377E-02  -.643766377511E-02  -.681990070268E-02
  -.721693122146E-02  -.762848407650E-02  -.805417490005E-02  -.849349641281E-02  -.894580859928E-02
  -.941032897238E-02  -.988612305763E-02  -.103720952419E-01  -.108669801443E-01  -.113693346801E-01
  -.118775309967E-01  -.123897504705E-01  -.129039789600E-01  -.134180035166E-01  -.139294107621E-01
  -.144355871455E-01  -.149337212835E-01  -.154208085572E-01  -.158936580475E-01  -.163489017084E-01
  -.167830053951E-01  -.171922810085E-01  -.175728987751E-01  -.179208987981E-01  -.182322017999E-01
  -.185026204714E-01  -.187278746701E-01  -.189036148214E-01  -.190254567973E-01  -.190890276431E-01
  -.190900169535E-01  -.190242273828E-01  -.188876206851E-01  -.186763596385E-01  -.183868480349E-01
  -.180157704627E-01  -.175601323416E-01  -.170172996843E-01  -.163850377253E-01  -.156615477223E-01
  -.148455016211E-01  -.139360746478E-01  -.129329761329E-01  -.118364789647E-01  -.106474480432E-01
  -.936736799886E-02  -.799837029559E-02  -.654325965837E-02  -.500553958837E-02  -.338943657203E-02
  -.169992247455E-02   .572654279648E-04   .187560726123E-02   .374778653368E-02   .566567938515E-02
   .762034700293E-02   .960203114688E-02   .116001530006E-01   .136033163002E-01   .155993161840E-01
   .175751543623E-01   .195170570043E-01   .214104827934E-01   .232400980265E-01   .249896947023E-01
   .266420514365E-01   .281787839877E-01   .295802653754E-01   .308256687942E-01   .318931099674E-01
   .327598122285E-01   .334022324819E-01   .337961344489E-01   .339166260039E-01   .337381790116E-01
   .332346396152E-01   .323792278744E-01   .311445222636E-01   .295024246741E-01   .274241036197E-01
   .248799153901E-01   .218393039430E-01   .182706787539E-01   .141412732081E-01   .941699450157E-02
   .406225305069E-02  -.196022677726E-02  -.868960937346E-02  -.161671623660E-01  -.244364774910E-01
  -.335436907340E-01  -.435376934228E-01  -.544703257640E-01  -.663965458435E-01  -.793745712234E-01
  -.934659937362E-01  -.108735870448E+00  -.125252788655E+00  -.143088886765E+00  -.162319782918E+00
  -.183024324445E+00
 End of Dataset
