C  N  Tb                                
   1.00000000000000     
    12.3000000000000007    0.0000000000000000    0.0000000000000000
    -6.1499999999999977   10.6521124665485960    0.0000000000000000
     0.0000000000000000    0.0000000000000000   20.0000000000000000
   C    N    Tb
    44     4     1
Direct
  0.9993936328419153  0.0006068418446361  0.7437139790377074
  0.1321180201968986  0.0655643944656603  0.7442255193333409
  0.1989131013783805  0.9987660791280391  0.7443228670276341
  0.3309530494770812  0.0641054683449269  0.7471967438282689
  0.3986507203907692  0.9980290955998470  0.7470851670817282
  0.5322669694766375  0.0669206914981331  0.7482581814939806
  0.5997367579827539  0.0006379065735800  0.7470631930427558
  0.7324862100980951  0.0686524564303781  0.7472371354169667
  0.7996731688483081  0.0013806499173867  0.7459930068234826
  0.9327647180215450  0.0672351793945580  0.7450462040985215
  0.9986179651147964  0.2003265421789706  0.7459932157232814
  0.1313461373424047  0.2652935394496652  0.7469741640118741
  0.1974453802535550  0.1976153381989221  0.7470513101298693
  0.3298852147105293  0.2640229809704451  0.7520764049667434
  0.3973289815612588  0.1965755222965129  0.7521171647798610
  0.5949451307241631  0.2002504206375733  0.7523990810689796
  0.7297400933654217  0.2702582226156025  0.7519630258406309
  0.7974678317541475  0.2025339654965777  0.7486340501171469
  0.9313466399638699  0.2675134730586564  0.7472375301870997
  0.9993619046444309  0.4002635275669277  0.7470639330017690
  0.1339801786900239  0.4664057089590798  0.7471246035766157
  0.2002282055240485  0.3989025855763160  0.7482791051137525
  0.3335646211131120  0.4616194021101663  0.7524933429862912
  0.7997504610023682  0.4050530515044457  0.7523955777454745
  0.9330787033251084  0.4677330356805598  0.7482586677611778
  0.0019700999436054  0.6013496272419019  0.7470848350555741
  0.1346946185212516  0.6663162361713688  0.7462178228644518
  0.2019684622095070  0.5991410909382253  0.7474227970992118
  0.3358287380454286  0.6641700873085838  0.7488884011993449
  0.4035524171631621  0.5964462286909793  0.7521229963241751
  0.5383788808603285  0.6664342287503970  0.7524898471993211
  0.7359766948334183  0.6701128005625492  0.7520733764607712
  0.8034254720152205  0.6026707945427106  0.7521141339816992
  0.9358947145943972  0.6690489972444453  0.7471962977005262
  0.0012344468613534  0.8010885433710087  0.7443232984647921
  0.1339619148951172  0.8660391615699794  0.7438601572344581
  0.2005981936830281  0.7994005776530031  0.7452959665765135
  0.3336837235209700  0.8653039658404893  0.7462182393296146
  0.4008583475583549  0.7980299072416273  0.7474230702170601
  0.5335937702633800  0.8660196869833428  0.7471257140500995
  0.6010968738537059  0.7997712131428685  0.7482802804595323
  0.7347062019205381  0.8686524492451184  0.7469752396515261
  0.8023846167755764  0.8025541895476067  0.7470538988187272
  0.9344354658039222  0.8678827185130018  0.7442270304841898
  0.5263541478560185  0.2607940453271098  0.7580323538848290
  0.3940996937268366  0.3930369394501909  0.7580752444123391
  0.7392050317522347  0.4736435507182577  0.7580227288499586
  0.6069614964041463  0.6058990115096847  0.7580654601423049
  0.5666811791368929  0.4333388689379660  0.8122086353440210
 
  0.00000000E+00  0.00000000E+00  0.00000000E+00
  0.00000000E+00  0.00000000E+00  0.00000000E+00
  0.00000000E+00  0.00000000E+00  0.00000000E+00
  0.00000000E+00  0.00000000E+00  0.00000000E+00
  0.00000000E+00  0.00000000E+00  0.00000000E+00
  0.00000000E+00  0.00000000E+00  0.00000000E+00
  0.00000000E+00  0.00000000E+00  0.00000000E+00
  0.00000000E+00  0.00000000E+00  0.00000000E+00
  0.00000000E+00  0.00000000E+00  0.00000000E+00
  0.00000000E+00  0.00000000E+00  0.00000000E+00
  0.00000000E+00  0.00000000E+00  0.00000000E+00
  0.00000000E+00  0.00000000E+00  0.00000000E+00
  0.00000000E+00  0.00000000E+00  0.00000000E+00
  0.00000000E+00  0.00000000E+00  0.00000000E+00
  0.00000000E+00  0.00000000E+00  0.00000000E+00
  0.00000000E+00  0.00000000E+00  0.00000000E+00
  0.00000000E+00  0.00000000E+00  0.00000000E+00
  0.00000000E+00  0.00000000E+00  0.00000000E+00
  0.00000000E+00  0.00000000E+00  0.00000000E+00
  0.00000000E+00  0.00000000E+00  0.00000000E+00
  0.00000000E+00  0.00000000E+00  0.00000000E+00
  0.00000000E+00  0.00000000E+00  0.00000000E+00
  0.00000000E+00  0.00000000E+00  0.00000000E+00
  0.00000000E+00  0.00000000E+00  0.00000000E+00
  0.00000000E+00  0.00000000E+00  0.00000000E+00
  0.00000000E+00  0.00000000E+00  0.00000000E+00
  0.00000000E+00  0.00000000E+00  0.00000000E+00
  0.00000000E+00  0.00000000E+00  0.00000000E+00
  0.00000000E+00  0.00000000E+00  0.00000000E+00
  0.00000000E+00  0.00000000E+00  0.00000000E+00
  0.00000000E+00  0.00000000E+00  0.00000000E+00
  0.00000000E+00  0.00000000E+00  0.00000000E+00
  0.00000000E+00  0.00000000E+00  0.00000000E+00
  0.00000000E+00  0.00000000E+00  0.00000000E+00
  0.00000000E+00  0.00000000E+00  0.00000000E+00
  0.00000000E+00  0.00000000E+00  0.00000000E+00
  0.00000000E+00  0.00000000E+00  0.00000000E+00
  0.00000000E+00  0.00000000E+00  0.00000000E+00
  0.00000000E+00  0.00000000E+00  0.00000000E+00
  0.00000000E+00  0.00000000E+00  0.00000000E+00
  0.00000000E+00  0.00000000E+00  0.00000000E+00
  0.00000000E+00  0.00000000E+00  0.00000000E+00
  0.00000000E+00  0.00000000E+00  0.00000000E+00
  0.00000000E+00  0.00000000E+00  0.00000000E+00
  0.00000000E+00  0.00000000E+00  0.00000000E+00
  0.00000000E+00  0.00000000E+00  0.00000000E+00
  0.00000000E+00  0.00000000E+00  0.00000000E+00
  0.00000000E+00  0.00000000E+00  0.00000000E+00
  0.00000000E+00  0.00000000E+00  0.00000000E+00
