       N       E                     dE             d eps       ncg     rms          ort
DAV:   1     0.132195634139E+01    0.13220E+01   -0.71438E+02   256   0.620E+00
DAV:   2    -0.250210334444E-01   -0.13470E+01   -0.13470E+01   256   0.358E-01
DAV:   3    -0.254800201375E-01   -0.45899E-03   -0.45899E-03   256   0.118E-02
DAV:   4    -0.254805615873E-01   -0.54145E-06   -0.54145E-06   256   0.375E-04
DAV:   5    -0.254805616238E-01   -0.36493E-10   -0.36113E-10   256   0.326E-06
SDA:   6    -0.254843373635E-01   -0.37757E-05   -0.36113E-10   256   0.816E-06 0.000E+00
   1 F= -.25484337E-01 E0= -.25484337E-01  d E =-.324890E-12
