       N       E                     dE             d eps       ncg     rms          ort
DAV:   1     0.467068870044E+02    0.46707E+02   -0.30983E+03   256   0.273E+01
DAV:   2     0.150693866727E+00   -0.46556E+02   -0.46556E+02   256   0.365E+00
DAV:   3     0.530577593051E-01   -0.97636E-01   -0.97636E-01   256   0.333E-01
DAV:   4     0.528330827324E-01   -0.22468E-03   -0.22468E-03   256   0.188E-02
DAV:   5     0.528330795502E-01   -0.31822E-08   -0.32535E-08   256   0.616E-05
SDA:   6    -0.128815827582E+00   -0.18165E+00   -0.32535E-08   256   0.126E-01 0.000E+00
CGA:   7    -0.134048416543E+00   -0.52326E-02   -0.52435E-02   256   0.662E-02-0.101E-03
CGA:   8    -0.136348632753E+00   -0.23002E-02   -0.23094E-02   256   0.305E-02-0.520E-04
CGA:   9    -0.137152537382E+00   -0.80390E-03   -0.80415E-03   256   0.132E-02-0.460E-05
CGA:  10    -0.137511102153E+00   -0.35856E-03   -0.35823E-03   256   0.306E-03 0.634E-05
CGA:  11    -0.137602129736E+00   -0.91028E-04   -0.90680E-04   256   0.910E-04 0.465E-05
CGA:  12    -0.137628332120E+00   -0.26202E-04   -0.26083E-04   256   0.251E-04 0.204E-05
CGA:  13    -0.137636971013E+00   -0.86389E-05   -0.85652E-05   256   0.676E-05 0.682E-06
   1 F= -.13763697E+00 E0= -.13763697E+00  d E =-.415700E-12  mag=     1.0000
