       N       E                     dE             d eps       ncg     rms          ort
SDA:   1    -0.444180239699E+03   -0.44418E+03    0.00000E+00  1024   0.992E+00 0.000E+00
CGA:   2    -0.444404578428E+03   -0.22434E+00   -0.22435E+00  1024   0.654E+00-0.470E-03
CGA:   3    -0.444503834990E+03   -0.99257E-01   -0.99335E-01  1024   0.187E+00 0.429E-03
CGA:   4    -0.444536082926E+03   -0.32248E-01   -0.32249E-01  1024   0.714E-01 0.731E-04
CGA:   5    -0.444549229293E+03   -0.13146E-01   -0.13147E-01  1024   0.227E-01 0.424E-04
CGA:   6    -0.444553985581E+03   -0.47563E-02   -0.47565E-02  1024   0.923E-02-0.124E-04
CGA:   7    -0.444556327086E+03   -0.23415E-02   -0.23423E-02  1024   0.525E-02-0.989E-05
CGA:   8    -0.444558075535E+03   -0.17484E-02   -0.17451E-02  1024   0.561E-02 0.224E-04
CGA:   9    -0.444560805236E+03   -0.27297E-02   -0.28449E-02  1024   0.219E-01-0.450E-03
CGA:  10    -0.444564868255E+03   -0.40630E-02   -0.69111E-02  1024   0.743E-01-0.191E-01
CGA:  11    -0.444584754300E+03   -0.19886E-01   -0.19873E-01  1024   0.602E-01 0.173E-03
CGA:  12    -0.444599664366E+03   -0.14910E-01   -0.14886E-01  1024   0.611E-01 0.830E-03
CGA:  13    -0.444619688332E+03   -0.20024E-01   -0.20541E-01  1024   0.400E-01-0.406E-02
CGA:  14    -0.444630715016E+03   -0.11027E-01   -0.10885E-01  1024   0.161E-01 0.184E-02
CGA:  15    -0.444637515180E+03   -0.68002E-02   -0.66156E-02  1024   0.129E-01 0.999E-03
CGA:  16    -0.444641338840E+03   -0.38237E-02   -0.38462E-02  1024   0.150E-01-0.422E-03
CGA:  17    -0.444644670324E+03   -0.33315E-02   -0.33393E-02  1024   0.742E-02 0.215E-03
CGA:  18    -0.444648847671E+03   -0.41773E-02   -0.37606E-02  1024   0.822E-02 0.184E-02
CGA:  19    -0.444656042775E+03   -0.71951E-02    0.37939E-02  1024   0.134E-01 0.205E-01
CGA:  20    -0.444632111042E+03    0.23932E-01   -0.83891E-02  1024   0.827E+00-0.560E-01
CGA:  21    -0.444706531136E+03   -0.74420E-01   -0.78562E-01  1024   0.889E-01-0.424E-01
CGA:  22    -0.444731993931E+03   -0.25463E-01   -0.25961E-01  1024   0.320E-01-0.401E-03
CGA:  23    -0.444740829208E+03   -0.88353E-02   -0.92529E-02  1024   0.336E-01 0.142E-03
CGA:  24    -0.444749940809E+03   -0.91116E-02   -0.95430E-02  1024   0.975E-02 0.130E-02
CGA:  25    -0.444753565120E+03   -0.36243E-02   -0.36706E-02  1024   0.100E-01 0.197E-03
CGA:  26    -0.444755315589E+03   -0.17505E-02   -0.15254E-02  1024   0.106E-02 0.117E-02
CGA:  27    -0.444756028742E+03   -0.71315E-03   -0.71182E-03  1024   0.871E-03 0.521E-05
CGA:  28    -0.444756245111E+03   -0.21637E-03   -0.21563E-03  1024   0.790E-03 0.868E-05
CGA:  29    -0.444756421780E+03   -0.17667E-03   -0.17452E-03  1024   0.145E-03-0.425E-05
CGA:  30    -0.444756485171E+03   -0.63391E-04   -0.63292E-04  1024   0.664E-04 0.264E-05
CGA:  31    -0.444756499768E+03   -0.14597E-04   -0.14178E-04  1024   0.587E-04-0.225E-05
CGA:  32    -0.444756517967E+03   -0.18199E-04   -0.18269E-04  1024   0.158E-04 0.859E-06
CGA:  33    -0.444756526438E+03   -0.84706E-05   -0.85600E-05  1024   0.828E-05-0.656E-06
   1 F= -.44655661E+03 E0= -.44654607E+03  d E =-.446557E+03  mag=    -1.5572
       N       E                     dE             d eps       ncg     rms          ort
SDA:   1    -0.444755421946E+03    0.10960E-02    0.00000E+00  1024   0.332E-02 0.000E+00
CGA:   2    -0.444756264187E+03   -0.84224E-03   -0.84197E-03  1024   0.164E-02-0.201E-05
CGA:   3    -0.444756487360E+03   -0.22317E-03   -0.22375E-03  1024   0.507E-03 0.313E-05
CGA:   4    -0.444756584940E+03   -0.97580E-04   -0.97356E-04  1024   0.186E-03-0.130E-05
CGA:   5    -0.444756615386E+03   -0.30445E-04   -0.30494E-04  1024   0.471E-04 0.248E-06
CGA:   6    -0.444756624905E+03   -0.95195E-05   -0.95657E-05  1024   0.172E-04 0.309E-06
   2 F= -.44655672E+03 E0= -.44654619E+03  d E =-.110425E-03  mag=    -1.5566
       N       E                     dE             d eps       ncg     rms          ort
SDA:   1    -0.444756599098E+03    0.16288E-04    0.00000E+00  1024   0.155E-03 0.000E+00
CGA:   2    -0.444756636490E+03   -0.37392E-04   -0.37420E-04  1024   0.849E-04 0.283E-06
CGA:   3    -0.444756648387E+03   -0.11897E-04   -0.11887E-04  1024   0.226E-04-0.553E-07
CGA:   4    -0.444756652837E+03   -0.44496E-05   -0.44503E-05  1024   0.142E-04 0.674E-08
   3 F= -.44655675E+03 E0= -.44654622E+03  d E =-.293170E-04  mag=    -1.5566
       N       E                     dE             d eps       ncg     rms          ort
SDA:   1    -0.444754144121E+03    0.25043E-02    0.00000E+00  1024   0.750E-02 0.000E+00
CGA:   2    -0.444755955739E+03   -0.18116E-02   -0.18116E-02  1024   0.370E-02 0.279E-06
CGA:   3    -0.444756473769E+03   -0.51803E-03   -0.51796E-03  1024   0.114E-02-0.520E-06
CGA:   4    -0.444756687059E+03   -0.21329E-03   -0.21335E-03  1024   0.461E-03 0.522E-06
CGA:   5    -0.444756764828E+03   -0.77769E-04   -0.77781E-04  1024   0.118E-03 0.106E-06
CGA:   6    -0.444756789030E+03   -0.24203E-04   -0.24198E-04  1024   0.462E-04-0.536E-07
CGA:   7    -0.444756799727E+03   -0.10697E-04   -0.10700E-04  1024   0.179E-04 0.423E-07
CGA:   8    -0.444756804421E+03   -0.46933E-05   -0.46937E-05  1024   0.791E-05 0.836E-08
   4 F= -.44655691E+03 E0= -.44654638E+03  d E =-.163202E-03  mag=    -1.5568
       N       E                     dE             d eps       ncg     rms          ort
SDA:   1    -0.444756757611E+03    0.42116E-04    0.00000E+00  1024   0.212E-03 0.000E+00
CGA:   2    -0.444756807606E+03   -0.49995E-04   -0.49973E-04  1024   0.109E-03-0.533E-06
CGA:   3    -0.444756822534E+03   -0.14928E-04   -0.15015E-04  1024   0.308E-04 0.639E-06
CGA:   4    -0.444756828561E+03   -0.60270E-05   -0.60084E-05  1024   0.115E-04-0.247E-06
   5 F= -.44655694E+03 E0= -.44654641E+03  d E =-.265308E-04  mag=    -1.5567
       N       E                     dE             d eps       ncg     rms          ort
SDA:   1    -0.444737597720E+03    0.19225E-01    0.00000E+00  1024   0.550E-01 0.000E+00
CGA:   2    -0.444751415771E+03   -0.13818E-01   -0.13818E-01  1024   0.255E-01-0.583E-05
CGA:   3    -0.444754949855E+03   -0.35341E-02   -0.35337E-02  1024   0.812E-02 0.143E-04
CGA:   4    -0.444756483815E+03   -0.15340E-02   -0.15337E-02  1024   0.307E-02-0.446E-05
CGA:   5    -0.444756984961E+03   -0.50115E-03   -0.50121E-03  1024   0.767E-03 0.939E-06
CGA:   6    -0.444757141404E+03   -0.15644E-03   -0.15650E-03  1024   0.289E-03 0.132E-05
CGA:   7    -0.444757206189E+03   -0.64785E-04   -0.64751E-04  1024   0.116E-03-0.169E-05
CGA:   8    -0.444757232853E+03   -0.26665E-04   -0.26693E-04  1024   0.593E-04 0.250E-05
CGA:   9    -0.444757245721E+03   -0.12868E-04   -0.12797E-04  1024   0.307E-04-0.228E-05
CGA:  10    -0.444757250742E+03   -0.50206E-05   -0.51299E-05  1024   0.898E-05 0.164E-05
   6 F= -.44655739E+03 E0= -.44654686E+03  d E =-.455285E-03  mag=    -1.5574
       N       E                     dE             d eps       ncg     rms          ort
SDA:   1    -0.444751675029E+03    0.55707E-02    0.00000E+00  1024   0.163E-01 0.000E+00
CGA:   2    -0.444755731555E+03   -0.40565E-02   -0.40566E-02  1024   0.777E-02-0.486E-05
CGA:   3    -0.444756798542E+03   -0.10670E-02   -0.10674E-02  1024   0.237E-02 0.758E-05
CGA:   4    -0.444757249085E+03   -0.45054E-03   -0.45041E-03  1024   0.924E-03-0.313E-05
CGA:   5    -0.444757398893E+03   -0.14981E-03   -0.14985E-03  1024   0.223E-03 0.701E-06
CGA:   6    -0.444757445636E+03   -0.46744E-04   -0.46761E-04  1024   0.850E-04 0.915E-06
CGA:   7    -0.444757464886E+03   -0.19249E-04   -0.19247E-04  1024   0.353E-04-0.121E-05
CGA:   8    -0.444757472442E+03   -0.75569E-05   -0.75724E-05  1024   0.177E-04 0.161E-05
   7 F= -.44655763E+03 E0= -.44654710E+03  d E =-.243493E-03  mag=    -1.5576
       N       E                     dE             d eps       ncg     rms          ort
SDA:   1    -0.444746038328E+03    0.11427E-01    0.00000E+00  1024   0.313E-01 0.000E+00
CGA:   2    -0.444753850385E+03   -0.78121E-02   -0.78118E-02  1024   0.147E-01 0.908E-05
CGA:   3    -0.444755876191E+03   -0.20258E-02   -0.20254E-02  1024   0.454E-02-0.153E-04
CGA:   4    -0.444756740166E+03   -0.86398E-03   -0.86418E-03  1024   0.173E-02 0.707E-05
CGA:   5    -0.444757018898E+03   -0.27873E-03   -0.27864E-03  1024   0.413E-03-0.164E-05
CGA:   6    -0.444757103868E+03   -0.84970E-04   -0.84955E-04  1024   0.154E-03-0.133E-05
CGA:   7    -0.444757136728E+03   -0.32860E-04   -0.32866E-04  1024   0.594E-04 0.186E-05
CGA:   8    -0.444757150939E+03   -0.14211E-04   -0.14258E-04  1024   0.362E-04-0.243E-05
CGA:   9    -0.444757156966E+03   -0.60275E-05   -0.61076E-05  1024   0.139E-04 0.188E-05
   8 F= -.44655729E+03 E0= -.44654676E+03  d E =0.343644E-03  mag=    -1.5574
