C  N  Ru                                
   1.00000000000000     
    12.3000000000000007    0.0000000000000000    0.0000000000000000
    -6.1499999999999977   10.6521124665485960    0.0000000000000000
     0.0000000000000000    0.0000000000000000   20.0000000000000000
   C    N    Ru
    44     4     1
Direct
  0.9989876237931458  0.0010125468275367  0.7464136949708327
  0.1305708762812165  0.0638702327625863  0.7467000947776085
  0.1972298512275481  0.9972510999868948  0.7466974044707685
  0.3292318820989102  0.0613516320622479  0.7489158419593391
  0.3982334891123666  0.9966030528007798  0.7491338252941415
  0.5310139473862756  0.0663638574094442  0.7504229729698370
  0.5990509088142961  0.0004371127138683  0.7496883739975611
  0.7319494461298366  0.0698155155994916  0.7497267897577271
  0.7993522578961361  0.0030938921870481  0.7485349290320572
  0.9320258980568160  0.0679748292738958  0.7476581320938707
  0.9969066190223050  0.2006477010812865  0.7485322251313408
  0.1299138271772976  0.2648857568856051  0.7491548893019605
  0.1946746480717820  0.1958853421205444  0.7489161483166747
  0.3248552351526496  0.2592062633332645  0.7530023353050099
  0.3925234812939966  0.1915403605254657  0.7530130428324122
  0.5927209615368300  0.2002771248533080  0.7539972202302158
  0.7281767303401441  0.2718226607843337  0.7537563947738314
  0.7959708629707795  0.2040289808183388  0.7508940025178854
  0.9301846603535193  0.2680506316044173  0.7497254406555285
  0.9995626149162828  0.4009488466944483  0.7496878739478618
  0.1337606621211436  0.4657347119869781  0.7496904885213173
  0.1996801280310552  0.3976661533294865  0.7504418857172255
  0.3336166930980233  0.4593769441262753  0.7539943750909217
  0.7997219994866457  0.4072779755334529  0.7539971105116042
  0.9336356095463798  0.4689855818335073  0.7504230841891650
  0.0033967017897578  0.6017661523138769  0.7491339707801657
  0.1364026242815929  0.6660144717468297  0.7484859297068641
  0.2031344385318787  0.5986289063126059  0.7497115857926440
  0.3373362659995400  0.6626635609341972  0.7509168503167168
  0.4051647266905538  0.5948357577904153  0.7537723658789105
  0.5406235476563573  0.6663838449858028  0.7539956080439348
  0.7407944637786753  0.6751456245538355  0.7530024400287784
  0.8084596574764837  0.6074765823263013  0.7530127076493695
  0.9386485545058056  0.6707681358676194  0.7489156543167427
  0.0027489959253841  0.8027705098455413  0.7466973877985751
  0.1343626200786717  0.8656370830791422  0.7464035857867264
  0.2013157272134949  0.7986841512580687  0.7476312797141604
  0.3339850811710158  0.8635970703500156  0.7484856399551526
  0.4013709349042222  0.7968656632336091  0.7497113626406050
  0.5342652562176242  0.8662395533884049  0.7496908485062638
  0.6023333756947299  0.8003200820611734  0.7504445388732748
  0.7351141600972670  0.8700871108354932  0.7491578084327751
  0.8041142857564911  0.8053256981408786  0.7489177470504423
  0.9361294384883612  0.8694291516081275  0.7467008969545463
  0.5208922965901734  0.2573772146473899  0.7581660352407537
  0.3907155662770091  0.3875683199004044  0.7581663814153535
  0.7426228372165204  0.4791076617331949  0.7581658062445072
  0.6124316254870746  0.6092845286216082  0.7581666032175269
  0.5666759042559486  0.4333243573309714  0.7704223892883896
 
  0.00000000E+00  0.00000000E+00  0.00000000E+00
  0.00000000E+00  0.00000000E+00  0.00000000E+00
  0.00000000E+00  0.00000000E+00  0.00000000E+00
  0.00000000E+00  0.00000000E+00  0.00000000E+00
  0.00000000E+00  0.00000000E+00  0.00000000E+00
  0.00000000E+00  0.00000000E+00  0.00000000E+00
  0.00000000E+00  0.00000000E+00  0.00000000E+00
  0.00000000E+00  0.00000000E+00  0.00000000E+00
  0.00000000E+00  0.00000000E+00  0.00000000E+00
  0.00000000E+00  0.00000000E+00  0.00000000E+00
  0.00000000E+00  0.00000000E+00  0.00000000E+00
  0.00000000E+00  0.00000000E+00  0.00000000E+00
  0.00000000E+00  0.00000000E+00  0.00000000E+00
  0.00000000E+00  0.00000000E+00  0.00000000E+00
  0.00000000E+00  0.00000000E+00  0.00000000E+00
  0.00000000E+00  0.00000000E+00  0.00000000E+00
  0.00000000E+00  0.00000000E+00  0.00000000E+00
  0.00000000E+00  0.00000000E+00  0.00000000E+00
  0.00000000E+00  0.00000000E+00  0.00000000E+00
  0.00000000E+00  0.00000000E+00  0.00000000E+00
  0.00000000E+00  0.00000000E+00  0.00000000E+00
  0.00000000E+00  0.00000000E+00  0.00000000E+00
  0.00000000E+00  0.00000000E+00  0.00000000E+00
  0.00000000E+00  0.00000000E+00  0.00000000E+00
  0.00000000E+00  0.00000000E+00  0.00000000E+00
  0.00000000E+00  0.00000000E+00  0.00000000E+00
  0.00000000E+00  0.00000000E+00  0.00000000E+00
  0.00000000E+00  0.00000000E+00  0.00000000E+00
  0.00000000E+00  0.00000000E+00  0.00000000E+00
  0.00000000E+00  0.00000000E+00  0.00000000E+00
  0.00000000E+00  0.00000000E+00  0.00000000E+00
  0.00000000E+00  0.00000000E+00  0.00000000E+00
  0.00000000E+00  0.00000000E+00  0.00000000E+00
  0.00000000E+00  0.00000000E+00  0.00000000E+00
  0.00000000E+00  0.00000000E+00  0.00000000E+00
  0.00000000E+00  0.00000000E+00  0.00000000E+00
  0.00000000E+00  0.00000000E+00  0.00000000E+00
  0.00000000E+00  0.00000000E+00  0.00000000E+00
  0.00000000E+00  0.00000000E+00  0.00000000E+00
  0.00000000E+00  0.00000000E+00  0.00000000E+00
  0.00000000E+00  0.00000000E+00  0.00000000E+00
  0.00000000E+00  0.00000000E+00  0.00000000E+00
  0.00000000E+00  0.00000000E+00  0.00000000E+00
  0.00000000E+00  0.00000000E+00  0.00000000E+00
  0.00000000E+00  0.00000000E+00  0.00000000E+00
  0.00000000E+00  0.00000000E+00  0.00000000E+00
  0.00000000E+00  0.00000000E+00  0.00000000E+00
  0.00000000E+00  0.00000000E+00  0.00000000E+00
  0.00000000E+00  0.00000000E+00  0.00000000E+00
