       N       E                     dE             d eps       ncg     rms          ort
SDA:   1    -0.333485716542E+03   -0.33349E+03    0.00000E+00  3328   0.126E+03 0.000E+00
CGA:   2    -0.407644477423E+03   -0.74159E+02   -0.92520E+02  3328   0.790E+02-0.305E+02
CGA:   3    -0.424136449320E+03   -0.16492E+02   -0.16422E+02  3328   0.296E+02 0.768E+00
CGA:   4    -0.433723807732E+03   -0.95874E+01   -0.95558E+01  3328   0.109E+02 0.202E+00
CGA:   5    -0.437018262534E+03   -0.32945E+01   -0.33228E+01  3328   0.388E+01-0.300E+00
CGA:   6    -0.438117451559E+03   -0.10992E+01   -0.10958E+01  3328   0.124E+01 0.417E-01
CGA:   7    -0.438506940386E+03   -0.38949E+00   -0.38948E+00  3328   0.410E+00 0.792E-03
CGA:   8    -0.438646161289E+03   -0.13922E+00   -0.13939E+00  3328   0.144E+00-0.124E-02
CGA:   9    -0.438697728127E+03   -0.51567E-01   -0.51584E-01  3328   0.537E-01-0.114E-03
CGA:  10    -0.438717206060E+03   -0.19478E-01   -0.19479E-01  3328   0.185E-01-0.233E-04
CGA:  11    -0.438723821360E+03   -0.66153E-02   -0.66203E-02  3328   0.556E-02-0.458E-04
CGA:  12    -0.438725802961E+03   -0.19816E-02   -0.19826E-02  3328   0.165E-02-0.920E-05
CGA:  13    -0.438726429503E+03   -0.62654E-03   -0.62727E-03  3328   0.555E-03-0.644E-05
CGA:  14    -0.438726655381E+03   -0.22588E-03   -0.22631E-03  3328   0.210E-03-0.327E-05
CGA:  15    -0.438726742938E+03   -0.87557E-04   -0.87880E-04  3328   0.745E-04-0.227E-05
CGA:  16    -0.438726772738E+03   -0.29800E-04   -0.29894E-04  3328   0.228E-04-0.772E-06
CGA:  17    -0.438726781793E+03   -0.90550E-05   -0.90916E-05  3328   0.701E-05-0.323E-06
   1 F= -.44047923E+03 E0= -.44047452E+03  d E =-.942755E-02  mag=    -0.0000
