C  N  Zn                                
   1.00000000000000     
    12.3000000000000007    0.0000000000000000    0.0000000000000000
    -6.1499999999999977   10.6521124665485960    0.0000000000000000
     0.0000000000000000    0.0000000000000000   20.0000000000000000
   C    N    Zn
    44     4     1
Direct
  0.9990960046387662  0.0009040002902900  0.7500004584295585
  0.1308557420906302  0.0641799828537749  0.7499993675594783
  0.1975039128958460  0.9975230876979455  0.7499993683979622
  0.3295979130217279  0.0619688200314465  0.7499954505745142
  0.3982934503473520  0.9969913595280925  0.7500002082322251
  0.5313211816569283  0.0661507923294322  0.7499973776145505
  0.5991769254049838  0.0004843358450501  0.7499995113877531
  0.7322400073787422  0.0696221899550944  0.7500000365123554
  0.7995102735468093  0.0028186129817417  0.7500002909214748
  0.9321850739551395  0.0678149185064695  0.7499999040573754
  0.9971814179326398  0.2004897251170090  0.7500002913643682
  0.1303189991751129  0.2649507189532000  0.7500002077985105
  0.1953127339963652  0.1962745921429878  0.7499954503288699
  0.3263176508370046  0.2610470980478223  0.7499895612016615
  0.3943492124443929  0.1929936415811011  0.7499900927718364
  0.5929869589306711  0.2004504399796765  0.7500043305857793
  0.7284078749454416  0.2715921182625606  0.7499989840819212
  0.7962962621163774  0.2037037044680182  0.7500000957431416
  0.9303778358922974  0.2677600664867359  0.7500000367318620
  0.9995161174684810  0.4008232126540422  0.7499995115334712
  0.1337984253789462  0.4658414761779617  0.7499995119748337
  0.1994652632722747  0.3979699453616161  0.7499979397721253
  0.3337863123635407  0.4596538199695205  0.7500043251093628
  0.7995495664998337  0.4070130230533562  0.7500043306116606
  0.9338492461061255  0.4686787408071227  0.7499973779759670
  0.0030089754998865  0.6017064208208541  0.7500002081589319
  0.1361446138286510  0.6661754478269311  0.7500002913279823
  0.2029531014941536  0.5989057581897476  0.7500000364017707
  0.3370333363322234  0.6629667564030125  0.7500000964882950
  0.4049343120059347  0.5950656526951833  0.7499989808891487
  0.5403461888143520  0.6662137802864636  0.7500043251062423
  0.7389529743347761  0.6736823468866447  0.7499895618685181
  0.8070069410321484  0.6056509654482438  0.7499900930975187
  0.9380309503213596  0.6704020311696559  0.7499954507325902
  0.0024771123612408  0.8024960911476933  0.7499993680221262
  0.1342396156958849  0.8657604756948611  0.7500004590461012
  0.2011503894210052  0.7988495639295269  0.7499999039383823
  0.3338245080400840  0.8638554447629935  0.7500002914701911
  0.4010942705361767  0.7970471055243786  0.7500000366128782
  0.5341585404762170  0.8662014633516653  0.7499995119940543
  0.6020298979480718  0.8005350672021897  0.7499979401002249
  0.7350492108259687  0.8696809481560472  0.7500002081047278
  0.8037254263120166  0.8046872750159968  0.7499954501963393
  0.9358199634404266  0.8691441866568205  0.7499993673478386
  0.5219546060263153  0.2573280948244723  0.7500256757885501
  0.3906631373482512  0.3886368316266762  0.7500256488173280
  0.7426719503061481  0.4780454800346610  0.7500256756797420
  0.6113631658785232  0.6093368483648509  0.7500256489822421
  0.5666674494237639  0.4333325408983545  0.7509527485556599
 
  0.00000000E+00  0.00000000E+00  0.00000000E+00
  0.00000000E+00  0.00000000E+00  0.00000000E+00
  0.00000000E+00  0.00000000E+00  0.00000000E+00
  0.00000000E+00  0.00000000E+00  0.00000000E+00
  0.00000000E+00  0.00000000E+00  0.00000000E+00
  0.00000000E+00  0.00000000E+00  0.00000000E+00
  0.00000000E+00  0.00000000E+00  0.00000000E+00
  0.00000000E+00  0.00000000E+00  0.00000000E+00
  0.00000000E+00  0.00000000E+00  0.00000000E+00
  0.00000000E+00  0.00000000E+00  0.00000000E+00
  0.00000000E+00  0.00000000E+00  0.00000000E+00
  0.00000000E+00  0.00000000E+00  0.00000000E+00
  0.00000000E+00  0.00000000E+00  0.00000000E+00
  0.00000000E+00  0.00000000E+00  0.00000000E+00
  0.00000000E+00  0.00000000E+00  0.00000000E+00
  0.00000000E+00  0.00000000E+00  0.00000000E+00
  0.00000000E+00  0.00000000E+00  0.00000000E+00
  0.00000000E+00  0.00000000E+00  0.00000000E+00
  0.00000000E+00  0.00000000E+00  0.00000000E+00
  0.00000000E+00  0.00000000E+00  0.00000000E+00
  0.00000000E+00  0.00000000E+00  0.00000000E+00
  0.00000000E+00  0.00000000E+00  0.00000000E+00
  0.00000000E+00  0.00000000E+00  0.00000000E+00
  0.00000000E+00  0.00000000E+00  0.00000000E+00
  0.00000000E+00  0.00000000E+00  0.00000000E+00
  0.00000000E+00  0.00000000E+00  0.00000000E+00
  0.00000000E+00  0.00000000E+00  0.00000000E+00
  0.00000000E+00  0.00000000E+00  0.00000000E+00
  0.00000000E+00  0.00000000E+00  0.00000000E+00
  0.00000000E+00  0.00000000E+00  0.00000000E+00
  0.00000000E+00  0.00000000E+00  0.00000000E+00
  0.00000000E+00  0.00000000E+00  0.00000000E+00
  0.00000000E+00  0.00000000E+00  0.00000000E+00
  0.00000000E+00  0.00000000E+00  0.00000000E+00
  0.00000000E+00  0.00000000E+00  0.00000000E+00
  0.00000000E+00  0.00000000E+00  0.00000000E+00
  0.00000000E+00  0.00000000E+00  0.00000000E+00
  0.00000000E+00  0.00000000E+00  0.00000000E+00
  0.00000000E+00  0.00000000E+00  0.00000000E+00
  0.00000000E+00  0.00000000E+00  0.00000000E+00
  0.00000000E+00  0.00000000E+00  0.00000000E+00
  0.00000000E+00  0.00000000E+00  0.00000000E+00
  0.00000000E+00  0.00000000E+00  0.00000000E+00
  0.00000000E+00  0.00000000E+00  0.00000000E+00
  0.00000000E+00  0.00000000E+00  0.00000000E+00
  0.00000000E+00  0.00000000E+00  0.00000000E+00
  0.00000000E+00  0.00000000E+00  0.00000000E+00
  0.00000000E+00  0.00000000E+00  0.00000000E+00
  0.00000000E+00  0.00000000E+00  0.00000000E+00
