       N       E                     dE             d eps       ncg     rms          ort
SDA:   1    -0.336189963458E+03   -0.33619E+03    0.00000E+00  3328   0.137E+03 0.000E+00
CGA:   2    -0.408120901092E+03   -0.71931E+02   -0.77856E+02  3328   0.125E+03-0.998E+01
CGA:   3    -0.427027910347E+03   -0.18907E+02   -0.19484E+02  3328   0.440E+02 0.236E+01
CGA:   4    -0.437840534949E+03   -0.10813E+02   -0.10800E+02  3328   0.233E+02 0.118E+00
CGA:   5    -0.441883717655E+03   -0.40432E+01   -0.40047E+01  3328   0.146E+02-0.212E+00
CGA:   6    -0.444073354249E+03   -0.21896E+01   -0.21914E+01  3328   0.610E+01 0.141E-01
CGA:   7    -0.445133135142E+03   -0.10598E+01   -0.10610E+01  3328   0.247E+01 0.979E-02
CGA:   8    -0.445620719816E+03   -0.48758E+00   -0.48770E+00  3328   0.114E+01 0.424E-02
CGA:   9    -0.445828893755E+03   -0.20817E+00   -0.20794E+00  3328   0.455E+00-0.256E-02
CGA:  10    -0.445925899056E+03   -0.97005E-01   -0.97005E-01  3328   0.185E+00 0.154E-03
CGA:  11    -0.445967967603E+03   -0.42069E-01   -0.42073E-01  3328   0.819E-01-0.771E-04
CGA:  12    -0.445987538656E+03   -0.19571E-01   -0.19584E-01  3328   0.403E-01-0.246E-03
CGA:  13    -0.445997027774E+03   -0.94891E-02   -0.94834E-02  3328   0.183E-01 0.107E-03
CGA:  14    -0.446001672910E+03   -0.46451E-02   -0.46467E-02  3328   0.745E-02-0.290E-04
CGA:  15    -0.446003666062E+03   -0.19932E-02   -0.19945E-02  3328   0.276E-02-0.223E-04
CGA:  16    -0.446004426885E+03   -0.76082E-03   -0.76150E-03  3328   0.110E-02-0.107E-04
CGA:  17    -0.446004704660E+03   -0.27778E-03   -0.27758E-03  3328   0.513E-03 0.576E-05
CGA:  18    -0.446004831361E+03   -0.12670E-03   -0.12688E-03  3328   0.236E-03-0.771E-05
CGA:  19    -0.446004895813E+03   -0.64452E-04   -0.64418E-04  3328   0.106E-03 0.633E-06
CGA:  20    -0.446004927682E+03   -0.31869E-04   -0.31974E-04  3328   0.505E-04-0.139E-05
CGA:  21    -0.446004941497E+03   -0.13815E-04   -0.13889E-04  3328   0.241E-04-0.149E-05
CGA:  22    -0.446004947045E+03   -0.55480E-05   -0.55436E-05  3328   0.102E-04 0.753E-06
   1 F= -.44776328E+03 E0= -.44774484E+03  d E =-.368840E-01  mag=     3.3868
