C  N  Mo                                
   1.00000000000000     
    12.3000000000000007    0.0000000000000000    0.0000000000000000
    -6.1499999999999977   10.6521124665485960    0.0000000000000000
     0.0000000000000000    0.0000000000000000   20.0000000000000000
   C    N    Mo
    44     4     1
Direct
  0.9991679882549811  0.0008320286779808  0.7370196221924339
  0.1315742969203496  0.0649397986189788  0.7378945973429579
  0.1982521659767756  0.9982556254941266  0.7378823862311901
  0.3303935825192039  0.0631262962895855  0.7443528860278463
  0.3984897053973112  0.9974578872052505  0.7458605381253542
  0.5317037359531259  0.0665627645151954  0.7500714445272981
  0.5994137374748895  0.0004972606732631  0.7482982465939129
  0.7324456319283593  0.0691917755312785  0.7478688469602178
  0.7995440210393193  0.0021881613865333  0.7439537363100590
  0.9323830049971951  0.0676170028660181  0.7408254617214332
  0.9978118346231365  0.2004559836153894  0.7439537363360175
  0.1307932961698997  0.2651650127985312  0.7458913929068683
  0.1964440431248274  0.1970356221442511  0.7443910710914383
  0.3267278622209470  0.2607961053246700  0.7538008558956291
  0.3941358051160118  0.1934079520648307  0.7537972483255606
  0.5939302189432047  0.1996278392601493  0.7578127842068166
  0.7292064150511941  0.2707935803162184  0.7572010959517019
  0.7969197230939786  0.2030802721648408  0.7507438622426096
  0.9308082184394663  0.2675543684515985  0.7478688454452795
  0.9995027272070135  0.4005862624288856  0.7482982454679024
  0.1338380269999034  0.4661139970756253  0.7483136810404263
  0.1999000881443777  0.3983650726786592  0.7500854016234160
  0.3329773579860050  0.4605968059168804  0.7578082018253399
  0.8003721515904331  0.4060697778511603  0.7578127849623357
  0.9334372263956316  0.4682962651406828  0.7500714430336205
  0.0025421078876504  0.6015102987674951  0.7458605362578191
  0.1355343477305729  0.6662275612061161  0.7439176394133075
  0.2025024008974085  0.5990911180662800  0.7478420741883208
  0.3364135976493005  0.6635863956769062  0.7507188329734771
  0.4041070636173655  0.5958929314587145  0.7572104588797783
  0.5394031898020211  0.6670226330038166  0.7578082028545964
  0.7392038930532187  0.6732721353061747  0.7538008521707896
  0.8065920459048460  0.6058641956709988  0.7537972466136119
  0.9368737053575478  0.6696064281388261  0.7443528871632319
  0.0017443903727852  0.8017478504600756  0.7378823869265412
  0.1341736382070354  0.8658263798703442  0.7370222250276055
  0.2009536251236043  0.7990463833718415  0.7408135111979119
  0.3337724439871375  0.8644656489024957  0.7439176405587419
  0.4009088811088242  0.7974975914065394  0.7478420738135042
  0.5338860020974223  0.8661619607006816  0.7483136792939182
  0.6016349276928452  0.8000999026601595  0.7500853997674182
  0.7348349904036632  0.8692066990034768  0.7458913925181015
  0.8029643865868528  0.8035559581263891  0.7443910694068312
  0.9350602168637646  0.8684257194757091  0.7378945977301119
  0.5223333807976707  0.2566212903988910  0.7662354989995628
  0.3899485018334814  0.3890146587122866  0.7662386318241466
  0.7433787017881330  0.4776666155710705  0.7662354961414704
  0.6109853368302981  0.6100514904783961  0.7662386289648938
  0.5666663588390012  0.4333336350757260  0.7948076209266619
 
  0.00000000E+00  0.00000000E+00  0.00000000E+00
  0.00000000E+00  0.00000000E+00  0.00000000E+00
  0.00000000E+00  0.00000000E+00  0.00000000E+00
  0.00000000E+00  0.00000000E+00  0.00000000E+00
  0.00000000E+00  0.00000000E+00  0.00000000E+00
  0.00000000E+00  0.00000000E+00  0.00000000E+00
  0.00000000E+00  0.00000000E+00  0.00000000E+00
  0.00000000E+00  0.00000000E+00  0.00000000E+00
  0.00000000E+00  0.00000000E+00  0.00000000E+00
  0.00000000E+00  0.00000000E+00  0.00000000E+00
  0.00000000E+00  0.00000000E+00  0.00000000E+00
  0.00000000E+00  0.00000000E+00  0.00000000E+00
  0.00000000E+00  0.00000000E+00  0.00000000E+00
  0.00000000E+00  0.00000000E+00  0.00000000E+00
  0.00000000E+00  0.00000000E+00  0.00000000E+00
  0.00000000E+00  0.00000000E+00  0.00000000E+00
  0.00000000E+00  0.00000000E+00  0.00000000E+00
  0.00000000E+00  0.00000000E+00  0.00000000E+00
  0.00000000E+00  0.00000000E+00  0.00000000E+00
  0.00000000E+00  0.00000000E+00  0.00000000E+00
  0.00000000E+00  0.00000000E+00  0.00000000E+00
  0.00000000E+00  0.00000000E+00  0.00000000E+00
  0.00000000E+00  0.00000000E+00  0.00000000E+00
  0.00000000E+00  0.00000000E+00  0.00000000E+00
  0.00000000E+00  0.00000000E+00  0.00000000E+00
  0.00000000E+00  0.00000000E+00  0.00000000E+00
  0.00000000E+00  0.00000000E+00  0.00000000E+00
  0.00000000E+00  0.00000000E+00  0.00000000E+00
  0.00000000E+00  0.00000000E+00  0.00000000E+00
  0.00000000E+00  0.00000000E+00  0.00000000E+00
  0.00000000E+00  0.00000000E+00  0.00000000E+00
  0.00000000E+00  0.00000000E+00  0.00000000E+00
  0.00000000E+00  0.00000000E+00  0.00000000E+00
  0.00000000E+00  0.00000000E+00  0.00000000E+00
  0.00000000E+00  0.00000000E+00  0.00000000E+00
  0.00000000E+00  0.00000000E+00  0.00000000E+00
  0.00000000E+00  0.00000000E+00  0.00000000E+00
  0.00000000E+00  0.00000000E+00  0.00000000E+00
  0.00000000E+00  0.00000000E+00  0.00000000E+00
  0.00000000E+00  0.00000000E+00  0.00000000E+00
  0.00000000E+00  0.00000000E+00  0.00000000E+00
  0.00000000E+00  0.00000000E+00  0.00000000E+00
  0.00000000E+00  0.00000000E+00  0.00000000E+00
  0.00000000E+00  0.00000000E+00  0.00000000E+00
  0.00000000E+00  0.00000000E+00  0.00000000E+00
  0.00000000E+00  0.00000000E+00  0.00000000E+00
  0.00000000E+00  0.00000000E+00  0.00000000E+00
  0.00000000E+00  0.00000000E+00  0.00000000E+00
  0.00000000E+00  0.00000000E+00  0.00000000E+00
