C  N  Tm                                
   1.00000000000000     
    12.3000000000000007    0.0000000000000000    0.0000000000000000
    -6.1499999999999977   10.6521124665485960    0.0000000000000000
     0.0000000000000000    0.0000000000000000   20.0000000000000000
   C    N    Tm
    44     4     1
Direct
  0.9993852454477882  0.0006412737492978  0.7535602462594334
  0.1318738070549128  0.0652225263983915  0.7532718445038200
  0.1985482890171462  0.9985344826107034  0.7532939670823653
  0.3309094880022971  0.0639517859575726  0.7520283758046604
  0.3986009472014810  0.9979199457369465  0.7526791606816190
  0.5320360455284026  0.0666037420945588  0.7523430252770773
  0.5995725172702391  0.0004710191420003  0.7533669961272036
  0.7325340860766588  0.0687597605367150  0.7527784020600681
  0.7997158149434052  0.0017092224460133  0.7531493254633089
  0.9326471818891373  0.0673702512517812  0.7532283223574009
  0.9982982153439923  0.2003118648596391  0.7531424909083758
  0.1312565821403313  0.2652653082519394  0.7526895546126767
  0.1973073021506083  0.1975851680450975  0.7520983284095532
  0.3295864308121507  0.2640225180088240  0.7487579325686686
  0.3973380398110838  0.1962454573499088  0.7486819596535438
  0.5944548832128038  0.2002605017928356  0.7486804032190174
  0.7296057934947934  0.2703885550435854  0.7489986424637657
  0.7972843986806577  0.2027226291736467  0.7516329998030172
  0.9312292955723707  0.2674867677517149  0.7527729321465413
  0.9994826256150263  0.4004603265044196  0.7533725815370954
  0.1338541795945015  0.4662643810990677  0.7535309450079883
  0.1999763831106953  0.3987011233305541  0.7525378380883261
  0.3336330798597349  0.4611495817361830  0.7489615724618085
  0.7996887621685250  0.4055414542540113  0.7485270341812406
  0.9333287897377369  0.4679830885935058  0.7522968424098825
  0.0020636883044353  0.6014321567361621  0.7526503702262306
  0.1350443053903114  0.6663720691893087  0.7533911184199160
  0.2021190270895633  0.5992056905232483  0.7531160733263378
  0.3360591474652318  0.6639424319999508  0.7520247122344583
  0.4037326609092134  0.5962813857698845  0.7493794324663061
  0.5388784434114128  0.6663593300751297  0.7488999869537973
  0.7359951028632518  0.6704343609830288  0.7487038001500316
  0.8037454526625669  0.6026877325061691  0.7485163897129852
  0.9360219634196199  0.6690989310328920  0.7520181383494617
  0.0014726059423342  0.8014637275646039  0.7533409800785243
  0.1339754880955557  0.8660314712957977  0.7536846594498756
  0.2007091977282967  0.7993101718157333  0.7534904096053752
  0.3336461025733953  0.8649372769904344  0.7533869755664699
  0.4008203028231351  0.7978784411057604  0.7530965561586672
  0.5337578378257437  0.8661114561024689  0.7535103534559485
  0.6013282980750758  0.8000083045937311  0.7525141591789614
  0.7347534742939250  0.8687351993594563  0.7527009086882166
  0.8024459197048147  0.8027011287142898  0.7521511230310370
  0.9348051976969163  0.8681508506326555  0.7533238478080847
  0.5260382807976772  0.2604394603077773  0.7438025480012569
  0.3938316360289087  0.3927633474909403  0.7438857214137308
  0.7395252639539637  0.4739732782249625  0.7433381668511491
  0.6073054175919446  0.6062414048939192  0.7437703624670369
  0.5663670016162340  0.4332776563727856  0.6899214833176455
 
  0.00000000E+00  0.00000000E+00  0.00000000E+00
  0.00000000E+00  0.00000000E+00  0.00000000E+00
  0.00000000E+00  0.00000000E+00  0.00000000E+00
  0.00000000E+00  0.00000000E+00  0.00000000E+00
  0.00000000E+00  0.00000000E+00  0.00000000E+00
  0.00000000E+00  0.00000000E+00  0.00000000E+00
  0.00000000E+00  0.00000000E+00  0.00000000E+00
  0.00000000E+00  0.00000000E+00  0.00000000E+00
  0.00000000E+00  0.00000000E+00  0.00000000E+00
  0.00000000E+00  0.00000000E+00  0.00000000E+00
  0.00000000E+00  0.00000000E+00  0.00000000E+00
  0.00000000E+00  0.00000000E+00  0.00000000E+00
  0.00000000E+00  0.00000000E+00  0.00000000E+00
  0.00000000E+00  0.00000000E+00  0.00000000E+00
  0.00000000E+00  0.00000000E+00  0.00000000E+00
  0.00000000E+00  0.00000000E+00  0.00000000E+00
  0.00000000E+00  0.00000000E+00  0.00000000E+00
  0.00000000E+00  0.00000000E+00  0.00000000E+00
  0.00000000E+00  0.00000000E+00  0.00000000E+00
  0.00000000E+00  0.00000000E+00  0.00000000E+00
  0.00000000E+00  0.00000000E+00  0.00000000E+00
  0.00000000E+00  0.00000000E+00  0.00000000E+00
  0.00000000E+00  0.00000000E+00  0.00000000E+00
  0.00000000E+00  0.00000000E+00  0.00000000E+00
  0.00000000E+00  0.00000000E+00  0.00000000E+00
  0.00000000E+00  0.00000000E+00  0.00000000E+00
  0.00000000E+00  0.00000000E+00  0.00000000E+00
  0.00000000E+00  0.00000000E+00  0.00000000E+00
  0.00000000E+00  0.00000000E+00  0.00000000E+00
  0.00000000E+00  0.00000000E+00  0.00000000E+00
  0.00000000E+00  0.00000000E+00  0.00000000E+00
  0.00000000E+00  0.00000000E+00  0.00000000E+00
  0.00000000E+00  0.00000000E+00  0.00000000E+00
  0.00000000E+00  0.00000000E+00  0.00000000E+00
  0.00000000E+00  0.00000000E+00  0.00000000E+00
  0.00000000E+00  0.00000000E+00  0.00000000E+00
  0.00000000E+00  0.00000000E+00  0.00000000E+00
  0.00000000E+00  0.00000000E+00  0.00000000E+00
  0.00000000E+00  0.00000000E+00  0.00000000E+00
  0.00000000E+00  0.00000000E+00  0.00000000E+00
  0.00000000E+00  0.00000000E+00  0.00000000E+00
  0.00000000E+00  0.00000000E+00  0.00000000E+00
  0.00000000E+00  0.00000000E+00  0.00000000E+00
  0.00000000E+00  0.00000000E+00  0.00000000E+00
  0.00000000E+00  0.00000000E+00  0.00000000E+00
  0.00000000E+00  0.00000000E+00  0.00000000E+00
  0.00000000E+00  0.00000000E+00  0.00000000E+00
  0.00000000E+00  0.00000000E+00  0.00000000E+00
  0.00000000E+00  0.00000000E+00  0.00000000E+00
