C  N  Tm                                
   1.00000000000000     
    12.3000000000000007    0.0000000000000000    0.0000000000000000
    -6.1499999999999977   10.6521124665485960    0.0000000000000000
     0.0000000000000000    0.0000000000000000   20.0000000000000000
   C    N    Tm
    44     4     1
Direct
  0.9995064249505513  0.0005669198485797  0.7533654025957061
  0.1320204532195420  0.0652902174250138  0.7530145990664903
  0.1986921630771459  0.9986396921583670  0.7530893851122319
  0.3311117943724154  0.0641440274460015  0.7519390448475285
  0.3987150069626593  0.9980215279214135  0.7526623869450094
  0.5321325068554550  0.0666404809190134  0.7524130611328927
  0.5996462926956171  0.0004729659747729  0.7533987283800377
  0.7326413484430474  0.0687925593563773  0.7527586048537768
  0.7997926530001578  0.0017408737776068  0.7531508020676749
  0.9327719601757065  0.0673272432177365  0.7531790390086410
  0.9983241620595051  0.2003169597325556  0.7531470057339682
  0.1313787137156391  0.2653660612978937  0.7527161535737669
  0.1974364653081342  0.1977078804571362  0.7520339965377979
  0.3297580561249903  0.2643136500902430  0.7488596491977234
  0.3976009463249692  0.1964464054650622  0.7487431363111910
  0.5943091051547587  0.2003759204248680  0.7488544632994654
  0.7295540490589131  0.2704226457106513  0.7492103978092841
  0.7972182493292396  0.2028173122457481  0.7516692626008353
  0.9312269044092528  0.2674242028548877  0.7527526847311160
  0.9994133922645514  0.4004321866859837  0.7534009844932139
  0.1337562999234699  0.4662552544441944  0.7536122920680202
  0.1999890337729830  0.3987682083526356  0.7527026091423191
  0.3337236329266675  0.4610551495187595  0.7490771636516871
  0.7994377001860776  0.4057388500513483  0.7486837151681859
  0.9331855224864386  0.4678897268148249  0.7523309160118032
  0.0019235749273834  0.6012975668149679  0.7526412480120028
  0.1349965503078098  0.6663346286028168  0.7533817619183566
  0.2021053739252030  0.5992414956781293  0.7531767780014298
  0.3361076436589530  0.6639310864637915  0.7520670784418493
  0.4037561721980802  0.5963012341742505  0.7494929173732165
  0.5390590690192744  0.6661891383001149  0.7490358103533544
  0.7357393410069517  0.6702649921595878  0.7488683020032391
  0.8035689128855127  0.6024817094525261  0.7486339360003411
  0.9358670754909382  0.6689506913784935  0.7519797987476295
  0.0014088007217591  0.8013819349210275  0.7531595336165762
  0.1339144058937773  0.8661179855825751  0.7535020704902304
  0.2006667575439422  0.7993292279490459  0.7534411380359484
  0.3336677785427799  0.8649744878692784  0.7533866816738048
  0.4008151563489908  0.7978947064686170  0.7531662537489074
  0.5338121587034937  0.8661335000455574  0.7535587195685820
  0.6013232377117866  0.7999458716289419  0.7526417711308465
  0.7347258669182088  0.8686826480953762  0.7527251726029460
  0.8023458006432840  0.8026145522981470  0.7520869291535507
  0.9347598921992797  0.8680468849407971  0.7530529624607687
  0.5262037908090483  0.2605159109383624  0.7438764534623903
  0.3937949278528626  0.3928900288169946  0.7440427082021074
  0.7394332487271468  0.4738748739224689  0.7435317320131619
  0.6071447289371902  0.6060769441781901  0.7440010099295440
  0.5661068982284641  0.4329709771282821  0.6887837487188470
 
  0.00000000E+00  0.00000000E+00  0.00000000E+00
  0.00000000E+00  0.00000000E+00  0.00000000E+00
  0.00000000E+00  0.00000000E+00  0.00000000E+00
  0.00000000E+00  0.00000000E+00  0.00000000E+00
  0.00000000E+00  0.00000000E+00  0.00000000E+00
  0.00000000E+00  0.00000000E+00  0.00000000E+00
  0.00000000E+00  0.00000000E+00  0.00000000E+00
  0.00000000E+00  0.00000000E+00  0.00000000E+00
  0.00000000E+00  0.00000000E+00  0.00000000E+00
  0.00000000E+00  0.00000000E+00  0.00000000E+00
  0.00000000E+00  0.00000000E+00  0.00000000E+00
  0.00000000E+00  0.00000000E+00  0.00000000E+00
  0.00000000E+00  0.00000000E+00  0.00000000E+00
  0.00000000E+00  0.00000000E+00  0.00000000E+00
  0.00000000E+00  0.00000000E+00  0.00000000E+00
  0.00000000E+00  0.00000000E+00  0.00000000E+00
  0.00000000E+00  0.00000000E+00  0.00000000E+00
  0.00000000E+00  0.00000000E+00  0.00000000E+00
  0.00000000E+00  0.00000000E+00  0.00000000E+00
  0.00000000E+00  0.00000000E+00  0.00000000E+00
  0.00000000E+00  0.00000000E+00  0.00000000E+00
  0.00000000E+00  0.00000000E+00  0.00000000E+00
  0.00000000E+00  0.00000000E+00  0.00000000E+00
  0.00000000E+00  0.00000000E+00  0.00000000E+00
  0.00000000E+00  0.00000000E+00  0.00000000E+00
  0.00000000E+00  0.00000000E+00  0.00000000E+00
  0.00000000E+00  0.00000000E+00  0.00000000E+00
  0.00000000E+00  0.00000000E+00  0.00000000E+00
  0.00000000E+00  0.00000000E+00  0.00000000E+00
  0.00000000E+00  0.00000000E+00  0.00000000E+00
  0.00000000E+00  0.00000000E+00  0.00000000E+00
  0.00000000E+00  0.00000000E+00  0.00000000E+00
  0.00000000E+00  0.00000000E+00  0.00000000E+00
  0.00000000E+00  0.00000000E+00  0.00000000E+00
  0.00000000E+00  0.00000000E+00  0.00000000E+00
  0.00000000E+00  0.00000000E+00  0.00000000E+00
  0.00000000E+00  0.00000000E+00  0.00000000E+00
  0.00000000E+00  0.00000000E+00  0.00000000E+00
  0.00000000E+00  0.00000000E+00  0.00000000E+00
  0.00000000E+00  0.00000000E+00  0.00000000E+00
  0.00000000E+00  0.00000000E+00  0.00000000E+00
  0.00000000E+00  0.00000000E+00  0.00000000E+00
  0.00000000E+00  0.00000000E+00  0.00000000E+00
  0.00000000E+00  0.00000000E+00  0.00000000E+00
  0.00000000E+00  0.00000000E+00  0.00000000E+00
  0.00000000E+00  0.00000000E+00  0.00000000E+00
  0.00000000E+00  0.00000000E+00  0.00000000E+00
  0.00000000E+00  0.00000000E+00  0.00000000E+00
  0.00000000E+00  0.00000000E+00  0.00000000E+00
