       N       E                     dE             d eps       ncg     rms          ort
DAV:   1     0.104943305348E+04    0.10494E+04   -0.88081E+04  3328   0.673E+02
DAV:   2    -0.362322392258E+03   -0.14118E+04   -0.14114E+04  3328   0.103E+02
DAV:   3    -0.437440202493E+03   -0.75118E+02   -0.75113E+02  3328   0.364E+01
DAV:   4    -0.438266890168E+03   -0.82669E+00   -0.82668E+00  3328   0.421E+00
DAV:   5    -0.438267025026E+03   -0.13486E-03   -0.13486E-03  3328   0.656E-02
SDA:   6    -0.438267025026E+03    0.00000E+00   -0.13486E-03  3328   0.193E-05 0.000E+00
   1 F= -.44008128E+03 E0= -.44007971E+03  d E =-.313644E-02  mag=    -0.0000
