C  N  Au                                
   1.00000000000000     
    12.3000000000000007    0.0000000000000000    0.0000000000000000
    -6.1499999999999977   10.6521124665485960    0.0000000000000000
     0.0000000000000000    0.0000000000000000   20.0000000000000000
   C    N    Au
    44     4     1
Direct
  0.9988849864287488  0.0011150141698337  0.7458176371085017
  0.1305395550557975  0.0641001424919025  0.7465637100949678
  0.1974236145959694  0.9972409693550404  0.7465960084714141
  0.3286056621206868  0.0606539857781030  0.7496688393546833
  0.3980285683937197  0.9965223560644745  0.7499766886466901
  0.5314676189739842  0.0665295363858220  0.7517234471877288
  0.5994213975158118  0.0007817276410051  0.7508561400249363
  0.7320381889779242  0.0695962539271875  0.7502715515621219
  0.7993743624357563  0.0025480849446851  0.7486948182019759
  0.9321691271968504  0.0678308741076847  0.7472397119323020
  0.9974519144542597  0.2006256376177689  0.7486948182827078
  0.1298353428565164  0.2646948957029025  0.7499700292968967
  0.1939766355198671  0.1952793517766409  0.7496237680937554
  0.3246237734195745  0.2579957492747198  0.7533643817470335
  0.3913200455890546  0.1913081372775665  0.7533738929437064
  0.5938728337713499  0.2003128820284417  0.7541369226842818
  0.7285701953457391  0.2714298044795385  0.7536416574773455
  0.7965643932422068  0.2034356060560469  0.7512342806937866
  0.9304037457282988  0.2679618112555744  0.7502715519132082
  0.9992182728106869  0.4005786032749938  0.7508561403379161
  0.1340997939768940  0.4660912119008955  0.7508604659722238
  0.1998505588894091  0.3981261195034591  0.7517367038778744
  0.3336510468290115  0.4605209698340147  0.7541315271123707
  0.7996871181975393  0.4061271661812711  0.7541369225471399
  0.9334704635244151  0.4685323805846551  0.7517234472499084
  0.0034776433597656  0.6019714310642215  0.7499766885831320
  0.1358750464134033  0.6660317222927787  0.7486810726157529
  0.2029351001816195  0.5987031808459236  0.7502381105450411
  0.3367800082738910  0.6632199911866863  0.7511650549120290
  0.4047898634537361  0.5952101364313904  0.7536330312917272
  0.5394790298346308  0.6663489531252154  0.7541315268792772
  0.7420042506520161  0.6753762266302772  0.7533643816796882
  0.8086918626258068  0.6086799541044954  0.7533738927681668
  0.9393460137628153  0.6713943376056264  0.7496688395198916
  0.0027590312947012  0.8025763859950743  0.7465960089686305
  0.1344387523963420  0.8655612482777997  0.7458741491631216
  0.2011573981875827  0.7988426027330107  0.7472627782203460
  0.3339682774729837  0.8641249528924959  0.7486810725372237
  0.4012968192641253  0.7970648993397020  0.7502381107754417
  0.5339087886888478  0.8659002063968373  0.7508604662122309
  0.6018738801676093  0.8001494411434962  0.7517367038617522
  0.7353051036350777  0.8701646564446150  0.7499700293399201
  0.8047206477461160  0.8060233638224830  0.7496237681396920
  0.9358998581191784  0.8694604457463200  0.7465637105182026
  0.5201549836851811  0.2553898963181638  0.7565269024551000
  0.3887199291341048  0.3868182217121614  0.7565164007233705
  0.7446101041291371  0.4798450165414678  0.7565269024744907
  0.6131817784031171  0.6112800711062789  0.7565164007464986
  0.5666656132681140  0.4333343866292765  0.7581069342537816
 
  0.00000000E+00  0.00000000E+00  0.00000000E+00
  0.00000000E+00  0.00000000E+00  0.00000000E+00
  0.00000000E+00  0.00000000E+00  0.00000000E+00
  0.00000000E+00  0.00000000E+00  0.00000000E+00
  0.00000000E+00  0.00000000E+00  0.00000000E+00
  0.00000000E+00  0.00000000E+00  0.00000000E+00
  0.00000000E+00  0.00000000E+00  0.00000000E+00
  0.00000000E+00  0.00000000E+00  0.00000000E+00
  0.00000000E+00  0.00000000E+00  0.00000000E+00
  0.00000000E+00  0.00000000E+00  0.00000000E+00
  0.00000000E+00  0.00000000E+00  0.00000000E+00
  0.00000000E+00  0.00000000E+00  0.00000000E+00
  0.00000000E+00  0.00000000E+00  0.00000000E+00
  0.00000000E+00  0.00000000E+00  0.00000000E+00
  0.00000000E+00  0.00000000E+00  0.00000000E+00
  0.00000000E+00  0.00000000E+00  0.00000000E+00
  0.00000000E+00  0.00000000E+00  0.00000000E+00
  0.00000000E+00  0.00000000E+00  0.00000000E+00
  0.00000000E+00  0.00000000E+00  0.00000000E+00
  0.00000000E+00  0.00000000E+00  0.00000000E+00
  0.00000000E+00  0.00000000E+00  0.00000000E+00
  0.00000000E+00  0.00000000E+00  0.00000000E+00
  0.00000000E+00  0.00000000E+00  0.00000000E+00
  0.00000000E+00  0.00000000E+00  0.00000000E+00
  0.00000000E+00  0.00000000E+00  0.00000000E+00
  0.00000000E+00  0.00000000E+00  0.00000000E+00
  0.00000000E+00  0.00000000E+00  0.00000000E+00
  0.00000000E+00  0.00000000E+00  0.00000000E+00
  0.00000000E+00  0.00000000E+00  0.00000000E+00
  0.00000000E+00  0.00000000E+00  0.00000000E+00
  0.00000000E+00  0.00000000E+00  0.00000000E+00
  0.00000000E+00  0.00000000E+00  0.00000000E+00
  0.00000000E+00  0.00000000E+00  0.00000000E+00
  0.00000000E+00  0.00000000E+00  0.00000000E+00
  0.00000000E+00  0.00000000E+00  0.00000000E+00
  0.00000000E+00  0.00000000E+00  0.00000000E+00
  0.00000000E+00  0.00000000E+00  0.00000000E+00
  0.00000000E+00  0.00000000E+00  0.00000000E+00
  0.00000000E+00  0.00000000E+00  0.00000000E+00
  0.00000000E+00  0.00000000E+00  0.00000000E+00
  0.00000000E+00  0.00000000E+00  0.00000000E+00
  0.00000000E+00  0.00000000E+00  0.00000000E+00
  0.00000000E+00  0.00000000E+00  0.00000000E+00
  0.00000000E+00  0.00000000E+00  0.00000000E+00
  0.00000000E+00  0.00000000E+00  0.00000000E+00
  0.00000000E+00  0.00000000E+00  0.00000000E+00
  0.00000000E+00  0.00000000E+00  0.00000000E+00
  0.00000000E+00  0.00000000E+00  0.00000000E+00
  0.00000000E+00  0.00000000E+00  0.00000000E+00
