       N       E                     dE             d eps       ncg     rms          ort
DAV:   1     0.718760231196E+01    0.71876E+01   -0.43497E+03   256   0.363E+01
DAV:   2    -0.195270126502E+01   -0.91403E+01   -0.91012E+01   256   0.171E+00
DAV:   3    -0.198093880296E+01   -0.28238E-01   -0.28237E-01   256   0.143E-01
DAV:   4    -0.198109893471E+01   -0.16013E-03   -0.16013E-03   256   0.124E-02
DAV:   5    -0.198109897483E+01   -0.40120E-07   -0.40194E-07   256   0.171E-04
SDA:   6    -0.165482249153E+01    0.32628E+00   -0.40194E-07   256   0.792E+00 0.000E+00
CGA:   7    -0.183109142974E+01   -0.17627E+00   -0.17598E+00   256   0.365E+00 0.182E-02
CGA:   8    -0.189625556406E+01   -0.65164E-01   -0.65227E-01   256   0.147E+00-0.519E-03
CGA:   9    -0.192301687900E+01   -0.26761E-01   -0.26777E-01   256   0.702E-01 0.110E-03
CGA:  10    -0.193647001446E+01   -0.13453E-01   -0.13455E-01   256   0.203E-01 0.946E-04
CGA:  11    -0.194054294354E+01   -0.40729E-02   -0.40730E-02   256   0.562E-02-0.376E-04
CGA:  12    -0.194170131373E+01   -0.11584E-02   -0.11594E-02   256   0.188E-02-0.199E-03
CGA:  13    -0.194207165956E+01   -0.37035E-03   -0.10630E-02   256   0.738E-02-0.285E-02
CGA:  14    -0.194638490277E+01   -0.43132E-02    0.23972E-02   256   0.455E-02-0.384E-02
CGA:  15    -0.196195077619E+01   -0.15566E-01    0.72845E-04   256   0.470E-02-0.227E-02
CGA:  16    -0.204614788112E+01   -0.84197E-01    0.31834E-05   256   0.148E-01 0.477E-02
CGA:  17    -0.211012740501E+01   -0.63980E-01    0.18150E-03   256   0.117E-01 0.601E-02
CGA:  18    -0.206513847774E+01    0.44989E-01   -0.25144E-01   256   0.128E+00-0.493E-01
CGA:  19    -0.210195442504E+01   -0.36816E-01   -0.36824E-01   256   0.456E-01 0.573E-05
CGA:  20    -0.211727762186E+01   -0.15323E-01   -0.15322E-01   256   0.497E-02-0.668E-04
CGA:  21    -0.211913802873E+01   -0.18604E-02   -0.18573E-02   256   0.166E-02-0.227E-03
CGA:  22    -0.212002330874E+01   -0.88528E-03   -0.10937E-02   256   0.333E-02-0.759E-03
CGA:  23    -0.212371237979E+01   -0.36891E-02    0.23990E-03   256   0.740E-02 0.174E-02
CGA:  24    -0.213536470123E+01   -0.11652E-01    0.15826E-02   256   0.144E-01 0.577E-02
CGA:  25    -0.216343861085E+01   -0.28074E-01    0.20756E-02   256   0.304E-01 0.178E-01
CGA:  26    -0.221976004460E+01   -0.56321E-01    0.47451E-02   256   0.417E-01 0.305E-01
CGA:  27    -0.226621008531E+01   -0.46450E-01    0.22277E-01   256   0.245E-01 0.246E-01
CGA:  28    -0.228594100828E+01   -0.19731E-01   -0.23239E-01   256   0.365E-01-0.304E-02
CGA:  29    -0.229526399500E+01   -0.93230E-02   -0.96999E-02   256   0.133E-01 0.197E-01
CGA:  30    -0.229983590073E+01   -0.45719E-02   -0.50245E-02   256   0.598E-02 0.776E-02
CGA:  31    -0.230271634905E+01   -0.28804E-02   -0.27296E-02   256   0.487E-02 0.445E-02
CGA:  32    -0.230526003039E+01   -0.25437E-02   -0.23716E-02   256   0.560E-02 0.228E-02
CGA:  33    -0.231802313305E+01   -0.12763E-01   -0.88154E-02   256   0.611E-02 0.476E-02
CGA:  34    -0.232080301984E+01   -0.27799E-02   -0.27799E-02   256   0.937E-02 0.452E-05
CGA:  35    -0.234320518628E+01   -0.22402E-01   -0.15739E-06   256   0.252E-01-0.364E-02
CGA:  36    -0.234689630838E+01   -0.36911E-02   -0.37617E-02   256   0.140E-01-0.181E-03
CGA:  37    -0.235131827877E+01   -0.44220E-02   -0.44897E-02   256   0.106E-01 0.147E-02
CGA:  38    -0.235393236417E+01   -0.26141E-02   -0.34343E-02   256   0.822E-02 0.103E-01
CGA:  39    -0.235632638883E+01   -0.23940E-02   -0.35206E-02   256   0.367E-02 0.220E-02
CGA:  40    -0.235849737540E+01   -0.21710E-02   -0.26978E-02   256   0.145E-02 0.178E-02
CGA:  41    -0.235954154900E+01   -0.10442E-02   -0.11494E-02   256   0.852E-03 0.162E-03
CGA:  42    -0.236018422720E+01   -0.64268E-03   -0.64175E-03   256   0.508E-03-0.119E-04
CGA:  43    -0.236036624479E+01   -0.18202E-03   -0.18138E-03   256   0.735E-04-0.222E-05
CGA:  44    -0.236040383325E+01   -0.37588E-04   -0.37672E-04   256   0.238E-04 0.366E-06
CGA:  45    -0.236042087702E+01   -0.17044E-04   -0.17048E-04   256   0.888E-05-0.262E-06
CGA:  46    -0.236042460584E+01   -0.37288E-05   -0.37360E-05   256   0.286E-05 0.243E-07
   1 F= -.23604246E+01 E0= -.23604246E+01  d E =-.368753E-20  mag=     2.0000
