       N       E                     dE             d eps       ncg     rms          ort
DAV:   1     0.494752439424E+02    0.49475E+02   -0.43888E+03   256   0.373E+01
DAV:   2    -0.118349242270E+00   -0.49594E+02   -0.49594E+02   256   0.837E+00
DAV:   3    -0.167738046146E+00   -0.49389E-01   -0.49389E-01   256   0.320E-01
DAV:   4    -0.167810086540E+00   -0.72040E-04   -0.72040E-04   256   0.140E-02
DAV:   5    -0.167810090436E+00   -0.38963E-08   -0.38926E-08   256   0.101E-04
SDA:   6    -0.167785535435E+00    0.24555E-04   -0.38926E-08   256   0.400E-03 0.000E+00
CGA:   7    -0.167846428780E+00   -0.60893E-04   -0.61688E-04   256   0.158E-04 0.174E-04
CGA:   8    -0.167851095880E+00   -0.46671E-05   -0.44691E-05   256   0.453E-05 0.271E-05
   1 F= -.16785110E+00 E0= -.16785110E+00  d E =-.119008E-11
