       N       E                     dE             d eps       ncg     rms          ort
DAV:   1     0.955709360075E+03    0.95571E+03   -0.84283E+04  3328   0.647E+02
DAV:   2    -0.369102440086E+03   -0.13248E+04   -0.13245E+04  3328   0.930E+01
DAV:   3    -0.442212230710E+03   -0.73110E+02   -0.73104E+02  3328   0.347E+01
DAV:   4    -0.443084173372E+03   -0.87194E+00   -0.87184E+00  3328   0.429E+00
DAV:   5    -0.443084293099E+03   -0.11973E-03   -0.11973E-03  3328   0.614E-02
SDA:   6    -0.443084293099E+03    0.00000E+00   -0.11973E-03  3328   0.208E-05 0.000E+00
   1 F= -.44479212E+03 E0= -.44478951E+03  d E =-.522138E-02  mag=    -0.0000
