       N       E                     dE             d eps       ncg     rms          ort
DAV:   1     0.979727745256E+03    0.97973E+03   -0.85024E+04  3328   0.653E+02
DAV:   2    -0.363517742277E+03   -0.13432E+04   -0.13430E+04  3328   0.942E+01
DAV:   3    -0.439262495254E+03   -0.75745E+02   -0.75741E+02  3328   0.358E+01
DAV:   4    -0.440103260089E+03   -0.84076E+00   -0.84057E+00  3328   0.424E+00
DAV:   5    -0.440103402692E+03   -0.14260E-03   -0.14260E-03  3328   0.672E-02
SDA:   6    -0.440103402692E+03    0.00000E+00   -0.14260E-03  3328   0.220E-05 0.000E+00
   1 F= -.44183901E+03 E0= -.44183237E+03  d E =-.132745E-01  mag=    -0.0000
