C  N  Ca                                
   1.00000000000000     
    12.3000000000000007    0.0000000000000000    0.0000000000000000
    -6.1499999999999977   10.6521124665485960    0.0000000000000000
     0.0000000000000000    0.0000000000000000   20.0000000000000000
   C    N    Ca
    44     4     1
Direct
  0.9994177528089594  0.0005822141959229  0.7403212532921870
  0.1320775211199390  0.0653528491804778  0.7408174599248838
  0.1986904473803150  0.9987365149776863  0.7407928731360940
  0.3313321796547157  0.0645287018982259  0.7451051667551596
  0.3987673739743158  0.9981648430559034  0.7457908144584025
  0.5318742861022088  0.0663758258085636  0.7485279269560081
  0.5994339146736110  0.0004100043607380  0.7472269415741621
  0.7326502185244266  0.0688567269885709  0.7474245399947961
  0.7997121372272957  0.0019233113313248  0.7447725900156357
  0.9326123749333846  0.0673876253001424  0.7429432279781096
  0.9980766285456326  0.2002878427235899  0.7447725889192540
  0.1314869746341074  0.2654514328253015  0.7458121809541751
  0.1978480969774168  0.1980077547959027  0.7451348499512989
  0.3296725566701824  0.2645458629421924  0.7526259850706367
  0.3978639913041917  0.1963573517754682  0.7526483588122304
  0.5938546281595833  0.2001732798962550  0.7550327577321951
  0.7295392553758049  0.2704606912759999  0.7548943960373080
  0.7971003990382215  0.2028995369276316  0.7498646821526691
  0.9311432323649669  0.2673497675026013  0.7474245397175920
  0.9995899805145925  0.4005660676827603  0.7472269407162031
  0.1337749708844385  0.4661395001317885  0.7472210184772763
  0.1997252661459257  0.3985585533669251  0.7485144584039105
  0.3335268162460281  0.4605250707523396  0.7550501321114709
  0.7998267011685840  0.4061453084010154  0.7550327587274381
  0.9336241690255349  0.4681256750236571  0.7485279270223870
  0.0018351568882480  0.6012325976700552  0.7457908072361477
  0.1352482335786078  0.6663766710839170  0.7447239525187115
  0.2022000559337442  0.5993309208950635  0.7473664473388482
  0.3362290770589667  0.6637709325224463  0.7498582845448638
  0.4037870158066070  0.5962130036867848  0.7549693795377195
  0.5394749416674784  0.6664731554196166  0.7550501310290443
  0.7354541277641360  0.6703273666544760  0.7526259730916465
  0.8036426317830632  0.6021359521063303  0.7526483497069449
  0.9354712839908714  0.6686677594917967  0.7451051607315051
  0.0012634712886879  0.8013095094085756  0.7407928719379342
  0.1339340837190619  0.8660658979330407  0.7402977781936428
  0.2007315231613163  0.7992684902272416  0.7429354273419904
  0.3336233190010560  0.8647517676686647  0.7447239585782697
  0.4006691021842457  0.7977999674616143  0.7473664498190615
  0.5338605067492495  0.8662250167849166  0.7472210196598823
  0.6014414675615001  0.8002747201667191  0.7485144583767323
  0.7345485838527424  0.8685129722510325  0.7458121816501162
  0.8019922490590616  0.8021518436187023  0.7451348463776384
  0.9346471613087033  0.8679224501336549  0.7408174614662855
  0.5253395074780869  0.2590243302348725  0.7615079966523908
  0.3923552545923101  0.3920142986839892  0.7615004278486950
  0.7409756529294285  0.4746604242556103  0.7615079904003252
  0.6079856912000494  0.6076446915892717  0.7615004165181389
  0.5666590279883721  0.4333409469306631  0.8197248605519931
 
  0.00000000E+00  0.00000000E+00  0.00000000E+00
  0.00000000E+00  0.00000000E+00  0.00000000E+00
  0.00000000E+00  0.00000000E+00  0.00000000E+00
  0.00000000E+00  0.00000000E+00  0.00000000E+00
  0.00000000E+00  0.00000000E+00  0.00000000E+00
  0.00000000E+00  0.00000000E+00  0.00000000E+00
  0.00000000E+00  0.00000000E+00  0.00000000E+00
  0.00000000E+00  0.00000000E+00  0.00000000E+00
  0.00000000E+00  0.00000000E+00  0.00000000E+00
  0.00000000E+00  0.00000000E+00  0.00000000E+00
  0.00000000E+00  0.00000000E+00  0.00000000E+00
  0.00000000E+00  0.00000000E+00  0.00000000E+00
  0.00000000E+00  0.00000000E+00  0.00000000E+00
  0.00000000E+00  0.00000000E+00  0.00000000E+00
  0.00000000E+00  0.00000000E+00  0.00000000E+00
  0.00000000E+00  0.00000000E+00  0.00000000E+00
  0.00000000E+00  0.00000000E+00  0.00000000E+00
  0.00000000E+00  0.00000000E+00  0.00000000E+00
  0.00000000E+00  0.00000000E+00  0.00000000E+00
  0.00000000E+00  0.00000000E+00  0.00000000E+00
  0.00000000E+00  0.00000000E+00  0.00000000E+00
  0.00000000E+00  0.00000000E+00  0.00000000E+00
  0.00000000E+00  0.00000000E+00  0.00000000E+00
  0.00000000E+00  0.00000000E+00  0.00000000E+00
  0.00000000E+00  0.00000000E+00  0.00000000E+00
  0.00000000E+00  0.00000000E+00  0.00000000E+00
  0.00000000E+00  0.00000000E+00  0.00000000E+00
  0.00000000E+00  0.00000000E+00  0.00000000E+00
  0.00000000E+00  0.00000000E+00  0.00000000E+00
  0.00000000E+00  0.00000000E+00  0.00000000E+00
  0.00000000E+00  0.00000000E+00  0.00000000E+00
  0.00000000E+00  0.00000000E+00  0.00000000E+00
  0.00000000E+00  0.00000000E+00  0.00000000E+00
  0.00000000E+00  0.00000000E+00  0.00000000E+00
  0.00000000E+00  0.00000000E+00  0.00000000E+00
  0.00000000E+00  0.00000000E+00  0.00000000E+00
  0.00000000E+00  0.00000000E+00  0.00000000E+00
  0.00000000E+00  0.00000000E+00  0.00000000E+00
  0.00000000E+00  0.00000000E+00  0.00000000E+00
  0.00000000E+00  0.00000000E+00  0.00000000E+00
  0.00000000E+00  0.00000000E+00  0.00000000E+00
  0.00000000E+00  0.00000000E+00  0.00000000E+00
  0.00000000E+00  0.00000000E+00  0.00000000E+00
  0.00000000E+00  0.00000000E+00  0.00000000E+00
  0.00000000E+00  0.00000000E+00  0.00000000E+00
  0.00000000E+00  0.00000000E+00  0.00000000E+00
  0.00000000E+00  0.00000000E+00  0.00000000E+00
  0.00000000E+00  0.00000000E+00  0.00000000E+00
  0.00000000E+00  0.00000000E+00  0.00000000E+00
