       N       E                     dE             d eps       ncg     rms          ort
DAV:   1     0.993488253063E+03    0.99349E+03   -0.87726E+04  3328   0.670E+02
DAV:   2    -0.363463477183E+03   -0.13570E+04   -0.13565E+04  3328   0.977E+01
DAV:   3    -0.440352060741E+03   -0.76889E+02   -0.76888E+02  3328   0.363E+01
DAV:   4    -0.441249098252E+03   -0.89704E+00   -0.89697E+00  3328   0.412E+00
DAV:   5    -0.441249422649E+03   -0.32440E-03   -0.32440E-03  3328   0.749E-02
SDA:   6    -0.441249422649E+03    0.00000E+00   -0.32440E-03  3328   0.127E-04 0.000E+00
   1 F= -.44295957E+03 E0= -.44295832E+03  d E =-.249678E-02  mag=     0.0000
