C  N  Sr                                
   1.00000000000000     
    12.3000000000000007    0.0000000000000000    0.0000000000000000
    -6.1499999999999977   10.6521124665485960    0.0000000000000000
     0.0000000000000000    0.0000000000000000   20.0000000000000000
   C    N    Sr
    44     4     1
Direct
  0.9994295882566107  0.0005704121891483  0.7408358827338049
  0.1320844428609220  0.0653540354100528  0.7417708972885961
  0.1986844159207521  0.9987582624398357  0.7417457002801697
  0.3313426948432650  0.0645589448958219  0.7458191342065490
  0.3987384736860875  0.9981465816511417  0.7455304069246509
  0.5318665437991541  0.0662980601623104  0.7476415937078897
  0.5994248658378680  0.0003942620401531  0.7458685480316589
  0.7326326178766465  0.0688812294637202  0.7459666755353993
  0.7997281232994737  0.0019639632457213  0.7439392728475340
  0.9326060358089592  0.0673939648241131  0.7425467152900538
  0.9980360372301078  0.2002718771076957  0.7439392731096248
  0.1314369303705050  0.2654015543184940  0.7455428445360894
  0.1978668840077873  0.1980050831195115  0.7458656039069140
  0.3297399508622760  0.2647257847371236  0.7536378478208761
  0.3980348485209220  0.1964384828577792  0.7536410286184250
  0.5938223073253539  0.2000339496106136  0.7544738449935693
  0.7295698101866464  0.2704301900954604  0.7538722527481170
  0.7970525272838955  0.2029474723111093  0.7483756754383961
  0.9311187695158694  0.2673673812849060  0.7459666760677024
  0.9996057379160064  0.4005751346246953  0.7458685482964000
  0.1337692479649917  0.4661262996424753  0.7458759672578097
  0.1996440693305388  0.3985247005319081  0.7476382069267871
  0.3333808078236160  0.4604855004128012  0.7544748891506572
  0.7999660500760939  0.4061776922234372  0.7544738448169923
  0.9337019395608692  0.4681334558093155  0.7476415938276944
  0.0018534180970349  0.6012615261330225  0.7455304068496815
  0.1352742587541655  0.6663818130907231  0.7439305583090174
  0.2022219369669571  0.5993153875767732  0.7459830807228585
  0.3362755891817741  0.6637244093510404  0.7484236925836854
  0.4037691203772198  0.5962308780085124  0.7539040098219587
  0.5395144998654189  0.6666191931018091  0.7544748896808287
  0.7352742164437984  0.6702600503880234  0.7536378479842583
  0.8035615184895306  0.6019651513143600  0.7536410286134725
  0.9354410545371223  0.6686573044126121  0.7458191340584079
  0.0012417378195551  0.8013155842089006  0.7417457009924817
  0.1339218091858925  0.8660781913073663  0.7408481650072147
  0.2007308273767805  0.7992691732345278  0.7425552905128399
  0.3336181866007379  0.8647257403941069  0.7439305584816864
  0.4006846118685914  0.7977780622007273  0.7459830812575277
  0.5338737009516024  0.8662307520171453  0.7458759675984652
  0.6014752992743695  0.8003559316071502  0.7476382068622911
  0.7345984447034155  0.8685630679503760  0.7455428443858452
  0.8019949168892495  0.8021331161373269  0.7458656033811195
  0.9346459640740648  0.8679155575538005  0.7417708978278981
  0.5255301704278637  0.2587881863373838  0.7620350570065781
  0.3921388772550713  0.3922096761476581  0.7620341306729301
  0.7412118141751449  0.4744698300563215  0.7620350571646100
  0.6077903258834922  0.6078611244999124  0.7620341327366020
  0.5666669806359721  0.4333330179610613  0.8328057331253973
 
  0.00000000E+00  0.00000000E+00  0.00000000E+00
  0.00000000E+00  0.00000000E+00  0.00000000E+00
  0.00000000E+00  0.00000000E+00  0.00000000E+00
  0.00000000E+00  0.00000000E+00  0.00000000E+00
  0.00000000E+00  0.00000000E+00  0.00000000E+00
  0.00000000E+00  0.00000000E+00  0.00000000E+00
  0.00000000E+00  0.00000000E+00  0.00000000E+00
  0.00000000E+00  0.00000000E+00  0.00000000E+00
  0.00000000E+00  0.00000000E+00  0.00000000E+00
  0.00000000E+00  0.00000000E+00  0.00000000E+00
  0.00000000E+00  0.00000000E+00  0.00000000E+00
  0.00000000E+00  0.00000000E+00  0.00000000E+00
  0.00000000E+00  0.00000000E+00  0.00000000E+00
  0.00000000E+00  0.00000000E+00  0.00000000E+00
  0.00000000E+00  0.00000000E+00  0.00000000E+00
  0.00000000E+00  0.00000000E+00  0.00000000E+00
  0.00000000E+00  0.00000000E+00  0.00000000E+00
  0.00000000E+00  0.00000000E+00  0.00000000E+00
  0.00000000E+00  0.00000000E+00  0.00000000E+00
  0.00000000E+00  0.00000000E+00  0.00000000E+00
  0.00000000E+00  0.00000000E+00  0.00000000E+00
  0.00000000E+00  0.00000000E+00  0.00000000E+00
  0.00000000E+00  0.00000000E+00  0.00000000E+00
  0.00000000E+00  0.00000000E+00  0.00000000E+00
  0.00000000E+00  0.00000000E+00  0.00000000E+00
  0.00000000E+00  0.00000000E+00  0.00000000E+00
  0.00000000E+00  0.00000000E+00  0.00000000E+00
  0.00000000E+00  0.00000000E+00  0.00000000E+00
  0.00000000E+00  0.00000000E+00  0.00000000E+00
  0.00000000E+00  0.00000000E+00  0.00000000E+00
  0.00000000E+00  0.00000000E+00  0.00000000E+00
  0.00000000E+00  0.00000000E+00  0.00000000E+00
  0.00000000E+00  0.00000000E+00  0.00000000E+00
  0.00000000E+00  0.00000000E+00  0.00000000E+00
  0.00000000E+00  0.00000000E+00  0.00000000E+00
  0.00000000E+00  0.00000000E+00  0.00000000E+00
  0.00000000E+00  0.00000000E+00  0.00000000E+00
  0.00000000E+00  0.00000000E+00  0.00000000E+00
  0.00000000E+00  0.00000000E+00  0.00000000E+00
  0.00000000E+00  0.00000000E+00  0.00000000E+00
  0.00000000E+00  0.00000000E+00  0.00000000E+00
  0.00000000E+00  0.00000000E+00  0.00000000E+00
  0.00000000E+00  0.00000000E+00  0.00000000E+00
  0.00000000E+00  0.00000000E+00  0.00000000E+00
  0.00000000E+00  0.00000000E+00  0.00000000E+00
  0.00000000E+00  0.00000000E+00  0.00000000E+00
  0.00000000E+00  0.00000000E+00  0.00000000E+00
  0.00000000E+00  0.00000000E+00  0.00000000E+00
  0.00000000E+00  0.00000000E+00  0.00000000E+00
