       N       E                     dE             d eps       ncg     rms          ort
SDA:   1    -0.334254519700E+03   -0.33425E+03    0.00000E+00  3328   0.127E+03 0.000E+00
CGA:   2    -0.407353815473E+03   -0.73099E+02   -0.90509E+02  3328   0.921E+02-0.297E+02
CGA:   3    -0.424602264223E+03   -0.17248E+02   -0.17198E+02  3328   0.331E+02 0.141E+01
CGA:   4    -0.434373293372E+03   -0.97710E+01   -0.97376E+01  3328   0.168E+02 0.308E+00
CGA:   5    -0.437718875155E+03   -0.33456E+01   -0.33559E+01  3328   0.820E+01 0.986E-01
CGA:   6    -0.439444715902E+03   -0.17258E+01   -0.17237E+01  3328   0.293E+01-0.531E-01
CGA:   7    -0.440156051368E+03   -0.71134E+00   -0.71052E+00  3328   0.121E+01 0.269E-01
CGA:   8    -0.440441833705E+03   -0.28578E+00   -0.28577E+00  3328   0.460E+00 0.189E-02
CGA:   9    -0.440565013188E+03   -0.12318E+00   -0.12321E+00  3328   0.185E+00-0.244E-03
CGA:  10    -0.440617867192E+03   -0.52854E-01   -0.52860E-01  3328   0.803E-01-0.460E-04
CGA:  11    -0.440642186151E+03   -0.24319E-01   -0.24324E-01  3328   0.328E-01-0.668E-04
CGA:  12    -0.440652145070E+03   -0.99589E-02   -0.99632E-02  3328   0.120E-01-0.595E-04
CGA:  13    -0.440655752236E+03   -0.36072E-02   -0.36091E-02  3328   0.405E-02-0.271E-04
CGA:  14    -0.440657021784E+03   -0.12695E-02   -0.12703E-02  3328   0.145E-02-0.962E-05
CGA:  15    -0.440657512254E+03   -0.49047E-03   -0.49096E-03  3328   0.587E-03-0.514E-05
CGA:  16    -0.440657725061E+03   -0.21281E-03   -0.21319E-03  3328   0.252E-03-0.337E-05
CGA:  17    -0.440657816797E+03   -0.91736E-04   -0.91919E-04  3328   0.989E-04-0.164E-05
CGA:  18    -0.440657851639E+03   -0.34842E-04   -0.34906E-04  3328   0.344E-04-0.666E-06
CGA:  19    -0.440657863862E+03   -0.12222E-04   -0.12249E-04  3328   0.121E-04-0.289E-06
CGA:  20    -0.440657868403E+03   -0.45414E-05   -0.45474E-05  3328   0.480E-05-0.543E-07
   1 F= -.44238663E+03 E0= -.44238183E+03  d E =-.961116E-02  mag=    -0.0000
