 vasp.5.4.4.18Apr17-6-g9f103f2a35 (build Nov 21 2023 15:34:30) complex          
  
 executed on             LinuxIFC date 2026.09.23  20:20:22
 running on  256 total cores
 distrk:  each k-point on  256 cores,    1 groups
 distr:  one band on NCORES_PER_BAND=   1 cores,  256 groups


--------------------------------------------------------------------------------------------------------


 INCAR:
 POTCAR:   PAW_PBE C 08Apr2002                    
 POTCAR:   PAW_PBE N 08Apr2002                    
 POTCAR:   PAW_PBE Sr_sv 07Sep2000                

 ----------------------------------------------------------------------------- 
|                                                                             |
|           W    W    AA    RRRRR   N    N  II  N    N   GGGG   !!!           |
|           W    W   A  A   R    R  NN   N  II  NN   N  G    G  !!!           |
|           W    W  A    A  R    R  N N  N  II  N N  N  G       !!!           |
|           W WW W  AAAAAA  RRRRR   N  N N  II  N  N N  G  GGG   !            |
|           WW  WW  A    A  R   R   N   NN  II  N   NN  G    G                |
|           W    W  A    A  R    R  N    N  II  N    N   GGGG   !!!           |
|                                                                             |
|      For optimal performance we recommend to set                            |
|        NCORE= 4 - approx SQRT( number of cores)                             |
|      NCORE specifies how many cores store one orbital (NPAR=cpu/NCORE).     |
|      This setting can  greatly improve the performance of VASP for DFT.     |
|      The default,   NCORE=1            might be grossly inefficient         |
|      on modern multi-core architectures or massively parallel machines.     |
|      Do your own testing !!!!                                               |
|      Unfortunately you need to use the default for GW and RPA calculations. |
|      (for HF NCORE is supported but not extensively tested yet)             |
|                                                                             |
 ----------------------------------------------------------------------------- 

 POTCAR:   PAW_PBE C 08Apr2002                    
   VRHFIN =C: s2p2                                                              
   LEXCH  = PE                                                                  
   EATOM  =   147.1560 eV,   10.8157 Ry                                         
                                                                                
   TITEL  = PAW_PBE C 08Apr2002                                                 
   LULTRA =        F    use ultrasoft PP ?                                      
   IUNSCR =        0    unscreen: 0-lin 1-nonlin 2-no                           
   RPACOR =     .000    partial core radius                                     
   POMASS =   12.011; ZVAL   =    4.000    mass and valenz                      
   RCORE  =    1.500    outmost cutoff radius                                   
   RWIGS  =    1.630; RWIGS  =     .863    wigner-seitz radius (au A)           
   ENMAX  =  400.000; ENMIN  =  300.000 eV                                      
   ICORE  =        2    local potential                                         
   LCOR   =        T    correct aug charges                                     
   LPAW   =        T    paw PP                                                  
   EAUG   =  644.873                                                            
   DEXC   =     .000                                                            
   RMAX   =    2.266    core radius for proj-oper                               
   RAUG   =    1.300    factor for augmentation sphere                          
   RDEP   =    1.501    radius for radial grids                                 
   RDEPT  =    1.300    core radius for aug-charge                              
   QCUT   =   -5.516; QGAM   =   11.032    optimization parameters              
                                                                                
   Description                                                                  
     l     E      TYP  RCUT    TYP  RCUT                                        
     0   .000     23  1.200                                                     
     0   .000     23  1.200                                                     
     1   .000     23  1.500                                                     
     1  2.500     23  1.500                                                     
     2   .000      7  1.500                                                     
  local pseudopotential read in
  atomic valenz-charges read in
  non local Contribution for L=           0  read in
    real space projection operators read in
  non local Contribution for L=           0  read in
    real space projection operators read in
  non local Contribution for L=           1  read in
    real space projection operators read in
  non local Contribution for L=           1  read in
    real space projection operators read in
    PAW grid and wavefunctions read in
 
   number of l-projection  operators is LMAX  =           4
   number of lm-projection operators is LMMAX =           8
 
 POTCAR:   PAW_PBE N 08Apr2002                    
   VRHFIN =N: s2p3                                                              
   LEXCH  = PE                                                                  
   EATOM  =   264.5486 eV,   19.4438 Ry                                         
                                                                                
   TITEL  = PAW_PBE N 08Apr2002                                                 
   LULTRA =        F    use ultrasoft PP ?                                      
   IUNSCR =        0    unscreen: 0-lin 1-nonlin 2-no                           
   RPACOR =     .000    partial core radius                                     
   POMASS =   14.001; ZVAL   =    5.000    mass and valenz                      
   RCORE  =    1.500    outmost cutoff radius                                   
   RWIGS  =    1.400; RWIGS  =     .741    wigner-seitz radius (au A)           
   ENMAX  =  400.000; ENMIN  =  300.000 eV                                      
   ICORE  =        2    local potential                                         
   LCOR   =        T    correct aug charges                                     
   LPAW   =        T    paw PP                                                  
   EAUG   =  627.112                                                            
   DEXC   =     .000                                                            
   RMAX   =    2.247    core radius for proj-oper                               
   RAUG   =    1.300    factor for augmentation sphere                          
   RDEP   =    1.514    radius for radial grids                                 
   QCUT   =   -5.562; QGAM   =   11.124    optimization parameters              
                                                                                
   Description                                                                  
     l     E      TYP  RCUT    TYP  RCUT                                        
     0   .000     23  1.200                                                     
     0   .000     23  1.200                                                     
     1   .000     23  1.500                                                     
     1   .700     23  1.500                                                     
     2   .000      7  1.500                                                     
  local pseudopotential read in
  atomic valenz-charges read in
  non local Contribution for L=           0  read in
    real space projection operators read in
  non local Contribution for L=           0  read in
    real space projection operators read in
  non local Contribution for L=           1  read in
    real space projection operators read in
  non local Contribution for L=           1  read in
    real space projection operators read in
    PAW grid and wavefunctions read in
 
   number of l-projection  operators is LMAX  =           4
   number of lm-projection operators is LMMAX =           8
 
 POTCAR:   PAW_PBE Sr_sv 07Sep2000                
   VRHFIN =Sr: 4s4p5s                                                           
   LEXCH  = PE                                                                  
   EATOM  =   842.4562 eV,   61.9188 Ry                                         
                                                                                
   TITEL  = PAW_PBE Sr_sv 07Sep2000                                             
   LULTRA =        F    use ultrasoft PP ?                                      
   IUNSCR =        1    unscreen: 0-lin 1-nonlin 2-no                           
   RPACOR =    2.200    partial core radius                                     
   POMASS =   87.620; ZVAL   =   10.000    mass and valenz                      
   RCORE  =    2.500    outmost cutoff radius                                   
   RWIGS  =    4.040; RWIGS  =    2.138    wigner-seitz radius (au A)           
   ENMAX  =  229.282; ENMIN  =  171.961 eV                                      
   RCLOC  =    2.201    cutoff for local pot                                    
   LCOR   =        T    correct aug charges                                     
   LPAW   =        T    paw PP                                                  
   EAUG   =  366.804                                                            
   DEXC   =     .000                                                            
   RMAX   =    3.045    core radius for proj-oper                               
   RAUG   =    1.300    factor for augmentation sphere                          
   RDEP   =    2.562    radius for radial grids                                 
   QCUT   =   -4.105; QGAM   =    8.210    optimization parameters              
                                                                                
   Description                                                                  
     l     E      TYP  RCUT    TYP  RCUT                                        
     0   .000     23  2.480                                                     
     0   .000     23  2.480                                                     
     1   .000     23  2.500                                                     
     1   .000     23  2.500                                                     
     2   .000     23  2.500                                                     
     2   .000     23  2.500                                                     
  local pseudopotential read in
  partial core-charges read in
  atomic valenz-charges read in
  non local Contribution for L=           0  read in
    real space projection operators read in
  non local Contribution for L=           0  read in
    real space projection operators read in
  non local Contribution for L=           1  read in
    real space projection operators read in
  non local Contribution for L=           1  read in
    real space projection operators read in
  non local Contribution for L=           2  read in
    real space projection operators read in
  non local Contribution for L=           2  read in
    real space projection operators read in
    PAW grid and wavefunctions read in
 
   number of l-projection  operators is LMAX  =           6
   number of lm-projection operators is LMMAX =          18
 

 ----------------------------------------------------------------------------- 
|                                                                             |
|  ADVICE TO THIS USER RUNNING 'VASP/VAMP'   (HEAR YOUR MASTER'S VOICE ...):  |
|                                                                             |
|      You have a (more or less) 'large supercell' and for larger cells       |
|      it might be more efficient to use real space projection operators      |
|      So try LREAL= Auto  in the INCAR   file.                               |
|      Mind: If you want to do a very accurate calculations keep the          |
|      reciprocal projection scheme          (i.e. LREAL=.FALSE.)             |
|                                                                             |
 ----------------------------------------------------------------------------- 

 PAW_PBE C 08Apr2002                    :
 energy of atom  1       EATOM= -147.1560
 kinetic energy error for atom=    0.0071 (will be added to EATOM!!)
 PAW_PBE N 08Apr2002                    :
 energy of atom  2       EATOM= -264.5486
 kinetic energy error for atom=    0.0125 (will be added to EATOM!!)
 PAW_PBE Sr_sv 07Sep2000                :
 energy of atom  3       EATOM= -842.4562
 kinetic energy error for atom=    0.0010 (will be added to EATOM!!)
 
 
 POSCAR: C  N  Sr                                
  positions in direct lattice
  velocities in cartesian coordinates
 exchange correlation table for  LEXCH =        8
   RHO(1)=    0.500       N(1)  =     2000
   RHO(2)=  100.500       N(2)  =     4000

 VTST: version 3.2, (02/03/18)

 CHAIN: initializing optimizer
 
 OPT: Using VASP Dynamics algorithm
 CHAIN: Read ICHAIN            0
 
 POSCAR: C  N  Sr                                
  positions in direct lattice
  velocities in cartesian coordinates
 


--------------------------------------------------------------------------------------------------------


 ion  position               nearest neighbor table
   1  0.999  0.001  0.741-   2 1.41  44 1.41  10 1.42
   2  0.132  0.065  0.742-   1 1.41  13 1.42   3 1.42
   3  0.199  0.999  0.742-  36 1.41   4 1.42   2 1.42
   4  0.331  0.065  0.746-  15 1.41   3 1.42   5 1.43
   5  0.399  0.998  0.746-   6 1.42  38 1.42   4 1.43
   6  0.532  0.066  0.748-   5 1.42   7 1.42  16 1.43
   7  0.599  0.000  0.746-   8 1.42   6 1.42  40 1.43
   8  0.733  0.069  0.746-   7 1.42   9 1.43  18 1.43
   9  0.800  0.002  0.744-  10 1.42  42 1.42   8 1.43
  10  0.933  0.067  0.743-  11 1.42   9 1.42   1 1.42
  11  0.998  0.200  0.744-  10 1.42  12 1.42  19 1.43
  12  0.131  0.265  0.746-  22 1.42  11 1.42  13 1.43
  13  0.198  0.198  0.746-  14 1.41   2 1.42  12 1.43
  14  0.330  0.265  0.754-  46 1.37  13 1.41  15 1.45  49 3.04
  15  0.398  0.196  0.754-  45 1.37   4 1.41  14 1.45  49 3.04
  16  0.594  0.200  0.754-  45 1.36   6 1.43  17 1.45  49 3.43
  17  0.730  0.270  0.754-  18 1.44  24 1.45  16 1.45
  18  0.797  0.203  0.748-  19 1.43   8 1.43  17 1.44
  19  0.931  0.267  0.746-  20 1.42  11 1.43  18 1.43
  20  1.000  0.401  0.746-  19 1.42  25 1.42  21 1.43
  21  0.134  0.466  0.746-  28 1.42  22 1.42  20 1.43
  22  0.200  0.399  0.748-  12 1.42  21 1.42  23 1.43
  23  0.333  0.460  0.754-  46 1.36  22 1.43  30 1.45  49 3.43
  24  0.800  0.406  0.754-  47 1.36  25 1.43  17 1.45  49 3.43
  25  0.934  0.468  0.748-  26 1.42  20 1.42  24 1.43
  26  0.002  0.601  0.746-  25 1.42  27 1.42  34 1.43
  27  0.135  0.666  0.744-  37 1.42  26 1.42  28 1.43
  28  0.202  0.599  0.746-  21 1.42  27 1.43  29 1.43
  29  0.336  0.664  0.748-  28 1.43  39 1.43  30 1.44
  30  0.404  0.596  0.754-  29 1.44  23 1.45  31 1.45
  31  0.540  0.667  0.754-  48 1.36  41 1.43  30 1.45  49 3.43
  32  0.735  0.670  0.754-  48 1.37  43 1.41  33 1.45  49 3.04
  33  0.804  0.602  0.754-  47 1.37  34 1.41  32 1.45  49 3.04
  34  0.935  0.669  0.746-  33 1.41  35 1.42  26 1.43
  35  0.001  0.801  0.742-  36 1.41  34 1.42  44 1.42
  36  0.134  0.866  0.741-   3 1.41  35 1.41  37 1.42
  37  0.201  0.799  0.743-  38 1.42  27 1.42  36 1.42
  38  0.334  0.865  0.744-  37 1.42   5 1.42  39 1.43
  39  0.401  0.798  0.746-  40 1.42  38 1.43  29 1.43
  40  0.534  0.866  0.746-  39 1.42  41 1.42   7 1.43
  41  0.601  0.800  0.748-  42 1.42  40 1.42  31 1.43
  42  0.735  0.869  0.746-  41 1.42   9 1.42  43 1.43
  43  0.802  0.802  0.746-  32 1.41  44 1.42  42 1.43
  44  0.935  0.868  0.742-   1 1.41  43 1.42  35 1.42
  45  0.526  0.259  0.762-  16 1.36  15 1.37  49 2.40
  46  0.392  0.392  0.762-  23 1.36  14 1.37  49 2.40
  47  0.741  0.474  0.762-  24 1.36  33 1.37  49 2.40
  48  0.608  0.608  0.762-  31 1.36  32 1.37  49 2.40
  49  0.567  0.433  0.833-  48 2.40  46 2.40  45 2.40  47 2.40  15 3.04  33 3.04  14 3.04  32 3.04
                            23 3.43  31 3.43  16 3.43  24 3.43
 

IMPORTANT INFORMATION: All symmetrisations will be switched off!
NOSYMM: (Re-)initialisation of all symmetry stuff for point group C_1.

 
 
 KPOINTS: K-POINTS                                

Automatic generation of k-mesh.
Space group operators:
 irot       det(A)        alpha          n_x          n_y          n_z        tau_x        tau_y        tau_z
    1     1.000000     0.000000     1.000000     0.000000     0.000000     0.000000     0.000000     0.000000
 
 Subroutine IBZKPT returns following result:
 ===========================================
 
 Found     13 irreducible k-points:
 
 Following reciprocal coordinates:
            Coordinates               Weight
  0.000000  0.000000  0.000000      1.000000
  0.200000  0.000000  0.000000      2.000000
  0.400000  0.000000  0.000000      2.000000
  0.000000  0.200000  0.000000      2.000000
  0.200000  0.200000  0.000000      2.000000
  0.400000  0.200000  0.000000      2.000000
 -0.400000  0.200000  0.000000      2.000000
 -0.200000  0.200000  0.000000      2.000000
  0.000000  0.400000  0.000000      2.000000
  0.200000  0.400000  0.000000      2.000000
  0.400000  0.400000  0.000000      2.000000
 -0.400000  0.400000  0.000000      2.000000
 -0.200000  0.400000  0.000000      2.000000
 
 Following cartesian coordinates:
            Coordinates               Weight
  0.000000  0.000000  0.000000      1.000000
  0.016260  0.009388  0.000000      2.000000
  0.032520  0.018776  0.000000      2.000000
  0.000000  0.018776  0.000000      2.000000
  0.016260  0.028163  0.000000      2.000000
  0.032520  0.037551  0.000000      2.000000
 -0.032520  0.000000  0.000000      2.000000
 -0.016260  0.009388  0.000000      2.000000
  0.000000  0.037551  0.000000      2.000000
  0.016260  0.046939  0.000000      2.000000
  0.032520  0.056327  0.000000      2.000000
 -0.032520  0.018776  0.000000      2.000000
 -0.016260  0.028163  0.000000      2.000000
 


--------------------------------------------------------------------------------------------------------




 Dimension of arrays:
   k-points           NKPTS =     13   k-points in BZ     NKDIM =     13   number of bands    NBANDS=    256
   number of dos      NEDOS =    301   number of ions     NIONS =     49
   non local maximal  LDIM  =      6   non local SUM 2l+1 LMDIM =     18
   total plane-waves  NPLWV = ******
   max r-space proj   IRMAX =      1   max aug-charges    IRDMAX=  31130
   dimension x,y,z NGX =    96 NGY =   96 NGZ =  150
   dimension x,y,z NGXF=   192 NGYF=  192 NGZF=  300
   support grid    NGXF=   192 NGYF=  192 NGZF=  300
   ions per type =              44   4   1
   NGX,Y,Z   is equivalent  to a cutoff of  12.98, 12.98, 12.47 a.u.
   NGXF,Y,Z  is equivalent  to a cutoff of  25.95, 25.95, 24.94 a.u.

 SYSTEM =  Sr-N-C                                  
 POSCAR =  C  N  Sr                                

 Startparameter for this run:
   NWRITE =      2    write-flag & timer
   PREC   = accura    normal or accurate (medium, high low for compatibility)
   ISTART =      1    job   : 0-new  1-cont  2-samecut
   ICHARG =      1    charge: 1-file 2-atom 10-const
   ISPIN  =      2    spin polarized calculation?
   LNONCOLLINEAR =      F non collinear calculations
   LSORBIT =      F    spin-orbit coupling
   INIWAV =      1    electr: 0-lowe 1-rand  2-diag
   LASPH  =      T    aspherical Exc in radial PAW
   METAGGA=      F    non-selfconsistent MetaGGA calc.

 Electronic Relaxation 1
   ENCUT  =  520.0 eV  38.22 Ry    6.18 a.u.  22.87 22.87 37.19*2*pi/ulx,y,z
   ENINI  =  520.0     initial cutoff
   ENAUG  =  644.9 eV  augmentation charge cutoff
   NELM   =    500;   NELMIN=  2; NELMDL=  0     # of ELM steps 
   EDIFF  = 0.1E-04   stopping-criterion for ELM
   LREAL  =      F    real-space projection
   NLSPLINE    = F    spline interpolate recip. space projectors
   LCOMPAT=      F    compatible to vasp.4.4
   GGA_COMPAT  = T    GGA compatible to vasp.4.4-vasp.4.6
   LMAXPAW     = -100 max onsite density
   LMAXMIX     =    2 max onsite mixed and CHGCAR
   VOSKOWN=      0    Vosko Wilk Nusair interpolation
   ROPT   =    0.00000   0.00000   0.00000
 Ionic relaxation
   EDIFFG = 0.1E-03   stopping-criterion for IOM
   NSW    =      0    number of steps for IOM
   NBLOCK =      1;   KBLOCK =      1    inner block; outer block 
   IBRION =     -1    ionic relax: 0-MD 1-quasi-New 2-CG
   NFREE  =      0    steps in history (QN), initial steepest desc. (CG)
   ISIF   =      2    stress and relaxation
   IWAVPR =     10    prediction:  0-non 1-charg 2-wave 3-comb
   ISYM   =      0    0-nonsym 1-usesym 2-fastsym
   LCORR  =      T    Harris-Foulkes like correction to forces

   POTIM  = 0.5000    time-step for ionic-motion
   TEIN   =    0.0    initial temperature
   TEBEG  =    0.0;   TEEND  =   0.0 temperature during run
   SMASS  =  -3.00    Nose mass-parameter (am)
   estimated Nose-frequenzy (Omega)   =  0.10E-29 period in steps =****** mass=  -0.346E-26a.u.
   SCALEE = 1.0000    scale energy and forces
   NPACO  =    256;   APACO  = 16.0  distance and # of slots for P.C.
   PSTRESS=    0.0 pullay stress

  Mass of Ions in am
   POMASS =  12.01 14.00 87.62
  Ionic Valenz
   ZVAL   =   4.00  5.00 10.00
  Atomic Wigner-Seitz radii
   RWIGS  =  -1.00 -1.00 -1.00
  virtual crystal weights 
   VCA    =   1.00  1.00  1.00
   NELECT =     206.0000    total number of electrons
   NUPDOWN=      -1.0000    fix difference up-down

 DOS related values:
   EMIN   =  10.00;   EMAX   =-10.00  energy-range for DOS
   EFERMI =   0.00
   ISMEAR =     0;   SIGMA  =   0.10  broadening in eV -4-tet -1-fermi 0-gaus

 Electronic relaxation 2 (details)
   IALGO  =     58    algorithm
   LDIAG  =      T    sub-space diagonalisation (order eigenvalues)
   LSUBROT=      F    optimize rotation matrix (better conditioning)
   TURBO    =      0    0=normal 1=particle mesh
   IRESTART =      0    0=no restart 2=restart with 2 vectors
   NREBOOT  =      0    no. of reboots
   NMIN     =      0    reboot dimension
   EREF     =   0.00    reference energy to select bands
   IMIX   =      4    mixing-type and parameters
     AMIX     =   0.40;   BMIX     =  1.00
     AMIX_MAG =   1.60;   BMIX_MAG =  1.00
     AMIN     =   0.10
     WC   =   100.;   INIMIX=   1;  MIXPRE=   1;  MAXMIX= -45

 Intra band minimization:
   WEIMIN = 0.0000     energy-eigenvalue tresh-hold
   EBREAK =  0.98E-08  absolut break condition
   DEPER  =   0.30     relativ break condition  

   TIME   =   0.40     timestep for ELM

  volume/ion in A,a.u.               =      53.48       360.89
  Fermi-wavevector in a.u.,A,eV,Ry     =   0.701305  1.325274  6.691736  0.491829
  Thomas-Fermi vector in A             =   1.785695
 
 Write flags
   LWAVE        =      T    write WAVECAR
   LDOWNSAMPLE  =      F    k-point downsampling of WAVECAR
   LCHARG       =      T    write CHGCAR
   LVTOT        =      F    write LOCPOT, total local potential
   LVHAR        =      F    write LOCPOT, Hartree potential only
   LELF         =      F    write electronic localiz. function (ELF)
   LORBIT       =      0    0 simple, 1 ext, 2 COOP (PROOUT), +10 PAW based schemes


 Dipole corrections
   LMONO  =      F    monopole corrections only (constant potential shift)
   LDIPOL =      F    correct potential (dipole corrections)
   IDIPOL =      0    1-x, 2-y, 3-z, 4-all directions 
   EPSILON=  1.0000000 bulk dielectric constant

 Exchange correlation treatment:
   GGA     =    --    GGA type
   LEXCH   =     8    internal setting for exchange type
   VOSKOWN=      0    Vosko Wilk Nusair interpolation
   LHFCALC =     F    Hartree Fock is set to
   LHFONE  =     F    Hartree Fock one center treatment
   AEXX    =    0.0000 exact exchange contribution

 Linear response parameters
   LEPSILON=     F    determine dielectric tensor
   LRPA    =     F    only Hartree local field effects (RPA)
   LNABLA  =     F    use nabla operator in PAW spheres
   LVEL    =     F    velocity operator in full k-point grid
   LINTERFAST=   F  fast interpolation
   KINTER  =     0    interpolate to denser k-point grid
   CSHIFT  =0.1000    complex shift for real part using Kramers Kronig
   OMEGAMAX=  -1.0    maximum frequency
   DEG_THRESHOLD= 0.2000000E-02 threshold for treating states as degnerate
   RTIME   =   -0.100 relaxation time in fs
  (WPLASMAI=    0.000 imaginary part of plasma frequency in eV, 0.658/RTIME)
   DFIELD  = 0.0000000 0.0000000 0.0000000 field for delta impulse in time
 
 Orbital magnetization related:
   ORBITALMAG=     F  switch on orbital magnetization
   LCHIMAG   =     F  perturbation theory with respect to B field
   DQ        =  0.001000  dq finite difference perturbation B field
   LLRAUG    =     F  two centre corrections for induced B field



--------------------------------------------------------------------------------------------------------


 Static calculation
 charge density and potential will be updated during run
 spin polarized calculation
 Conjugate gradient for all bands (Freysoldt, et al. PRB 79, 241103 (2009))
 preconditioned conjugated gradient                                        
 perform sub-space diagonalisation
    before iterative eigenvector-optimisation
 modified Broyden-mixing scheme, WC =      100.0
 initial mixing is a Kerker type mixing with AMIX =  0.4000 and BMIX =      1.0000
 Hartree-type preconditioning will be used
 using additional bands          153
 reciprocal scheme for non local part
 use partial core corrections
 no Harris-corrections to forces 
 use gradient corrections 
 use of overlap-Matrix (Vanderbilt PP)
 Gauss-broadening in eV      SIGMA  =   0.10


--------------------------------------------------------------------------------------------------------


  energy-cutoff  :      520.00
  volume of cell :     2620.42
      direct lattice vectors                 reciprocal lattice vectors
    12.300000000  0.000000000  0.000000000     0.081300813  0.046939046  0.000000000
    -6.150000000 10.652112467  0.000000000     0.000000000  0.093878093  0.000000000
     0.000000000  0.000000000 20.000000000     0.000000000  0.000000000  0.050000000

  length of vectors
    12.300000000 12.300000000 20.000000000     0.093878093  0.093878093  0.050000000


 
 old parameters found on file WAVECAR:
  energy-cutoff  :      520.00
  volume of cell :     2620.42
      direct lattice vectors                 reciprocal lattice vectors
    12.300000000  0.000000000  0.000000000     0.081300813  0.046939046  0.000000000
    -6.150000000 10.652112467  0.000000000     0.000000000  0.093878093  0.000000000
     0.000000000  0.000000000 20.000000000     0.000000000  0.000000000  0.050000000

  length of vectors

 
 k-points in units of 2pi/SCALE and weight: K-POINTS                                
   0.00000000  0.00000000  0.00000000       0.040
   0.01626016  0.00938781  0.00000000       0.080
   0.03252033  0.01877562  0.00000000       0.080
   0.00000000  0.01877562  0.00000000       0.080
   0.01626016  0.02816343  0.00000000       0.080
   0.03252033  0.03755124  0.00000000       0.080
  -0.03252033  0.00000000  0.00000000       0.080
  -0.01626016  0.00938781  0.00000000       0.080
   0.00000000  0.03755124  0.00000000       0.080
   0.01626016  0.04693905  0.00000000       0.080
   0.03252033  0.05632686  0.00000000       0.080
  -0.03252033  0.01877562  0.00000000       0.080
  -0.01626016  0.02816343  0.00000000       0.080
 
 k-points in reciprocal lattice and weights: K-POINTS                                
   0.00000000  0.00000000  0.00000000       0.040
   0.20000000  0.00000000  0.00000000       0.080
   0.40000000  0.00000000  0.00000000       0.080
   0.00000000  0.20000000  0.00000000       0.080
   0.20000000  0.20000000  0.00000000       0.080
   0.40000000  0.20000000  0.00000000       0.080
  -0.40000000  0.20000000  0.00000000       0.080
  -0.20000000  0.20000000  0.00000000       0.080
   0.00000000  0.40000000  0.00000000       0.080
   0.20000000  0.40000000  0.00000000       0.080
   0.40000000  0.40000000  0.00000000       0.080
  -0.40000000  0.40000000  0.00000000       0.080
  -0.20000000  0.40000000  0.00000000       0.080
 
 position of ions in fractional coordinates (direct lattice) 
   0.99942959  0.00057041  0.74083588
   0.13208444  0.06535404  0.74177090
   0.19868442  0.99875826  0.74174570
   0.33134269  0.06455894  0.74581913
   0.39873847  0.99814658  0.74553041
   0.53186654  0.06629806  0.74764159
   0.59942487  0.00039426  0.74586855
   0.73263262  0.06888123  0.74596668
   0.79972812  0.00196396  0.74393927
   0.93260604  0.06739396  0.74254672
   0.99803604  0.20027188  0.74393927
   0.13143693  0.26540155  0.74554284
   0.19786688  0.19800508  0.74586560
   0.32973995  0.26472578  0.75363785
   0.39803485  0.19643848  0.75364103
   0.59382231  0.20003395  0.75447384
   0.72956981  0.27043019  0.75387225
   0.79705253  0.20294747  0.74837568
   0.93111877  0.26736738  0.74596668
   0.99960574  0.40057513  0.74586855
   0.13376925  0.46612630  0.74587597
   0.19964407  0.39852470  0.74763821
   0.33338081  0.46048550  0.75447489
   0.79996605  0.40617769  0.75447384
   0.93370194  0.46813346  0.74764159
   0.00185342  0.60126153  0.74553041
   0.13527426  0.66638181  0.74393056
   0.20222194  0.59931539  0.74598308
   0.33627559  0.66372441  0.74842369
   0.40376912  0.59623088  0.75390401
   0.53951450  0.66661919  0.75447489
   0.73527422  0.67026005  0.75363785
   0.80356152  0.60196515  0.75364103
   0.93544105  0.66865730  0.74581913
   0.00124174  0.80131558  0.74174570
   0.13392181  0.86607819  0.74084817
   0.20073083  0.79926917  0.74255529
   0.33361819  0.86472574  0.74393056
   0.40068461  0.79777806  0.74598308
   0.53387370  0.86623075  0.74587597
   0.60147530  0.80035593  0.74763821
   0.73459844  0.86856307  0.74554284
   0.80199492  0.80213312  0.74586560
   0.93464596  0.86791556  0.74177090
   0.52553017  0.25878819  0.76203506
   0.39213888  0.39220968  0.76203413
   0.74121181  0.47446983  0.76203506
   0.60779033  0.60786112  0.76203413
   0.56666698  0.43333302  0.83280573
 
 position of ions in cartesian coordinates  (Angst):
  12.28947590  0.00607609 14.81671765
   1.22271133  0.69615854 14.83541795
  -3.69854500 10.63888534 14.83491401
   3.67847764  0.68768914 14.91638268
  -1.23411825 10.63236965 14.91060814
   6.13422542  0.70621439 14.95283187
   7.37050114  0.00419972 14.91737096
   8.58776164  0.73373060 14.91933351
   9.82457754  0.02092036 14.87878546
  11.05658136  0.71788809 14.85093431
  11.04417121  2.13331856 14.87878546
  -0.01554532  2.82708721 14.91085689
   1.21603141  2.10917241 14.91731208
   2.42773782  2.81988883 15.07275696
   3.68773197  2.09248481 15.07282057
   6.07380559  2.13078413 15.08947690
   7.31056300  2.88065280 15.07744505
   8.55561913  2.16181930 14.96751351
   9.80845147  2.84802742 14.91933352
   9.83161350  4.26697139 14.91737097
  -1.22131499  4.96522977 14.91751935
   0.00469514  4.24512993 14.95276414
   1.26859811  4.90514334 15.08949778
   7.34158961  4.32665046 15.08947690
   8.60551310  4.98661022 14.95283188
  -3.67496134  6.40470540 14.91060814
  -2.43437477  7.09837402 14.87861117
  -1.19845981  6.38397491 14.91966161
   0.05428463  7.07006706 14.96847385
   1.29954028  6.35111837 15.07808020
   2.53632031  7.10090262 15.08949779
   4.92177355  7.13968544 15.07275696
   6.18172100  6.41220049 15.07282057
   7.39368255  7.12261281 14.91638268
  -4.91281747  8.53570372 14.83491402
  -3.67914262  9.22556230 14.81696330
  -2.44651624  8.51390512 14.85110581
  -1.21455961  9.21115584 14.87861117
   0.02208564  8.49802164 14.91966163
   1.23932740  9.22718739 14.91751935
   2.47595720  8.52548140 14.95276414
   3.69389800  9.25203148 14.91085689
   4.93141881  8.54441217 14.91731207
   6.15846468  9.24513413 14.83541796
   4.87247375  2.75664087 15.24070114
   2.41121868  4.17786158 15.24068261
   6.19891586  5.05410599 15.24070114
   3.73747509  6.47500506 15.24068265
   4.30500580  4.61591204 16.65611466
 


--------------------------------------------------------------------------------------------------------


 k-point  1 :   0.0000 0.0000 0.0000  plane waves:   70503
 k-point  2 :   0.2000 0.0000 0.0000  plane waves:   70568
 k-point  3 :   0.4000 0.0000 0.0000  plane waves:   70572
 k-point  4 :   0.0000 0.2000 0.0000  plane waves:   70568
 k-point  5 :   0.2000 0.2000 0.0000  plane waves:   70519
 k-point  6 :   0.4000 0.2000 0.0000  plane waves:   70609
 k-point  7 :  -0.4000 0.2000 0.0000  plane waves:   70519
 k-point  8 :  -0.2000 0.2000 0.0000  plane waves:   70568
 k-point  9 :   0.0000 0.4000 0.0000  plane waves:   70572
 k-point 10 :   0.2000 0.4000 0.0000  plane waves:   70609
 k-point 11 :   0.4000 0.4000 0.0000  plane waves:   70609
 k-point 12 :  -0.4000 0.4000 0.0000  plane waves:   70572
 k-point 13 :  -0.2000 0.4000 0.0000  plane waves:   70519

 maximum and minimum number of plane-waves per node :     70609    70503

 maximum number of plane-waves:     70609
 maximum index in each direction: 
   IXMAX=   23   IYMAX=   22   IZMAX=   37
   IXMIN=  -23   IYMIN=  -23   IZMIN=  -37


 serial   3D FFT for wavefunctions
 parallel 3D FFT for charge:
    minimum data exchange during FFTs selected (reduces bandwidth)


 total amount of memory used by VASP MPI-rank0   696067. kBytes
=======================================================================

   base      :      30000. kBytes
   nonl-proj :     452198. kBytes
   fftplans  :       7547. kBytes
   grid      :     115983. kBytes
   one-center:       1524. kBytes
   wavefun   :      88815. kBytes
 
     INWAV:  cpu time   61.2163: real time   61.3165
 Broyden mixing: mesh for mixing (old mesh)
   NGX = 45   NGY = 45   NGZ = 75
  (NGX  =192   NGY  =192   NGZ  =300)
  gives a total of 151875 points

 initial charge density was supplied:
 number of electron     206.0000001 magnetization       0.0000000
 charge density for first step will be calculated from the start-wavefunctions


--------------------------------------------------------------------------------------------------------


 Maximum index for augmentation-charges          362 (set IRDMAX)


--------------------------------------------------------------------------------------------------------


 initial charge from wavefunction
 First call to EWALD:  gamma=   0.129
 Maximum number of real-space cells 3x 3x 2
 Maximum number of reciprocal cells 3x 3x 4

    FEWALD:  cpu time    0.0261: real time    0.0261


--------------------------------------- Iteration      1(   1)  ---------------------------------------


    POTLOK:  cpu time    2.5846: real time    2.6082
    SETDIJ:  cpu time    0.4994: real time    0.5180
    TRIAL :  cpu time   63.2066: real time   64.6752
    CORREC:  cpu time   28.7436: real time   29.8898
    CHARGE:  cpu time    3.2938: real time    3.2947
    --------------------------------------------
      LOOP:  cpu time   98.4045: real time  101.0890

 eigenvalue-minimisations  :     0
 total energy-change (2. order) :-0.3342545E+03  (-0.9050893E+02)
 number of electron     206.0000001 magnetization      -0.0000010
 augmentation part        5.4178720 magnetization      -0.0000001

 Free energy of the ion-electron system (eV)
  ---------------------------------------------------
  alpha Z        PSCENC =        91.96860879
  Ewald energy   TEWEN  =     33260.23390465
  -Hartree energ DENC   =    -40424.91190656
  -exchange      EXHF   =         0.00000000
  -V(xc)+E(xc)   XCENC  =       752.15019477
  PAW double counting   =      4211.72886926    -4265.87892973
  entropy T*S    EENTRO =        -0.01428298
  eigenvalues    EBANDS =     -2334.69154350
  atomic energy  EATOM  =      8375.15076734
  ---------------------------------------------------
  free energy    TOTEN  =      -334.25451970 eV

  energy without entropy =     -334.24023672  energy(sigma->0) =     -334.24737821


--------------------------------------------------------------------------------------------------------




--------------------------------------- Iteration      1(   2)  ---------------------------------------


    POTLOK:  cpu time    2.5359: real time    2.5365
    SETDIJ:  cpu time    0.4638: real time    0.4639
    TRIAL :  cpu time   63.0358: real time   64.2395
    CORREC:  cpu time   28.8633: real time   29.9713
    CHARGE:  cpu time    3.3142: real time    3.3181
    --------------------------------------------
      LOOP:  cpu time   98.2639: real time  100.5833

 eigenvalue-minimisations  :     0
 total energy-change (2. order) :-0.7309930E+02  (-0.1719847E+02)
 number of electron     206.0000001 magnetization      -0.0000007
 augmentation part        5.4844429 magnetization      -0.0000000

 Free energy of the ion-electron system (eV)
  ---------------------------------------------------
  alpha Z        PSCENC =        91.96860879
  Ewald energy   TEWEN  =     33260.23390465
  -Hartree energ DENC   =    -40185.27670481
  -exchange      EXHF   =         0.00000000
  -V(xc)+E(xc)   XCENC  =       745.75317903
  PAW double counting   =      4095.10657821    -4148.34125331
  entropy T*S    EENTRO =        -0.01110636
  eigenvalues    EBANDS =     -2641.93461239
  atomic energy  EATOM  =      8375.15076734
  ---------------------------------------------------
  free energy    TOTEN  =      -407.35381547 eV

  energy without entropy =     -407.34270911  energy(sigma->0) =     -407.34826229


--------------------------------------------------------------------------------------------------------




--------------------------------------- Iteration      1(   3)  ---------------------------------------


    POTLOK:  cpu time    2.5956: real time    2.5973
    SETDIJ:  cpu time    0.4618: real time    0.4621
    TRIAL :  cpu time   63.3088: real time   64.6132
    CORREC:  cpu time   28.2210: real time   29.3642
    CHARGE:  cpu time    3.3243: real time    3.3576
    --------------------------------------------
      LOOP:  cpu time   97.9364: real time  100.4195

 eigenvalue-minimisations  :     0
 total energy-change (2. order) :-0.1724845E+02  (-0.9737558E+01)
 number of electron     206.0000001 magnetization      -0.0000005
 augmentation part        5.5626570 magnetization      -0.0000000

 Free energy of the ion-electron system (eV)
  ---------------------------------------------------
  alpha Z        PSCENC =        91.96860879
  Ewald energy   TEWEN  =     33260.23390465
  -Hartree energ DENC   =    -40398.71005492
  -exchange      EXHF   =         0.00000000
  -V(xc)+E(xc)   XCENC  =       750.90655062
  PAW double counting   =      4178.62506162    -4232.29639199
  entropy T*S    EENTRO =        -0.00983193
  eigenvalues    EBANDS =     -2450.46960397
  atomic energy  EATOM  =      8375.15076734
  ---------------------------------------------------
  free energy    TOTEN  =      -424.60226422 eV

  energy without entropy =     -424.59243230  energy(sigma->0) =     -424.59734826


--------------------------------------------------------------------------------------------------------




--------------------------------------- Iteration      1(   4)  ---------------------------------------


    POTLOK:  cpu time    2.6524: real time    2.6652
    SETDIJ:  cpu time    0.4903: real time    0.4906
    TRIAL :  cpu time   63.6991: real time   64.9370
    CORREC:  cpu time   28.7905: real time   30.0331
    CHARGE:  cpu time    3.4300: real time    3.4308
    --------------------------------------------
      LOOP:  cpu time   99.0846: real time  101.5790

 eigenvalue-minimisations  :     0
 total energy-change (2. order) :-0.9771029E+01  (-0.3355898E+01)
 number of electron     206.0000001 magnetization      -0.0000006
 augmentation part        5.5897634 magnetization      -0.0000002

 Free energy of the ion-electron system (eV)
  ---------------------------------------------------
  alpha Z        PSCENC =        91.96860879
  Ewald energy   TEWEN  =     33260.23390465
  -Hartree energ DENC   =    -40457.06630580
  -exchange      EXHF   =         0.00000000
  -V(xc)+E(xc)   XCENC  =       753.09994605
  PAW double counting   =      4229.86818538    -4284.04776840
  entropy T*S    EENTRO =        -0.01145077
  eigenvalues    EBANDS =     -2403.57079944
  atomic energy  EATOM  =      8375.15076734
  ---------------------------------------------------
  free energy    TOTEN  =      -434.37329337 eV

  energy without entropy =     -434.36184261  energy(sigma->0) =     -434.36756799


--------------------------------------------------------------------------------------------------------




--------------------------------------- Iteration      1(   5)  ---------------------------------------


    POTLOK:  cpu time    2.5680: real time    2.5682
    SETDIJ:  cpu time    0.4484: real time    0.4484
    TRIAL :  cpu time   63.3707: real time   64.5696
    CORREC:  cpu time   28.7129: real time   29.9053
    CHARGE:  cpu time    3.3144: real time    3.3148
    --------------------------------------------
      LOOP:  cpu time   98.4377: real time  100.8295

 eigenvalue-minimisations  :     0
 total energy-change (2. order) :-0.3345582E+01  (-0.1723684E+01)
 number of electron     206.0000001 magnetization      -0.0000005
 augmentation part        5.6061080 magnetization      -0.0000000

 Free energy of the ion-electron system (eV)
  ---------------------------------------------------
  alpha Z        PSCENC =        91.96860879
  Ewald energy   TEWEN  =     33260.23390465
  -Hartree energ DENC   =    -40443.42167100
  -exchange      EXHF   =         0.00000000
  -V(xc)+E(xc)   XCENC  =       752.80730540
  PAW double counting   =      4235.29974101    -4289.53984712
  entropy T*S    EENTRO =        -0.00801056
  eigenvalues    EBANDS =     -2420.20623345
  atomic energy  EATOM  =      8375.15076734
  ---------------------------------------------------
  free energy    TOTEN  =      -437.71887515 eV

  energy without entropy =     -437.71086460  energy(sigma->0) =     -437.71486988


--------------------------------------------------------------------------------------------------------




--------------------------------------- Iteration      1(   6)  ---------------------------------------


    POTLOK:  cpu time    2.5154: real time    2.5156
    SETDIJ:  cpu time    0.4462: real time    0.4462
    TRIAL :  cpu time   67.6531: real time   68.8220
    CORREC:  cpu time   28.2169: real time   29.3188
    CHARGE:  cpu time    3.3377: real time    3.3386
    --------------------------------------------
      LOOP:  cpu time  102.1942: real time  104.4664

 eigenvalue-minimisations  :     0
 total energy-change (2. order) :-0.1725841E+01  (-0.7105235E+00)
 number of electron     206.0000001 magnetization      -0.0000003
 augmentation part        5.6258616 magnetization       0.0000000

 Free energy of the ion-electron system (eV)
  ---------------------------------------------------
  alpha Z        PSCENC =        91.96860879
  Ewald energy   TEWEN  =     33260.23390465
  -Hartree energ DENC   =    -40423.40782304
  -exchange      EXHF   =         0.00000000
  -V(xc)+E(xc)   XCENC  =       752.19741655
  PAW double counting   =      4233.36530409    -4287.55111680
  entropy T*S    EENTRO =        -0.00572111
  eigenvalues    EBANDS =     -2441.39376692
  atomic energy  EATOM  =      8375.15076734
  ---------------------------------------------------
  free energy    TOTEN  =      -439.44471590 eV

  energy without entropy =     -439.43899480  energy(sigma->0) =     -439.44185535


--------------------------------------------------------------------------------------------------------




--------------------------------------- Iteration      1(   7)  ---------------------------------------


    POTLOK:  cpu time    2.6221: real time    2.6226
    SETDIJ:  cpu time    0.4493: real time    0.4494
    TRIAL :  cpu time   63.8750: real time   65.0950
    CORREC:  cpu time   27.9213: real time   29.0563
    CHARGE:  cpu time    3.6283: real time    3.6398
    --------------------------------------------
      LOOP:  cpu time   98.5105: real time  100.8775

 eigenvalue-minimisations  :     0
 total energy-change (2. order) :-0.7113355E+00  (-0.2857710E+00)
 number of electron     206.0000001 magnetization      -0.0000003
 augmentation part        5.6387713 magnetization       0.0000000

 Free energy of the ion-electron system (eV)
  ---------------------------------------------------
  alpha Z        PSCENC =        91.96860879
  Ewald energy   TEWEN  =     33260.23390465
  -Hartree energ DENC   =    -40422.67672803
  -exchange      EXHF   =         0.00000000
  -V(xc)+E(xc)   XCENC  =       752.12268688
  PAW double counting   =      4236.32201994    -4290.52902194
  entropy T*S    EENTRO =        -0.00876317
  eigenvalues    EBANDS =     -2442.74256788
  atomic energy  EATOM  =      8375.15076734
  ---------------------------------------------------
  free energy    TOTEN  =      -440.15605137 eV

  energy without entropy =     -440.14728820  energy(sigma->0) =     -440.15166978


--------------------------------------------------------------------------------------------------------




--------------------------------------- Iteration      1(   8)  ---------------------------------------


    POTLOK:  cpu time    2.5212: real time    2.5224
    SETDIJ:  cpu time    0.4474: real time    0.4475
    TRIAL :  cpu time   62.8580: real time   64.1517
    CORREC:  cpu time   28.5171: real time   29.8181
    CHARGE:  cpu time    3.3367: real time    3.3381
    --------------------------------------------
      LOOP:  cpu time   97.7599: real time  100.3573

 eigenvalue-minimisations  :     0
 total energy-change (2. order) :-0.2857823E+00  (-0.1232055E+00)
 number of electron     206.0000001 magnetization      -0.0000002
 augmentation part        5.6425165 magnetization       0.0000000

 Free energy of the ion-electron system (eV)
  ---------------------------------------------------
  alpha Z        PSCENC =        91.96860879
  Ewald energy   TEWEN  =     33260.23390465
  -Hartree energ DENC   =    -40427.27735466
  -exchange      EXHF   =         0.00000000
  -V(xc)+E(xc)   XCENC  =       752.23449857
  PAW double counting   =      4239.18344840    -4293.42453210
  entropy T*S    EENTRO =        -0.01020834
  eigenvalues    EBANDS =     -2438.50241151
  atomic energy  EATOM  =      8375.15076734
  ---------------------------------------------------
  free energy    TOTEN  =      -440.44183370 eV

  energy without entropy =     -440.43162536  energy(sigma->0) =     -440.43672953


--------------------------------------------------------------------------------------------------------




--------------------------------------- Iteration      1(   9)  ---------------------------------------


    POTLOK:  cpu time    2.5614: real time    2.5620
    SETDIJ:  cpu time    0.4432: real time    0.4433
    TRIAL :  cpu time   63.0335: real time   64.5557
    CORREC:  cpu time   28.1835: real time   29.6142
    CHARGE:  cpu time    3.3286: real time    3.3298
    --------------------------------------------
      LOOP:  cpu time   97.5634: real time  100.5181

 eigenvalue-minimisations  :     0
 total energy-change (2. order) :-0.1231795E+00  (-0.5285974E-01)
 number of electron     206.0000001 magnetization      -0.0000001
 augmentation part        5.6417131 magnetization       0.0000000

 Free energy of the ion-electron system (eV)
  ---------------------------------------------------
  alpha Z        PSCENC =        91.96860879
  Ewald energy   TEWEN  =     33260.23390465
  -Hartree energ DENC   =    -40428.51191691
  -exchange      EXHF   =         0.00000000
  -V(xc)+E(xc)   XCENC  =       752.26397896
  PAW double counting   =      4239.03553990    -4293.28043256
  entropy T*S    EENTRO =        -0.01000956
  eigenvalues    EBANDS =     -2437.41525501
  atomic energy  EATOM  =      8375.15076734
  ---------------------------------------------------
  free energy    TOTEN  =      -440.56501319 eV

  energy without entropy =     -440.55500363  energy(sigma->0) =     -440.56000841


--------------------------------------------------------------------------------------------------------




--------------------------------------- Iteration      1(  10)  ---------------------------------------


    POTLOK:  cpu time    2.6855: real time    2.6858
    SETDIJ:  cpu time    0.4452: real time    0.4453
    TRIAL :  cpu time   63.2103: real time   64.5891
    CORREC:  cpu time   31.8372: real time   32.9357
    CHARGE:  cpu time    3.3172: real time    3.3189
    --------------------------------------------
      LOOP:  cpu time  101.5186: real time  103.9979

 eigenvalue-minimisations  :     0
 total energy-change (2. order) :-0.5285400E-01  (-0.2432379E-01)
 number of electron     206.0000001 magnetization      -0.0000000
 augmentation part        5.6403610 magnetization       0.0000000

 Free energy of the ion-electron system (eV)
  ---------------------------------------------------
  alpha Z        PSCENC =        91.96860879
  Ewald energy   TEWEN  =     33260.23390465
  -Hartree energ DENC   =    -40427.36181785
  -exchange      EXHF   =         0.00000000
  -V(xc)+E(xc)   XCENC  =       752.23028194
  PAW double counting   =      4237.63418386    -4291.86012978
  entropy T*S    EENTRO =        -0.00948892
  eigenvalues    EBANDS =     -2438.60365658
  atomic energy  EATOM  =      8375.15076734
  ---------------------------------------------------
  free energy    TOTEN  =      -440.61786719 eV

  energy without entropy =     -440.60837828  energy(sigma->0) =     -440.61312273


--------------------------------------------------------------------------------------------------------




--------------------------------------- Iteration      1(  11)  ---------------------------------------


    POTLOK:  cpu time    2.5549: real time    2.5557
    SETDIJ:  cpu time    0.4473: real time    0.4474
    TRIAL :  cpu time   63.2021: real time   64.5919
    CORREC:  cpu time   32.4196: real time   33.5923
    CHARGE:  cpu time    3.4790: real time    3.5204
    --------------------------------------------
      LOOP:  cpu time  102.1177: real time  104.7224

 eigenvalue-minimisations  :     0
 total energy-change (2. order) :-0.2431896E-01  (-0.9963205E-02)
 number of electron     206.0000001 magnetization      -0.0000000
 augmentation part        5.6389312 magnetization       0.0000000

 Free energy of the ion-electron system (eV)
  ---------------------------------------------------
  alpha Z        PSCENC =        91.96860879
  Ewald energy   TEWEN  =     33260.23390465
  -Hartree energ DENC   =    -40426.93210872
  -exchange      EXHF   =         0.00000000
  -V(xc)+E(xc)   XCENC  =       752.22188350
  PAW double counting   =      4236.90157828    -4291.10994483
  entropy T*S    EENTRO =        -0.00922137
  eigenvalues    EBANDS =     -2439.06738624
  atomic energy  EATOM  =      8375.15076734
  ---------------------------------------------------
  free energy    TOTEN  =      -440.64218615 eV

  energy without entropy =     -440.63296478  energy(sigma->0) =     -440.63757547


--------------------------------------------------------------------------------------------------------




--------------------------------------- Iteration      1(  12)  ---------------------------------------


    POTLOK:  cpu time    2.5894: real time    2.5903
    SETDIJ:  cpu time    0.4593: real time    0.4593
    TRIAL :  cpu time   62.7284: real time   64.0814
    CORREC:  cpu time   29.9472: real time   31.1059
    CHARGE:  cpu time    3.2767: real time    3.2854
    --------------------------------------------
      LOOP:  cpu time   99.0215: real time  101.5427

 eigenvalue-minimisations  :     0
 total energy-change (2. order) :-0.9958919E-02  (-0.3609051E-02)
 number of electron     206.0000001 magnetization       0.0000000
 augmentation part        5.6377482 magnetization       0.0000000

 Free energy of the ion-electron system (eV)
  ---------------------------------------------------
  alpha Z        PSCENC =        91.96860879
  Ewald energy   TEWEN  =     33260.23390465
  -Hartree energ DENC   =    -40427.24938352
  -exchange      EXHF   =         0.00000000
  -V(xc)+E(xc)   XCENC  =       752.23537792
  PAW double counting   =      4236.77379886    -4290.97216166
  entropy T*S    EENTRO =        -0.00920359
  eigenvalues    EBANDS =     -2438.78383607
  atomic energy  EATOM  =      8375.15076734
  ---------------------------------------------------
  free energy    TOTEN  =      -440.65214507 eV

  energy without entropy =     -440.64294148  energy(sigma->0) =     -440.64754328


--------------------------------------------------------------------------------------------------------




--------------------------------------- Iteration      1(  13)  ---------------------------------------


    POTLOK:  cpu time    2.5501: real time    2.5524
    SETDIJ:  cpu time    0.4476: real time    0.4479
    TRIAL :  cpu time   63.2386: real time   64.5409
    CORREC:  cpu time   28.4865: real time   29.6265
    CHARGE:  cpu time    3.3465: real time    3.3470
    --------------------------------------------
      LOOP:  cpu time   98.0934: real time  100.5389

 eigenvalue-minimisations  :     0
 total energy-change (2. order) :-0.3607166E-02  (-0.1270303E-02)
 number of electron     206.0000001 magnetization       0.0000000
 augmentation part        5.6370629 magnetization       0.0000000

 Free energy of the ion-electron system (eV)
  ---------------------------------------------------
  alpha Z        PSCENC =        91.96860879
  Ewald energy   TEWEN  =     33260.23390465
  -Hartree energ DENC   =    -40427.40835630
  -exchange      EXHF   =         0.00000000
  -V(xc)+E(xc)   XCENC  =       752.24095810
  PAW double counting   =      4236.73646556    -4290.92901209
  entropy T*S    EENTRO =        -0.00930474
  eigenvalues    EBANDS =     -2438.63988469
  atomic energy  EATOM  =      8375.15076734
  ---------------------------------------------------
  free energy    TOTEN  =      -440.65575224 eV

  energy without entropy =     -440.64644750  energy(sigma->0) =     -440.65109987


--------------------------------------------------------------------------------------------------------




--------------------------------------- Iteration      1(  14)  ---------------------------------------


    POTLOK:  cpu time    2.5861: real time    2.5863
    SETDIJ:  cpu time    0.4471: real time    0.4471
    TRIAL :  cpu time   63.3586: real time   64.7258
    CORREC:  cpu time   28.0004: real time   29.3843
    CHARGE:  cpu time    3.3149: real time    3.3238
    --------------------------------------------
      LOOP:  cpu time   97.7300: real time  100.4904

 eigenvalue-minimisations  :     0
 total energy-change (2. order) :-0.1269548E-02  (-0.4909610E-03)
 number of electron     206.0000001 magnetization       0.0000000
 augmentation part        5.6366200 magnetization       0.0000000

 Free energy of the ion-electron system (eV)
  ---------------------------------------------------
  alpha Z        PSCENC =        91.96860879
  Ewald energy   TEWEN  =     33260.23390465
  -Hartree energ DENC   =    -40427.43484793
  -exchange      EXHF   =         0.00000000
  -V(xc)+E(xc)   XCENC  =       752.24075586
  PAW double counting   =      4236.75750814    -4290.94654853
  entropy T*S    EENTRO =        -0.00942769
  eigenvalues    EBANDS =     -2438.61786536
  atomic energy  EATOM  =      8375.15076734
  ---------------------------------------------------
  free energy    TOTEN  =      -440.65702178 eV

  energy without entropy =     -440.64759410  energy(sigma->0) =     -440.65230794


--------------------------------------------------------------------------------------------------------




--------------------------------------- Iteration      1(  15)  ---------------------------------------


    POTLOK:  cpu time    2.5747: real time    2.5801
    SETDIJ:  cpu time    0.4444: real time    0.4444
    TRIAL :  cpu time   63.7636: real time   65.3131
    CORREC:  cpu time   27.9566: real time   29.5749
    CHARGE:  cpu time    3.3008: real time    3.3074
    --------------------------------------------
      LOOP:  cpu time   98.0588: real time  101.2404

 eigenvalue-minimisations  :     0
 total energy-change (2. order) :-0.4904702E-03  (-0.2131875E-03)
 number of electron     206.0000001 magnetization       0.0000000
 augmentation part        5.6362828 magnetization       0.0000000

 Free energy of the ion-electron system (eV)
  ---------------------------------------------------
  alpha Z        PSCENC =        91.96860879
  Ewald energy   TEWEN  =     33260.23390465
  -Hartree energ DENC   =    -40427.45982323
  -exchange      EXHF   =         0.00000000
  -V(xc)+E(xc)   XCENC  =       752.24061457
  PAW double counting   =      4236.80673554    -4290.99400056
  entropy T*S    EENTRO =        -0.00952840
  eigenvalues    EBANDS =     -2438.59489165
  atomic energy  EATOM  =      8375.15076734
  ---------------------------------------------------
  free energy    TOTEN  =      -440.65751225 eV

  energy without entropy =     -440.64798386  energy(sigma->0) =     -440.65274806


--------------------------------------------------------------------------------------------------------




--------------------------------------- Iteration      1(  16)  ---------------------------------------


    POTLOK:  cpu time    2.5544: real time    2.5640
    SETDIJ:  cpu time    0.4527: real time    0.4528
    TRIAL :  cpu time   63.3712: real time   64.7195
    CORREC:  cpu time   28.3947: real time   29.5551
    CHARGE:  cpu time    3.3006: real time    3.3010
    --------------------------------------------
      LOOP:  cpu time   98.0962: real time  100.6150

 eigenvalue-minimisations  :     0
 total energy-change (2. order) :-0.2128071E-03  (-0.9191905E-04)
 number of electron     206.0000001 magnetization       0.0000000
 augmentation part        5.6361151 magnetization       0.0000000

 Free energy of the ion-electron system (eV)
  ---------------------------------------------------
  alpha Z        PSCENC =        91.96860879
  Ewald energy   TEWEN  =     33260.23390465
  -Hartree energ DENC   =    -40427.48245316
  -exchange      EXHF   =         0.00000000
  -V(xc)+E(xc)   XCENC  =       752.24102714
  PAW double counting   =      4236.84216807    -4291.02859097
  entropy T*S    EENTRO =        -0.00959283
  eigenvalues    EBANDS =     -2438.57362851
  atomic energy  EATOM  =      8375.15076734
  ---------------------------------------------------
  free energy    TOTEN  =      -440.65772506 eV

  energy without entropy =     -440.64813224  energy(sigma->0) =     -440.65292865


--------------------------------------------------------------------------------------------------------




--------------------------------------- Iteration      1(  17)  ---------------------------------------


    POTLOK:  cpu time    2.5607: real time    2.5609
    SETDIJ:  cpu time    0.4513: real time    0.4513
    TRIAL :  cpu time   62.9440: real time   64.3591
    CORREC:  cpu time   28.0772: real time   29.2573
    CHARGE:  cpu time    3.3538: real time    3.3569
    --------------------------------------------
      LOOP:  cpu time   97.4097: real time  100.0082

 eigenvalue-minimisations  :     0
 total energy-change (2. order) :-0.9173594E-04  (-0.3490588E-04)
 number of electron     206.0000001 magnetization       0.0000000
 augmentation part        5.6360394 magnetization       0.0000000

 Free energy of the ion-electron system (eV)
  ---------------------------------------------------
  alpha Z        PSCENC =        91.96860879
  Ewald energy   TEWEN  =     33260.23390465
  -Hartree energ DENC   =    -40427.50486011
  -exchange      EXHF   =         0.00000000
  -V(xc)+E(xc)   XCENC  =       752.24171056
  PAW double counting   =      4236.87075304    -4291.05678171
  entropy T*S    EENTRO =        -0.00962011
  eigenvalues    EBANDS =     -2438.55232653
  atomic energy  EATOM  =      8375.15076734
  ---------------------------------------------------
  free energy    TOTEN  =      -440.65781680 eV

  energy without entropy =     -440.64819668  energy(sigma->0) =     -440.65300674


--------------------------------------------------------------------------------------------------------




--------------------------------------- Iteration      1(  18)  ---------------------------------------


    POTLOK:  cpu time    2.5355: real time    2.5370
    SETDIJ:  cpu time    0.4471: real time    0.4474
    TRIAL :  cpu time   63.0522: real time   64.3825
    CORREC:  cpu time   28.3669: real time   29.5873
    CHARGE:  cpu time    3.2722: real time    3.2735
    --------------------------------------------
      LOOP:  cpu time   97.6973: real time  100.2511

 eigenvalue-minimisations  :     0
 total energy-change (2. order) :-0.3484185E-04  (-0.1224937E-04)
 number of electron     206.0000001 magnetization      -0.0000000
 augmentation part        5.6359794 magnetization       0.0000000

 Free energy of the ion-electron system (eV)
  ---------------------------------------------------
  alpha Z        PSCENC =        91.96860879
  Ewald energy   TEWEN  =     33260.23390465
  -Hartree energ DENC   =    -40427.51196814
  -exchange      EXHF   =         0.00000000
  -V(xc)+E(xc)   XCENC  =       752.24195669
  PAW double counting   =      4236.88141940    -4291.06715236
  entropy T*S    EENTRO =        -0.00962362
  eigenvalues    EBANDS =     -2438.54576789
  atomic energy  EATOM  =      8375.15076734
  ---------------------------------------------------
  free energy    TOTEN  =      -440.65785164 eV

  energy without entropy =     -440.64822802  energy(sigma->0) =     -440.65303983


--------------------------------------------------------------------------------------------------------




--------------------------------------- Iteration      1(  19)  ---------------------------------------


    POTLOK:  cpu time    2.5087: real time    2.5217
    SETDIJ:  cpu time    0.4450: real time    0.4451
    TRIAL :  cpu time   63.1711: real time   64.4373
    CORREC:  cpu time   28.1498: real time   29.2666
    CHARGE:  cpu time    3.3247: real time    3.3259
    --------------------------------------------
      LOOP:  cpu time   97.6247: real time  100.0218

 eigenvalue-minimisations  :     0
 total energy-change (2. order) :-0.1222233E-04  (-0.4547427E-05)
 number of electron     206.0000001 magnetization      -0.0000000
 augmentation part        5.6359530 magnetization       0.0000000

 Free energy of the ion-electron system (eV)
  ---------------------------------------------------
  alpha Z        PSCENC =        91.96860879
  Ewald energy   TEWEN  =     33260.23390465
  -Hartree energ DENC   =    -40427.50422291
  -exchange      EXHF   =         0.00000000
  -V(xc)+E(xc)   XCENC  =       752.24176482
  PAW double counting   =      4236.87450139    -4291.05992121
  entropy T*S    EENTRO =        -0.00961829
  eigenvalues    EBANDS =     -2438.55364310
  atomic energy  EATOM  =      8375.15076734
  ---------------------------------------------------
  free energy    TOTEN  =      -440.65786386 eV

  energy without entropy =     -440.64824557  energy(sigma->0) =     -440.65305472


--------------------------------------------------------------------------------------------------------




--------------------------------------- Iteration      1(  20)  ---------------------------------------


    POTLOK:  cpu time    2.6162: real time    2.6172
    SETDIJ:  cpu time    0.4477: real time    0.4477
    TRIAL :  cpu time   63.8418: real time   65.1084
    CORREC:  cpu time   28.6160: real time   29.7864
    EDDIAG:  cpu time   21.9708: real time   21.9952
    CHARGE:  cpu time    3.2719: real time    3.2725
    --------------------------------------------
      LOOP:  cpu time  120.7864: real time  123.2495

 eigenvalue-minimisations  :     0
 total energy-change (2. order) :-0.4541399E-05  (-0.1849903E-05)
 number of electron     206.0000001 magnetization      -0.0000000
 augmentation part        5.6359486 magnetization       0.0000000

 Free energy of the ion-electron system (eV)
  ---------------------------------------------------
  alpha Z        PSCENC =        91.96860879
  Ewald energy   TEWEN  =     33260.23390465
  -Hartree energ DENC   =    -40427.50133702
  -exchange      EXHF   =         0.00000000
  -V(xc)+E(xc)   XCENC  =       752.24170481
  PAW double counting   =      4236.86904306    -4291.05423064
  entropy T*S    EENTRO =        -0.00961116
  eigenvalues    EBANDS =     -2438.55671110
  atomic energy  EATOM  =      8375.15076734
  ---------------------------------------------------
  free energy    TOTEN  =      -440.65786840 eV

  energy without entropy =     -440.64825725  energy(sigma->0) =     -440.65306282


--------------------------------------------------------------------------------------------------------


  average scaling for gradient   1.1942


 average (electrostatic) potential at core
  the test charge radii are     0.6991  0.7089  1.1929
  (the norm of the test charge is              1.0000)
       1 -57.5656       2 -57.5246       3 -57.5245       4 -57.6206       5 -57.7188
       6 -57.6752       7 -57.6237       8 -57.5903       9 -57.5734      10 -57.4873
      11 -57.5734      12 -57.7189      13 -57.6210      14 -58.2231      15 -58.2230
      16 -58.3302      17 -57.4501      18 -57.6767      19 -57.5903      20 -57.6237
      21 -57.6236      22 -57.6754      23 -58.3303      24 -58.3302      25 -57.6751
      26 -57.7188      27 -57.5735      28 -57.5901      29 -57.6767      30 -57.4501
      31 -58.3303      32 -58.2231      33 -58.2230      34 -57.6206      35 -57.5245
      36 -57.5655      37 -57.4873      38 -57.5735      39 -57.5901      40 -57.6236
      41 -57.6754      42 -57.7189      43 -57.6210      44 -57.5246      45 -71.6997
      46 -71.7002      47 -71.6997      48 -71.7002      49 -43.2918
 
 
 
 E-fermi :  -1.8339     XC(G=0):  -2.2066     alpha+bet : -1.9473


 spin component 1

 k-point     1 :       0.0000    0.0000    0.0000
  band No.  band energies     occupation 
      1     -37.2774      1.00000
      2     -22.5357      1.00000
      3     -22.2835      1.00000
      4     -22.0216      1.00000
      5     -21.6310      1.00000
      6     -21.2224      1.00000
      7     -20.8060      1.00000
      8     -20.7583      1.00000
      9     -20.3007      1.00000
     10     -19.9627      1.00000
     11     -19.7803      1.00000
     12     -19.4807      1.00000
     13     -19.3994      1.00000
     14     -19.1908      1.00000
     15     -18.9927      1.00000
     16     -18.9350      1.00000
     17     -18.6478      1.00000
     18     -18.5916      1.00000
     19     -18.3786      1.00000
     20     -18.2225      1.00000
     21     -18.1652      1.00000
     22     -17.9550      1.00000
     23     -17.3826      1.00000
     24     -16.6550      1.00000
     25     -16.5783      1.00000
     26     -16.1383      1.00000
     27     -16.0176      1.00000
     28     -15.8647      1.00000
     29     -15.4134      1.00000
     30     -15.1370      1.00000
     31     -15.0768      1.00000
     32     -14.9097      1.00000
     33     -14.8533      1.00000
     34     -14.5458      1.00000
     35     -13.9746      1.00000
     36     -13.8878      1.00000
     37     -13.8613      1.00000
     38     -13.7645      1.00000
     39     -13.5461      1.00000
     40     -12.7087      1.00000
     41     -11.9644      1.00000
     42     -11.8959      1.00000
     43     -11.7464      1.00000
     44     -11.5444      1.00000
     45     -11.2274      1.00000
     46     -11.1453      1.00000
     47     -11.1436      1.00000
     48     -11.0994      1.00000
     49     -11.0642      1.00000
     50     -10.9383      1.00000
     51     -10.5656      1.00000
     52     -10.0970      1.00000
     53     -10.0342      1.00000
     54     -10.0059      1.00000
     55      -9.8891      1.00000
     56      -9.5718      1.00000
     57      -9.4997      1.00000
     58      -9.4826      1.00000
     59      -9.1591      1.00000
     60      -9.1278      1.00000
     61      -9.1241      1.00000
     62      -8.9221      1.00000
     63      -8.8716      1.00000
     64      -8.7821      1.00000
     65      -8.7543      1.00000
     66      -8.6600      1.00000
     67      -8.6558      1.00000
     68      -8.5880      1.00000
     69      -8.5385      1.00000
     70      -8.4571      1.00000
     71      -8.4238      1.00000
     72      -8.4135      1.00000
     73      -8.3085      1.00000
     74      -7.7828      1.00000
     75      -7.7721      1.00000
     76      -7.2384      1.00000
     77      -7.2199      1.00000
     78      -7.0813      1.00000
     79      -7.0424      1.00000
     80      -6.9161      1.00000
     81      -6.8195      1.00000
     82      -6.6657      1.00000
     83      -6.6560      1.00000
     84      -6.5579      1.00000
     85      -6.2338      1.00000
     86      -6.1838      1.00000
     87      -5.9557      1.00000
     88      -5.8515      1.00000
     89      -5.8438      1.00000
     90      -5.7974      1.00000
     91      -5.7514      1.00000
     92      -5.6971      1.00000
     93      -5.5654      1.00000
     94      -5.2823      1.00000
     95      -4.7640      1.00000
     96      -4.4508      1.00000
     97      -4.3505      1.00000
     98      -3.9285      1.00000
     99      -3.8200      1.00000
    100      -3.7309      1.00000
    101      -3.7226      1.00000
    102      -3.5293      1.00000
    103      -2.2356      1.00000
    104      -1.2531      0.00000
    105      -1.1583      0.00000
    106      -0.9504      0.00000
    107      -0.9292      0.00000
    108      -0.4689      0.00000
    109      -0.4258      0.00000
    110       0.1383      0.00000
    111       0.7295      0.00000
    112       0.7449      0.00000
    113       0.7851      0.00000
    114       0.8149      0.00000
    115       0.8584      0.00000
    116       0.9483      0.00000
    117       0.9486      0.00000
    118       1.4560      0.00000
    119       1.5963      0.00000
    120       1.6469      0.00000
    121       1.6882      0.00000
    122       1.7961      0.00000
    123       1.8834      0.00000
    124       2.0080      0.00000
    125       2.2279      0.00000
    126       2.2594      0.00000
    127       2.4052      0.00000
    128       2.5229      0.00000
    129       2.5284      0.00000
    130       2.5422      0.00000
    131       2.5676      0.00000
    132       2.5784      0.00000
    133       2.5959      0.00000
    134       2.7192      0.00000
    135       2.7304      0.00000
    136       2.7417      0.00000
    137       2.7453      0.00000
    138       2.7713      0.00000
    139       2.8179      0.00000
    140       2.8877      0.00000
    141       2.8929      0.00000
    142       2.9386      0.00000
    143       2.9498      0.00000
    144       3.0940      0.00000
    145       3.1505      0.00000
    146       3.1931      0.00000
    147       3.4574      0.00000
    148       3.6374      0.00000
    149       3.8597      0.00000
    150       3.8845      0.00000
    151       3.9028      0.00000
    152       3.9230      0.00000
    153       3.9296      0.00000
    154       4.2017      0.00000
    155       4.2259      0.00000
    156       4.2340      0.00000
    157       4.3169      0.00000
    158       4.3218      0.00000
    159       4.3360      0.00000
    160       4.3380      0.00000
    161       4.3922      0.00000
    162       4.4454      0.00000
    163       4.4495      0.00000
    164       4.5868      0.00000
    165       4.7020      0.00000
    166       4.7740      0.00000
    167       4.9018      0.00000
    168       4.9342      0.00000
    169       5.0979      0.00000
    170       5.1146      0.00000
    171       5.1969      0.00000
    172       5.2690      0.00000
    173       5.2879      0.00000
    174       5.2910      0.00000
    175       5.3054      0.00000
    176       5.3191      0.00000
    177       5.3320      0.00000
    178       5.3425      0.00000
    179       5.4747      0.00000
    180       5.4764      0.00000
    181       5.5185      0.00000
    182       5.5370      0.00000
    183       5.5421      0.00000
    184       5.5522      0.00000
    185       5.5882      0.00000
    186       5.6017      0.00000
    187       5.6067      0.00000
    188       5.6511      0.00000
    189       5.7367      0.00000
    190       5.8060      0.00000
    191       5.8125      0.00000
    192       5.8290      0.00000
    193       5.8319      0.00000
    194       5.8659      0.00000
    195       5.9070      0.00000
    196       5.9610      0.00000
    197       5.9619      0.00000
    198       5.9922      0.00000
    199       6.0167      0.00000
    200       6.0454      0.00000
    201       6.0717      0.00000
    202       6.0811      0.00000
    203       6.0977      0.00000
    204       6.2010      0.00000
    205       6.3056      0.00000
    206       6.3124      0.00000
    207       6.3231      0.00000
    208       6.3606      0.00000
    209       6.3935      0.00000
    210       6.4260      0.00000
    211       6.4504      0.00000
    212       6.4668      0.00000
    213       6.5246      0.00000
    214       6.5287      0.00000
    215       6.5333      0.00000
    216       6.5601      0.00000
    217       6.5769      0.00000
    218       6.5811      0.00000
    219       6.5871      0.00000
    220       6.6444      0.00000
    221       6.6888      0.00000
    222       6.6976      0.00000
    223       6.7109      0.00000
    224       6.7131      0.00000
    225       6.7175      0.00000
    226       6.7647      0.00000
    227       6.7882      0.00000
    228       6.8393      0.00000
    229       6.8681      0.00000
    230       6.8867      0.00000
    231       6.8885      0.00000
    232       6.8910      0.00000
    233       6.9012      0.00000
    234       6.9132      0.00000
    235       6.9183      0.00000
    236       6.9255      0.00000
    237       6.9755      0.00000
    238       6.9946      0.00000
    239       7.0378      0.00000
    240       7.0740      0.00000
    241       7.2513      0.00000
    242       7.6476      0.00000
    243       7.7185      0.00000
    244       7.7283      0.00000
    245       7.7775      0.00000
    246       7.7844      0.00000
    247       7.8042      0.00000
    248       7.8066      0.00000
    249       8.0670      0.00000
    250       8.1213      0.00000
    251       8.1232      0.00000
    252       8.1245      0.00000
    253       8.1870      0.00000
    254       8.2022      0.00000
    255       8.2092      0.00000
    256       8.3020      0.00000

 k-point     2 :       0.2000    0.0000    0.0000
  band No.  band energies     occupation 
      1     -37.2774      1.00000
      2     -22.5235      1.00000
      3     -22.2979      1.00000
      4     -22.0323      1.00000
      5     -21.6360      1.00000
      6     -21.1969      1.00000
      7     -20.8672      1.00000
      8     -20.6525      1.00000
      9     -20.2965      1.00000
     10     -19.9728      1.00000
     11     -19.7458      1.00000
     12     -19.5208      1.00000
     13     -19.4628      1.00000
     14     -19.2945      1.00000
     15     -19.0743      1.00000
     16     -18.8351      1.00000
     17     -18.7164      1.00000
     18     -18.5860      1.00000
     19     -18.5278      1.00000
     20     -18.0956      1.00000
     21     -17.8693      1.00000
     22     -17.7720      1.00000
     23     -17.3535      1.00000
     24     -16.7823      1.00000
     25     -16.5472      1.00000
     26     -16.4572      1.00000
     27     -16.2105      1.00000
     28     -15.9248      1.00000
     29     -15.5284      1.00000
     30     -15.0271      1.00000
     31     -14.8988      1.00000
     32     -14.7180      1.00000
     33     -14.6437      1.00000
     34     -14.5474      1.00000
     35     -14.3328      1.00000
     36     -14.2020      1.00000
     37     -13.7538      1.00000
     38     -13.4256      1.00000
     39     -12.9806      1.00000
     40     -12.6897      1.00000
     41     -12.2688      1.00000
     42     -12.0205      1.00000
     43     -11.9397      1.00000
     44     -11.6726      1.00000
     45     -11.5857      1.00000
     46     -11.4605      1.00000
     47     -11.1173      1.00000
     48     -10.9329      1.00000
     49     -10.8053      1.00000
     50     -10.7128      1.00000
     51     -10.5035      1.00000
     52     -10.1596      1.00000
     53     -10.0255      1.00000
     54      -9.8781      1.00000
     55      -9.8288      1.00000
     56      -9.6726      1.00000
     57      -9.3500      1.00000
     58      -9.3082      1.00000
     59      -9.2769      1.00000
     60      -9.2453      1.00000
     61      -9.1356      1.00000
     62      -9.0268      1.00000
     63      -8.9861      1.00000
     64      -8.9622      1.00000
     65      -8.7856      1.00000
     66      -8.6095      1.00000
     67      -8.5807      1.00000
     68      -8.5106      1.00000
     69      -8.4670      1.00000
     70      -8.4131      1.00000
     71      -8.3218      1.00000
     72      -8.2594      1.00000
     73      -8.0179      1.00000
     74      -7.8119      1.00000
     75      -7.7452      1.00000
     76      -7.4142      1.00000
     77      -7.3329      1.00000
     78      -7.2540      1.00000
     79      -7.1176      1.00000
     80      -7.0130      1.00000
     81      -6.8820      1.00000
     82      -6.7514      1.00000
     83      -6.6325      1.00000
     84      -6.3893      1.00000
     85      -6.2799      1.00000
     86      -6.1100      1.00000
     87      -6.0605      1.00000
     88      -6.0056      1.00000
     89      -5.9102      1.00000
     90      -5.6166      1.00000
     91      -5.5713      1.00000
     92      -5.4122      1.00000
     93      -5.3609      1.00000
     94      -5.3147      1.00000
     95      -4.8126      1.00000
     96      -4.4334      1.00000
     97      -4.3834      1.00000
     98      -4.1149      1.00000
     99      -4.0532      1.00000
    100      -3.9508      1.00000
    101      -3.6872      1.00000
    102      -3.3363      1.00000
    103      -2.3270      1.00000
    104      -1.2867      0.00000
    105      -1.0271      0.00000
    106      -0.7587      0.00000
    107      -0.7088      0.00000
    108      -0.4632      0.00000
    109      -0.4016      0.00000
    110       0.0216      0.00000
    111       0.1232      0.00000
    112       0.6624      0.00000
    113       0.7218      0.00000
    114       0.8558      0.00000
    115       0.9443      0.00000
    116       1.0940      0.00000
    117       1.3541      0.00000
    118       1.4303      0.00000
    119       1.5513      0.00000
    120       1.6034      0.00000
    121       1.6119      0.00000
    122       1.6866      0.00000
    123       1.8234      0.00000
    124       1.9897      0.00000
    125       2.1886      0.00000
    126       2.2267      0.00000
    127       2.2968      0.00000
    128       2.3270      0.00000
    129       2.3493      0.00000
    130       2.3958      0.00000
    131       2.5259      0.00000
    132       2.5581      0.00000
    133       2.6134      0.00000
    134       2.6671      0.00000
    135       2.7004      0.00000
    136       2.8257      0.00000
    137       2.8994      0.00000
    138       2.9210      0.00000
    139       3.0598      0.00000
    140       3.0770      0.00000
    141       3.1229      0.00000
    142       3.1765      0.00000
    143       3.2160      0.00000
    144       3.2887      0.00000
    145       3.3046      0.00000
    146       3.4111      0.00000
    147       3.4633      0.00000
    148       3.5362      0.00000
    149       3.6651      0.00000
    150       3.7196      0.00000
    151       3.8493      0.00000
    152       3.9053      0.00000
    153       3.9480      0.00000
    154       4.0627      0.00000
    155       4.1425      0.00000
    156       4.1477      0.00000
    157       4.2009      0.00000
    158       4.2357      0.00000
    159       4.4248      0.00000
    160       4.5424      0.00000
    161       4.5790      0.00000
    162       4.5856      0.00000
    163       4.6084      0.00000
    164       4.6666      0.00000
    165       4.6719      0.00000
    166       4.7462      0.00000
    167       4.7567      0.00000
    168       4.7959      0.00000
    169       4.8668      0.00000
    170       4.8945      0.00000
    171       4.9664      0.00000
    172       5.1042      0.00000
    173       5.1419      0.00000
    174       5.2151      0.00000
    175       5.2911      0.00000
    176       5.3273      0.00000
    177       5.3739      0.00000
    178       5.3879      0.00000
    179       5.4008      0.00000
    180       5.4260      0.00000
    181       5.4593      0.00000
    182       5.5086      0.00000
    183       5.5115      0.00000
    184       5.5776      0.00000
    185       5.6194      0.00000
    186       5.6434      0.00000
    187       5.6515      0.00000
    188       5.6770      0.00000
    189       5.6859      0.00000
    190       5.7405      0.00000
    191       5.7694      0.00000
    192       5.7983      0.00000
    193       5.8084      0.00000
    194       5.8769      0.00000
    195       5.9162      0.00000
    196       5.9803      0.00000
    197       6.0311      0.00000
    198       6.0574      0.00000
    199       6.0823      0.00000
    200       6.1140      0.00000
    201       6.1334      0.00000
    202       6.1432      0.00000
    203       6.1822      0.00000
    204       6.1942      0.00000
    205       6.2206      0.00000
    206       6.2340      0.00000
    207       6.2609      0.00000
    208       6.2798      0.00000
    209       6.3103      0.00000
    210       6.3343      0.00000
    211       6.3601      0.00000
    212       6.3667      0.00000
    213       6.3796      0.00000
    214       6.4002      0.00000
    215       6.4424      0.00000
    216       6.4622      0.00000
    217       6.4878      0.00000
    218       6.5073      0.00000
    219       6.5534      0.00000
    220       6.5721      0.00000
    221       6.7140      0.00000
    222       6.7720      0.00000
    223       6.8082      0.00000
    224       6.8447      0.00000
    225       6.9090      0.00000
    226       6.9383      0.00000
    227       6.9714      0.00000
    228       6.9892      0.00000
    229       7.0193      0.00000
    230       7.1231      0.00000
    231       7.2214      0.00000
    232       7.3058      0.00000
    233       7.3307      0.00000
    234       7.3697      0.00000
    235       7.3841      0.00000
    236       7.4562      0.00000
    237       7.5689      0.00000
    238       7.6458      0.00000
    239       7.6861      0.00000
    240       7.7126      0.00000
    241       7.7656      0.00000
    242       7.7893      0.00000
    243       7.8252      0.00000
    244       7.9121      0.00000
    245       7.9208      0.00000
    246       7.9888      0.00000
    247       8.1175      0.00000
    248       8.1235      0.00000
    249       8.2497      0.00000
    250       8.3394      0.00000
    251       8.3789      0.00000
    252       8.4304      0.00000
    253       8.5607      0.00000
    254       8.7177      0.00000
    255       8.9672      0.00000
    256       9.1023      0.00000

 k-point     3 :       0.4000    0.0000    0.0000
  band No.  band energies     occupation 
      1     -37.2774      1.00000
      2     -22.4992      1.00000
      3     -22.3259      1.00000
      4     -22.0484      1.00000
      5     -21.6455      1.00000
      6     -21.1445      1.00000
      7     -20.8990      1.00000
      8     -20.6004      1.00000
      9     -20.1887      1.00000
     10     -20.0035      1.00000
     11     -19.7582      1.00000
     12     -19.6167      1.00000
     13     -19.4920      1.00000
     14     -19.3999      1.00000
     15     -19.0822      1.00000
     16     -19.0228      1.00000
     17     -18.7581      1.00000
     18     -18.7149      1.00000
     19     -18.2042      1.00000
     20     -17.8933      1.00000
     21     -17.5768      1.00000
     22     -17.4577      1.00000
     23     -17.3163      1.00000
     24     -16.9859      1.00000
     25     -16.9147      1.00000
     26     -16.7402      1.00000
     27     -16.3260      1.00000
     28     -15.9058      1.00000
     29     -15.5473      1.00000
     30     -15.2506      1.00000
     31     -14.8276      1.00000
     32     -14.7960      1.00000
     33     -14.5889      1.00000
     34     -14.5056      1.00000
     35     -14.1335      1.00000
     36     -13.7852      1.00000
     37     -13.5517      1.00000
     38     -13.0277      1.00000
     39     -12.9386      1.00000
     40     -12.7823      1.00000
     41     -12.4141      1.00000
     42     -12.2525      1.00000
     43     -12.2143      1.00000
     44     -12.1324      1.00000
     45     -11.7781      1.00000
     46     -11.2956      1.00000
     47     -11.0197      1.00000
     48     -10.9914      1.00000
     49     -10.7938      1.00000
     50     -10.7641      1.00000
     51     -10.4025      1.00000
     52     -10.1795      1.00000
     53      -9.9863      1.00000
     54      -9.7412      1.00000
     55      -9.7193      1.00000
     56      -9.6242      1.00000
     57      -9.5191      1.00000
     58      -9.3919      1.00000
     59      -9.3193      1.00000
     60      -9.2208      1.00000
     61      -9.1157      1.00000
     62      -9.0502      1.00000
     63      -9.0233      1.00000
     64      -8.9367      1.00000
     65      -8.6816      1.00000
     66      -8.6675      1.00000
     67      -8.5401      1.00000
     68      -8.3195      1.00000
     69      -8.2878      1.00000
     70      -8.2168      1.00000
     71      -8.1071      1.00000
     72      -8.0097      1.00000
     73      -7.9524      1.00000
     74      -7.8380      1.00000
     75      -7.7668      1.00000
     76      -7.7499      1.00000
     77      -7.6755      1.00000
     78      -7.5208      1.00000
     79      -7.2922      1.00000
     80      -7.0191      1.00000
     81      -6.8508      1.00000
     82      -6.6977      1.00000
     83      -6.5240      1.00000
     84      -6.4663      1.00000
     85      -6.3801      1.00000
     86      -6.3174      1.00000
     87      -6.2785      1.00000
     88      -5.9023      1.00000
     89      -5.5419      1.00000
     90      -5.4076      1.00000
     91      -5.3537      1.00000
     92      -5.3125      1.00000
     93      -5.1128      1.00000
     94      -4.9659      1.00000
     95      -4.8439      1.00000
     96      -4.5812      1.00000
     97      -4.5438      1.00000
     98      -4.5365      1.00000
     99      -4.3681      1.00000
    100      -4.1611      1.00000
    101      -3.6379      1.00000
    102      -3.1613      1.00000
    103      -2.4383      1.00000
    104      -1.3440      0.00000
    105      -0.8762      0.00000
    106      -0.5838      0.00000
    107      -0.4017      0.00000
    108      -0.2999      0.00000
    109      -0.2388      0.00000
    110      -0.1461      0.00000
    111      -0.0443      0.00000
    112       0.3944      0.00000
    113       0.6246      0.00000
    114       0.7066      0.00000
    115       0.8530      0.00000
    116       1.0581      0.00000
    117       1.1971      0.00000
    118       1.3199      0.00000
    119       1.5052      0.00000
    120       1.6252      0.00000
    121       1.7493      0.00000
    122       1.8297      0.00000
    123       1.8693      0.00000
    124       2.0055      0.00000
    125       2.0567      0.00000
    126       2.0948      0.00000
    127       2.1203      0.00000
    128       2.2597      0.00000
    129       2.4454      0.00000
    130       2.4484      0.00000
    131       2.4874      0.00000
    132       2.5287      0.00000
    133       2.6083      0.00000
    134       2.6790      0.00000
    135       2.7929      0.00000
    136       2.8344      0.00000
    137       3.0269      0.00000
    138       3.0983      0.00000
    139       3.2159      0.00000
    140       3.2618      0.00000
    141       3.3363      0.00000
    142       3.4248      0.00000
    143       3.4318      0.00000
    144       3.4669      0.00000
    145       3.5209      0.00000
    146       3.5412      0.00000
    147       3.5822      0.00000
    148       3.6438      0.00000
    149       3.7034      0.00000
    150       3.7469      0.00000
    151       3.8896      0.00000
    152       3.9244      0.00000
    153       3.9836      0.00000
    154       4.0105      0.00000
    155       4.0258      0.00000
    156       4.0647      0.00000
    157       4.1027      0.00000
    158       4.1311      0.00000
    159       4.1919      0.00000
    160       4.2797      0.00000
    161       4.3600      0.00000
    162       4.5091      0.00000
    163       4.5669      0.00000
    164       4.6723      0.00000
    165       4.7093      0.00000
    166       4.7478      0.00000
    167       4.7844      0.00000
    168       4.8559      0.00000
    169       4.8621      0.00000
    170       4.9038      0.00000
    171       4.9973      0.00000
    172       5.0121      0.00000
    173       5.0525      0.00000
    174       5.0604      0.00000
    175       5.0842      0.00000
    176       5.0975      0.00000
    177       5.1662      0.00000
    178       5.2238      0.00000
    179       5.2555      0.00000
    180       5.3574      0.00000
    181       5.4406      0.00000
    182       5.4843      0.00000
    183       5.5130      0.00000
    184       5.5211      0.00000
    185       5.5518      0.00000
    186       5.5802      0.00000
    187       5.6293      0.00000
    188       5.6609      0.00000
    189       5.6789      0.00000
    190       5.6877      0.00000
    191       5.7439      0.00000
    192       5.7523      0.00000
    193       5.7828      0.00000
    194       5.8033      0.00000
    195       5.8527      0.00000
    196       5.8734      0.00000
    197       5.9315      0.00000
    198       5.9842      0.00000
    199       6.0167      0.00000
    200       6.0410      0.00000
    201       6.1021      0.00000
    202       6.1587      0.00000
    203       6.2119      0.00000
    204       6.2267      0.00000
    205       6.2873      0.00000
    206       6.3105      0.00000
    207       6.3319      0.00000
    208       6.3410      0.00000
    209       6.4606      0.00000
    210       6.5006      0.00000
    211       6.5264      0.00000
    212       6.6035      0.00000
    213       6.6420      0.00000
    214       6.6556      0.00000
    215       6.6957      0.00000
    216       6.7099      0.00000
    217       6.8324      0.00000
    218       6.8725      0.00000
    219       6.9006      0.00000
    220       6.9321      0.00000
    221       6.9640      0.00000
    222       7.0136      0.00000
    223       7.0966      0.00000
    224       7.1225      0.00000
    225       7.1537      0.00000
    226       7.1884      0.00000
    227       7.2084      0.00000
    228       7.2581      0.00000
    229       7.2774      0.00000
    230       7.3026      0.00000
    231       7.3813      0.00000
    232       7.4125      0.00000
    233       7.4809      0.00000
    234       7.5814      0.00000
    235       7.6382      0.00000
    236       7.6830      0.00000
    237       7.7862      0.00000
    238       7.8070      0.00000
    239       7.8519      0.00000
    240       7.8614      0.00000
    241       7.9209      0.00000
    242       8.0467      0.00000
    243       8.0486      0.00000
    244       8.1318      0.00000
    245       8.1469      0.00000
    246       8.2756      0.00000
    247       8.3502      0.00000
    248       8.4586      0.00000
    249       8.5143      0.00000
    250       8.6154      0.00000
    251       8.6672      0.00000
    252       8.8084      0.00000
    253       8.8739      0.00000
    254       8.8849      0.00000
    255       9.1399      0.00000
    256       9.3461      0.00000

 k-point     4 :       0.0000    0.2000    0.0000
  band No.  band energies     occupation 
      1     -37.2774      1.00000
      2     -22.5235      1.00000
      3     -22.2979      1.00000
      4     -22.0323      1.00000
      5     -21.6360      1.00000
      6     -21.1969      1.00000
      7     -20.8672      1.00000
      8     -20.6525      1.00000
      9     -20.2965      1.00000
     10     -19.9728      1.00000
     11     -19.7458      1.00000
     12     -19.5208      1.00000
     13     -19.4628      1.00000
     14     -19.2945      1.00000
     15     -19.0743      1.00000
     16     -18.8351      1.00000
     17     -18.7164      1.00000
     18     -18.5860      1.00000
     19     -18.5278      1.00000
     20     -18.0956      1.00000
     21     -17.8693      1.00000
     22     -17.7720      1.00000
     23     -17.3535      1.00000
     24     -16.7823      1.00000
     25     -16.5472      1.00000
     26     -16.4572      1.00000
     27     -16.2105      1.00000
     28     -15.9248      1.00000
     29     -15.5284      1.00000
     30     -15.0271      1.00000
     31     -14.8988      1.00000
     32     -14.7180      1.00000
     33     -14.6437      1.00000
     34     -14.5474      1.00000
     35     -14.3328      1.00000
     36     -14.2020      1.00000
     37     -13.7538      1.00000
     38     -13.4256      1.00000
     39     -12.9806      1.00000
     40     -12.6897      1.00000
     41     -12.2688      1.00000
     42     -12.0205      1.00000
     43     -11.9397      1.00000
     44     -11.6726      1.00000
     45     -11.5857      1.00000
     46     -11.4605      1.00000
     47     -11.1173      1.00000
     48     -10.9329      1.00000
     49     -10.8053      1.00000
     50     -10.7128      1.00000
     51     -10.5035      1.00000
     52     -10.1596      1.00000
     53     -10.0255      1.00000
     54      -9.8781      1.00000
     55      -9.8288      1.00000
     56      -9.6726      1.00000
     57      -9.3500      1.00000
     58      -9.3082      1.00000
     59      -9.2769      1.00000
     60      -9.2453      1.00000
     61      -9.1356      1.00000
     62      -9.0268      1.00000
     63      -8.9861      1.00000
     64      -8.9622      1.00000
     65      -8.7856      1.00000
     66      -8.6095      1.00000
     67      -8.5807      1.00000
     68      -8.5106      1.00000
     69      -8.4670      1.00000
     70      -8.4131      1.00000
     71      -8.3218      1.00000
     72      -8.2594      1.00000
     73      -8.0179      1.00000
     74      -7.8119      1.00000
     75      -7.7452      1.00000
     76      -7.4142      1.00000
     77      -7.3329      1.00000
     78      -7.2540      1.00000
     79      -7.1176      1.00000
     80      -7.0130      1.00000
     81      -6.8820      1.00000
     82      -6.7514      1.00000
     83      -6.6325      1.00000
     84      -6.3893      1.00000
     85      -6.2799      1.00000
     86      -6.1100      1.00000
     87      -6.0605      1.00000
     88      -6.0056      1.00000
     89      -5.9102      1.00000
     90      -5.6166      1.00000
     91      -5.5713      1.00000
     92      -5.4122      1.00000
     93      -5.3609      1.00000
     94      -5.3147      1.00000
     95      -4.8126      1.00000
     96      -4.4334      1.00000
     97      -4.3834      1.00000
     98      -4.1149      1.00000
     99      -4.0532      1.00000
    100      -3.9508      1.00000
    101      -3.6872      1.00000
    102      -3.3363      1.00000
    103      -2.3270      1.00000
    104      -1.2867      0.00000
    105      -1.0271      0.00000
    106      -0.7587      0.00000
    107      -0.7088      0.00000
    108      -0.4632      0.00000
    109      -0.4016      0.00000
    110       0.0216      0.00000
    111       0.1232      0.00000
    112       0.6624      0.00000
    113       0.7218      0.00000
    114       0.8558      0.00000
    115       0.9443      0.00000
    116       1.0940      0.00000
    117       1.3541      0.00000
    118       1.4303      0.00000
    119       1.5513      0.00000
    120       1.6035      0.00000
    121       1.6119      0.00000
    122       1.6866      0.00000
    123       1.8234      0.00000
    124       1.9897      0.00000
    125       2.1886      0.00000
    126       2.2267      0.00000
    127       2.2968      0.00000
    128       2.3270      0.00000
    129       2.3493      0.00000
    130       2.3958      0.00000
    131       2.5259      0.00000
    132       2.5581      0.00000
    133       2.6134      0.00000
    134       2.6671      0.00000
    135       2.7004      0.00000
    136       2.8257      0.00000
    137       2.8994      0.00000
    138       2.9210      0.00000
    139       3.0598      0.00000
    140       3.0770      0.00000
    141       3.1229      0.00000
    142       3.1765      0.00000
    143       3.2160      0.00000
    144       3.2887      0.00000
    145       3.3046      0.00000
    146       3.4111      0.00000
    147       3.4633      0.00000
    148       3.5362      0.00000
    149       3.6651      0.00000
    150       3.7196      0.00000
    151       3.8493      0.00000
    152       3.9053      0.00000
    153       3.9480      0.00000
    154       4.0627      0.00000
    155       4.1426      0.00000
    156       4.1477      0.00000
    157       4.2009      0.00000
    158       4.2357      0.00000
    159       4.4248      0.00000
    160       4.5424      0.00000
    161       4.5790      0.00000
    162       4.5856      0.00000
    163       4.6084      0.00000
    164       4.6666      0.00000
    165       4.6719      0.00000
    166       4.7462      0.00000
    167       4.7567      0.00000
    168       4.7959      0.00000
    169       4.8668      0.00000
    170       4.8945      0.00000
    171       4.9668      0.00000
    172       5.1044      0.00000
    173       5.1421      0.00000
    174       5.2156      0.00000
    175       5.2922      0.00000
    176       5.3286      0.00000
    177       5.3772      0.00000
    178       5.3881      0.00000
    179       5.4021      0.00000
    180       5.4331      0.00000
    181       5.4595      0.00000
    182       5.5104      0.00000
    183       5.5228      0.00000
    184       5.5830      0.00000
    185       5.6230      0.00000
    186       5.6443      0.00000
    187       5.6580      0.00000
    188       5.6857      0.00000
    189       5.7320      0.00000
    190       5.7526      0.00000
    191       5.7866      0.00000
    192       5.8065      0.00000
    193       5.8664      0.00000
    194       5.8826      0.00000
    195       5.9791      0.00000
    196       6.0228      0.00000
    197       6.0600      0.00000
    198       6.0667      0.00000
    199       6.1120      0.00000
    200       6.1198      0.00000
    201       6.1748      0.00000
    202       6.1972      0.00000
    203       6.2165      0.00000
    204       6.2287      0.00000
    205       6.2567      0.00000
    206       6.2624      0.00000
    207       6.2936      0.00000
    208       6.3413      0.00000
    209       6.3669      0.00000
    210       6.3825      0.00000
    211       6.4258      0.00000
    212       6.4593      0.00000
    213       6.4758      0.00000
    214       6.4993      0.00000
    215       6.6495      0.00000
    216       6.7808      0.00000
    217       6.8835      0.00000
    218       6.8859      0.00000
    219       6.9052      0.00000
    220       6.9568      0.00000
    221       6.9799      0.00000
    222       7.0577      0.00000
    223       7.1971      0.00000
    224       7.1973      0.00000
    225       7.2082      0.00000
    226       7.3522      0.00000
    227       7.3972      0.00000
    228       7.4714      0.00000
    229       7.4817      0.00000
    230       7.6315      0.00000
    231       7.6517      0.00000
    232       7.6648      0.00000
    233       7.7685      0.00000
    234       7.8160      0.00000
    235       7.8833      0.00000
    236       7.9404      0.00000
    237       7.9848      0.00000
    238       8.1679      0.00000
    239       8.2175      0.00000
    240       8.3295      0.00000
    241       8.3861      0.00000
    242       8.4166      0.00000
    243       8.5139      0.00000
    244       8.5714      0.00000
    245       8.6464      0.00000
    246       8.7744      0.00000
    247       8.8136      0.00000
    248       8.8285      0.00000
    249       9.0053      0.00000
    250       9.1628      0.00000
    251       9.2774      0.00000
    252       9.3247      0.00000
    253       9.5356      0.00000
    254       9.7057      0.00000
    255       9.9615      0.00000
    256      10.0200      0.00000

 k-point     5 :       0.2000    0.2000    0.0000
  band No.  band energies     occupation 
      1     -37.2774      1.00000
      2     -22.5047      1.00000
      3     -22.3203      1.00000
      4     -22.0428      1.00000
      5     -21.6464      1.00000
      6     -21.1736      1.00000
      7     -20.8029      1.00000
      8     -20.7050      1.00000
      9     -20.1624      1.00000
     10     -20.0599      1.00000
     11     -19.6470      1.00000
     12     -19.5897      1.00000
     13     -19.4942      1.00000
     14     -19.3729      1.00000
     15     -19.2775      1.00000
     16     -18.9972      1.00000
     17     -18.7823      1.00000
     18     -18.2873      1.00000
     19     -18.2327      1.00000
     20     -18.1976      1.00000
     21     -17.8050      1.00000
     22     -17.5979      1.00000
     23     -17.2056      1.00000
     24     -16.8640      1.00000
     25     -16.6446      1.00000
     26     -16.6429      1.00000
     27     -16.4768      1.00000
     28     -15.9121      1.00000
     29     -15.5906      1.00000
     30     -15.2228      1.00000
     31     -14.9247      1.00000
     32     -14.8810      1.00000
     33     -14.4499      1.00000
     34     -14.2324      1.00000
     35     -14.2181      1.00000
     36     -13.8871      1.00000
     37     -13.7490      1.00000
     38     -13.3780      1.00000
     39     -12.7790      1.00000
     40     -12.6413      1.00000
     41     -12.4363      1.00000
     42     -12.3463      1.00000
     43     -12.0073      1.00000
     44     -11.8886      1.00000
     45     -11.5378      1.00000
     46     -11.4182      1.00000
     47     -11.2375      1.00000
     48     -11.1163      1.00000
     49     -11.0422      1.00000
     50     -10.3934      1.00000
     51     -10.3571      1.00000
     52     -10.1560      1.00000
     53     -10.1104      1.00000
     54      -9.7969      1.00000
     55      -9.7611      1.00000
     56      -9.7191      1.00000
     57      -9.4254      1.00000
     58      -9.3786      1.00000
     59      -9.3088      1.00000
     60      -9.2425      1.00000
     61      -9.0584      1.00000
     62      -8.9587      1.00000
     63      -8.8193      1.00000
     64      -8.7723      1.00000
     65      -8.7553      1.00000
     66      -8.7488      1.00000
     67      -8.5776      1.00000
     68      -8.5366      1.00000
     69      -8.3949      1.00000
     70      -8.3470      1.00000
     71      -8.2620      1.00000
     72      -8.0393      1.00000
     73      -8.0362      1.00000
     74      -7.7766      1.00000
     75      -7.7657      1.00000
     76      -7.6018      1.00000
     77      -7.4216      1.00000
     78      -7.2905      1.00000
     79      -7.2380      1.00000
     80      -7.0133      1.00000
     81      -6.9973      1.00000
     82      -6.8916      1.00000
     83      -6.7260      1.00000
     84      -6.6093      1.00000
     85      -6.2350      1.00000
     86      -6.1863      1.00000
     87      -5.8745      1.00000
     88      -5.7714      1.00000
     89      -5.6902      1.00000
     90      -5.5881      1.00000
     91      -5.3805      1.00000
     92      -5.3340      1.00000
     93      -5.3280      1.00000
     94      -5.1868      1.00000
     95      -4.8302      1.00000
     96      -4.5373      1.00000
     97      -4.3840      1.00000
     98      -4.3198      1.00000
     99      -4.2086      1.00000
    100      -4.1505      1.00000
    101      -3.9112      1.00000
    102      -2.8810      1.00000
    103      -2.6356      1.00000
    104      -1.4310      0.00000
    105      -0.6644      0.00000
    106      -0.5972      0.00000
    107      -0.4563      0.00000
    108      -0.4157      0.00000
    109      -0.3774      0.00000
    110      -0.1597      0.00000
    111       0.2234      0.00000
    112       0.2745      0.00000
    113       0.6493      0.00000
    114       0.7841      0.00000
    115       0.8238      0.00000
    116       1.1772      0.00000
    117       1.1991      0.00000
    118       1.2762      0.00000
    119       1.5463      0.00000
    120       1.5999      0.00000
    121       1.7037      0.00000
    122       1.7511      0.00000
    123       1.8147      0.00000
    124       1.9357      0.00000
    125       2.0924      0.00000
    126       2.1150      0.00000
    127       2.1648      0.00000
    128       2.2615      0.00000
    129       2.3271      0.00000
    130       2.4089      0.00000
    131       2.6159      0.00000
    132       2.6538      0.00000
    133       2.7089      0.00000
    134       2.8794      0.00000
    135       2.9113      0.00000
    136       2.9187      0.00000
    137       2.9677      0.00000
    138       3.0322      0.00000
    139       3.0767      0.00000
    140       3.1058      0.00000
    141       3.1884      0.00000
    142       3.2700      0.00000
    143       3.2990      0.00000
    144       3.4534      0.00000
    145       3.4692      0.00000
    146       3.5771      0.00000
    147       3.6165      0.00000
    148       3.6889      0.00000
    149       3.7128      0.00000
    150       3.7273      0.00000
    151       3.7644      0.00000
    152       3.8726      0.00000
    153       3.9198      0.00000
    154       3.9854      0.00000
    155       4.0015      0.00000
    156       4.0289      0.00000
    157       4.1556      0.00000
    158       4.1808      0.00000
    159       4.3405      0.00000
    160       4.4321      0.00000
    161       4.4473      0.00000
    162       4.4802      0.00000
    163       4.5488      0.00000
    164       4.6780      0.00000
    165       4.7056      0.00000
    166       4.7643      0.00000
    167       4.7689      0.00000
    168       4.8594      0.00000
    169       4.8917      0.00000
    170       4.8920      0.00000
    171       4.9750      0.00000
    172       5.0649      0.00000
    173       5.0789      0.00000
    174       5.0928      0.00000
    175       5.1441      0.00000
    176       5.1794      0.00000
    177       5.2145      0.00000
    178       5.2576      0.00000
    179       5.2840      0.00000
    180       5.3585      0.00000
    181       5.3981      0.00000
    182       5.4302      0.00000
    183       5.4333      0.00000
    184       5.4930      0.00000
    185       5.5007      0.00000
    186       5.5262      0.00000
    187       5.5484      0.00000
    188       5.5724      0.00000
    189       5.6429      0.00000
    190       5.7272      0.00000
    191       5.7702      0.00000
    192       5.8184      0.00000
    193       5.8378      0.00000
    194       5.8854      0.00000
    195       5.9220      0.00000
    196       5.9734      0.00000
    197       5.9855      0.00000
    198       6.0762      0.00000
    199       6.1215      0.00000
    200       6.1232      0.00000
    201       6.1836      0.00000
    202       6.2184      0.00000
    203       6.2220      0.00000
    204       6.2899      0.00000
    205       6.3202      0.00000
    206       6.3347      0.00000
    207       6.3406      0.00000
    208       6.3846      0.00000
    209       6.4226      0.00000
    210       6.4555      0.00000
    211       6.5259      0.00000
    212       6.5706      0.00000
    213       6.6715      0.00000
    214       6.7158      0.00000
    215       6.7199      0.00000
    216       6.7743      0.00000
    217       6.7746      0.00000
    218       6.7942      0.00000
    219       6.8228      0.00000
    220       6.9563      0.00000
    221       6.9970      0.00000
    222       7.0014      0.00000
    223       7.0395      0.00000
    224       7.0610      0.00000
    225       7.0953      0.00000
    226       7.1573      0.00000
    227       7.2022      0.00000
    228       7.2674      0.00000
    229       7.3110      0.00000
    230       7.3809      0.00000
    231       7.4760      0.00000
    232       7.5281      0.00000
    233       7.6000      0.00000
    234       7.7120      0.00000
    235       7.7712      0.00000
    236       7.8042      0.00000
    237       7.8447      0.00000
    238       7.8951      0.00000
    239       7.9212      0.00000
    240       8.0406      0.00000
    241       8.0813      0.00000
    242       8.1879      0.00000
    243       8.2214      0.00000
    244       8.3505      0.00000
    245       8.3574      0.00000
    246       8.4025      0.00000
    247       8.4343      0.00000
    248       8.5079      0.00000
    249       8.5934      0.00000
    250       8.7126      0.00000
    251       8.8296      0.00000
    252       8.9356      0.00000
    253       9.2121      0.00000
    254       9.2599      0.00000
    255       9.2800      0.00000
    256       9.8033      0.00000

 k-point     6 :       0.4000    0.2000    0.0000
  band No.  band energies     occupation 
      1     -37.2774      1.00000
      2     -22.4913      1.00000
      3     -22.3294      1.00000
      4     -22.0687      1.00000
      5     -21.6265      1.00000
      6     -21.1436      1.00000
      7     -20.9024      1.00000
      8     -20.6138      1.00000
      9     -20.1206      1.00000
     10     -19.9845      1.00000
     11     -19.7116      1.00000
     12     -19.6786      1.00000
     13     -19.4571      1.00000
     14     -19.3782      1.00000
     15     -19.3453      1.00000
     16     -19.1234      1.00000
     17     -18.8514      1.00000
     18     -18.2919      1.00000
     19     -18.1436      1.00000
     20     -17.8347      1.00000
     21     -17.6624      1.00000
     22     -17.5269      1.00000
     23     -17.3506      1.00000
     24     -16.9431      1.00000
     25     -16.8251      1.00000
     26     -16.7177      1.00000
     27     -16.5106      1.00000
     28     -15.9273      1.00000
     29     -15.4974      1.00000
     30     -15.4307      1.00000
     31     -15.1158      1.00000
     32     -14.9346      1.00000
     33     -14.2537      1.00000
     34     -14.0664      1.00000
     35     -13.9417      1.00000
     36     -13.5799      1.00000
     37     -13.4617      1.00000
     38     -13.3318      1.00000
     39     -13.2399      1.00000
     40     -12.9845      1.00000
     41     -12.6410      1.00000
     42     -12.3175      1.00000
     43     -11.9551      1.00000
     44     -11.7129      1.00000
     45     -11.5933      1.00000
     46     -11.4693      1.00000
     47     -11.2892      1.00000
     48     -11.2504      1.00000
     49     -10.8272      1.00000
     50     -10.7167      1.00000
     51     -10.3073      1.00000
     52     -10.2352      1.00000
     53      -9.8878      1.00000
     54      -9.6528      1.00000
     55      -9.6123      1.00000
     56      -9.5835      1.00000
     57      -9.5199      1.00000
     58      -9.4461      1.00000
     59      -9.3663      1.00000
     60      -9.3192      1.00000
     61      -9.2289      1.00000
     62      -8.9948      1.00000
     63      -8.8978      1.00000
     64      -8.7791      1.00000
     65      -8.7429      1.00000
     66      -8.6037      1.00000
     67      -8.4416      1.00000
     68      -8.3930      1.00000
     69      -8.3606      1.00000
     70      -8.2174      1.00000
     71      -8.2124      1.00000
     72      -7.9955      1.00000
     73      -7.9728      1.00000
     74      -7.8653      1.00000
     75      -7.7951      1.00000
     76      -7.5769      1.00000
     77      -7.5648      1.00000
     78      -7.3940      1.00000
     79      -7.3751      1.00000
     80      -7.1308      1.00000
     81      -6.9734      1.00000
     82      -6.8428      1.00000
     83      -6.7526      1.00000
     84      -6.5995      1.00000
     85      -6.3610      1.00000
     86      -6.1286      1.00000
     87      -5.9523      1.00000
     88      -5.8080      1.00000
     89      -5.5151      1.00000
     90      -5.4270      1.00000
     91      -5.3267      1.00000
     92      -5.2844      1.00000
     93      -5.1504      1.00000
     94      -5.0675      1.00000
     95      -4.7874      1.00000
     96      -4.5904      1.00000
     97      -4.5446      1.00000
     98      -4.5239      1.00000
     99      -4.3398      1.00000
    100      -4.1973      1.00000
    101      -3.9728      1.00000
    102      -2.9637      1.00000
    103      -2.4028      1.00000
    104      -1.5589      0.00005
    105      -0.7191      0.00000
    106      -0.5377      0.00000
    107      -0.3951      0.00000
    108      -0.3471      0.00000
    109      -0.1497      0.00000
    110      -0.0694      0.00000
    111       0.1581      0.00000
    112       0.4420      0.00000
    113       0.5626      0.00000
    114       0.6306      0.00000
    115       0.7028      0.00000
    116       0.7754      0.00000
    117       1.2134      0.00000
    118       1.3361      0.00000
    119       1.5244      0.00000
    120       1.5748      0.00000
    121       1.6688      0.00000
    122       1.8361      0.00000
    123       1.8439      0.00000
    124       1.9006      0.00000
    125       1.9736      0.00000
    126       2.0842      0.00000
    127       2.1568      0.00000
    128       2.1640      0.00000
    129       2.3572      0.00000
    130       2.4623      0.00000
    131       2.7254      0.00000
    132       2.7385      0.00000
    133       2.8582      0.00000
    134       2.8816      0.00000
    135       2.9240      0.00000
    136       2.9610      0.00000
    137       3.0447      0.00000
    138       3.1114      0.00000
    139       3.1627      0.00000
    140       3.2273      0.00000
    141       3.3226      0.00000
    142       3.3684      0.00000
    143       3.4133      0.00000
    144       3.4448      0.00000
    145       3.4723      0.00000
    146       3.4968      0.00000
    147       3.5637      0.00000
    148       3.6170      0.00000
    149       3.6591      0.00000
    150       3.7509      0.00000
    151       3.8441      0.00000
    152       3.8661      0.00000
    153       3.9648      0.00000
    154       4.0246      0.00000
    155       4.1055      0.00000
    156       4.1776      0.00000
    157       4.2302      0.00000
    158       4.2963      0.00000
    159       4.3179      0.00000
    160       4.3743      0.00000
    161       4.3987      0.00000
    162       4.4341      0.00000
    163       4.4575      0.00000
    164       4.5280      0.00000
    165       4.5621      0.00000
    166       4.5995      0.00000
    167       4.7340      0.00000
    168       4.7457      0.00000
    169       4.8491      0.00000
    170       4.8606      0.00000
    171       4.9184      0.00000
    172       4.9561      0.00000
    173       4.9910      0.00000
    174       5.0253      0.00000
    175       5.0786      0.00000
    176       5.0945      0.00000
    177       5.1406      0.00000
    178       5.1607      0.00000
    179       5.2533      0.00000
    180       5.2744      0.00000
    181       5.3057      0.00000
    182       5.3410      0.00000
    183       5.5185      0.00000
    184       5.5303      0.00000
    185       5.5629      0.00000
    186       5.6210      0.00000
    187       5.6293      0.00000
    188       5.6504      0.00000
    189       5.6886      0.00000
    190       5.7102      0.00000
    191       5.7447      0.00000
    192       5.7812      0.00000
    193       5.8595      0.00000
    194       5.8974      0.00000
    195       5.9412      0.00000
    196       5.9775      0.00000
    197       5.9964      0.00000
    198       6.0268      0.00000
    199       6.0577      0.00000
    200       6.0830      0.00000
    201       6.1110      0.00000
    202       6.1849      0.00000
    203       6.2448      0.00000
    204       6.3041      0.00000
    205       6.3325      0.00000
    206       6.3613      0.00000
    207       6.4086      0.00000
    208       6.4369      0.00000
    209       6.4542      0.00000
    210       6.4648      0.00000
    211       6.5120      0.00000
    212       6.5536      0.00000
    213       6.5795      0.00000
    214       6.5895      0.00000
    215       6.6093      0.00000
    216       6.6737      0.00000
    217       6.6917      0.00000
    218       6.7342      0.00000
    219       6.7576      0.00000
    220       6.8038      0.00000
    221       6.8864      0.00000
    222       6.9378      0.00000
    223       6.9883      0.00000
    224       7.0541      0.00000
    225       7.1251      0.00000
    226       7.1734      0.00000
    227       7.1908      0.00000
    228       7.2582      0.00000
    229       7.3019      0.00000
    230       7.3264      0.00000
    231       7.3749      0.00000
    232       7.4133      0.00000
    233       7.4327      0.00000
    234       7.4719      0.00000
    235       7.5198      0.00000
    236       7.5538      0.00000
    237       7.6166      0.00000
    238       7.6664      0.00000
    239       7.7000      0.00000
    240       7.7402      0.00000
    241       7.7828      0.00000
    242       7.8840      0.00000
    243       7.9074      0.00000
    244       7.9529      0.00000
    245       8.1127      0.00000
    246       8.1165      0.00000
    247       8.1632      0.00000
    248       8.2169      0.00000
    249       8.2781      0.00000
    250       8.2887      0.00000
    251       8.4050      0.00000
    252       8.5032      0.00000
    253       8.6433      0.00000
    254       8.6883      0.00000
    255       8.9653      0.00000
    256       9.0840      0.00000

 k-point     7 :      -0.4000    0.2000    0.0000
  band No.  band energies     occupation 
      1     -37.2774      1.00000
      2     -22.5055      1.00000
      3     -22.3085      1.00000
      4     -22.0742      1.00000
      5     -21.6025      1.00000
      6     -21.1534      1.00000
      7     -20.9760      1.00000
      8     -20.5258      1.00000
      9     -20.2478      1.00000
     10     -19.9573      1.00000
     11     -19.7852      1.00000
     12     -19.5379      1.00000
     13     -19.4608      1.00000
     14     -19.3548      1.00000
     15     -19.1958      1.00000
     16     -19.1457      1.00000
     17     -18.8129      1.00000
     18     -18.3952      1.00000
     19     -18.2944      1.00000
     20     -17.9667      1.00000
     21     -17.7107      1.00000
     22     -17.3956      1.00000
     23     -17.2391      1.00000
     24     -17.0611      1.00000
     25     -16.8874      1.00000
     26     -16.5853      1.00000
     27     -16.4102      1.00000
     28     -16.0651      1.00000
     29     -15.4453      1.00000
     30     -15.1142      1.00000
     31     -14.9687      1.00000
     32     -14.8524      1.00000
     33     -14.4351      1.00000
     34     -14.3042      1.00000
     35     -14.1143      1.00000
     36     -13.9046      1.00000
     37     -13.7481      1.00000
     38     -13.1907      1.00000
     39     -12.8836      1.00000
     40     -12.6810      1.00000
     41     -12.5041      1.00000
     42     -12.3747      1.00000
     43     -12.2869      1.00000
     44     -11.8889      1.00000
     45     -11.4854      1.00000
     46     -11.4731      1.00000
     47     -11.2516      1.00000
     48     -10.9720      1.00000
     49     -10.6935      1.00000
     50     -10.6448      1.00000
     51     -10.1444      1.00000
     52     -10.0889      1.00000
     53     -10.0550      1.00000
     54      -9.8962      1.00000
     55      -9.7745      1.00000
     56      -9.7066      1.00000
     57      -9.5068      1.00000
     58      -9.3874      1.00000
     59      -9.3316      1.00000
     60      -9.2270      1.00000
     61      -9.1652      1.00000
     62      -9.0212      1.00000
     63      -8.9316      1.00000
     64      -8.8977      1.00000
     65      -8.7783      1.00000
     66      -8.6495      1.00000
     67      -8.6162      1.00000
     68      -8.4533      1.00000
     69      -8.3882      1.00000
     70      -8.2460      1.00000
     71      -8.1087      1.00000
     72      -8.0563      1.00000
     73      -8.0139      1.00000
     74      -7.8403      1.00000
     75      -7.7007      1.00000
     76      -7.5784      1.00000
     77      -7.3777      1.00000
     78      -7.3591      1.00000
     79      -7.3100      1.00000
     80      -7.1024      1.00000
     81      -6.8453      1.00000
     82      -6.7830      1.00000
     83      -6.7384      1.00000
     84      -6.6588      1.00000
     85      -6.2220      1.00000
     86      -6.1588      1.00000
     87      -5.9868      1.00000
     88      -5.8583      1.00000
     89      -5.7907      1.00000
     90      -5.5944      1.00000
     91      -5.4961      1.00000
     92      -5.4144      1.00000
     93      -5.1410      1.00000
     94      -4.8802      1.00000
     95      -4.7991      1.00000
     96      -4.5830      1.00000
     97      -4.5762      1.00000
     98      -4.3393      1.00000
     99      -4.1506      1.00000
    100      -4.0606      1.00000
    101      -3.9116      1.00000
    102      -3.2953      1.00000
    103      -2.1033      0.99993
    104      -1.5175      0.00000
    105      -0.7772      0.00000
    106      -0.6483      0.00000
    107      -0.5341      0.00000
    108      -0.4067      0.00000
    109      -0.2909      0.00000
    110      -0.1448      0.00000
    111       0.0180      0.00000
    112       0.5862      0.00000
    113       0.6714      0.00000
    114       0.7878      0.00000
    115       0.7988      0.00000
    116       1.2015      0.00000
    117       1.2171      0.00000
    118       1.3495      0.00000
    119       1.4801      0.00000
    120       1.5269      0.00000
    121       1.6292      0.00000
    122       1.7327      0.00000
    123       1.8585      0.00000
    124       1.9548      0.00000
    125       2.0813      0.00000
    126       2.1314      0.00000
    127       2.1980      0.00000
    128       2.2599      0.00000
    129       2.2925      0.00000
    130       2.3866      0.00000
    131       2.5961      0.00000
    132       2.6026      0.00000
    133       2.7201      0.00000
    134       2.8105      0.00000
    135       2.8873      0.00000
    136       2.9088      0.00000
    137       2.9945      0.00000
    138       3.0213      0.00000
    139       3.0863      0.00000
    140       3.1590      0.00000
    141       3.2192      0.00000
    142       3.2256      0.00000
    143       3.3066      0.00000
    144       3.4141      0.00000
    145       3.5120      0.00000
    146       3.6324      0.00000
    147       3.6501      0.00000
    148       3.7017      0.00000
    149       3.7246      0.00000
    150       3.7813      0.00000
    151       3.7958      0.00000
    152       3.8785      0.00000
    153       3.9551      0.00000
    154       3.9979      0.00000
    155       4.0136      0.00000
    156       4.1176      0.00000
    157       4.1366      0.00000
    158       4.1784      0.00000
    159       4.2225      0.00000
    160       4.4119      0.00000
    161       4.4795      0.00000
    162       4.5371      0.00000
    163       4.5632      0.00000
    164       4.6585      0.00000
    165       4.7095      0.00000
    166       4.7218      0.00000
    167       4.8171      0.00000
    168       4.8466      0.00000
    169       4.8738      0.00000
    170       4.9026      0.00000
    171       4.9578      0.00000
    172       5.0283      0.00000
    173       5.0474      0.00000
    174       5.1317      0.00000
    175       5.1804      0.00000
    176       5.1879      0.00000
    177       5.2186      0.00000
    178       5.2618      0.00000
    179       5.2951      0.00000
    180       5.3124      0.00000
    181       5.3964      0.00000
    182       5.4403      0.00000
    183       5.4880      0.00000
    184       5.5115      0.00000
    185       5.5378      0.00000
    186       5.5847      0.00000
    187       5.6367      0.00000
    188       5.7594      0.00000
    189       5.7860      0.00000
    190       5.8142      0.00000
    191       5.9182      0.00000
    192       5.9383      0.00000
    193       6.0123      0.00000
    194       6.0398      0.00000
    195       6.0476      0.00000
    196       6.1674      0.00000
    197       6.1788      0.00000
    198       6.2394      0.00000
    199       6.2483      0.00000
    200       6.2863      0.00000
    201       6.3645      0.00000
    202       6.3781      0.00000
    203       6.4040      0.00000
    204       6.4410      0.00000
    205       6.4449      0.00000
    206       6.5721      0.00000
    207       6.6318      0.00000
    208       6.6420      0.00000
    209       6.6529      0.00000
    210       6.7867      0.00000
    211       6.8275      0.00000
    212       6.8645      0.00000
    213       6.9334      0.00000
    214       6.9687      0.00000
    215       6.9976      0.00000
    216       7.0336      0.00000
    217       7.2395      0.00000
    218       7.3308      0.00000
    219       7.3328      0.00000
    220       7.3556      0.00000
    221       7.5033      0.00000
    222       7.5284      0.00000
    223       7.5488      0.00000
    224       7.5659      0.00000
    225       7.6671      0.00000
    226       7.6848      0.00000
    227       7.8293      0.00000
    228       7.8569      0.00000
    229       7.9042      0.00000
    230       7.9991      0.00000
    231       8.0456      0.00000
    232       8.1104      0.00000
    233       8.1544      0.00000
    234       8.2113      0.00000
    235       8.2561      0.00000
    236       8.3269      0.00000
    237       8.3826      0.00000
    238       8.4420      0.00000
    239       8.4762      0.00000
    240       8.4896      0.00000
    241       8.5833      0.00000
    242       8.7003      0.00000
    243       8.7835      0.00000
    244       8.9430      0.00000
    245       9.0035      0.00000
    246       9.1992      0.00000
    247       9.2237      0.00000
    248       9.3001      0.00000
    249       9.4084      0.00000
    250       9.4666      0.00000
    251       9.8098      0.00000
    252       9.8216      0.00000
    253       9.8869      0.00000
    254      10.0297      0.00000
    255      10.3592      0.00000
    256      10.9677      0.00000

 k-point     8 :      -0.2000    0.2000    0.0000
  band No.  band energies     occupation 
      1     -37.2774      1.00000
      2     -22.5237      1.00000
      3     -22.2905      1.00000
      4     -22.0535      1.00000
      5     -21.6054      1.00000
      6     -21.1880      1.00000
      7     -20.9667      1.00000
      8     -20.4951      1.00000
      9     -20.3956      1.00000
     10     -19.8760      1.00000
     11     -19.8675      1.00000
     12     -19.4584      1.00000
     13     -19.3797      1.00000
     14     -19.3090      1.00000
     15     -19.1422      1.00000
     16     -18.9852      1.00000
     17     -18.7696      1.00000
     18     -18.4703      1.00000
     19     -18.4284      1.00000
     20     -18.0630      1.00000
     21     -18.0263      1.00000
     22     -17.6216      1.00000
     23     -17.2633      1.00000
     24     -16.9524      1.00000
     25     -16.4949      1.00000
     26     -16.4010      1.00000
     27     -16.3633      1.00000
     28     -16.0724      1.00000
     29     -15.2145      1.00000
     30     -15.1121      1.00000
     31     -14.7975      1.00000
     32     -14.7575      1.00000
     33     -14.6487      1.00000
     34     -14.5526      1.00000
     35     -14.4257      1.00000
     36     -14.1725      1.00000
     37     -13.7850      1.00000
     38     -13.1779      1.00000
     39     -13.0330      1.00000
     40     -12.7924      1.00000
     41     -12.4448      1.00000
     42     -12.0832      1.00000
     43     -11.8371      1.00000
     44     -11.7673      1.00000
     45     -11.5241      1.00000
     46     -11.5027      1.00000
     47     -11.1706      1.00000
     48     -10.8957      1.00000
     49     -10.7397      1.00000
     50     -10.4668      1.00000
     51     -10.3940      1.00000
     52     -10.2914      1.00000
     53      -9.9576      1.00000
     54      -9.8793      1.00000
     55      -9.8258      1.00000
     56      -9.7048      1.00000
     57      -9.5978      1.00000
     58      -9.3607      1.00000
     59      -9.3082      1.00000
     60      -9.1990      1.00000
     61      -9.1975      1.00000
     62      -9.0562      1.00000
     63      -8.8377      1.00000
     64      -8.8240      1.00000
     65      -8.7149      1.00000
     66      -8.6795      1.00000
     67      -8.6066      1.00000
     68      -8.5999      1.00000
     69      -8.5876      1.00000
     70      -8.3763      1.00000
     71      -8.2982      1.00000
     72      -8.2016      1.00000
     73      -8.0382      1.00000
     74      -7.7739      1.00000
     75      -7.6444      1.00000
     76      -7.5295      1.00000
     77      -7.2756      1.00000
     78      -7.1440      1.00000
     79      -7.1021      1.00000
     80      -7.0327      1.00000
     81      -6.9576      1.00000
     82      -6.7614      1.00000
     83      -6.5455      1.00000
     84      -6.4842      1.00000
     85      -6.3417      1.00000
     86      -6.0816      1.00000
     87      -6.0498      1.00000
     88      -5.9757      1.00000
     89      -5.9065      1.00000
     90      -5.6486      1.00000
     91      -5.5948      1.00000
     92      -5.5901      1.00000
     93      -5.3598      1.00000
     94      -5.1651      1.00000
     95      -4.6863      1.00000
     96      -4.5517      1.00000
     97      -4.3513      1.00000
     98      -4.0772      1.00000
     99      -3.9813      1.00000
    100      -3.9718      1.00000
    101      -3.6330      1.00000
    102      -3.6137      1.00000
    103      -2.0660      0.99948
    104      -1.3729      0.00000
    105      -0.9678      0.00000
    106      -0.9394      0.00000
    107      -0.6410      0.00000
    108      -0.4998      0.00000
    109      -0.4017      0.00000
    110      -0.0728      0.00000
    111       0.3088      0.00000
    112       0.5688      0.00000
    113       0.7655      0.00000
    114       0.8244      0.00000
    115       1.0634      0.00000
    116       1.1630      0.00000
    117       1.1736      0.00000
    118       1.5103      0.00000
    119       1.5365      0.00000
    120       1.6283      0.00000
    121       1.6653      0.00000
    122       1.6743      0.00000
    123       1.8849      0.00000
    124       1.9643      0.00000
    125       2.0568      0.00000
    126       2.1900      0.00000
    127       2.2217      0.00000
    128       2.3151      0.00000
    129       2.3329      0.00000
    130       2.4386      0.00000
    131       2.5229      0.00000
    132       2.5688      0.00000
    133       2.5880      0.00000
    134       2.6089      0.00000
    135       2.6895      0.00000
    136       2.8872      0.00000
    137       2.9421      0.00000
    138       3.0045      0.00000
    139       3.0259      0.00000
    140       3.0933      0.00000
    141       3.1372      0.00000
    142       3.1501      0.00000
    143       3.1995      0.00000
    144       3.2921      0.00000
    145       3.4001      0.00000
    146       3.4185      0.00000
    147       3.4862      0.00000
    148       3.5149      0.00000
    149       3.6452      0.00000
    150       3.6844      0.00000
    151       3.8415      0.00000
    152       3.9070      0.00000
    153       4.0347      0.00000
    154       4.1007      0.00000
    155       4.1164      0.00000
    156       4.1506      0.00000
    157       4.2350      0.00000
    158       4.2385      0.00000
    159       4.4218      0.00000
    160       4.5088      0.00000
    161       4.5590      0.00000
    162       4.5608      0.00000
    163       4.6004      0.00000
    164       4.6115      0.00000
    165       4.6536      0.00000
    166       4.7413      0.00000
    167       4.7998      0.00000
    168       4.8060      0.00000
    169       4.8605      0.00000
    170       4.9229      0.00000
    171       5.0229      0.00000
    172       5.0387      0.00000
    173       5.1918      0.00000
    174       5.2448      0.00000
    175       5.2561      0.00000
    176       5.3461      0.00000
    177       5.3701      0.00000
    178       5.3955      0.00000
    179       5.3999      0.00000
    180       5.4335      0.00000
    181       5.4749      0.00000
    182       5.5603      0.00000
    183       5.5674      0.00000
    184       5.5972      0.00000
    185       5.6067      0.00000
    186       5.6426      0.00000
    187       5.6912      0.00000
    188       5.7252      0.00000
    189       5.7507      0.00000
    190       5.7895      0.00000
    191       5.8270      0.00000
    192       5.8645      0.00000
    193       5.9106      0.00000
    194       5.9108      0.00000
    195       6.0199      0.00000
    196       6.0317      0.00000
    197       6.0900      0.00000
    198       6.0996      0.00000
    199       6.1181      0.00000
    200       6.1745      0.00000
    201       6.2146      0.00000
    202       6.2382      0.00000
    203       6.2563      0.00000
    204       6.2814      0.00000
    205       6.3276      0.00000
    206       6.3378      0.00000
    207       6.3620      0.00000
    208       6.3967      0.00000
    209       6.4002      0.00000
    210       6.4536      0.00000
    211       6.5486      0.00000
    212       6.5863      0.00000
    213       6.5976      0.00000
    214       6.6631      0.00000
    215       6.7206      0.00000
    216       6.8073      0.00000
    217       6.9535      0.00000
    218       6.9593      0.00000
    219       6.9768      0.00000
    220       6.9818      0.00000
    221       7.1133      0.00000
    222       7.1778      0.00000
    223       7.2497      0.00000
    224       7.2739      0.00000
    225       7.2988      0.00000
    226       7.3116      0.00000
    227       7.4414      0.00000
    228       7.6085      0.00000
    229       7.6846      0.00000
    230       7.6868      0.00000
    231       7.7439      0.00000
    232       7.7488      0.00000
    233       7.8144      0.00000
    234       7.9604      0.00000
    235       8.1356      0.00000
    236       8.2031      0.00000
    237       8.2284      0.00000
    238       8.4353      0.00000
    239       8.4716      0.00000
    240       8.5585      0.00000
    241       8.5789      0.00000
    242       8.7205      0.00000
    243       8.7954      0.00000
    244       8.8385      0.00000
    245       8.8872      0.00000
    246       8.9869      0.00000
    247       9.0610      0.00000
    248       9.1537      0.00000
    249       9.1970      0.00000
    250       9.2845      0.00000
    251       9.6209      0.00000
    252       9.7380      0.00000
    253       9.8116      0.00000
    254      10.2579      0.00000
    255      10.5301      0.00000
    256      10.9429      0.00000

 k-point     9 :       0.0000    0.4000    0.0000
  band No.  band energies     occupation 
      1     -37.2774      1.00000
      2     -22.4992      1.00000
      3     -22.3259      1.00000
      4     -22.0484      1.00000
      5     -21.6455      1.00000
      6     -21.1445      1.00000
      7     -20.8990      1.00000
      8     -20.6004      1.00000
      9     -20.1887      1.00000
     10     -20.0035      1.00000
     11     -19.7582      1.00000
     12     -19.6167      1.00000
     13     -19.4920      1.00000
     14     -19.3999      1.00000
     15     -19.0822      1.00000
     16     -19.0228      1.00000
     17     -18.7581      1.00000
     18     -18.7149      1.00000
     19     -18.2042      1.00000
     20     -17.8933      1.00000
     21     -17.5768      1.00000
     22     -17.4577      1.00000
     23     -17.3163      1.00000
     24     -16.9859      1.00000
     25     -16.9147      1.00000
     26     -16.7402      1.00000
     27     -16.3260      1.00000
     28     -15.9058      1.00000
     29     -15.5473      1.00000
     30     -15.2506      1.00000
     31     -14.8276      1.00000
     32     -14.7960      1.00000
     33     -14.5889      1.00000
     34     -14.5056      1.00000
     35     -14.1335      1.00000
     36     -13.7852      1.00000
     37     -13.5517      1.00000
     38     -13.0277      1.00000
     39     -12.9386      1.00000
     40     -12.7823      1.00000
     41     -12.4141      1.00000
     42     -12.2525      1.00000
     43     -12.2143      1.00000
     44     -12.1324      1.00000
     45     -11.7781      1.00000
     46     -11.2956      1.00000
     47     -11.0197      1.00000
     48     -10.9914      1.00000
     49     -10.7938      1.00000
     50     -10.7641      1.00000
     51     -10.4025      1.00000
     52     -10.1795      1.00000
     53      -9.9863      1.00000
     54      -9.7412      1.00000
     55      -9.7193      1.00000
     56      -9.6242      1.00000
     57      -9.5191      1.00000
     58      -9.3919      1.00000
     59      -9.3193      1.00000
     60      -9.2208      1.00000
     61      -9.1157      1.00000
     62      -9.0502      1.00000
     63      -9.0233      1.00000
     64      -8.9367      1.00000
     65      -8.6816      1.00000
     66      -8.6675      1.00000
     67      -8.5401      1.00000
     68      -8.3195      1.00000
     69      -8.2878      1.00000
     70      -8.2168      1.00000
     71      -8.1071      1.00000
     72      -8.0097      1.00000
     73      -7.9524      1.00000
     74      -7.8380      1.00000
     75      -7.7668      1.00000
     76      -7.7499      1.00000
     77      -7.6755      1.00000
     78      -7.5208      1.00000
     79      -7.2922      1.00000
     80      -7.0191      1.00000
     81      -6.8508      1.00000
     82      -6.6977      1.00000
     83      -6.5240      1.00000
     84      -6.4663      1.00000
     85      -6.3801      1.00000
     86      -6.3174      1.00000
     87      -6.2785      1.00000
     88      -5.9023      1.00000
     89      -5.5419      1.00000
     90      -5.4076      1.00000
     91      -5.3537      1.00000
     92      -5.3125      1.00000
     93      -5.1128      1.00000
     94      -4.9659      1.00000
     95      -4.8439      1.00000
     96      -4.5812      1.00000
     97      -4.5438      1.00000
     98      -4.5365      1.00000
     99      -4.3681      1.00000
    100      -4.1611      1.00000
    101      -3.6379      1.00000
    102      -3.1613      1.00000
    103      -2.4383      1.00000
    104      -1.3440      0.00000
    105      -0.8762      0.00000
    106      -0.5838      0.00000
    107      -0.4017      0.00000
    108      -0.2999      0.00000
    109      -0.2388      0.00000
    110      -0.1461      0.00000
    111      -0.0443      0.00000
    112       0.3944      0.00000
    113       0.6246      0.00000
    114       0.7066      0.00000
    115       0.8530      0.00000
    116       1.0581      0.00000
    117       1.1971      0.00000
    118       1.3199      0.00000
    119       1.5052      0.00000
    120       1.6252      0.00000
    121       1.7493      0.00000
    122       1.8297      0.00000
    123       1.8693      0.00000
    124       2.0055      0.00000
    125       2.0567      0.00000
    126       2.0948      0.00000
    127       2.1203      0.00000
    128       2.2597      0.00000
    129       2.4453      0.00000
    130       2.4484      0.00000
    131       2.4874      0.00000
    132       2.5287      0.00000
    133       2.6083      0.00000
    134       2.6790      0.00000
    135       2.7929      0.00000
    136       2.8344      0.00000
    137       3.0269      0.00000
    138       3.0983      0.00000
    139       3.2159      0.00000
    140       3.2618      0.00000
    141       3.3363      0.00000
    142       3.4248      0.00000
    143       3.4318      0.00000
    144       3.4669      0.00000
    145       3.5209      0.00000
    146       3.5412      0.00000
    147       3.5822      0.00000
    148       3.6438      0.00000
    149       3.7034      0.00000
    150       3.7469      0.00000
    151       3.8896      0.00000
    152       3.9244      0.00000
    153       3.9836      0.00000
    154       4.0105      0.00000
    155       4.0258      0.00000
    156       4.0647      0.00000
    157       4.1027      0.00000
    158       4.1311      0.00000
    159       4.1919      0.00000
    160       4.2797      0.00000
    161       4.3600      0.00000
    162       4.5091      0.00000
    163       4.5669      0.00000
    164       4.6723      0.00000
    165       4.7093      0.00000
    166       4.7478      0.00000
    167       4.7844      0.00000
    168       4.8559      0.00000
    169       4.8621      0.00000
    170       4.9038      0.00000
    171       4.9974      0.00000
    172       5.0121      0.00000
    173       5.0525      0.00000
    174       5.0604      0.00000
    175       5.0842      0.00000
    176       5.0975      0.00000
    177       5.1662      0.00000
    178       5.2238      0.00000
    179       5.2555      0.00000
    180       5.3574      0.00000
    181       5.4408      0.00000
    182       5.4845      0.00000
    183       5.5130      0.00000
    184       5.5211      0.00000
    185       5.5520      0.00000
    186       5.5803      0.00000
    187       5.6294      0.00000
    188       5.6609      0.00000
    189       5.6789      0.00000
    190       5.6876      0.00000
    191       5.7440      0.00000
    192       5.7530      0.00000
    193       5.7829      0.00000
    194       5.8051      0.00000
    195       5.8527      0.00000
    196       5.8778      0.00000
    197       5.9374      0.00000
    198       5.9973      0.00000
    199       6.0204      0.00000
    200       6.0691      0.00000
    201       6.1038      0.00000
    202       6.1728      0.00000
    203       6.2279      0.00000
    204       6.2988      0.00000
    205       6.3305      0.00000
    206       6.3347      0.00000
    207       6.3663      0.00000
    208       6.4333      0.00000
    209       6.4647      0.00000
    210       6.5494      0.00000
    211       6.6194      0.00000
    212       6.6610      0.00000
    213       6.7005      0.00000
    214       6.7483      0.00000
    215       6.7903      0.00000
    216       6.8546      0.00000
    217       6.9516      0.00000
    218       6.9738      0.00000
    219       6.9830      0.00000
    220       7.0414      0.00000
    221       7.0849      0.00000
    222       7.1273      0.00000
    223       7.1440      0.00000
    224       7.1491      0.00000
    225       7.2302      0.00000
    226       7.2487      0.00000
    227       7.2803      0.00000
    228       7.3077      0.00000
    229       7.3949      0.00000
    230       7.4630      0.00000
    231       7.5101      0.00000
    232       7.6277      0.00000
    233       7.6516      0.00000
    234       7.7239      0.00000
    235       7.7998      0.00000
    236       7.8519      0.00000
    237       7.8825      0.00000
    238       7.9548      0.00000
    239       7.9668      0.00000
    240       7.9744      0.00000
    241       8.0391      0.00000
    242       8.0763      0.00000
    243       8.2263      0.00000
    244       8.3007      0.00000
    245       8.3089      0.00000
    246       8.4176      0.00000
    247       8.5230      0.00000
    248       8.5516      0.00000
    249       8.6259      0.00000
    250       8.6805      0.00000
    251       8.8096      0.00000
    252       8.9042      0.00000
    253       8.9562      0.00000
    254       9.1146      0.00000
    255       9.3752      0.00000
    256       9.4987      0.00000

 k-point    10 :       0.2000    0.4000    0.0000
  band No.  band energies     occupation 
      1     -37.2774      1.00000
      2     -22.4913      1.00000
      3     -22.3294      1.00000
      4     -22.0687      1.00000
      5     -21.6265      1.00000
      6     -21.1436      1.00000
      7     -20.9024      1.00000
      8     -20.6138      1.00000
      9     -20.1206      1.00000
     10     -19.9845      1.00000
     11     -19.7116      1.00000
     12     -19.6786      1.00000
     13     -19.4571      1.00000
     14     -19.3782      1.00000
     15     -19.3453      1.00000
     16     -19.1234      1.00000
     17     -18.8514      1.00000
     18     -18.2919      1.00000
     19     -18.1436      1.00000
     20     -17.8347      1.00000
     21     -17.6624      1.00000
     22     -17.5269      1.00000
     23     -17.3506      1.00000
     24     -16.9431      1.00000
     25     -16.8251      1.00000
     26     -16.7177      1.00000
     27     -16.5106      1.00000
     28     -15.9273      1.00000
     29     -15.4974      1.00000
     30     -15.4307      1.00000
     31     -15.1158      1.00000
     32     -14.9346      1.00000
     33     -14.2537      1.00000
     34     -14.0664      1.00000
     35     -13.9417      1.00000
     36     -13.5799      1.00000
     37     -13.4617      1.00000
     38     -13.3318      1.00000
     39     -13.2399      1.00000
     40     -12.9845      1.00000
     41     -12.6410      1.00000
     42     -12.3175      1.00000
     43     -11.9551      1.00000
     44     -11.7129      1.00000
     45     -11.5933      1.00000
     46     -11.4693      1.00000
     47     -11.2892      1.00000
     48     -11.2504      1.00000
     49     -10.8272      1.00000
     50     -10.7167      1.00000
     51     -10.3073      1.00000
     52     -10.2352      1.00000
     53      -9.8878      1.00000
     54      -9.6528      1.00000
     55      -9.6123      1.00000
     56      -9.5835      1.00000
     57      -9.5199      1.00000
     58      -9.4461      1.00000
     59      -9.3664      1.00000
     60      -9.3192      1.00000
     61      -9.2289      1.00000
     62      -8.9948      1.00000
     63      -8.8978      1.00000
     64      -8.7791      1.00000
     65      -8.7429      1.00000
     66      -8.6037      1.00000
     67      -8.4416      1.00000
     68      -8.3930      1.00000
     69      -8.3606      1.00000
     70      -8.2174      1.00000
     71      -8.2124      1.00000
     72      -7.9955      1.00000
     73      -7.9728      1.00000
     74      -7.8653      1.00000
     75      -7.7951      1.00000
     76      -7.5769      1.00000
     77      -7.5648      1.00000
     78      -7.3940      1.00000
     79      -7.3751      1.00000
     80      -7.1308      1.00000
     81      -6.9734      1.00000
     82      -6.8428      1.00000
     83      -6.7526      1.00000
     84      -6.5995      1.00000
     85      -6.3610      1.00000
     86      -6.1286      1.00000
     87      -5.9523      1.00000
     88      -5.8080      1.00000
     89      -5.5151      1.00000
     90      -5.4270      1.00000
     91      -5.3267      1.00000
     92      -5.2844      1.00000
     93      -5.1504      1.00000
     94      -5.0675      1.00000
     95      -4.7874      1.00000
     96      -4.5904      1.00000
     97      -4.5446      1.00000
     98      -4.5239      1.00000
     99      -4.3398      1.00000
    100      -4.1973      1.00000
    101      -3.9728      1.00000
    102      -2.9637      1.00000
    103      -2.4028      1.00000
    104      -1.5589      0.00005
    105      -0.7191      0.00000
    106      -0.5377      0.00000
    107      -0.3951      0.00000
    108      -0.3471      0.00000
    109      -0.1497      0.00000
    110      -0.0694      0.00000
    111       0.1581      0.00000
    112       0.4420      0.00000
    113       0.5626      0.00000
    114       0.6306      0.00000
    115       0.7028      0.00000
    116       0.7754      0.00000
    117       1.2134      0.00000
    118       1.3361      0.00000
    119       1.5244      0.00000
    120       1.5748      0.00000
    121       1.6688      0.00000
    122       1.8361      0.00000
    123       1.8439      0.00000
    124       1.9006      0.00000
    125       1.9736      0.00000
    126       2.0842      0.00000
    127       2.1568      0.00000
    128       2.1640      0.00000
    129       2.3572      0.00000
    130       2.4623      0.00000
    131       2.7254      0.00000
    132       2.7385      0.00000
    133       2.8582      0.00000
    134       2.8816      0.00000
    135       2.9240      0.00000
    136       2.9610      0.00000
    137       3.0447      0.00000
    138       3.1114      0.00000
    139       3.1627      0.00000
    140       3.2273      0.00000
    141       3.3226      0.00000
    142       3.3684      0.00000
    143       3.4133      0.00000
    144       3.4448      0.00000
    145       3.4723      0.00000
    146       3.4968      0.00000
    147       3.5637      0.00000
    148       3.6170      0.00000
    149       3.6591      0.00000
    150       3.7509      0.00000
    151       3.8441      0.00000
    152       3.8661      0.00000
    153       3.9648      0.00000
    154       4.0246      0.00000
    155       4.1055      0.00000
    156       4.1776      0.00000
    157       4.2302      0.00000
    158       4.2963      0.00000
    159       4.3179      0.00000
    160       4.3743      0.00000
    161       4.3987      0.00000
    162       4.4341      0.00000
    163       4.4575      0.00000
    164       4.5280      0.00000
    165       4.5621      0.00000
    166       4.5995      0.00000
    167       4.7340      0.00000
    168       4.7457      0.00000
    169       4.8491      0.00000
    170       4.8606      0.00000
    171       4.9184      0.00000
    172       4.9561      0.00000
    173       4.9910      0.00000
    174       5.0253      0.00000
    175       5.0786      0.00000
    176       5.0945      0.00000
    177       5.1406      0.00000
    178       5.1607      0.00000
    179       5.2533      0.00000
    180       5.2744      0.00000
    181       5.3057      0.00000
    182       5.3410      0.00000
    183       5.5185      0.00000
    184       5.5303      0.00000
    185       5.5629      0.00000
    186       5.6210      0.00000
    187       5.6293      0.00000
    188       5.6504      0.00000
    189       5.6886      0.00000
    190       5.7102      0.00000
    191       5.7447      0.00000
    192       5.7812      0.00000
    193       5.8595      0.00000
    194       5.8974      0.00000
    195       5.9412      0.00000
    196       5.9775      0.00000
    197       5.9963      0.00000
    198       6.0268      0.00000
    199       6.0577      0.00000
    200       6.0830      0.00000
    201       6.1110      0.00000
    202       6.1849      0.00000
    203       6.2448      0.00000
    204       6.3041      0.00000
    205       6.3325      0.00000
    206       6.3614      0.00000
    207       6.4086      0.00000
    208       6.4369      0.00000
    209       6.4545      0.00000
    210       6.4651      0.00000
    211       6.5125      0.00000
    212       6.5536      0.00000
    213       6.5796      0.00000
    214       6.5893      0.00000
    215       6.6095      0.00000
    216       6.6736      0.00000
    217       6.6917      0.00000
    218       6.7343      0.00000
    219       6.7577      0.00000
    220       6.8044      0.00000
    221       6.8863      0.00000
    222       6.9390      0.00000
    223       6.9886      0.00000
    224       7.0545      0.00000
    225       7.1252      0.00000
    226       7.1733      0.00000
    227       7.1921      0.00000
    228       7.2585      0.00000
    229       7.3033      0.00000
    230       7.3243      0.00000
    231       7.3753      0.00000
    232       7.4128      0.00000
    233       7.4312      0.00000
    234       7.4712      0.00000
    235       7.5218      0.00000
    236       7.5555      0.00000
    237       7.6195      0.00000
    238       7.6745      0.00000
    239       7.7045      0.00000
    240       7.7432      0.00000
    241       7.7839      0.00000
    242       7.8848      0.00000
    243       7.9091      0.00000
    244       7.9526      0.00000
    245       8.1110      0.00000
    246       8.1149      0.00000
    247       8.1632      0.00000
    248       8.2155      0.00000
    249       8.2777      0.00000
    250       8.2876      0.00000
    251       8.4015      0.00000
    252       8.5046      0.00000
    253       8.6432      0.00000
    254       8.6879      0.00000
    255       8.9614      0.00000
    256       9.0882      0.00000

 k-point    11 :       0.4000    0.4000    0.0000
  band No.  band energies     occupation 
      1     -37.2774      1.00000
      2     -22.4932      1.00000
      3     -22.3137      1.00000
      4     -22.1024      1.00000
      5     -21.5771      1.00000
      6     -21.1531      1.00000
      7     -20.9753      1.00000
      8     -20.5655      1.00000
      9     -20.1255      1.00000
     10     -19.8744      1.00000
     11     -19.7237      1.00000
     12     -19.6851      1.00000
     13     -19.5259      1.00000
     14     -19.4270      1.00000
     15     -19.3049      1.00000
     16     -19.2350      1.00000
     17     -18.7828      1.00000
     18     -18.3135      1.00000
     19     -18.0225      1.00000
     20     -17.8504      1.00000
     21     -17.6833      1.00000
     22     -17.4618      1.00000
     23     -17.3340      1.00000
     24     -16.9900      1.00000
     25     -16.8004      1.00000
     26     -16.7242      1.00000
     27     -16.5478      1.00000
     28     -16.1755      1.00000
     29     -15.5365      1.00000
     30     -15.3081      1.00000
     31     -15.1189      1.00000
     32     -14.7228      1.00000
     33     -14.2740      1.00000
     34     -13.9809      1.00000
     35     -13.7333      1.00000
     36     -13.7218      1.00000
     37     -13.4975      1.00000
     38     -13.4472      1.00000
     39     -13.2849      1.00000
     40     -12.9965      1.00000
     41     -12.6636      1.00000
     42     -12.2952      1.00000
     43     -12.1419      1.00000
     44     -11.7711      1.00000
     45     -11.6355      1.00000
     46     -11.3467      1.00000
     47     -11.3275      1.00000
     48     -10.9633      1.00000
     49     -10.9113      1.00000
     50     -10.7251      1.00000
     51     -10.4039      1.00000
     52      -9.9441      1.00000
     53      -9.9080      1.00000
     54      -9.6271      1.00000
     55      -9.5982      1.00000
     56      -9.5802      1.00000
     57      -9.5138      1.00000
     58      -9.4366      1.00000
     59      -9.4199      1.00000
     60      -9.3532      1.00000
     61      -9.2330      1.00000
     62      -9.1785      1.00000
     63      -8.9534      1.00000
     64      -8.7938      1.00000
     65      -8.7253      1.00000
     66      -8.6667      1.00000
     67      -8.4540      1.00000
     68      -8.3729      1.00000
     69      -8.3433      1.00000
     70      -8.2952      1.00000
     71      -8.1882      1.00000
     72      -7.9219      1.00000
     73      -7.8677      1.00000
     74      -7.8390      1.00000
     75      -7.6750      1.00000
     76      -7.5977      1.00000
     77      -7.5196      1.00000
     78      -7.4704      1.00000
     79      -7.3620      1.00000
     80      -7.0833      1.00000
     81      -7.0740      1.00000
     82      -6.8773      1.00000
     83      -6.7867      1.00000
     84      -6.4781      1.00000
     85      -6.4035      1.00000
     86      -6.0646      1.00000
     87      -6.0352      1.00000
     88      -5.7708      1.00000
     89      -5.5651      1.00000
     90      -5.5490      1.00000
     91      -5.4364      1.00000
     92      -5.2063      1.00000
     93      -5.1998      1.00000
     94      -4.9413      1.00000
     95      -4.7042      1.00000
     96      -4.5836      1.00000
     97      -4.5666      1.00000
     98      -4.5269      1.00000
     99      -4.3158      1.00000
    100      -4.1259      1.00000
    101      -4.0635      1.00000
    102      -3.1987      1.00000
    103      -1.9081      0.85346
    104      -1.8012      0.32262
    105      -0.6914      0.00000
    106      -0.6337      0.00000
    107      -0.4183      0.00000
    108      -0.2844      0.00000
    109      -0.2803      0.00000
    110       0.0720      0.00000
    111       0.1392      0.00000
    112       0.4839      0.00000
    113       0.5395      0.00000
    114       0.6803      0.00000
    115       0.6973      0.00000
    116       0.7298      0.00000
    117       1.1944      0.00000
    118       1.3168      0.00000
    119       1.5648      0.00000
    120       1.5806      0.00000
    121       1.6548      0.00000
    122       1.8202      0.00000
    123       1.8593      0.00000
    124       1.9138      0.00000
    125       1.9961      0.00000
    126       2.0248      0.00000
    127       2.1339      0.00000
    128       2.2429      0.00000
    129       2.3450      0.00000
    130       2.4686      0.00000
    131       2.5893      0.00000
    132       2.7819      0.00000
    133       2.8739      0.00000
    134       2.9188      0.00000
    135       2.9227      0.00000
    136       2.9821      0.00000
    137       3.0326      0.00000
    138       3.0760      0.00000
    139       3.1730      0.00000
    140       3.2056      0.00000
    141       3.3417      0.00000
    142       3.3427      0.00000
    143       3.4320      0.00000
    144       3.4356      0.00000
    145       3.5130      0.00000
    146       3.5187      0.00000
    147       3.5875      0.00000
    148       3.6278      0.00000
    149       3.6755      0.00000
    150       3.6769      0.00000
    151       3.8430      0.00000
    152       3.8588      0.00000
    153       3.9423      0.00000
    154       4.0864      0.00000
    155       4.1591      0.00000
    156       4.1755      0.00000
    157       4.2747      0.00000
    158       4.2933      0.00000
    159       4.3556      0.00000
    160       4.3742      0.00000
    161       4.3979      0.00000
    162       4.4084      0.00000
    163       4.4811      0.00000
    164       4.4957      0.00000
    165       4.5825      0.00000
    166       4.6004      0.00000
    167       4.7077      0.00000
    168       4.7808      0.00000
    169       4.8367      0.00000
    170       4.8610      0.00000
    171       4.9349      0.00000
    172       4.9510      0.00000
    173       4.9901      0.00000
    174       4.9905      0.00000
    175       5.0844      0.00000
    176       5.0924      0.00000
    177       5.1432      0.00000
    178       5.1699      0.00000
    179       5.2544      0.00000
    180       5.2940      0.00000
    181       5.3273      0.00000
    182       5.3847      0.00000
    183       5.5145      0.00000
    184       5.5316      0.00000
    185       5.5458      0.00000
    186       5.5701      0.00000
    187       5.6406      0.00000
    188       5.6630      0.00000
    189       5.7106      0.00000
    190       5.7282      0.00000
    191       5.7736      0.00000
    192       5.7996      0.00000
    193       5.8779      0.00000
    194       5.8953      0.00000
    195       5.9019      0.00000
    196       5.9187      0.00000
    197       5.9684      0.00000
    198       6.0038      0.00000
    199       6.0158      0.00000
    200       6.0588      0.00000
    201       6.1008      0.00000
    202       6.1616      0.00000
    203       6.2034      0.00000
    204       6.2542      0.00000
    205       6.3125      0.00000
    206       6.3809      0.00000
    207       6.4119      0.00000
    208       6.4146      0.00000
    209       6.4272      0.00000
    210       6.4777      0.00000
    211       6.5077      0.00000
    212       6.5091      0.00000
    213       6.5338      0.00000
    214       6.5894      0.00000
    215       6.5912      0.00000
    216       6.6069      0.00000
    217       6.6413      0.00000
    218       6.6964      0.00000
    219       6.7023      0.00000
    220       6.7235      0.00000
    221       6.8245      0.00000
    222       6.8793      0.00000
    223       6.9125      0.00000
    224       6.9700      0.00000
    225       7.0438      0.00000
    226       7.0445      0.00000
    227       7.0908      0.00000
    228       7.1483      0.00000
    229       7.1833      0.00000
    230       7.2212      0.00000
    231       7.2224      0.00000
    232       7.2523      0.00000
    233       7.2891      0.00000
    234       7.3508      0.00000
    235       7.3562      0.00000
    236       7.4377      0.00000
    237       7.4705      0.00000
    238       7.4866      0.00000
    239       7.5469      0.00000
    240       7.5714      0.00000
    241       7.6007      0.00000
    242       7.6319      0.00000
    243       7.6379      0.00000
    244       7.6849      0.00000
    245       7.7109      0.00000
    246       7.8020      0.00000
    247       7.8101      0.00000
    248       7.9212      0.00000
    249       7.9354      0.00000
    250       7.9714      0.00000
    251       8.0274      0.00000
    252       8.0654      0.00000
    253       8.1126      0.00000
    254       8.1494      0.00000
    255       8.2038      0.00000
    256       8.2371      0.00000

 k-point    12 :      -0.4000    0.4000    0.0000
  band No.  band energies     occupation 
      1     -37.2774      1.00000
      2     -22.5017      1.00000
      3     -22.3010      1.00000
      4     -22.1050      1.00000
      5     -21.5616      1.00000
      6     -21.1605      1.00000
      7     -21.0150      1.00000
      8     -20.5126      1.00000
      9     -20.1870      1.00000
     10     -19.9451      1.00000
     11     -19.7523      1.00000
     12     -19.5836      1.00000
     13     -19.4167      1.00000
     14     -19.3506      1.00000
     15     -19.3291      1.00000
     16     -19.3035      1.00000
     17     -18.6404      1.00000
     18     -18.3909      1.00000
     19     -18.3288      1.00000
     20     -17.8600      1.00000
     21     -17.6821      1.00000
     22     -17.2509      1.00000
     23     -17.2307      1.00000
     24     -17.0248      1.00000
     25     -16.9142      1.00000
     26     -16.7996      1.00000
     27     -16.4332      1.00000
     28     -16.2763      1.00000
     29     -15.5447      1.00000
     30     -14.9239      1.00000
     31     -14.9086      1.00000
     32     -14.6198      1.00000
     33     -14.5347      1.00000
     34     -14.4042      1.00000
     35     -14.0841      1.00000
     36     -13.8087      1.00000
     37     -13.6378      1.00000
     38     -13.1262      1.00000
     39     -13.0810      1.00000
     40     -12.6395      1.00000
     41     -12.4259      1.00000
     42     -12.4086      1.00000
     43     -12.2850      1.00000
     44     -12.0597      1.00000
     45     -12.0273      1.00000
     46     -11.2353      1.00000
     47     -11.0379      1.00000
     48     -10.7892      1.00000
     49     -10.7399      1.00000
     50     -10.5207      1.00000
     51     -10.4176      1.00000
     52     -10.2535      1.00000
     53      -9.9373      1.00000
     54      -9.7286      1.00000
     55      -9.6341      1.00000
     56      -9.5901      1.00000
     57      -9.5049      1.00000
     58      -9.4843      1.00000
     59      -9.3817      1.00000
     60      -9.2630      1.00000
     61      -9.2540      1.00000
     62      -9.0792      1.00000
     63      -8.9999      1.00000
     64      -8.8907      1.00000
     65      -8.8074      1.00000
     66      -8.7738      1.00000
     67      -8.4376      1.00000
     68      -8.4240      1.00000
     69      -8.3390      1.00000
     70      -8.1492      1.00000
     71      -8.1001      1.00000
     72      -8.0235      1.00000
     73      -7.9589      1.00000
     74      -7.8141      1.00000
     75      -7.7140      1.00000
     76      -7.6545      1.00000
     77      -7.5299      1.00000
     78      -7.4524      1.00000
     79      -7.1072      1.00000
     80      -7.0901      1.00000
     81      -6.9161      1.00000
     82      -6.7900      1.00000
     83      -6.7722      1.00000
     84      -6.5258      1.00000
     85      -6.3354      1.00000
     86      -6.2541      1.00000
     87      -5.9603      1.00000
     88      -5.9060      1.00000
     89      -5.7548      1.00000
     90      -5.6104      1.00000
     91      -5.4933      1.00000
     92      -5.2050      1.00000
     93      -5.1725      1.00000
     94      -4.7875      1.00000
     95      -4.7604      1.00000
     96      -4.5762      1.00000
     97      -4.5747      1.00000
     98      -4.5151      1.00000
     99      -4.2767      1.00000
    100      -4.0888      1.00000
    101      -3.7568      1.00000
    102      -3.4803      1.00000
    103      -1.9002      0.82447
    104      -1.4977      0.00000
    105      -1.0312      0.00000
    106      -0.6030      0.00000
    107      -0.4401      0.00000
    108      -0.3318      0.00000
    109      -0.1721      0.00000
    110      -0.1021      0.00000
    111      -0.0027      0.00000
    112       0.4029      0.00000
    113       0.6664      0.00000
    114       0.7807      0.00000
    115       0.8283      0.00000
    116       0.8364      0.00000
    117       1.1933      0.00000
    118       1.4729      0.00000
    119       1.5316      0.00000
    120       1.6017      0.00000
    121       1.7385      0.00000
    122       1.8476      0.00000
    123       1.9551      0.00000
    124       1.9767      0.00000
    125       2.0303      0.00000
    126       2.1208      0.00000
    127       2.1356      0.00000
    128       2.1357      0.00000
    129       2.3897      0.00000
    130       2.4614      0.00000
    131       2.4835      0.00000
    132       2.5146      0.00000
    133       2.5969      0.00000
    134       2.7009      0.00000
    135       2.7279      0.00000
    136       2.8503      0.00000
    137       3.0210      0.00000
    138       3.1430      0.00000
    139       3.2354      0.00000
    140       3.2539      0.00000
    141       3.3458      0.00000
    142       3.4161      0.00000
    143       3.4620      0.00000
    144       3.5040      0.00000
    145       3.5355      0.00000
    146       3.5798      0.00000
    147       3.5917      0.00000
    148       3.6629      0.00000
    149       3.6748      0.00000
    150       3.8429      0.00000
    151       3.8813      0.00000
    152       3.9266      0.00000
    153       3.9378      0.00000
    154       4.0121      0.00000
    155       4.0164      0.00000
    156       4.0471      0.00000
    157       4.1165      0.00000
    158       4.1467      0.00000
    159       4.1611      0.00000
    160       4.2939      0.00000
    161       4.3722      0.00000
    162       4.5437      0.00000
    163       4.5780      0.00000
    164       4.6262      0.00000
    165       4.7257      0.00000
    166       4.7478      0.00000
    167       4.8102      0.00000
    168       4.8529      0.00000
    169       4.9569      0.00000
    170       4.9746      0.00000
    171       4.9997      0.00000
    172       5.0045      0.00000
    173       5.0388      0.00000
    174       5.0400      0.00000
    175       5.0846      0.00000
    176       5.1434      0.00000
    177       5.1858      0.00000
    178       5.2083      0.00000
    179       5.2216      0.00000
    180       5.4488      0.00000
    181       5.4490      0.00000
    182       5.5126      0.00000
    183       5.5287      0.00000
    184       5.5324      0.00000
    185       5.5870      0.00000
    186       5.6082      0.00000
    187       5.6472      0.00000
    188       5.6861      0.00000
    189       5.7320      0.00000
    190       5.7338      0.00000
    191       5.7922      0.00000
    192       5.8210      0.00000
    193       5.8508      0.00000
    194       5.8893      0.00000
    195       5.9276      0.00000
    196       5.9568      0.00000
    197       6.0242      0.00000
    198       6.0415      0.00000
    199       6.1076      0.00000
    200       6.1771      0.00000
    201       6.1837      0.00000
    202       6.2772      0.00000
    203       6.3746      0.00000
    204       6.4547      0.00000
    205       6.4605      0.00000
    206       6.4953      0.00000
    207       6.6403      0.00000
    208       6.6795      0.00000
    209       6.6832      0.00000
    210       6.6868      0.00000
    211       6.7498      0.00000
    212       6.8019      0.00000
    213       6.8892      0.00000
    214       6.9409      0.00000
    215       7.0081      0.00000
    216       7.0141      0.00000
    217       7.0622      0.00000
    218       7.1746      0.00000
    219       7.2001      0.00000
    220       7.2762      0.00000
    221       7.2845      0.00000
    222       7.3299      0.00000
    223       7.4066      0.00000
    224       7.4723      0.00000
    225       7.4926      0.00000
    226       7.5106      0.00000
    227       7.6700      0.00000
    228       7.6857      0.00000
    229       7.7719      0.00000
    230       7.7900      0.00000
    231       7.7973      0.00000
    232       7.9663      0.00000
    233       8.0454      0.00000
    234       8.1200      0.00000
    235       8.1528      0.00000
    236       8.3028      0.00000
    237       8.3135      0.00000
    238       8.4598      0.00000
    239       8.5157      0.00000
    240       8.5665      0.00000
    241       8.6041      0.00000
    242       8.6686      0.00000
    243       8.7931      0.00000
    244       8.8632      0.00000
    245       8.8944      0.00000
    246       8.9154      0.00000
    247       9.0035      0.00000
    248       9.0401      0.00000
    249       9.2209      0.00000
    250       9.2925      0.00000
    251       9.4420      0.00000
    252       9.7888      0.00000
    253       9.8526      0.00000
    254      10.2824      0.00000
    255      10.3420      0.00000
    256      11.0588      0.00000

 k-point    13 :      -0.2000    0.4000    0.0000
  band No.  band energies     occupation 
      1     -37.2774      1.00000
      2     -22.5055      1.00000
      3     -22.3085      1.00000
      4     -22.0742      1.00000
      5     -21.6025      1.00000
      6     -21.1534      1.00000
      7     -20.9760      1.00000
      8     -20.5258      1.00000
      9     -20.2478      1.00000
     10     -19.9573      1.00000
     11     -19.7852      1.00000
     12     -19.5379      1.00000
     13     -19.4608      1.00000
     14     -19.3548      1.00000
     15     -19.1958      1.00000
     16     -19.1457      1.00000
     17     -18.8129      1.00000
     18     -18.3952      1.00000
     19     -18.2944      1.00000
     20     -17.9667      1.00000
     21     -17.7107      1.00000
     22     -17.3956      1.00000
     23     -17.2391      1.00000
     24     -17.0611      1.00000
     25     -16.8874      1.00000
     26     -16.5853      1.00000
     27     -16.4102      1.00000
     28     -16.0651      1.00000
     29     -15.4453      1.00000
     30     -15.1142      1.00000
     31     -14.9687      1.00000
     32     -14.8524      1.00000
     33     -14.4351      1.00000
     34     -14.3042      1.00000
     35     -14.1143      1.00000
     36     -13.9046      1.00000
     37     -13.7481      1.00000
     38     -13.1907      1.00000
     39     -12.8836      1.00000
     40     -12.6810      1.00000
     41     -12.5041      1.00000
     42     -12.3747      1.00000
     43     -12.2869      1.00000
     44     -11.8889      1.00000
     45     -11.4854      1.00000
     46     -11.4731      1.00000
     47     -11.2516      1.00000
     48     -10.9720      1.00000
     49     -10.6935      1.00000
     50     -10.6448      1.00000
     51     -10.1444      1.00000
     52     -10.0889      1.00000
     53     -10.0550      1.00000
     54      -9.8962      1.00000
     55      -9.7745      1.00000
     56      -9.7066      1.00000
     57      -9.5068      1.00000
     58      -9.3874      1.00000
     59      -9.3316      1.00000
     60      -9.2270      1.00000
     61      -9.1652      1.00000
     62      -9.0212      1.00000
     63      -8.9316      1.00000
     64      -8.8977      1.00000
     65      -8.7783      1.00000
     66      -8.6495      1.00000
     67      -8.6162      1.00000
     68      -8.4533      1.00000
     69      -8.3882      1.00000
     70      -8.2460      1.00000
     71      -8.1087      1.00000
     72      -8.0563      1.00000
     73      -8.0139      1.00000
     74      -7.8403      1.00000
     75      -7.7007      1.00000
     76      -7.5784      1.00000
     77      -7.3777      1.00000
     78      -7.3591      1.00000
     79      -7.3100      1.00000
     80      -7.1024      1.00000
     81      -6.8453      1.00000
     82      -6.7830      1.00000
     83      -6.7384      1.00000
     84      -6.6588      1.00000
     85      -6.2220      1.00000
     86      -6.1588      1.00000
     87      -5.9868      1.00000
     88      -5.8583      1.00000
     89      -5.7907      1.00000
     90      -5.5944      1.00000
     91      -5.4961      1.00000
     92      -5.4144      1.00000
     93      -5.1410      1.00000
     94      -4.8802      1.00000
     95      -4.7991      1.00000
     96      -4.5830      1.00000
     97      -4.5762      1.00000
     98      -4.3393      1.00000
     99      -4.1506      1.00000
    100      -4.0606      1.00000
    101      -3.9116      1.00000
    102      -3.2953      1.00000
    103      -2.1033      0.99993
    104      -1.5175      0.00000
    105      -0.7772      0.00000
    106      -0.6483      0.00000
    107      -0.5341      0.00000
    108      -0.4067      0.00000
    109      -0.2909      0.00000
    110      -0.1448      0.00000
    111       0.0180      0.00000
    112       0.5862      0.00000
    113       0.6714      0.00000
    114       0.7878      0.00000
    115       0.7988      0.00000
    116       1.2015      0.00000
    117       1.2171      0.00000
    118       1.3495      0.00000
    119       1.4801      0.00000
    120       1.5269      0.00000
    121       1.6292      0.00000
    122       1.7327      0.00000
    123       1.8585      0.00000
    124       1.9548      0.00000
    125       2.0813      0.00000
    126       2.1314      0.00000
    127       2.1980      0.00000
    128       2.2599      0.00000
    129       2.2925      0.00000
    130       2.3866      0.00000
    131       2.5961      0.00000
    132       2.6026      0.00000
    133       2.7201      0.00000
    134       2.8105      0.00000
    135       2.8873      0.00000
    136       2.9088      0.00000
    137       2.9945      0.00000
    138       3.0213      0.00000
    139       3.0863      0.00000
    140       3.1590      0.00000
    141       3.2192      0.00000
    142       3.2256      0.00000
    143       3.3066      0.00000
    144       3.4141      0.00000
    145       3.5120      0.00000
    146       3.6324      0.00000
    147       3.6501      0.00000
    148       3.7017      0.00000
    149       3.7246      0.00000
    150       3.7813      0.00000
    151       3.7958      0.00000
    152       3.8785      0.00000
    153       3.9551      0.00000
    154       3.9979      0.00000
    155       4.0136      0.00000
    156       4.1176      0.00000
    157       4.1366      0.00000
    158       4.1783      0.00000
    159       4.2225      0.00000
    160       4.4119      0.00000
    161       4.4795      0.00000
    162       4.5368      0.00000
    163       4.5631      0.00000
    164       4.6556      0.00000
    165       4.7088      0.00000
    166       4.7208      0.00000
    167       4.8161      0.00000
    168       4.8457      0.00000
    169       4.8719      0.00000
    170       4.9014      0.00000
    171       4.9525      0.00000
    172       5.0235      0.00000
    173       5.0442      0.00000
    174       5.1252      0.00000
    175       5.1765      0.00000
    176       5.1833      0.00000
    177       5.2092      0.00000
    178       5.2546      0.00000
    179       5.2874      0.00000
    180       5.3016      0.00000
    181       5.3893      0.00000
    182       5.4225      0.00000
    183       5.4480      0.00000
    184       5.4886      0.00000
    185       5.5066      0.00000
    186       5.5592      0.00000
    187       5.5918      0.00000
    188       5.6207      0.00000
    189       5.6962      0.00000
    190       5.7524      0.00000
    191       5.8176      0.00000
    192       5.8444      0.00000
    193       5.8945      0.00000
    194       5.9573      0.00000
    195       5.9850      0.00000
    196       6.0244      0.00000
    197       6.0559      0.00000
    198       6.0730      0.00000
    199       6.1367      0.00000
    200       6.2023      0.00000
    201       6.2301      0.00000
    202       6.2639      0.00000
    203       6.2730      0.00000
    204       6.3072      0.00000
    205       6.3239      0.00000
    206       6.4099      0.00000
    207       6.4618      0.00000
    208       6.4774      0.00000
    209       6.5225      0.00000
    210       6.5607      0.00000
    211       6.5672      0.00000
    212       6.7019      0.00000
    213       6.7075      0.00000
    214       6.8051      0.00000
    215       6.8079      0.00000
    216       6.8558      0.00000
    217       6.8630      0.00000
    218       6.8921      0.00000
    219       6.9594      0.00000
    220       7.0263      0.00000
    221       7.0485      0.00000
    222       7.2231      0.00000
    223       7.2591      0.00000
    224       7.3145      0.00000
    225       7.4446      0.00000
    226       7.4463      0.00000
    227       7.5182      0.00000
    228       7.5347      0.00000
    229       7.5504      0.00000
    230       7.7036      0.00000
    231       7.7447      0.00000
    232       7.8234      0.00000
    233       7.8557      0.00000
    234       7.8800      0.00000
    235       7.8995      0.00000
    236       7.9113      0.00000
    237       7.9456      0.00000
    238       8.1815      0.00000
    239       8.2290      0.00000
    240       8.2895      0.00000
    241       8.3623      0.00000
    242       8.3633      0.00000
    243       8.4288      0.00000
    244       8.4559      0.00000
    245       8.4937      0.00000
    246       8.5469      0.00000
    247       8.6021      0.00000
    248       8.7803      0.00000
    249       8.8893      0.00000
    250       8.9532      0.00000
    251       9.2119      0.00000
    252       9.4891      0.00000
    253       9.6127      0.00000
    254       9.6182      0.00000
    255       9.7717      0.00000
    256      10.2169      0.00000

 spin component 2

 k-point     1 :       0.0000    0.0000    0.0000
  band No.  band energies     occupation 
      1     -37.2774      1.00000
      2     -22.5357      1.00000
      3     -22.2835      1.00000
      4     -22.0216      1.00000
      5     -21.6310      1.00000
      6     -21.2224      1.00000
      7     -20.8060      1.00000
      8     -20.7583      1.00000
      9     -20.3007      1.00000
     10     -19.9627      1.00000
     11     -19.7803      1.00000
     12     -19.4807      1.00000
     13     -19.3994      1.00000
     14     -19.1908      1.00000
     15     -18.9927      1.00000
     16     -18.9350      1.00000
     17     -18.6478      1.00000
     18     -18.5916      1.00000
     19     -18.3786      1.00000
     20     -18.2225      1.00000
     21     -18.1652      1.00000
     22     -17.9550      1.00000
     23     -17.3826      1.00000
     24     -16.6550      1.00000
     25     -16.5783      1.00000
     26     -16.1383      1.00000
     27     -16.0176      1.00000
     28     -15.8647      1.00000
     29     -15.4134      1.00000
     30     -15.1370      1.00000
     31     -15.0768      1.00000
     32     -14.9097      1.00000
     33     -14.8533      1.00000
     34     -14.5458      1.00000
     35     -13.9746      1.00000
     36     -13.8878      1.00000
     37     -13.8613      1.00000
     38     -13.7645      1.00000
     39     -13.5461      1.00000
     40     -12.7087      1.00000
     41     -11.9644      1.00000
     42     -11.8959      1.00000
     43     -11.7464      1.00000
     44     -11.5444      1.00000
     45     -11.2274      1.00000
     46     -11.1453      1.00000
     47     -11.1436      1.00000
     48     -11.0994      1.00000
     49     -11.0642      1.00000
     50     -10.9383      1.00000
     51     -10.5656      1.00000
     52     -10.0970      1.00000
     53     -10.0342      1.00000
     54     -10.0059      1.00000
     55      -9.8891      1.00000
     56      -9.5718      1.00000
     57      -9.4997      1.00000
     58      -9.4826      1.00000
     59      -9.1591      1.00000
     60      -9.1278      1.00000
     61      -9.1241      1.00000
     62      -8.9221      1.00000
     63      -8.8716      1.00000
     64      -8.7821      1.00000
     65      -8.7543      1.00000
     66      -8.6600      1.00000
     67      -8.6558      1.00000
     68      -8.5880      1.00000
     69      -8.5385      1.00000
     70      -8.4571      1.00000
     71      -8.4238      1.00000
     72      -8.4135      1.00000
     73      -8.3085      1.00000
     74      -7.7828      1.00000
     75      -7.7721      1.00000
     76      -7.2384      1.00000
     77      -7.2199      1.00000
     78      -7.0813      1.00000
     79      -7.0424      1.00000
     80      -6.9161      1.00000
     81      -6.8195      1.00000
     82      -6.6657      1.00000
     83      -6.6560      1.00000
     84      -6.5579      1.00000
     85      -6.2338      1.00000
     86      -6.1838      1.00000
     87      -5.9557      1.00000
     88      -5.8515      1.00000
     89      -5.8438      1.00000
     90      -5.7974      1.00000
     91      -5.7514      1.00000
     92      -5.6971      1.00000
     93      -5.5654      1.00000
     94      -5.2823      1.00000
     95      -4.7640      1.00000
     96      -4.4508      1.00000
     97      -4.3505      1.00000
     98      -3.9285      1.00000
     99      -3.8200      1.00000
    100      -3.7309      1.00000
    101      -3.7226      1.00000
    102      -3.5293      1.00000
    103      -2.2356      1.00000
    104      -1.2531      0.00000
    105      -1.1583      0.00000
    106      -0.9504      0.00000
    107      -0.9292      0.00000
    108      -0.4689      0.00000
    109      -0.4258      0.00000
    110       0.1383      0.00000
    111       0.7295      0.00000
    112       0.7449      0.00000
    113       0.7851      0.00000
    114       0.8149      0.00000
    115       0.8584      0.00000
    116       0.9483      0.00000
    117       0.9486      0.00000
    118       1.4560      0.00000
    119       1.5963      0.00000
    120       1.6469      0.00000
    121       1.6882      0.00000
    122       1.7961      0.00000
    123       1.8834      0.00000
    124       2.0080      0.00000
    125       2.2279      0.00000
    126       2.2594      0.00000
    127       2.4052      0.00000
    128       2.5229      0.00000
    129       2.5284      0.00000
    130       2.5422      0.00000
    131       2.5676      0.00000
    132       2.5784      0.00000
    133       2.5959      0.00000
    134       2.7192      0.00000
    135       2.7304      0.00000
    136       2.7417      0.00000
    137       2.7453      0.00000
    138       2.7713      0.00000
    139       2.8179      0.00000
    140       2.8877      0.00000
    141       2.8929      0.00000
    142       2.9386      0.00000
    143       2.9498      0.00000
    144       3.0940      0.00000
    145       3.1505      0.00000
    146       3.1931      0.00000
    147       3.4574      0.00000
    148       3.6374      0.00000
    149       3.8597      0.00000
    150       3.8845      0.00000
    151       3.9028      0.00000
    152       3.9230      0.00000
    153       3.9296      0.00000
    154       4.2017      0.00000
    155       4.2259      0.00000
    156       4.2340      0.00000
    157       4.3169      0.00000
    158       4.3218      0.00000
    159       4.3360      0.00000
    160       4.3380      0.00000
    161       4.3922      0.00000
    162       4.4454      0.00000
    163       4.4495      0.00000
    164       4.5868      0.00000
    165       4.7020      0.00000
    166       4.7740      0.00000
    167       4.9018      0.00000
    168       4.9342      0.00000
    169       5.0979      0.00000
    170       5.1146      0.00000
    171       5.1969      0.00000
    172       5.2690      0.00000
    173       5.2879      0.00000
    174       5.2910      0.00000
    175       5.3054      0.00000
    176       5.3191      0.00000
    177       5.3320      0.00000
    178       5.3425      0.00000
    179       5.4747      0.00000
    180       5.4764      0.00000
    181       5.5185      0.00000
    182       5.5370      0.00000
    183       5.5421      0.00000
    184       5.5522      0.00000
    185       5.5882      0.00000
    186       5.6017      0.00000
    187       5.6067      0.00000
    188       5.6511      0.00000
    189       5.7367      0.00000
    190       5.8060      0.00000
    191       5.8125      0.00000
    192       5.8290      0.00000
    193       5.8319      0.00000
    194       5.8659      0.00000
    195       5.9070      0.00000
    196       5.9610      0.00000
    197       5.9619      0.00000
    198       5.9922      0.00000
    199       6.0167      0.00000
    200       6.0454      0.00000
    201       6.0717      0.00000
    202       6.0811      0.00000
    203       6.0977      0.00000
    204       6.2010      0.00000
    205       6.3056      0.00000
    206       6.3124      0.00000
    207       6.3231      0.00000
    208       6.3606      0.00000
    209       6.3935      0.00000
    210       6.4260      0.00000
    211       6.4504      0.00000
    212       6.4668      0.00000
    213       6.5246      0.00000
    214       6.5287      0.00000
    215       6.5333      0.00000
    216       6.5601      0.00000
    217       6.5769      0.00000
    218       6.5811      0.00000
    219       6.5871      0.00000
    220       6.6444      0.00000
    221       6.6888      0.00000
    222       6.6976      0.00000
    223       6.7109      0.00000
    224       6.7131      0.00000
    225       6.7175      0.00000
    226       6.7647      0.00000
    227       6.7882      0.00000
    228       6.8393      0.00000
    229       6.8681      0.00000
    230       6.8867      0.00000
    231       6.8885      0.00000
    232       6.8910      0.00000
    233       6.9012      0.00000
    234       6.9132      0.00000
    235       6.9183      0.00000
    236       6.9255      0.00000
    237       6.9755      0.00000
    238       6.9946      0.00000
    239       7.0378      0.00000
    240       7.0740      0.00000
    241       7.2513      0.00000
    242       7.6476      0.00000
    243       7.7185      0.00000
    244       7.7283      0.00000
    245       7.7775      0.00000
    246       7.7844      0.00000
    247       7.8042      0.00000
    248       7.8066      0.00000
    249       8.0670      0.00000
    250       8.1213      0.00000
    251       8.1232      0.00000
    252       8.1245      0.00000
    253       8.1870      0.00000
    254       8.2022      0.00000
    255       8.2092      0.00000
    256       8.3020      0.00000

 k-point     2 :       0.2000    0.0000    0.0000
  band No.  band energies     occupation 
      1     -37.2774      1.00000
      2     -22.5235      1.00000
      3     -22.2979      1.00000
      4     -22.0323      1.00000
      5     -21.6360      1.00000
      6     -21.1969      1.00000
      7     -20.8672      1.00000
      8     -20.6525      1.00000
      9     -20.2965      1.00000
     10     -19.9728      1.00000
     11     -19.7458      1.00000
     12     -19.5208      1.00000
     13     -19.4628      1.00000
     14     -19.2945      1.00000
     15     -19.0743      1.00000
     16     -18.8351      1.00000
     17     -18.7164      1.00000
     18     -18.5860      1.00000
     19     -18.5278      1.00000
     20     -18.0956      1.00000
     21     -17.8693      1.00000
     22     -17.7720      1.00000
     23     -17.3535      1.00000
     24     -16.7823      1.00000
     25     -16.5472      1.00000
     26     -16.4572      1.00000
     27     -16.2105      1.00000
     28     -15.9248      1.00000
     29     -15.5284      1.00000
     30     -15.0271      1.00000
     31     -14.8988      1.00000
     32     -14.7180      1.00000
     33     -14.6437      1.00000
     34     -14.5474      1.00000
     35     -14.3328      1.00000
     36     -14.2020      1.00000
     37     -13.7538      1.00000
     38     -13.4256      1.00000
     39     -12.9806      1.00000
     40     -12.6897      1.00000
     41     -12.2688      1.00000
     42     -12.0205      1.00000
     43     -11.9397      1.00000
     44     -11.6726      1.00000
     45     -11.5857      1.00000
     46     -11.4605      1.00000
     47     -11.1173      1.00000
     48     -10.9329      1.00000
     49     -10.8053      1.00000
     50     -10.7128      1.00000
     51     -10.5035      1.00000
     52     -10.1596      1.00000
     53     -10.0255      1.00000
     54      -9.8781      1.00000
     55      -9.8288      1.00000
     56      -9.6726      1.00000
     57      -9.3500      1.00000
     58      -9.3082      1.00000
     59      -9.2769      1.00000
     60      -9.2453      1.00000
     61      -9.1356      1.00000
     62      -9.0268      1.00000
     63      -8.9861      1.00000
     64      -8.9622      1.00000
     65      -8.7856      1.00000
     66      -8.6095      1.00000
     67      -8.5807      1.00000
     68      -8.5106      1.00000
     69      -8.4670      1.00000
     70      -8.4131      1.00000
     71      -8.3218      1.00000
     72      -8.2594      1.00000
     73      -8.0179      1.00000
     74      -7.8119      1.00000
     75      -7.7452      1.00000
     76      -7.4142      1.00000
     77      -7.3329      1.00000
     78      -7.2540      1.00000
     79      -7.1176      1.00000
     80      -7.0130      1.00000
     81      -6.8820      1.00000
     82      -6.7514      1.00000
     83      -6.6325      1.00000
     84      -6.3893      1.00000
     85      -6.2799      1.00000
     86      -6.1100      1.00000
     87      -6.0605      1.00000
     88      -6.0056      1.00000
     89      -5.9102      1.00000
     90      -5.6166      1.00000
     91      -5.5713      1.00000
     92      -5.4122      1.00000
     93      -5.3609      1.00000
     94      -5.3147      1.00000
     95      -4.8126      1.00000
     96      -4.4334      1.00000
     97      -4.3834      1.00000
     98      -4.1149      1.00000
     99      -4.0532      1.00000
    100      -3.9508      1.00000
    101      -3.6872      1.00000
    102      -3.3363      1.00000
    103      -2.3270      1.00000
    104      -1.2867      0.00000
    105      -1.0271      0.00000
    106      -0.7587      0.00000
    107      -0.7088      0.00000
    108      -0.4632      0.00000
    109      -0.4016      0.00000
    110       0.0216      0.00000
    111       0.1232      0.00000
    112       0.6624      0.00000
    113       0.7218      0.00000
    114       0.8558      0.00000
    115       0.9443      0.00000
    116       1.0940      0.00000
    117       1.3541      0.00000
    118       1.4303      0.00000
    119       1.5513      0.00000
    120       1.6034      0.00000
    121       1.6119      0.00000
    122       1.6866      0.00000
    123       1.8234      0.00000
    124       1.9897      0.00000
    125       2.1886      0.00000
    126       2.2267      0.00000
    127       2.2968      0.00000
    128       2.3270      0.00000
    129       2.3493      0.00000
    130       2.3958      0.00000
    131       2.5259      0.00000
    132       2.5581      0.00000
    133       2.6134      0.00000
    134       2.6671      0.00000
    135       2.7004      0.00000
    136       2.8257      0.00000
    137       2.8994      0.00000
    138       2.9210      0.00000
    139       3.0598      0.00000
    140       3.0770      0.00000
    141       3.1229      0.00000
    142       3.1765      0.00000
    143       3.2160      0.00000
    144       3.2887      0.00000
    145       3.3046      0.00000
    146       3.4111      0.00000
    147       3.4633      0.00000
    148       3.5362      0.00000
    149       3.6651      0.00000
    150       3.7196      0.00000
    151       3.8493      0.00000
    152       3.9053      0.00000
    153       3.9480      0.00000
    154       4.0627      0.00000
    155       4.1425      0.00000
    156       4.1477      0.00000
    157       4.2009      0.00000
    158       4.2357      0.00000
    159       4.4248      0.00000
    160       4.5424      0.00000
    161       4.5790      0.00000
    162       4.5856      0.00000
    163       4.6084      0.00000
    164       4.6666      0.00000
    165       4.6719      0.00000
    166       4.7462      0.00000
    167       4.7567      0.00000
    168       4.7959      0.00000
    169       4.8668      0.00000
    170       4.8945      0.00000
    171       4.9664      0.00000
    172       5.1042      0.00000
    173       5.1419      0.00000
    174       5.2151      0.00000
    175       5.2911      0.00000
    176       5.3273      0.00000
    177       5.3739      0.00000
    178       5.3879      0.00000
    179       5.4008      0.00000
    180       5.4260      0.00000
    181       5.4593      0.00000
    182       5.5086      0.00000
    183       5.5115      0.00000
    184       5.5776      0.00000
    185       5.6194      0.00000
    186       5.6434      0.00000
    187       5.6515      0.00000
    188       5.6770      0.00000
    189       5.6859      0.00000
    190       5.7405      0.00000
    191       5.7694      0.00000
    192       5.7983      0.00000
    193       5.8084      0.00000
    194       5.8769      0.00000
    195       5.9162      0.00000
    196       5.9803      0.00000
    197       6.0311      0.00000
    198       6.0574      0.00000
    199       6.0823      0.00000
    200       6.1140      0.00000
    201       6.1334      0.00000
    202       6.1432      0.00000
    203       6.1822      0.00000
    204       6.1942      0.00000
    205       6.2206      0.00000
    206       6.2340      0.00000
    207       6.2609      0.00000
    208       6.2798      0.00000
    209       6.3103      0.00000
    210       6.3343      0.00000
    211       6.3601      0.00000
    212       6.3667      0.00000
    213       6.3796      0.00000
    214       6.4002      0.00000
    215       6.4424      0.00000
    216       6.4622      0.00000
    217       6.4878      0.00000
    218       6.5073      0.00000
    219       6.5534      0.00000
    220       6.5721      0.00000
    221       6.7140      0.00000
    222       6.7720      0.00000
    223       6.8082      0.00000
    224       6.8447      0.00000
    225       6.9090      0.00000
    226       6.9383      0.00000
    227       6.9714      0.00000
    228       6.9892      0.00000
    229       7.0193      0.00000
    230       7.1231      0.00000
    231       7.2214      0.00000
    232       7.3059      0.00000
    233       7.3307      0.00000
    234       7.3697      0.00000
    235       7.3841      0.00000
    236       7.4561      0.00000
    237       7.5688      0.00000
    238       7.6458      0.00000
    239       7.6861      0.00000
    240       7.7127      0.00000
    241       7.7656      0.00000
    242       7.7893      0.00000
    243       7.8252      0.00000
    244       7.9121      0.00000
    245       7.9207      0.00000
    246       7.9887      0.00000
    247       8.1173      0.00000
    248       8.1236      0.00000
    249       8.2497      0.00000
    250       8.3394      0.00000
    251       8.3789      0.00000
    252       8.4304      0.00000
    253       8.5608      0.00000
    254       8.7176      0.00000
    255       8.9672      0.00000
    256       9.1026      0.00000

 k-point     3 :       0.4000    0.0000    0.0000
  band No.  band energies     occupation 
      1     -37.2774      1.00000
      2     -22.4992      1.00000
      3     -22.3259      1.00000
      4     -22.0484      1.00000
      5     -21.6455      1.00000
      6     -21.1445      1.00000
      7     -20.8990      1.00000
      8     -20.6004      1.00000
      9     -20.1887      1.00000
     10     -20.0035      1.00000
     11     -19.7582      1.00000
     12     -19.6167      1.00000
     13     -19.4920      1.00000
     14     -19.3999      1.00000
     15     -19.0822      1.00000
     16     -19.0228      1.00000
     17     -18.7581      1.00000
     18     -18.7149      1.00000
     19     -18.2042      1.00000
     20     -17.8933      1.00000
     21     -17.5768      1.00000
     22     -17.4577      1.00000
     23     -17.3163      1.00000
     24     -16.9859      1.00000
     25     -16.9147      1.00000
     26     -16.7402      1.00000
     27     -16.3260      1.00000
     28     -15.9058      1.00000
     29     -15.5473      1.00000
     30     -15.2506      1.00000
     31     -14.8276      1.00000
     32     -14.7960      1.00000
     33     -14.5889      1.00000
     34     -14.5056      1.00000
     35     -14.1335      1.00000
     36     -13.7852      1.00000
     37     -13.5517      1.00000
     38     -13.0277      1.00000
     39     -12.9386      1.00000
     40     -12.7823      1.00000
     41     -12.4141      1.00000
     42     -12.2525      1.00000
     43     -12.2143      1.00000
     44     -12.1324      1.00000
     45     -11.7781      1.00000
     46     -11.2956      1.00000
     47     -11.0197      1.00000
     48     -10.9914      1.00000
     49     -10.7938      1.00000
     50     -10.7641      1.00000
     51     -10.4025      1.00000
     52     -10.1795      1.00000
     53      -9.9863      1.00000
     54      -9.7412      1.00000
     55      -9.7193      1.00000
     56      -9.6242      1.00000
     57      -9.5191      1.00000
     58      -9.3919      1.00000
     59      -9.3193      1.00000
     60      -9.2208      1.00000
     61      -9.1157      1.00000
     62      -9.0502      1.00000
     63      -9.0233      1.00000
     64      -8.9367      1.00000
     65      -8.6816      1.00000
     66      -8.6675      1.00000
     67      -8.5401      1.00000
     68      -8.3195      1.00000
     69      -8.2878      1.00000
     70      -8.2168      1.00000
     71      -8.1071      1.00000
     72      -8.0097      1.00000
     73      -7.9524      1.00000
     74      -7.8380      1.00000
     75      -7.7668      1.00000
     76      -7.7499      1.00000
     77      -7.6755      1.00000
     78      -7.5208      1.00000
     79      -7.2922      1.00000
     80      -7.0191      1.00000
     81      -6.8508      1.00000
     82      -6.6977      1.00000
     83      -6.5240      1.00000
     84      -6.4663      1.00000
     85      -6.3801      1.00000
     86      -6.3174      1.00000
     87      -6.2785      1.00000
     88      -5.9023      1.00000
     89      -5.5419      1.00000
     90      -5.4076      1.00000
     91      -5.3537      1.00000
     92      -5.3125      1.00000
     93      -5.1128      1.00000
     94      -4.9659      1.00000
     95      -4.8439      1.00000
     96      -4.5812      1.00000
     97      -4.5438      1.00000
     98      -4.5365      1.00000
     99      -4.3681      1.00000
    100      -4.1611      1.00000
    101      -3.6379      1.00000
    102      -3.1613      1.00000
    103      -2.4383      1.00000
    104      -1.3440      0.00000
    105      -0.8762      0.00000
    106      -0.5838      0.00000
    107      -0.4017      0.00000
    108      -0.2999      0.00000
    109      -0.2388      0.00000
    110      -0.1461      0.00000
    111      -0.0443      0.00000
    112       0.3944      0.00000
    113       0.6246      0.00000
    114       0.7066      0.00000
    115       0.8530      0.00000
    116       1.0581      0.00000
    117       1.1971      0.00000
    118       1.3199      0.00000
    119       1.5052      0.00000
    120       1.6252      0.00000
    121       1.7493      0.00000
    122       1.8297      0.00000
    123       1.8693      0.00000
    124       2.0055      0.00000
    125       2.0567      0.00000
    126       2.0948      0.00000
    127       2.1203      0.00000
    128       2.2597      0.00000
    129       2.4454      0.00000
    130       2.4484      0.00000
    131       2.4874      0.00000
    132       2.5287      0.00000
    133       2.6083      0.00000
    134       2.6790      0.00000
    135       2.7929      0.00000
    136       2.8344      0.00000
    137       3.0269      0.00000
    138       3.0983      0.00000
    139       3.2159      0.00000
    140       3.2618      0.00000
    141       3.3363      0.00000
    142       3.4248      0.00000
    143       3.4318      0.00000
    144       3.4669      0.00000
    145       3.5209      0.00000
    146       3.5412      0.00000
    147       3.5822      0.00000
    148       3.6438      0.00000
    149       3.7034      0.00000
    150       3.7469      0.00000
    151       3.8896      0.00000
    152       3.9244      0.00000
    153       3.9836      0.00000
    154       4.0105      0.00000
    155       4.0258      0.00000
    156       4.0647      0.00000
    157       4.1027      0.00000
    158       4.1311      0.00000
    159       4.1919      0.00000
    160       4.2797      0.00000
    161       4.3600      0.00000
    162       4.5091      0.00000
    163       4.5669      0.00000
    164       4.6723      0.00000
    165       4.7093      0.00000
    166       4.7478      0.00000
    167       4.7844      0.00000
    168       4.8559      0.00000
    169       4.8621      0.00000
    170       4.9038      0.00000
    171       4.9973      0.00000
    172       5.0121      0.00000
    173       5.0525      0.00000
    174       5.0604      0.00000
    175       5.0842      0.00000
    176       5.0975      0.00000
    177       5.1662      0.00000
    178       5.2238      0.00000
    179       5.2555      0.00000
    180       5.3574      0.00000
    181       5.4406      0.00000
    182       5.4843      0.00000
    183       5.5130      0.00000
    184       5.5211      0.00000
    185       5.5518      0.00000
    186       5.5802      0.00000
    187       5.6293      0.00000
    188       5.6609      0.00000
    189       5.6789      0.00000
    190       5.6877      0.00000
    191       5.7439      0.00000
    192       5.7523      0.00000
    193       5.7828      0.00000
    194       5.8033      0.00000
    195       5.8527      0.00000
    196       5.8734      0.00000
    197       5.9315      0.00000
    198       5.9842      0.00000
    199       6.0167      0.00000
    200       6.0410      0.00000
    201       6.1021      0.00000
    202       6.1587      0.00000
    203       6.2119      0.00000
    204       6.2267      0.00000
    205       6.2873      0.00000
    206       6.3105      0.00000
    207       6.3319      0.00000
    208       6.3410      0.00000
    209       6.4606      0.00000
    210       6.5006      0.00000
    211       6.5264      0.00000
    212       6.6035      0.00000
    213       6.6420      0.00000
    214       6.6556      0.00000
    215       6.6957      0.00000
    216       6.7099      0.00000
    217       6.8324      0.00000
    218       6.8725      0.00000
    219       6.9006      0.00000
    220       6.9321      0.00000
    221       6.9640      0.00000
    222       7.0135      0.00000
    223       7.0966      0.00000
    224       7.1225      0.00000
    225       7.1537      0.00000
    226       7.1884      0.00000
    227       7.2084      0.00000
    228       7.2581      0.00000
    229       7.2774      0.00000
    230       7.3026      0.00000
    231       7.3813      0.00000
    232       7.4125      0.00000
    233       7.4809      0.00000
    234       7.5813      0.00000
    235       7.6382      0.00000
    236       7.6829      0.00000
    237       7.7862      0.00000
    238       7.8069      0.00000
    239       7.8518      0.00000
    240       7.8614      0.00000
    241       7.9215      0.00000
    242       8.0467      0.00000
    243       8.0487      0.00000
    244       8.1318      0.00000
    245       8.1469      0.00000
    246       8.2760      0.00000
    247       8.3502      0.00000
    248       8.4583      0.00000
    249       8.5145      0.00000
    250       8.6154      0.00000
    251       8.6673      0.00000
    252       8.8083      0.00000
    253       8.8742      0.00000
    254       8.8850      0.00000
    255       9.1401      0.00000
    256       9.3462      0.00000

 k-point     4 :       0.0000    0.2000    0.0000
  band No.  band energies     occupation 
      1     -37.2774      1.00000
      2     -22.5235      1.00000
      3     -22.2979      1.00000
      4     -22.0323      1.00000
      5     -21.6360      1.00000
      6     -21.1969      1.00000
      7     -20.8672      1.00000
      8     -20.6525      1.00000
      9     -20.2965      1.00000
     10     -19.9728      1.00000
     11     -19.7458      1.00000
     12     -19.5208      1.00000
     13     -19.4628      1.00000
     14     -19.2945      1.00000
     15     -19.0743      1.00000
     16     -18.8351      1.00000
     17     -18.7164      1.00000
     18     -18.5860      1.00000
     19     -18.5278      1.00000
     20     -18.0956      1.00000
     21     -17.8693      1.00000
     22     -17.7720      1.00000
     23     -17.3535      1.00000
     24     -16.7823      1.00000
     25     -16.5472      1.00000
     26     -16.4572      1.00000
     27     -16.2105      1.00000
     28     -15.9248      1.00000
     29     -15.5284      1.00000
     30     -15.0271      1.00000
     31     -14.8988      1.00000
     32     -14.7180      1.00000
     33     -14.6437      1.00000
     34     -14.5474      1.00000
     35     -14.3328      1.00000
     36     -14.2020      1.00000
     37     -13.7538      1.00000
     38     -13.4256      1.00000
     39     -12.9806      1.00000
     40     -12.6897      1.00000
     41     -12.2688      1.00000
     42     -12.0205      1.00000
     43     -11.9397      1.00000
     44     -11.6726      1.00000
     45     -11.5857      1.00000
     46     -11.4605      1.00000
     47     -11.1173      1.00000
     48     -10.9329      1.00000
     49     -10.8053      1.00000
     50     -10.7128      1.00000
     51     -10.5035      1.00000
     52     -10.1596      1.00000
     53     -10.0255      1.00000
     54      -9.8781      1.00000
     55      -9.8288      1.00000
     56      -9.6726      1.00000
     57      -9.3500      1.00000
     58      -9.3082      1.00000
     59      -9.2769      1.00000
     60      -9.2453      1.00000
     61      -9.1356      1.00000
     62      -9.0268      1.00000
     63      -8.9861      1.00000
     64      -8.9622      1.00000
     65      -8.7856      1.00000
     66      -8.6095      1.00000
     67      -8.5807      1.00000
     68      -8.5106      1.00000
     69      -8.4670      1.00000
     70      -8.4131      1.00000
     71      -8.3218      1.00000
     72      -8.2594      1.00000
     73      -8.0179      1.00000
     74      -7.8119      1.00000
     75      -7.7452      1.00000
     76      -7.4142      1.00000
     77      -7.3329      1.00000
     78      -7.2540      1.00000
     79      -7.1176      1.00000
     80      -7.0130      1.00000
     81      -6.8820      1.00000
     82      -6.7514      1.00000
     83      -6.6325      1.00000
     84      -6.3893      1.00000
     85      -6.2799      1.00000
     86      -6.1100      1.00000
     87      -6.0605      1.00000
     88      -6.0056      1.00000
     89      -5.9102      1.00000
     90      -5.6166      1.00000
     91      -5.5713      1.00000
     92      -5.4122      1.00000
     93      -5.3609      1.00000
     94      -5.3147      1.00000
     95      -4.8126      1.00000
     96      -4.4334      1.00000
     97      -4.3834      1.00000
     98      -4.1149      1.00000
     99      -4.0532      1.00000
    100      -3.9508      1.00000
    101      -3.6872      1.00000
    102      -3.3363      1.00000
    103      -2.3270      1.00000
    104      -1.2867      0.00000
    105      -1.0271      0.00000
    106      -0.7587      0.00000
    107      -0.7088      0.00000
    108      -0.4632      0.00000
    109      -0.4016      0.00000
    110       0.0216      0.00000
    111       0.1232      0.00000
    112       0.6624      0.00000
    113       0.7218      0.00000
    114       0.8558      0.00000
    115       0.9443      0.00000
    116       1.0940      0.00000
    117       1.3541      0.00000
    118       1.4303      0.00000
    119       1.5513      0.00000
    120       1.6035      0.00000
    121       1.6119      0.00000
    122       1.6866      0.00000
    123       1.8234      0.00000
    124       1.9897      0.00000
    125       2.1886      0.00000
    126       2.2267      0.00000
    127       2.2968      0.00000
    128       2.3270      0.00000
    129       2.3493      0.00000
    130       2.3958      0.00000
    131       2.5259      0.00000
    132       2.5581      0.00000
    133       2.6134      0.00000
    134       2.6671      0.00000
    135       2.7004      0.00000
    136       2.8257      0.00000
    137       2.8994      0.00000
    138       2.9210      0.00000
    139       3.0598      0.00000
    140       3.0770      0.00000
    141       3.1229      0.00000
    142       3.1765      0.00000
    143       3.2160      0.00000
    144       3.2887      0.00000
    145       3.3046      0.00000
    146       3.4111      0.00000
    147       3.4633      0.00000
    148       3.5362      0.00000
    149       3.6651      0.00000
    150       3.7196      0.00000
    151       3.8493      0.00000
    152       3.9053      0.00000
    153       3.9480      0.00000
    154       4.0627      0.00000
    155       4.1426      0.00000
    156       4.1477      0.00000
    157       4.2009      0.00000
    158       4.2357      0.00000
    159       4.4248      0.00000
    160       4.5424      0.00000
    161       4.5790      0.00000
    162       4.5856      0.00000
    163       4.6084      0.00000
    164       4.6666      0.00000
    165       4.6719      0.00000
    166       4.7462      0.00000
    167       4.7567      0.00000
    168       4.7959      0.00000
    169       4.8668      0.00000
    170       4.8945      0.00000
    171       4.9668      0.00000
    172       5.1044      0.00000
    173       5.1421      0.00000
    174       5.2156      0.00000
    175       5.2922      0.00000
    176       5.3286      0.00000
    177       5.3772      0.00000
    178       5.3881      0.00000
    179       5.4021      0.00000
    180       5.4331      0.00000
    181       5.4595      0.00000
    182       5.5104      0.00000
    183       5.5228      0.00000
    184       5.5830      0.00000
    185       5.6230      0.00000
    186       5.6443      0.00000
    187       5.6580      0.00000
    188       5.6857      0.00000
    189       5.7320      0.00000
    190       5.7526      0.00000
    191       5.7866      0.00000
    192       5.8065      0.00000
    193       5.8664      0.00000
    194       5.8826      0.00000
    195       5.9791      0.00000
    196       6.0228      0.00000
    197       6.0600      0.00000
    198       6.0667      0.00000
    199       6.1120      0.00000
    200       6.1198      0.00000
    201       6.1748      0.00000
    202       6.1972      0.00000
    203       6.2165      0.00000
    204       6.2287      0.00000
    205       6.2567      0.00000
    206       6.2624      0.00000
    207       6.2936      0.00000
    208       6.3413      0.00000
    209       6.3669      0.00000
    210       6.3825      0.00000
    211       6.4258      0.00000
    212       6.4594      0.00000
    213       6.4758      0.00000
    214       6.4993      0.00000
    215       6.6496      0.00000
    216       6.7808      0.00000
    217       6.8835      0.00000
    218       6.8859      0.00000
    219       6.9052      0.00000
    220       6.9568      0.00000
    221       6.9798      0.00000
    222       7.0577      0.00000
    223       7.1971      0.00000
    224       7.1974      0.00000
    225       7.2085      0.00000
    226       7.3523      0.00000
    227       7.3973      0.00000
    228       7.4714      0.00000
    229       7.4818      0.00000
    230       7.6315      0.00000
    231       7.6517      0.00000
    232       7.6648      0.00000
    233       7.7685      0.00000
    234       7.8161      0.00000
    235       7.8833      0.00000
    236       7.9406      0.00000
    237       7.9850      0.00000
    238       8.1679      0.00000
    239       8.2175      0.00000
    240       8.3295      0.00000
    241       8.3860      0.00000
    242       8.4168      0.00000
    243       8.5139      0.00000
    244       8.5714      0.00000
    245       8.6466      0.00000
    246       8.7745      0.00000
    247       8.8135      0.00000
    248       8.8284      0.00000
    249       9.0055      0.00000
    250       9.1630      0.00000
    251       9.2776      0.00000
    252       9.3260      0.00000
    253       9.5357      0.00000
    254       9.7061      0.00000
    255       9.9615      0.00000
    256      10.0193      0.00000

 k-point     5 :       0.2000    0.2000    0.0000
  band No.  band energies     occupation 
      1     -37.2774      1.00000
      2     -22.5047      1.00000
      3     -22.3203      1.00000
      4     -22.0428      1.00000
      5     -21.6464      1.00000
      6     -21.1736      1.00000
      7     -20.8029      1.00000
      8     -20.7050      1.00000
      9     -20.1624      1.00000
     10     -20.0599      1.00000
     11     -19.6470      1.00000
     12     -19.5897      1.00000
     13     -19.4942      1.00000
     14     -19.3729      1.00000
     15     -19.2775      1.00000
     16     -18.9972      1.00000
     17     -18.7823      1.00000
     18     -18.2873      1.00000
     19     -18.2327      1.00000
     20     -18.1976      1.00000
     21     -17.8050      1.00000
     22     -17.5979      1.00000
     23     -17.2056      1.00000
     24     -16.8640      1.00000
     25     -16.6446      1.00000
     26     -16.6429      1.00000
     27     -16.4768      1.00000
     28     -15.9121      1.00000
     29     -15.5906      1.00000
     30     -15.2228      1.00000
     31     -14.9247      1.00000
     32     -14.8810      1.00000
     33     -14.4499      1.00000
     34     -14.2324      1.00000
     35     -14.2181      1.00000
     36     -13.8871      1.00000
     37     -13.7490      1.00000
     38     -13.3780      1.00000
     39     -12.7790      1.00000
     40     -12.6413      1.00000
     41     -12.4363      1.00000
     42     -12.3463      1.00000
     43     -12.0073      1.00000
     44     -11.8886      1.00000
     45     -11.5378      1.00000
     46     -11.4182      1.00000
     47     -11.2375      1.00000
     48     -11.1163      1.00000
     49     -11.0422      1.00000
     50     -10.3934      1.00000
     51     -10.3571      1.00000
     52     -10.1560      1.00000
     53     -10.1104      1.00000
     54      -9.7969      1.00000
     55      -9.7611      1.00000
     56      -9.7191      1.00000
     57      -9.4254      1.00000
     58      -9.3786      1.00000
     59      -9.3088      1.00000
     60      -9.2425      1.00000
     61      -9.0584      1.00000
     62      -8.9587      1.00000
     63      -8.8193      1.00000
     64      -8.7723      1.00000
     65      -8.7553      1.00000
     66      -8.7488      1.00000
     67      -8.5776      1.00000
     68      -8.5366      1.00000
     69      -8.3949      1.00000
     70      -8.3470      1.00000
     71      -8.2620      1.00000
     72      -8.0393      1.00000
     73      -8.0362      1.00000
     74      -7.7766      1.00000
     75      -7.7657      1.00000
     76      -7.6018      1.00000
     77      -7.4216      1.00000
     78      -7.2905      1.00000
     79      -7.2380      1.00000
     80      -7.0133      1.00000
     81      -6.9973      1.00000
     82      -6.8916      1.00000
     83      -6.7260      1.00000
     84      -6.6093      1.00000
     85      -6.2350      1.00000
     86      -6.1863      1.00000
     87      -5.8745      1.00000
     88      -5.7714      1.00000
     89      -5.6902      1.00000
     90      -5.5881      1.00000
     91      -5.3805      1.00000
     92      -5.3340      1.00000
     93      -5.3280      1.00000
     94      -5.1868      1.00000
     95      -4.8302      1.00000
     96      -4.5373      1.00000
     97      -4.3840      1.00000
     98      -4.3198      1.00000
     99      -4.2086      1.00000
    100      -4.1505      1.00000
    101      -3.9112      1.00000
    102      -2.8810      1.00000
    103      -2.6356      1.00000
    104      -1.4310      0.00000
    105      -0.6644      0.00000
    106      -0.5972      0.00000
    107      -0.4563      0.00000
    108      -0.4157      0.00000
    109      -0.3774      0.00000
    110      -0.1597      0.00000
    111       0.2234      0.00000
    112       0.2745      0.00000
    113       0.6493      0.00000
    114       0.7841      0.00000
    115       0.8238      0.00000
    116       1.1772      0.00000
    117       1.1991      0.00000
    118       1.2762      0.00000
    119       1.5463      0.00000
    120       1.5999      0.00000
    121       1.7037      0.00000
    122       1.7511      0.00000
    123       1.8147      0.00000
    124       1.9357      0.00000
    125       2.0924      0.00000
    126       2.1150      0.00000
    127       2.1648      0.00000
    128       2.2615      0.00000
    129       2.3271      0.00000
    130       2.4089      0.00000
    131       2.6159      0.00000
    132       2.6538      0.00000
    133       2.7089      0.00000
    134       2.8794      0.00000
    135       2.9113      0.00000
    136       2.9187      0.00000
    137       2.9677      0.00000
    138       3.0322      0.00000
    139       3.0767      0.00000
    140       3.1058      0.00000
    141       3.1884      0.00000
    142       3.2700      0.00000
    143       3.2990      0.00000
    144       3.4534      0.00000
    145       3.4692      0.00000
    146       3.5771      0.00000
    147       3.6165      0.00000
    148       3.6889      0.00000
    149       3.7128      0.00000
    150       3.7273      0.00000
    151       3.7644      0.00000
    152       3.8726      0.00000
    153       3.9198      0.00000
    154       3.9854      0.00000
    155       4.0015      0.00000
    156       4.0289      0.00000
    157       4.1556      0.00000
    158       4.1808      0.00000
    159       4.3405      0.00000
    160       4.4321      0.00000
    161       4.4473      0.00000
    162       4.4802      0.00000
    163       4.5488      0.00000
    164       4.6780      0.00000
    165       4.7056      0.00000
    166       4.7643      0.00000
    167       4.7689      0.00000
    168       4.8594      0.00000
    169       4.8917      0.00000
    170       4.8920      0.00000
    171       4.9750      0.00000
    172       5.0649      0.00000
    173       5.0789      0.00000
    174       5.0928      0.00000
    175       5.1441      0.00000
    176       5.1794      0.00000
    177       5.2145      0.00000
    178       5.2576      0.00000
    179       5.2840      0.00000
    180       5.3585      0.00000
    181       5.3981      0.00000
    182       5.4302      0.00000
    183       5.4333      0.00000
    184       5.4930      0.00000
    185       5.5007      0.00000
    186       5.5262      0.00000
    187       5.5484      0.00000
    188       5.5724      0.00000
    189       5.6429      0.00000
    190       5.7272      0.00000
    191       5.7702      0.00000
    192       5.8184      0.00000
    193       5.8378      0.00000
    194       5.8854      0.00000
    195       5.9220      0.00000
    196       5.9734      0.00000
    197       5.9855      0.00000
    198       6.0762      0.00000
    199       6.1215      0.00000
    200       6.1232      0.00000
    201       6.1836      0.00000
    202       6.2184      0.00000
    203       6.2220      0.00000
    204       6.2899      0.00000
    205       6.3202      0.00000
    206       6.3347      0.00000
    207       6.3406      0.00000
    208       6.3846      0.00000
    209       6.4226      0.00000
    210       6.4555      0.00000
    211       6.5259      0.00000
    212       6.5706      0.00000
    213       6.6715      0.00000
    214       6.7158      0.00000
    215       6.7199      0.00000
    216       6.7742      0.00000
    217       6.7744      0.00000
    218       6.7944      0.00000
    219       6.8228      0.00000
    220       6.9563      0.00000
    221       6.9970      0.00000
    222       7.0014      0.00000
    223       7.0395      0.00000
    224       7.0611      0.00000
    225       7.0953      0.00000
    226       7.1573      0.00000
    227       7.2022      0.00000
    228       7.2675      0.00000
    229       7.3109      0.00000
    230       7.3809      0.00000
    231       7.4760      0.00000
    232       7.5281      0.00000
    233       7.5999      0.00000
    234       7.7120      0.00000
    235       7.7712      0.00000
    236       7.8041      0.00000
    237       7.8447      0.00000
    238       7.8951      0.00000
    239       7.9212      0.00000
    240       8.0406      0.00000
    241       8.0812      0.00000
    242       8.1878      0.00000
    243       8.2214      0.00000
    244       8.3505      0.00000
    245       8.3574      0.00000
    246       8.4026      0.00000
    247       8.4341      0.00000
    248       8.5080      0.00000
    249       8.5934      0.00000
    250       8.7125      0.00000
    251       8.8301      0.00000
    252       8.9359      0.00000
    253       9.2121      0.00000
    254       9.2601      0.00000
    255       9.2800      0.00000
    256       9.8032      0.00000

 k-point     6 :       0.4000    0.2000    0.0000
  band No.  band energies     occupation 
      1     -37.2774      1.00000
      2     -22.4913      1.00000
      3     -22.3294      1.00000
      4     -22.0687      1.00000
      5     -21.6265      1.00000
      6     -21.1436      1.00000
      7     -20.9024      1.00000
      8     -20.6138      1.00000
      9     -20.1206      1.00000
     10     -19.9845      1.00000
     11     -19.7116      1.00000
     12     -19.6786      1.00000
     13     -19.4571      1.00000
     14     -19.3782      1.00000
     15     -19.3453      1.00000
     16     -19.1234      1.00000
     17     -18.8514      1.00000
     18     -18.2919      1.00000
     19     -18.1436      1.00000
     20     -17.8347      1.00000
     21     -17.6624      1.00000
     22     -17.5269      1.00000
     23     -17.3506      1.00000
     24     -16.9431      1.00000
     25     -16.8251      1.00000
     26     -16.7177      1.00000
     27     -16.5106      1.00000
     28     -15.9273      1.00000
     29     -15.4974      1.00000
     30     -15.4307      1.00000
     31     -15.1158      1.00000
     32     -14.9346      1.00000
     33     -14.2537      1.00000
     34     -14.0664      1.00000
     35     -13.9417      1.00000
     36     -13.5799      1.00000
     37     -13.4617      1.00000
     38     -13.3318      1.00000
     39     -13.2399      1.00000
     40     -12.9845      1.00000
     41     -12.6410      1.00000
     42     -12.3175      1.00000
     43     -11.9551      1.00000
     44     -11.7129      1.00000
     45     -11.5933      1.00000
     46     -11.4693      1.00000
     47     -11.2892      1.00000
     48     -11.2504      1.00000
     49     -10.8272      1.00000
     50     -10.7167      1.00000
     51     -10.3073      1.00000
     52     -10.2352      1.00000
     53      -9.8878      1.00000
     54      -9.6528      1.00000
     55      -9.6123      1.00000
     56      -9.5835      1.00000
     57      -9.5199      1.00000
     58      -9.4461      1.00000
     59      -9.3663      1.00000
     60      -9.3192      1.00000
     61      -9.2289      1.00000
     62      -8.9948      1.00000
     63      -8.8978      1.00000
     64      -8.7791      1.00000
     65      -8.7429      1.00000
     66      -8.6037      1.00000
     67      -8.4416      1.00000
     68      -8.3930      1.00000
     69      -8.3606      1.00000
     70      -8.2174      1.00000
     71      -8.2124      1.00000
     72      -7.9955      1.00000
     73      -7.9728      1.00000
     74      -7.8653      1.00000
     75      -7.7951      1.00000
     76      -7.5769      1.00000
     77      -7.5648      1.00000
     78      -7.3940      1.00000
     79      -7.3751      1.00000
     80      -7.1308      1.00000
     81      -6.9734      1.00000
     82      -6.8428      1.00000
     83      -6.7526      1.00000
     84      -6.5995      1.00000
     85      -6.3610      1.00000
     86      -6.1286      1.00000
     87      -5.9523      1.00000
     88      -5.8080      1.00000
     89      -5.5151      1.00000
     90      -5.4270      1.00000
     91      -5.3267      1.00000
     92      -5.2844      1.00000
     93      -5.1504      1.00000
     94      -5.0675      1.00000
     95      -4.7874      1.00000
     96      -4.5904      1.00000
     97      -4.5446      1.00000
     98      -4.5239      1.00000
     99      -4.3398      1.00000
    100      -4.1973      1.00000
    101      -3.9728      1.00000
    102      -2.9637      1.00000
    103      -2.4028      1.00000
    104      -1.5589      0.00005
    105      -0.7191      0.00000
    106      -0.5377      0.00000
    107      -0.3951      0.00000
    108      -0.3471      0.00000
    109      -0.1497      0.00000
    110      -0.0694      0.00000
    111       0.1581      0.00000
    112       0.4420      0.00000
    113       0.5626      0.00000
    114       0.6306      0.00000
    115       0.7028      0.00000
    116       0.7754      0.00000
    117       1.2134      0.00000
    118       1.3361      0.00000
    119       1.5244      0.00000
    120       1.5748      0.00000
    121       1.6688      0.00000
    122       1.8361      0.00000
    123       1.8439      0.00000
    124       1.9006      0.00000
    125       1.9736      0.00000
    126       2.0842      0.00000
    127       2.1568      0.00000
    128       2.1640      0.00000
    129       2.3572      0.00000
    130       2.4623      0.00000
    131       2.7254      0.00000
    132       2.7385      0.00000
    133       2.8582      0.00000
    134       2.8816      0.00000
    135       2.9240      0.00000
    136       2.9610      0.00000
    137       3.0447      0.00000
    138       3.1114      0.00000
    139       3.1627      0.00000
    140       3.2273      0.00000
    141       3.3226      0.00000
    142       3.3684      0.00000
    143       3.4133      0.00000
    144       3.4448      0.00000
    145       3.4723      0.00000
    146       3.4968      0.00000
    147       3.5637      0.00000
    148       3.6170      0.00000
    149       3.6591      0.00000
    150       3.7509      0.00000
    151       3.8441      0.00000
    152       3.8661      0.00000
    153       3.9648      0.00000
    154       4.0246      0.00000
    155       4.1055      0.00000
    156       4.1776      0.00000
    157       4.2302      0.00000
    158       4.2963      0.00000
    159       4.3179      0.00000
    160       4.3743      0.00000
    161       4.3987      0.00000
    162       4.4341      0.00000
    163       4.4575      0.00000
    164       4.5280      0.00000
    165       4.5621      0.00000
    166       4.5995      0.00000
    167       4.7340      0.00000
    168       4.7457      0.00000
    169       4.8491      0.00000
    170       4.8606      0.00000
    171       4.9184      0.00000
    172       4.9561      0.00000
    173       4.9910      0.00000
    174       5.0253      0.00000
    175       5.0786      0.00000
    176       5.0945      0.00000
    177       5.1406      0.00000
    178       5.1607      0.00000
    179       5.2533      0.00000
    180       5.2744      0.00000
    181       5.3057      0.00000
    182       5.3410      0.00000
    183       5.5185      0.00000
    184       5.5303      0.00000
    185       5.5629      0.00000
    186       5.6210      0.00000
    187       5.6293      0.00000
    188       5.6504      0.00000
    189       5.6886      0.00000
    190       5.7102      0.00000
    191       5.7447      0.00000
    192       5.7812      0.00000
    193       5.8595      0.00000
    194       5.8974      0.00000
    195       5.9412      0.00000
    196       5.9775      0.00000
    197       5.9964      0.00000
    198       6.0268      0.00000
    199       6.0577      0.00000
    200       6.0830      0.00000
    201       6.1110      0.00000
    202       6.1849      0.00000
    203       6.2448      0.00000
    204       6.3041      0.00000
    205       6.3325      0.00000
    206       6.3613      0.00000
    207       6.4086      0.00000
    208       6.4369      0.00000
    209       6.4542      0.00000
    210       6.4648      0.00000
    211       6.5120      0.00000
    212       6.5536      0.00000
    213       6.5795      0.00000
    214       6.5895      0.00000
    215       6.6093      0.00000
    216       6.6737      0.00000
    217       6.6917      0.00000
    218       6.7342      0.00000
    219       6.7576      0.00000
    220       6.8038      0.00000
    221       6.8864      0.00000
    222       6.9377      0.00000
    223       6.9883      0.00000
    224       7.0541      0.00000
    225       7.1251      0.00000
    226       7.1734      0.00000
    227       7.1908      0.00000
    228       7.2582      0.00000
    229       7.3019      0.00000
    230       7.3264      0.00000
    231       7.3749      0.00000
    232       7.4133      0.00000
    233       7.4327      0.00000
    234       7.4719      0.00000
    235       7.5198      0.00000
    236       7.5538      0.00000
    237       7.6166      0.00000
    238       7.6664      0.00000
    239       7.7000      0.00000
    240       7.7402      0.00000
    241       7.7828      0.00000
    242       7.8840      0.00000
    243       7.9074      0.00000
    244       7.9529      0.00000
    245       8.1127      0.00000
    246       8.1165      0.00000
    247       8.1632      0.00000
    248       8.2169      0.00000
    249       8.2781      0.00000
    250       8.2886      0.00000
    251       8.4049      0.00000
    252       8.5032      0.00000
    253       8.6432      0.00000
    254       8.6883      0.00000
    255       8.9653      0.00000
    256       9.0840      0.00000

 k-point     7 :      -0.4000    0.2000    0.0000
  band No.  band energies     occupation 
      1     -37.2774      1.00000
      2     -22.5055      1.00000
      3     -22.3085      1.00000
      4     -22.0742      1.00000
      5     -21.6025      1.00000
      6     -21.1534      1.00000
      7     -20.9760      1.00000
      8     -20.5258      1.00000
      9     -20.2478      1.00000
     10     -19.9573      1.00000
     11     -19.7852      1.00000
     12     -19.5379      1.00000
     13     -19.4608      1.00000
     14     -19.3548      1.00000
     15     -19.1958      1.00000
     16     -19.1457      1.00000
     17     -18.8129      1.00000
     18     -18.3952      1.00000
     19     -18.2944      1.00000
     20     -17.9667      1.00000
     21     -17.7107      1.00000
     22     -17.3956      1.00000
     23     -17.2391      1.00000
     24     -17.0611      1.00000
     25     -16.8874      1.00000
     26     -16.5853      1.00000
     27     -16.4102      1.00000
     28     -16.0651      1.00000
     29     -15.4453      1.00000
     30     -15.1142      1.00000
     31     -14.9687      1.00000
     32     -14.8524      1.00000
     33     -14.4351      1.00000
     34     -14.3042      1.00000
     35     -14.1143      1.00000
     36     -13.9046      1.00000
     37     -13.7481      1.00000
     38     -13.1907      1.00000
     39     -12.8836      1.00000
     40     -12.6810      1.00000
     41     -12.5041      1.00000
     42     -12.3747      1.00000
     43     -12.2869      1.00000
     44     -11.8889      1.00000
     45     -11.4854      1.00000
     46     -11.4731      1.00000
     47     -11.2516      1.00000
     48     -10.9720      1.00000
     49     -10.6935      1.00000
     50     -10.6448      1.00000
     51     -10.1444      1.00000
     52     -10.0889      1.00000
     53     -10.0550      1.00000
     54      -9.8962      1.00000
     55      -9.7745      1.00000
     56      -9.7066      1.00000
     57      -9.5068      1.00000
     58      -9.3874      1.00000
     59      -9.3316      1.00000
     60      -9.2270      1.00000
     61      -9.1652      1.00000
     62      -9.0212      1.00000
     63      -8.9316      1.00000
     64      -8.8977      1.00000
     65      -8.7783      1.00000
     66      -8.6495      1.00000
     67      -8.6162      1.00000
     68      -8.4533      1.00000
     69      -8.3882      1.00000
     70      -8.2460      1.00000
     71      -8.1087      1.00000
     72      -8.0563      1.00000
     73      -8.0139      1.00000
     74      -7.8403      1.00000
     75      -7.7007      1.00000
     76      -7.5784      1.00000
     77      -7.3777      1.00000
     78      -7.3591      1.00000
     79      -7.3100      1.00000
     80      -7.1024      1.00000
     81      -6.8453      1.00000
     82      -6.7830      1.00000
     83      -6.7384      1.00000
     84      -6.6588      1.00000
     85      -6.2220      1.00000
     86      -6.1588      1.00000
     87      -5.9868      1.00000
     88      -5.8583      1.00000
     89      -5.7907      1.00000
     90      -5.5944      1.00000
     91      -5.4961      1.00000
     92      -5.4144      1.00000
     93      -5.1410      1.00000
     94      -4.8802      1.00000
     95      -4.7991      1.00000
     96      -4.5830      1.00000
     97      -4.5762      1.00000
     98      -4.3393      1.00000
     99      -4.1506      1.00000
    100      -4.0606      1.00000
    101      -3.9116      1.00000
    102      -3.2953      1.00000
    103      -2.1033      0.99993
    104      -1.5175      0.00000
    105      -0.7772      0.00000
    106      -0.6483      0.00000
    107      -0.5341      0.00000
    108      -0.4067      0.00000
    109      -0.2909      0.00000
    110      -0.1448      0.00000
    111       0.0180      0.00000
    112       0.5862      0.00000
    113       0.6714      0.00000
    114       0.7878      0.00000
    115       0.7988      0.00000
    116       1.2015      0.00000
    117       1.2171      0.00000
    118       1.3495      0.00000
    119       1.4801      0.00000
    120       1.5269      0.00000
    121       1.6292      0.00000
    122       1.7327      0.00000
    123       1.8585      0.00000
    124       1.9548      0.00000
    125       2.0813      0.00000
    126       2.1314      0.00000
    127       2.1980      0.00000
    128       2.2599      0.00000
    129       2.2925      0.00000
    130       2.3866      0.00000
    131       2.5961      0.00000
    132       2.6026      0.00000
    133       2.7201      0.00000
    134       2.8105      0.00000
    135       2.8873      0.00000
    136       2.9088      0.00000
    137       2.9945      0.00000
    138       3.0213      0.00000
    139       3.0863      0.00000
    140       3.1590      0.00000
    141       3.2192      0.00000
    142       3.2256      0.00000
    143       3.3066      0.00000
    144       3.4141      0.00000
    145       3.5120      0.00000
    146       3.6324      0.00000
    147       3.6501      0.00000
    148       3.7017      0.00000
    149       3.7246      0.00000
    150       3.7813      0.00000
    151       3.7958      0.00000
    152       3.8785      0.00000
    153       3.9551      0.00000
    154       3.9979      0.00000
    155       4.0136      0.00000
    156       4.1176      0.00000
    157       4.1366      0.00000
    158       4.1784      0.00000
    159       4.2225      0.00000
    160       4.4119      0.00000
    161       4.4795      0.00000
    162       4.5371      0.00000
    163       4.5632      0.00000
    164       4.6585      0.00000
    165       4.7095      0.00000
    166       4.7218      0.00000
    167       4.8171      0.00000
    168       4.8466      0.00000
    169       4.8738      0.00000
    170       4.9026      0.00000
    171       4.9578      0.00000
    172       5.0283      0.00000
    173       5.0474      0.00000
    174       5.1317      0.00000
    175       5.1804      0.00000
    176       5.1879      0.00000
    177       5.2185      0.00000
    178       5.2618      0.00000
    179       5.2951      0.00000
    180       5.3124      0.00000
    181       5.3964      0.00000
    182       5.4403      0.00000
    183       5.4880      0.00000
    184       5.5114      0.00000
    185       5.5378      0.00000
    186       5.5847      0.00000
    187       5.6367      0.00000
    188       5.7595      0.00000
    189       5.7859      0.00000
    190       5.8141      0.00000
    191       5.9181      0.00000
    192       5.9384      0.00000
    193       6.0123      0.00000
    194       6.0400      0.00000
    195       6.0477      0.00000
    196       6.1675      0.00000
    197       6.1790      0.00000
    198       6.2394      0.00000
    199       6.2483      0.00000
    200       6.2867      0.00000
    201       6.3647      0.00000
    202       6.3786      0.00000
    203       6.4047      0.00000
    204       6.4406      0.00000
    205       6.4525      0.00000
    206       6.5744      0.00000
    207       6.6318      0.00000
    208       6.6408      0.00000
    209       6.6522      0.00000
    210       6.7875      0.00000
    211       6.8275      0.00000
    212       6.8644      0.00000
    213       6.9336      0.00000
    214       6.9686      0.00000
    215       6.9976      0.00000
    216       7.0335      0.00000
    217       7.2375      0.00000
    218       7.3311      0.00000
    219       7.3326      0.00000
    220       7.3567      0.00000
    221       7.5038      0.00000
    222       7.5284      0.00000
    223       7.5499      0.00000
    224       7.5658      0.00000
    225       7.6669      0.00000
    226       7.6852      0.00000
    227       7.8296      0.00000
    228       7.8570      0.00000
    229       7.9046      0.00000
    230       7.9998      0.00000
    231       8.0462      0.00000
    232       8.1116      0.00000
    233       8.1547      0.00000
    234       8.2112      0.00000
    235       8.2581      0.00000
    236       8.3287      0.00000
    237       8.3841      0.00000
    238       8.4396      0.00000
    239       8.4768      0.00000
    240       8.4897      0.00000
    241       8.5827      0.00000
    242       8.7008      0.00000
    243       8.7832      0.00000
    244       8.9437      0.00000
    245       9.0067      0.00000
    246       9.2003      0.00000
    247       9.2269      0.00000
    248       9.2974      0.00000
    249       9.4079      0.00000
    250       9.4633      0.00000
    251       9.8102      0.00000
    252       9.8199      0.00000
    253       9.8877      0.00000
    254      10.0467      0.00000
    255      10.3472      0.00000
    256      10.9784      0.00000

 k-point     8 :      -0.2000    0.2000    0.0000
  band No.  band energies     occupation 
      1     -37.2774      1.00000
      2     -22.5237      1.00000
      3     -22.2905      1.00000
      4     -22.0535      1.00000
      5     -21.6054      1.00000
      6     -21.1880      1.00000
      7     -20.9667      1.00000
      8     -20.4951      1.00000
      9     -20.3956      1.00000
     10     -19.8760      1.00000
     11     -19.8675      1.00000
     12     -19.4584      1.00000
     13     -19.3797      1.00000
     14     -19.3090      1.00000
     15     -19.1422      1.00000
     16     -18.9852      1.00000
     17     -18.7696      1.00000
     18     -18.4703      1.00000
     19     -18.4284      1.00000
     20     -18.0630      1.00000
     21     -18.0263      1.00000
     22     -17.6216      1.00000
     23     -17.2633      1.00000
     24     -16.9524      1.00000
     25     -16.4949      1.00000
     26     -16.4010      1.00000
     27     -16.3633      1.00000
     28     -16.0724      1.00000
     29     -15.2145      1.00000
     30     -15.1121      1.00000
     31     -14.7975      1.00000
     32     -14.7575      1.00000
     33     -14.6487      1.00000
     34     -14.5526      1.00000
     35     -14.4257      1.00000
     36     -14.1725      1.00000
     37     -13.7850      1.00000
     38     -13.1779      1.00000
     39     -13.0330      1.00000
     40     -12.7924      1.00000
     41     -12.4448      1.00000
     42     -12.0832      1.00000
     43     -11.8371      1.00000
     44     -11.7673      1.00000
     45     -11.5241      1.00000
     46     -11.5027      1.00000
     47     -11.1706      1.00000
     48     -10.8957      1.00000
     49     -10.7397      1.00000
     50     -10.4668      1.00000
     51     -10.3940      1.00000
     52     -10.2914      1.00000
     53      -9.9576      1.00000
     54      -9.8793      1.00000
     55      -9.8258      1.00000
     56      -9.7048      1.00000
     57      -9.5978      1.00000
     58      -9.3607      1.00000
     59      -9.3082      1.00000
     60      -9.1990      1.00000
     61      -9.1975      1.00000
     62      -9.0562      1.00000
     63      -8.8377      1.00000
     64      -8.8240      1.00000
     65      -8.7149      1.00000
     66      -8.6795      1.00000
     67      -8.6066      1.00000
     68      -8.5999      1.00000
     69      -8.5876      1.00000
     70      -8.3763      1.00000
     71      -8.2982      1.00000
     72      -8.2016      1.00000
     73      -8.0382      1.00000
     74      -7.7739      1.00000
     75      -7.6444      1.00000
     76      -7.5295      1.00000
     77      -7.2756      1.00000
     78      -7.1440      1.00000
     79      -7.1021      1.00000
     80      -7.0327      1.00000
     81      -6.9576      1.00000
     82      -6.7614      1.00000
     83      -6.5455      1.00000
     84      -6.4842      1.00000
     85      -6.3417      1.00000
     86      -6.0816      1.00000
     87      -6.0498      1.00000
     88      -5.9757      1.00000
     89      -5.9065      1.00000
     90      -5.6486      1.00000
     91      -5.5948      1.00000
     92      -5.5901      1.00000
     93      -5.3598      1.00000
     94      -5.1651      1.00000
     95      -4.6863      1.00000
     96      -4.5517      1.00000
     97      -4.3513      1.00000
     98      -4.0772      1.00000
     99      -3.9813      1.00000
    100      -3.9718      1.00000
    101      -3.6330      1.00000
    102      -3.6137      1.00000
    103      -2.0660      0.99948
    104      -1.3729      0.00000
    105      -0.9678      0.00000
    106      -0.9394      0.00000
    107      -0.6410      0.00000
    108      -0.4998      0.00000
    109      -0.4017      0.00000
    110      -0.0728      0.00000
    111       0.3088      0.00000
    112       0.5688      0.00000
    113       0.7655      0.00000
    114       0.8244      0.00000
    115       1.0634      0.00000
    116       1.1630      0.00000
    117       1.1736      0.00000
    118       1.5103      0.00000
    119       1.5365      0.00000
    120       1.6283      0.00000
    121       1.6653      0.00000
    122       1.6743      0.00000
    123       1.8849      0.00000
    124       1.9643      0.00000
    125       2.0568      0.00000
    126       2.1900      0.00000
    127       2.2217      0.00000
    128       2.3151      0.00000
    129       2.3329      0.00000
    130       2.4386      0.00000
    131       2.5229      0.00000
    132       2.5688      0.00000
    133       2.5880      0.00000
    134       2.6089      0.00000
    135       2.6895      0.00000
    136       2.8872      0.00000
    137       2.9421      0.00000
    138       3.0045      0.00000
    139       3.0259      0.00000
    140       3.0933      0.00000
    141       3.1372      0.00000
    142       3.1501      0.00000
    143       3.1995      0.00000
    144       3.2921      0.00000
    145       3.4001      0.00000
    146       3.4185      0.00000
    147       3.4862      0.00000
    148       3.5149      0.00000
    149       3.6452      0.00000
    150       3.6844      0.00000
    151       3.8415      0.00000
    152       3.9070      0.00000
    153       4.0347      0.00000
    154       4.1007      0.00000
    155       4.1164      0.00000
    156       4.1506      0.00000
    157       4.2350      0.00000
    158       4.2385      0.00000
    159       4.4218      0.00000
    160       4.5088      0.00000
    161       4.5590      0.00000
    162       4.5608      0.00000
    163       4.6004      0.00000
    164       4.6115      0.00000
    165       4.6536      0.00000
    166       4.7413      0.00000
    167       4.7998      0.00000
    168       4.8060      0.00000
    169       4.8605      0.00000
    170       4.9229      0.00000
    171       5.0229      0.00000
    172       5.0387      0.00000
    173       5.1918      0.00000
    174       5.2448      0.00000
    175       5.2561      0.00000
    176       5.3461      0.00000
    177       5.3701      0.00000
    178       5.3955      0.00000
    179       5.3999      0.00000
    180       5.4335      0.00000
    181       5.4749      0.00000
    182       5.5603      0.00000
    183       5.5674      0.00000
    184       5.5972      0.00000
    185       5.6067      0.00000
    186       5.6426      0.00000
    187       5.6912      0.00000
    188       5.7252      0.00000
    189       5.7508      0.00000
    190       5.7895      0.00000
    191       5.8270      0.00000
    192       5.8645      0.00000
    193       5.9106      0.00000
    194       5.9108      0.00000
    195       6.0199      0.00000
    196       6.0317      0.00000
    197       6.0900      0.00000
    198       6.0996      0.00000
    199       6.1182      0.00000
    200       6.1745      0.00000
    201       6.2145      0.00000
    202       6.2383      0.00000
    203       6.2563      0.00000
    204       6.2814      0.00000
    205       6.3278      0.00000
    206       6.3378      0.00000
    207       6.3623      0.00000
    208       6.3966      0.00000
    209       6.4002      0.00000
    210       6.4536      0.00000
    211       6.5486      0.00000
    212       6.5861      0.00000
    213       6.5976      0.00000
    214       6.6632      0.00000
    215       6.7207      0.00000
    216       6.8073      0.00000
    217       6.9538      0.00000
    218       6.9592      0.00000
    219       6.9765      0.00000
    220       6.9816      0.00000
    221       7.1133      0.00000
    222       7.1778      0.00000
    223       7.2496      0.00000
    224       7.2741      0.00000
    225       7.2990      0.00000
    226       7.3105      0.00000
    227       7.4417      0.00000
    228       7.6085      0.00000
    229       7.6839      0.00000
    230       7.6875      0.00000
    231       7.7439      0.00000
    232       7.7491      0.00000
    233       7.8147      0.00000
    234       7.9605      0.00000
    235       8.1357      0.00000
    236       8.2034      0.00000
    237       8.2285      0.00000
    238       8.4354      0.00000
    239       8.4713      0.00000
    240       8.5585      0.00000
    241       8.5791      0.00000
    242       8.7202      0.00000
    243       8.7953      0.00000
    244       8.8386      0.00000
    245       8.8873      0.00000
    246       8.9886      0.00000
    247       9.0609      0.00000
    248       9.1537      0.00000
    249       9.1973      0.00000
    250       9.2846      0.00000
    251       9.6225      0.00000
    252       9.7374      0.00000
    253       9.8144      0.00000
    254      10.2552      0.00000
    255      10.5303      0.00000
    256      10.9435      0.00000

 k-point     9 :       0.0000    0.4000    0.0000
  band No.  band energies     occupation 
      1     -37.2774      1.00000
      2     -22.4992      1.00000
      3     -22.3259      1.00000
      4     -22.0484      1.00000
      5     -21.6455      1.00000
      6     -21.1445      1.00000
      7     -20.8990      1.00000
      8     -20.6004      1.00000
      9     -20.1887      1.00000
     10     -20.0035      1.00000
     11     -19.7582      1.00000
     12     -19.6167      1.00000
     13     -19.4920      1.00000
     14     -19.3999      1.00000
     15     -19.0822      1.00000
     16     -19.0228      1.00000
     17     -18.7581      1.00000
     18     -18.7149      1.00000
     19     -18.2042      1.00000
     20     -17.8933      1.00000
     21     -17.5768      1.00000
     22     -17.4577      1.00000
     23     -17.3163      1.00000
     24     -16.9859      1.00000
     25     -16.9147      1.00000
     26     -16.7402      1.00000
     27     -16.3260      1.00000
     28     -15.9058      1.00000
     29     -15.5473      1.00000
     30     -15.2506      1.00000
     31     -14.8276      1.00000
     32     -14.7960      1.00000
     33     -14.5889      1.00000
     34     -14.5056      1.00000
     35     -14.1335      1.00000
     36     -13.7852      1.00000
     37     -13.5517      1.00000
     38     -13.0277      1.00000
     39     -12.9386      1.00000
     40     -12.7823      1.00000
     41     -12.4141      1.00000
     42     -12.2525      1.00000
     43     -12.2143      1.00000
     44     -12.1324      1.00000
     45     -11.7781      1.00000
     46     -11.2956      1.00000
     47     -11.0197      1.00000
     48     -10.9914      1.00000
     49     -10.7938      1.00000
     50     -10.7641      1.00000
     51     -10.4025      1.00000
     52     -10.1795      1.00000
     53      -9.9863      1.00000
     54      -9.7412      1.00000
     55      -9.7193      1.00000
     56      -9.6242      1.00000
     57      -9.5191      1.00000
     58      -9.3919      1.00000
     59      -9.3193      1.00000
     60      -9.2208      1.00000
     61      -9.1157      1.00000
     62      -9.0502      1.00000
     63      -9.0233      1.00000
     64      -8.9367      1.00000
     65      -8.6816      1.00000
     66      -8.6675      1.00000
     67      -8.5401      1.00000
     68      -8.3195      1.00000
     69      -8.2878      1.00000
     70      -8.2168      1.00000
     71      -8.1071      1.00000
     72      -8.0097      1.00000
     73      -7.9524      1.00000
     74      -7.8380      1.00000
     75      -7.7668      1.00000
     76      -7.7499      1.00000
     77      -7.6755      1.00000
     78      -7.5208      1.00000
     79      -7.2922      1.00000
     80      -7.0191      1.00000
     81      -6.8508      1.00000
     82      -6.6977      1.00000
     83      -6.5240      1.00000
     84      -6.4663      1.00000
     85      -6.3801      1.00000
     86      -6.3174      1.00000
     87      -6.2785      1.00000
     88      -5.9023      1.00000
     89      -5.5419      1.00000
     90      -5.4076      1.00000
     91      -5.3537      1.00000
     92      -5.3125      1.00000
     93      -5.1128      1.00000
     94      -4.9659      1.00000
     95      -4.8439      1.00000
     96      -4.5812      1.00000
     97      -4.5438      1.00000
     98      -4.5365      1.00000
     99      -4.3681      1.00000
    100      -4.1611      1.00000
    101      -3.6379      1.00000
    102      -3.1613      1.00000
    103      -2.4383      1.00000
    104      -1.3440      0.00000
    105      -0.8762      0.00000
    106      -0.5838      0.00000
    107      -0.4017      0.00000
    108      -0.2999      0.00000
    109      -0.2388      0.00000
    110      -0.1461      0.00000
    111      -0.0443      0.00000
    112       0.3944      0.00000
    113       0.6246      0.00000
    114       0.7066      0.00000
    115       0.8530      0.00000
    116       1.0581      0.00000
    117       1.1971      0.00000
    118       1.3199      0.00000
    119       1.5052      0.00000
    120       1.6252      0.00000
    121       1.7493      0.00000
    122       1.8297      0.00000
    123       1.8693      0.00000
    124       2.0055      0.00000
    125       2.0567      0.00000
    126       2.0948      0.00000
    127       2.1203      0.00000
    128       2.2597      0.00000
    129       2.4453      0.00000
    130       2.4484      0.00000
    131       2.4874      0.00000
    132       2.5287      0.00000
    133       2.6083      0.00000
    134       2.6790      0.00000
    135       2.7929      0.00000
    136       2.8344      0.00000
    137       3.0269      0.00000
    138       3.0983      0.00000
    139       3.2159      0.00000
    140       3.2618      0.00000
    141       3.3363      0.00000
    142       3.4248      0.00000
    143       3.4318      0.00000
    144       3.4669      0.00000
    145       3.5209      0.00000
    146       3.5412      0.00000
    147       3.5822      0.00000
    148       3.6438      0.00000
    149       3.7034      0.00000
    150       3.7469      0.00000
    151       3.8896      0.00000
    152       3.9244      0.00000
    153       3.9836      0.00000
    154       4.0105      0.00000
    155       4.0258      0.00000
    156       4.0647      0.00000
    157       4.1027      0.00000
    158       4.1311      0.00000
    159       4.1919      0.00000
    160       4.2797      0.00000
    161       4.3600      0.00000
    162       4.5091      0.00000
    163       4.5669      0.00000
    164       4.6723      0.00000
    165       4.7093      0.00000
    166       4.7478      0.00000
    167       4.7844      0.00000
    168       4.8559      0.00000
    169       4.8621      0.00000
    170       4.9038      0.00000
    171       4.9974      0.00000
    172       5.0121      0.00000
    173       5.0525      0.00000
    174       5.0604      0.00000
    175       5.0842      0.00000
    176       5.0975      0.00000
    177       5.1662      0.00000
    178       5.2238      0.00000
    179       5.2555      0.00000
    180       5.3574      0.00000
    181       5.4408      0.00000
    182       5.4845      0.00000
    183       5.5130      0.00000
    184       5.5211      0.00000
    185       5.5520      0.00000
    186       5.5803      0.00000
    187       5.6294      0.00000
    188       5.6609      0.00000
    189       5.6789      0.00000
    190       5.6876      0.00000
    191       5.7440      0.00000
    192       5.7530      0.00000
    193       5.7829      0.00000
    194       5.8051      0.00000
    195       5.8527      0.00000
    196       5.8778      0.00000
    197       5.9374      0.00000
    198       5.9973      0.00000
    199       6.0204      0.00000
    200       6.0691      0.00000
    201       6.1038      0.00000
    202       6.1728      0.00000
    203       6.2279      0.00000
    204       6.2988      0.00000
    205       6.3305      0.00000
    206       6.3347      0.00000
    207       6.3663      0.00000
    208       6.4333      0.00000
    209       6.4647      0.00000
    210       6.5494      0.00000
    211       6.6194      0.00000
    212       6.6610      0.00000
    213       6.7005      0.00000
    214       6.7483      0.00000
    215       6.7903      0.00000
    216       6.8546      0.00000
    217       6.9516      0.00000
    218       6.9738      0.00000
    219       6.9830      0.00000
    220       7.0414      0.00000
    221       7.0849      0.00000
    222       7.1273      0.00000
    223       7.1440      0.00000
    224       7.1491      0.00000
    225       7.2303      0.00000
    226       7.2487      0.00000
    227       7.2804      0.00000
    228       7.3077      0.00000
    229       7.3949      0.00000
    230       7.4629      0.00000
    231       7.5102      0.00000
    232       7.6278      0.00000
    233       7.6515      0.00000
    234       7.7239      0.00000
    235       7.7998      0.00000
    236       7.8518      0.00000
    237       7.8826      0.00000
    238       7.9549      0.00000
    239       7.9669      0.00000
    240       7.9742      0.00000
    241       8.0389      0.00000
    242       8.0764      0.00000
    243       8.2263      0.00000
    244       8.3008      0.00000
    245       8.3090      0.00000
    246       8.4176      0.00000
    247       8.5230      0.00000
    248       8.5515      0.00000
    249       8.6260      0.00000
    250       8.6805      0.00000
    251       8.8099      0.00000
    252       8.9042      0.00000
    253       8.9564      0.00000
    254       9.1145      0.00000
    255       9.3753      0.00000
    256       9.4989      0.00000

 k-point    10 :       0.2000    0.4000    0.0000
  band No.  band energies     occupation 
      1     -37.2774      1.00000
      2     -22.4913      1.00000
      3     -22.3294      1.00000
      4     -22.0687      1.00000
      5     -21.6265      1.00000
      6     -21.1436      1.00000
      7     -20.9024      1.00000
      8     -20.6138      1.00000
      9     -20.1206      1.00000
     10     -19.9845      1.00000
     11     -19.7116      1.00000
     12     -19.6786      1.00000
     13     -19.4571      1.00000
     14     -19.3782      1.00000
     15     -19.3453      1.00000
     16     -19.1234      1.00000
     17     -18.8514      1.00000
     18     -18.2919      1.00000
     19     -18.1436      1.00000
     20     -17.8347      1.00000
     21     -17.6624      1.00000
     22     -17.5269      1.00000
     23     -17.3506      1.00000
     24     -16.9431      1.00000
     25     -16.8251      1.00000
     26     -16.7177      1.00000
     27     -16.5106      1.00000
     28     -15.9273      1.00000
     29     -15.4974      1.00000
     30     -15.4307      1.00000
     31     -15.1158      1.00000
     32     -14.9346      1.00000
     33     -14.2537      1.00000
     34     -14.0664      1.00000
     35     -13.9417      1.00000
     36     -13.5799      1.00000
     37     -13.4617      1.00000
     38     -13.3318      1.00000
     39     -13.2399      1.00000
     40     -12.9845      1.00000
     41     -12.6410      1.00000
     42     -12.3175      1.00000
     43     -11.9551      1.00000
     44     -11.7129      1.00000
     45     -11.5933      1.00000
     46     -11.4693      1.00000
     47     -11.2892      1.00000
     48     -11.2504      1.00000
     49     -10.8272      1.00000
     50     -10.7167      1.00000
     51     -10.3073      1.00000
     52     -10.2352      1.00000
     53      -9.8878      1.00000
     54      -9.6528      1.00000
     55      -9.6123      1.00000
     56      -9.5835      1.00000
     57      -9.5199      1.00000
     58      -9.4461      1.00000
     59      -9.3664      1.00000
     60      -9.3192      1.00000
     61      -9.2289      1.00000
     62      -8.9948      1.00000
     63      -8.8978      1.00000
     64      -8.7791      1.00000
     65      -8.7429      1.00000
     66      -8.6037      1.00000
     67      -8.4416      1.00000
     68      -8.3930      1.00000
     69      -8.3606      1.00000
     70      -8.2174      1.00000
     71      -8.2124      1.00000
     72      -7.9955      1.00000
     73      -7.9728      1.00000
     74      -7.8653      1.00000
     75      -7.7951      1.00000
     76      -7.5769      1.00000
     77      -7.5648      1.00000
     78      -7.3940      1.00000
     79      -7.3751      1.00000
     80      -7.1308      1.00000
     81      -6.9734      1.00000
     82      -6.8428      1.00000
     83      -6.7526      1.00000
     84      -6.5995      1.00000
     85      -6.3610      1.00000
     86      -6.1286      1.00000
     87      -5.9523      1.00000
     88      -5.8080      1.00000
     89      -5.5151      1.00000
     90      -5.4270      1.00000
     91      -5.3267      1.00000
     92      -5.2844      1.00000
     93      -5.1504      1.00000
     94      -5.0675      1.00000
     95      -4.7874      1.00000
     96      -4.5904      1.00000
     97      -4.5446      1.00000
     98      -4.5239      1.00000
     99      -4.3398      1.00000
    100      -4.1973      1.00000
    101      -3.9728      1.00000
    102      -2.9637      1.00000
    103      -2.4028      1.00000
    104      -1.5589      0.00005
    105      -0.7191      0.00000
    106      -0.5377      0.00000
    107      -0.3951      0.00000
    108      -0.3471      0.00000
    109      -0.1497      0.00000
    110      -0.0694      0.00000
    111       0.1581      0.00000
    112       0.4420      0.00000
    113       0.5626      0.00000
    114       0.6306      0.00000
    115       0.7028      0.00000
    116       0.7754      0.00000
    117       1.2134      0.00000
    118       1.3361      0.00000
    119       1.5244      0.00000
    120       1.5748      0.00000
    121       1.6688      0.00000
    122       1.8361      0.00000
    123       1.8439      0.00000
    124       1.9006      0.00000
    125       1.9736      0.00000
    126       2.0842      0.00000
    127       2.1568      0.00000
    128       2.1640      0.00000
    129       2.3572      0.00000
    130       2.4623      0.00000
    131       2.7254      0.00000
    132       2.7385      0.00000
    133       2.8582      0.00000
    134       2.8816      0.00000
    135       2.9240      0.00000
    136       2.9610      0.00000
    137       3.0447      0.00000
    138       3.1114      0.00000
    139       3.1627      0.00000
    140       3.2273      0.00000
    141       3.3226      0.00000
    142       3.3684      0.00000
    143       3.4133      0.00000
    144       3.4448      0.00000
    145       3.4723      0.00000
    146       3.4968      0.00000
    147       3.5637      0.00000
    148       3.6170      0.00000
    149       3.6591      0.00000
    150       3.7509      0.00000
    151       3.8441      0.00000
    152       3.8661      0.00000
    153       3.9648      0.00000
    154       4.0246      0.00000
    155       4.1055      0.00000
    156       4.1776      0.00000
    157       4.2302      0.00000
    158       4.2963      0.00000
    159       4.3179      0.00000
    160       4.3743      0.00000
    161       4.3987      0.00000
    162       4.4341      0.00000
    163       4.4575      0.00000
    164       4.5280      0.00000
    165       4.5621      0.00000
    166       4.5995      0.00000
    167       4.7340      0.00000
    168       4.7457      0.00000
    169       4.8491      0.00000
    170       4.8606      0.00000
    171       4.9184      0.00000
    172       4.9561      0.00000
    173       4.9910      0.00000
    174       5.0253      0.00000
    175       5.0786      0.00000
    176       5.0945      0.00000
    177       5.1406      0.00000
    178       5.1607      0.00000
    179       5.2533      0.00000
    180       5.2744      0.00000
    181       5.3057      0.00000
    182       5.3410      0.00000
    183       5.5185      0.00000
    184       5.5303      0.00000
    185       5.5629      0.00000
    186       5.6210      0.00000
    187       5.6293      0.00000
    188       5.6504      0.00000
    189       5.6886      0.00000
    190       5.7102      0.00000
    191       5.7447      0.00000
    192       5.7812      0.00000
    193       5.8595      0.00000
    194       5.8974      0.00000
    195       5.9412      0.00000
    196       5.9775      0.00000
    197       5.9963      0.00000
    198       6.0268      0.00000
    199       6.0577      0.00000
    200       6.0830      0.00000
    201       6.1110      0.00000
    202       6.1849      0.00000
    203       6.2448      0.00000
    204       6.3041      0.00000
    205       6.3325      0.00000
    206       6.3614      0.00000
    207       6.4086      0.00000
    208       6.4369      0.00000
    209       6.4545      0.00000
    210       6.4651      0.00000
    211       6.5125      0.00000
    212       6.5536      0.00000
    213       6.5796      0.00000
    214       6.5893      0.00000
    215       6.6095      0.00000
    216       6.6736      0.00000
    217       6.6917      0.00000
    218       6.7343      0.00000
    219       6.7577      0.00000
    220       6.8044      0.00000
    221       6.8863      0.00000
    222       6.9390      0.00000
    223       6.9886      0.00000
    224       7.0545      0.00000
    225       7.1252      0.00000
    226       7.1733      0.00000
    227       7.1921      0.00000
    228       7.2585      0.00000
    229       7.3032      0.00000
    230       7.3243      0.00000
    231       7.3753      0.00000
    232       7.4128      0.00000
    233       7.4312      0.00000
    234       7.4712      0.00000
    235       7.5218      0.00000
    236       7.5555      0.00000
    237       7.6195      0.00000
    238       7.6746      0.00000
    239       7.7044      0.00000
    240       7.7432      0.00000
    241       7.7839      0.00000
    242       7.8848      0.00000
    243       7.9091      0.00000
    244       7.9526      0.00000
    245       8.1110      0.00000
    246       8.1149      0.00000
    247       8.1632      0.00000
    248       8.2155      0.00000
    249       8.2777      0.00000
    250       8.2876      0.00000
    251       8.4015      0.00000
    252       8.5046      0.00000
    253       8.6432      0.00000
    254       8.6880      0.00000
    255       8.9613      0.00000
    256       9.0882      0.00000

 k-point    11 :       0.4000    0.4000    0.0000
  band No.  band energies     occupation 
      1     -37.2774      1.00000
      2     -22.4932      1.00000
      3     -22.3137      1.00000
      4     -22.1024      1.00000
      5     -21.5771      1.00000
      6     -21.1531      1.00000
      7     -20.9753      1.00000
      8     -20.5655      1.00000
      9     -20.1255      1.00000
     10     -19.8744      1.00000
     11     -19.7237      1.00000
     12     -19.6851      1.00000
     13     -19.5259      1.00000
     14     -19.4270      1.00000
     15     -19.3049      1.00000
     16     -19.2350      1.00000
     17     -18.7828      1.00000
     18     -18.3135      1.00000
     19     -18.0225      1.00000
     20     -17.8504      1.00000
     21     -17.6833      1.00000
     22     -17.4618      1.00000
     23     -17.3340      1.00000
     24     -16.9900      1.00000
     25     -16.8004      1.00000
     26     -16.7242      1.00000
     27     -16.5478      1.00000
     28     -16.1755      1.00000
     29     -15.5365      1.00000
     30     -15.3081      1.00000
     31     -15.1189      1.00000
     32     -14.7228      1.00000
     33     -14.2740      1.00000
     34     -13.9809      1.00000
     35     -13.7333      1.00000
     36     -13.7218      1.00000
     37     -13.4975      1.00000
     38     -13.4472      1.00000
     39     -13.2849      1.00000
     40     -12.9965      1.00000
     41     -12.6636      1.00000
     42     -12.2952      1.00000
     43     -12.1419      1.00000
     44     -11.7711      1.00000
     45     -11.6355      1.00000
     46     -11.3467      1.00000
     47     -11.3275      1.00000
     48     -10.9633      1.00000
     49     -10.9113      1.00000
     50     -10.7251      1.00000
     51     -10.4039      1.00000
     52      -9.9441      1.00000
     53      -9.9080      1.00000
     54      -9.6271      1.00000
     55      -9.5982      1.00000
     56      -9.5802      1.00000
     57      -9.5138      1.00000
     58      -9.4366      1.00000
     59      -9.4199      1.00000
     60      -9.3532      1.00000
     61      -9.2330      1.00000
     62      -9.1785      1.00000
     63      -8.9534      1.00000
     64      -8.7938      1.00000
     65      -8.7253      1.00000
     66      -8.6667      1.00000
     67      -8.4540      1.00000
     68      -8.3729      1.00000
     69      -8.3433      1.00000
     70      -8.2952      1.00000
     71      -8.1882      1.00000
     72      -7.9219      1.00000
     73      -7.8677      1.00000
     74      -7.8390      1.00000
     75      -7.6750      1.00000
     76      -7.5977      1.00000
     77      -7.5196      1.00000
     78      -7.4704      1.00000
     79      -7.3620      1.00000
     80      -7.0833      1.00000
     81      -7.0740      1.00000
     82      -6.8773      1.00000
     83      -6.7867      1.00000
     84      -6.4781      1.00000
     85      -6.4035      1.00000
     86      -6.0646      1.00000
     87      -6.0352      1.00000
     88      -5.7708      1.00000
     89      -5.5651      1.00000
     90      -5.5490      1.00000
     91      -5.4364      1.00000
     92      -5.2063      1.00000
     93      -5.1998      1.00000
     94      -4.9413      1.00000
     95      -4.7042      1.00000
     96      -4.5836      1.00000
     97      -4.5666      1.00000
     98      -4.5269      1.00000
     99      -4.3158      1.00000
    100      -4.1259      1.00000
    101      -4.0635      1.00000
    102      -3.1987      1.00000
    103      -1.9081      0.85346
    104      -1.8012      0.32262
    105      -0.6914      0.00000
    106      -0.6337      0.00000
    107      -0.4183      0.00000
    108      -0.2844      0.00000
    109      -0.2803      0.00000
    110       0.0720      0.00000
    111       0.1392      0.00000
    112       0.4839      0.00000
    113       0.5395      0.00000
    114       0.6803      0.00000
    115       0.6973      0.00000
    116       0.7298      0.00000
    117       1.1944      0.00000
    118       1.3168      0.00000
    119       1.5648      0.00000
    120       1.5806      0.00000
    121       1.6548      0.00000
    122       1.8202      0.00000
    123       1.8593      0.00000
    124       1.9138      0.00000
    125       1.9961      0.00000
    126       2.0248      0.00000
    127       2.1339      0.00000
    128       2.2429      0.00000
    129       2.3450      0.00000
    130       2.4686      0.00000
    131       2.5893      0.00000
    132       2.7819      0.00000
    133       2.8739      0.00000
    134       2.9188      0.00000
    135       2.9227      0.00000
    136       2.9821      0.00000
    137       3.0326      0.00000
    138       3.0760      0.00000
    139       3.1730      0.00000
    140       3.2056      0.00000
    141       3.3417      0.00000
    142       3.3427      0.00000
    143       3.4320      0.00000
    144       3.4356      0.00000
    145       3.5130      0.00000
    146       3.5187      0.00000
    147       3.5875      0.00000
    148       3.6278      0.00000
    149       3.6755      0.00000
    150       3.6769      0.00000
    151       3.8430      0.00000
    152       3.8588      0.00000
    153       3.9423      0.00000
    154       4.0864      0.00000
    155       4.1591      0.00000
    156       4.1755      0.00000
    157       4.2747      0.00000
    158       4.2933      0.00000
    159       4.3556      0.00000
    160       4.3742      0.00000
    161       4.3979      0.00000
    162       4.4084      0.00000
    163       4.4811      0.00000
    164       4.4957      0.00000
    165       4.5825      0.00000
    166       4.6004      0.00000
    167       4.7077      0.00000
    168       4.7808      0.00000
    169       4.8367      0.00000
    170       4.8610      0.00000
    171       4.9349      0.00000
    172       4.9510      0.00000
    173       4.9901      0.00000
    174       4.9905      0.00000
    175       5.0844      0.00000
    176       5.0924      0.00000
    177       5.1432      0.00000
    178       5.1699      0.00000
    179       5.2544      0.00000
    180       5.2940      0.00000
    181       5.3273      0.00000
    182       5.3847      0.00000
    183       5.5145      0.00000
    184       5.5316      0.00000
    185       5.5458      0.00000
    186       5.5701      0.00000
    187       5.6406      0.00000
    188       5.6630      0.00000
    189       5.7106      0.00000
    190       5.7282      0.00000
    191       5.7736      0.00000
    192       5.7996      0.00000
    193       5.8779      0.00000
    194       5.8953      0.00000
    195       5.9019      0.00000
    196       5.9187      0.00000
    197       5.9684      0.00000
    198       6.0038      0.00000
    199       6.0158      0.00000
    200       6.0588      0.00000
    201       6.1008      0.00000
    202       6.1616      0.00000
    203       6.2034      0.00000
    204       6.2542      0.00000
    205       6.3125      0.00000
    206       6.3809      0.00000
    207       6.4119      0.00000
    208       6.4146      0.00000
    209       6.4272      0.00000
    210       6.4777      0.00000
    211       6.5077      0.00000
    212       6.5091      0.00000
    213       6.5338      0.00000
    214       6.5894      0.00000
    215       6.5912      0.00000
    216       6.6069      0.00000
    217       6.6413      0.00000
    218       6.6964      0.00000
    219       6.7023      0.00000
    220       6.7235      0.00000
    221       6.8245      0.00000
    222       6.8793      0.00000
    223       6.9125      0.00000
    224       6.9700      0.00000
    225       7.0438      0.00000
    226       7.0445      0.00000
    227       7.0908      0.00000
    228       7.1483      0.00000
    229       7.1833      0.00000
    230       7.2212      0.00000
    231       7.2224      0.00000
    232       7.2523      0.00000
    233       7.2891      0.00000
    234       7.3508      0.00000
    235       7.3562      0.00000
    236       7.4377      0.00000
    237       7.4705      0.00000
    238       7.4866      0.00000
    239       7.5469      0.00000
    240       7.5714      0.00000
    241       7.6007      0.00000
    242       7.6319      0.00000
    243       7.6379      0.00000
    244       7.6849      0.00000
    245       7.7109      0.00000
    246       7.8020      0.00000
    247       7.8101      0.00000
    248       7.9212      0.00000
    249       7.9354      0.00000
    250       7.9714      0.00000
    251       8.0274      0.00000
    252       8.0654      0.00000
    253       8.1126      0.00000
    254       8.1493      0.00000
    255       8.2038      0.00000
    256       8.2371      0.00000

 k-point    12 :      -0.4000    0.4000    0.0000
  band No.  band energies     occupation 
      1     -37.2774      1.00000
      2     -22.5017      1.00000
      3     -22.3010      1.00000
      4     -22.1050      1.00000
      5     -21.5616      1.00000
      6     -21.1605      1.00000
      7     -21.0150      1.00000
      8     -20.5126      1.00000
      9     -20.1870      1.00000
     10     -19.9451      1.00000
     11     -19.7523      1.00000
     12     -19.5836      1.00000
     13     -19.4167      1.00000
     14     -19.3506      1.00000
     15     -19.3291      1.00000
     16     -19.3035      1.00000
     17     -18.6404      1.00000
     18     -18.3909      1.00000
     19     -18.3288      1.00000
     20     -17.8600      1.00000
     21     -17.6821      1.00000
     22     -17.2509      1.00000
     23     -17.2307      1.00000
     24     -17.0248      1.00000
     25     -16.9142      1.00000
     26     -16.7996      1.00000
     27     -16.4332      1.00000
     28     -16.2763      1.00000
     29     -15.5447      1.00000
     30     -14.9239      1.00000
     31     -14.9086      1.00000
     32     -14.6198      1.00000
     33     -14.5347      1.00000
     34     -14.4042      1.00000
     35     -14.0841      1.00000
     36     -13.8087      1.00000
     37     -13.6378      1.00000
     38     -13.1262      1.00000
     39     -13.0810      1.00000
     40     -12.6395      1.00000
     41     -12.4259      1.00000
     42     -12.4086      1.00000
     43     -12.2850      1.00000
     44     -12.0597      1.00000
     45     -12.0273      1.00000
     46     -11.2353      1.00000
     47     -11.0379      1.00000
     48     -10.7892      1.00000
     49     -10.7399      1.00000
     50     -10.5207      1.00000
     51     -10.4176      1.00000
     52     -10.2535      1.00000
     53      -9.9373      1.00000
     54      -9.7286      1.00000
     55      -9.6341      1.00000
     56      -9.5901      1.00000
     57      -9.5049      1.00000
     58      -9.4843      1.00000
     59      -9.3817      1.00000
     60      -9.2630      1.00000
     61      -9.2540      1.00000
     62      -9.0792      1.00000
     63      -8.9999      1.00000
     64      -8.8907      1.00000
     65      -8.8074      1.00000
     66      -8.7738      1.00000
     67      -8.4376      1.00000
     68      -8.4240      1.00000
     69      -8.3390      1.00000
     70      -8.1492      1.00000
     71      -8.1001      1.00000
     72      -8.0235      1.00000
     73      -7.9589      1.00000
     74      -7.8141      1.00000
     75      -7.7140      1.00000
     76      -7.6545      1.00000
     77      -7.5299      1.00000
     78      -7.4524      1.00000
     79      -7.1072      1.00000
     80      -7.0901      1.00000
     81      -6.9161      1.00000
     82      -6.7900      1.00000
     83      -6.7722      1.00000
     84      -6.5258      1.00000
     85      -6.3354      1.00000
     86      -6.2541      1.00000
     87      -5.9603      1.00000
     88      -5.9060      1.00000
     89      -5.7548      1.00000
     90      -5.6104      1.00000
     91      -5.4933      1.00000
     92      -5.2050      1.00000
     93      -5.1725      1.00000
     94      -4.7875      1.00000
     95      -4.7604      1.00000
     96      -4.5762      1.00000
     97      -4.5747      1.00000
     98      -4.5151      1.00000
     99      -4.2767      1.00000
    100      -4.0888      1.00000
    101      -3.7568      1.00000
    102      -3.4803      1.00000
    103      -1.9002      0.82447
    104      -1.4977      0.00000
    105      -1.0312      0.00000
    106      -0.6030      0.00000
    107      -0.4401      0.00000
    108      -0.3318      0.00000
    109      -0.1721      0.00000
    110      -0.1021      0.00000
    111      -0.0027      0.00000
    112       0.4029      0.00000
    113       0.6664      0.00000
    114       0.7807      0.00000
    115       0.8283      0.00000
    116       0.8364      0.00000
    117       1.1933      0.00000
    118       1.4729      0.00000
    119       1.5316      0.00000
    120       1.6017      0.00000
    121       1.7385      0.00000
    122       1.8476      0.00000
    123       1.9551      0.00000
    124       1.9767      0.00000
    125       2.0303      0.00000
    126       2.1208      0.00000
    127       2.1356      0.00000
    128       2.1357      0.00000
    129       2.3897      0.00000
    130       2.4614      0.00000
    131       2.4835      0.00000
    132       2.5146      0.00000
    133       2.5969      0.00000
    134       2.7009      0.00000
    135       2.7279      0.00000
    136       2.8503      0.00000
    137       3.0210      0.00000
    138       3.1430      0.00000
    139       3.2354      0.00000
    140       3.2539      0.00000
    141       3.3458      0.00000
    142       3.4161      0.00000
    143       3.4620      0.00000
    144       3.5040      0.00000
    145       3.5355      0.00000
    146       3.5798      0.00000
    147       3.5917      0.00000
    148       3.6629      0.00000
    149       3.6748      0.00000
    150       3.8429      0.00000
    151       3.8813      0.00000
    152       3.9266      0.00000
    153       3.9378      0.00000
    154       4.0121      0.00000
    155       4.0164      0.00000
    156       4.0471      0.00000
    157       4.1165      0.00000
    158       4.1467      0.00000
    159       4.1611      0.00000
    160       4.2939      0.00000
    161       4.3722      0.00000
    162       4.5437      0.00000
    163       4.5780      0.00000
    164       4.6262      0.00000
    165       4.7257      0.00000
    166       4.7478      0.00000
    167       4.8102      0.00000
    168       4.8529      0.00000
    169       4.9569      0.00000
    170       4.9746      0.00000
    171       4.9997      0.00000
    172       5.0045      0.00000
    173       5.0388      0.00000
    174       5.0400      0.00000
    175       5.0846      0.00000
    176       5.1434      0.00000
    177       5.1858      0.00000
    178       5.2082      0.00000
    179       5.2216      0.00000
    180       5.4488      0.00000
    181       5.4490      0.00000
    182       5.5126      0.00000
    183       5.5286      0.00000
    184       5.5324      0.00000
    185       5.5870      0.00000
    186       5.6081      0.00000
    187       5.6472      0.00000
    188       5.6861      0.00000
    189       5.7320      0.00000
    190       5.7338      0.00000
    191       5.7922      0.00000
    192       5.8210      0.00000
    193       5.8507      0.00000
    194       5.8893      0.00000
    195       5.9276      0.00000
    196       5.9564      0.00000
    197       6.0242      0.00000
    198       6.0415      0.00000
    199       6.1073      0.00000
    200       6.1767      0.00000
    201       6.1836      0.00000
    202       6.2771      0.00000
    203       6.3745      0.00000
    204       6.4539      0.00000
    205       6.4586      0.00000
    206       6.4943      0.00000
    207       6.6403      0.00000
    208       6.6782      0.00000
    209       6.6833      0.00000
    210       6.6872      0.00000
    211       6.7481      0.00000
    212       6.7972      0.00000
    213       6.8891      0.00000
    214       6.9410      0.00000
    215       7.0080      0.00000
    216       7.0141      0.00000
    217       7.0625      0.00000
    218       7.1746      0.00000
    219       7.2005      0.00000
    220       7.2764      0.00000
    221       7.2845      0.00000
    222       7.3303      0.00000
    223       7.4065      0.00000
    224       7.4722      0.00000
    225       7.4933      0.00000
    226       7.5112      0.00000
    227       7.6703      0.00000
    228       7.6855      0.00000
    229       7.7719      0.00000
    230       7.7913      0.00000
    231       7.7963      0.00000
    232       7.9664      0.00000
    233       8.0458      0.00000
    234       8.1200      0.00000
    235       8.1529      0.00000
    236       8.3024      0.00000
    237       8.3149      0.00000
    238       8.4595      0.00000
    239       8.5159      0.00000
    240       8.5664      0.00000
    241       8.6042      0.00000
    242       8.6687      0.00000
    243       8.7937      0.00000
    244       8.8633      0.00000
    245       8.8942      0.00000
    246       8.9153      0.00000
    247       9.0034      0.00000
    248       9.0402      0.00000
    249       9.2219      0.00000
    250       9.2925      0.00000
    251       9.4418      0.00000
    252       9.7911      0.00000
    253       9.8531      0.00000
    254      10.2800      0.00000
    255      10.3427      0.00000
    256      11.0632      0.00000

 k-point    13 :      -0.2000    0.4000    0.0000
  band No.  band energies     occupation 
      1     -37.2774      1.00000
      2     -22.5055      1.00000
      3     -22.3085      1.00000
      4     -22.0742      1.00000
      5     -21.6025      1.00000
      6     -21.1534      1.00000
      7     -20.9760      1.00000
      8     -20.5258      1.00000
      9     -20.2478      1.00000
     10     -19.9573      1.00000
     11     -19.7852      1.00000
     12     -19.5379      1.00000
     13     -19.4608      1.00000
     14     -19.3548      1.00000
     15     -19.1958      1.00000
     16     -19.1457      1.00000
     17     -18.8129      1.00000
     18     -18.3952      1.00000
     19     -18.2944      1.00000
     20     -17.9667      1.00000
     21     -17.7107      1.00000
     22     -17.3956      1.00000
     23     -17.2391      1.00000
     24     -17.0611      1.00000
     25     -16.8874      1.00000
     26     -16.5853      1.00000
     27     -16.4102      1.00000
     28     -16.0651      1.00000
     29     -15.4453      1.00000
     30     -15.1142      1.00000
     31     -14.9687      1.00000
     32     -14.8524      1.00000
     33     -14.4351      1.00000
     34     -14.3042      1.00000
     35     -14.1143      1.00000
     36     -13.9046      1.00000
     37     -13.7481      1.00000
     38     -13.1907      1.00000
     39     -12.8836      1.00000
     40     -12.6810      1.00000
     41     -12.5041      1.00000
     42     -12.3747      1.00000
     43     -12.2869      1.00000
     44     -11.8889      1.00000
     45     -11.4854      1.00000
     46     -11.4731      1.00000
     47     -11.2516      1.00000
     48     -10.9720      1.00000
     49     -10.6935      1.00000
     50     -10.6448      1.00000
     51     -10.1444      1.00000
     52     -10.0889      1.00000
     53     -10.0550      1.00000
     54      -9.8962      1.00000
     55      -9.7745      1.00000
     56      -9.7066      1.00000
     57      -9.5068      1.00000
     58      -9.3874      1.00000
     59      -9.3316      1.00000
     60      -9.2270      1.00000
     61      -9.1652      1.00000
     62      -9.0212      1.00000
     63      -8.9316      1.00000
     64      -8.8977      1.00000
     65      -8.7783      1.00000
     66      -8.6495      1.00000
     67      -8.6162      1.00000
     68      -8.4533      1.00000
     69      -8.3882      1.00000
     70      -8.2460      1.00000
     71      -8.1087      1.00000
     72      -8.0563      1.00000
     73      -8.0139      1.00000
     74      -7.8403      1.00000
     75      -7.7007      1.00000
     76      -7.5784      1.00000
     77      -7.3777      1.00000
     78      -7.3591      1.00000
     79      -7.3100      1.00000
     80      -7.1024      1.00000
     81      -6.8453      1.00000
     82      -6.7830      1.00000
     83      -6.7384      1.00000
     84      -6.6588      1.00000
     85      -6.2220      1.00000
     86      -6.1588      1.00000
     87      -5.9868      1.00000
     88      -5.8583      1.00000
     89      -5.7907      1.00000
     90      -5.5944      1.00000
     91      -5.4961      1.00000
     92      -5.4144      1.00000
     93      -5.1410      1.00000
     94      -4.8802      1.00000
     95      -4.7991      1.00000
     96      -4.5830      1.00000
     97      -4.5762      1.00000
     98      -4.3393      1.00000
     99      -4.1506      1.00000
    100      -4.0606      1.00000
    101      -3.9116      1.00000
    102      -3.2953      1.00000
    103      -2.1033      0.99993
    104      -1.5175      0.00000
    105      -0.7772      0.00000
    106      -0.6483      0.00000
    107      -0.5341      0.00000
    108      -0.4067      0.00000
    109      -0.2909      0.00000
    110      -0.1448      0.00000
    111       0.0180      0.00000
    112       0.5862      0.00000
    113       0.6714      0.00000
    114       0.7878      0.00000
    115       0.7988      0.00000
    116       1.2015      0.00000
    117       1.2171      0.00000
    118       1.3495      0.00000
    119       1.4801      0.00000
    120       1.5269      0.00000
    121       1.6292      0.00000
    122       1.7327      0.00000
    123       1.8585      0.00000
    124       1.9548      0.00000
    125       2.0813      0.00000
    126       2.1314      0.00000
    127       2.1980      0.00000
    128       2.2599      0.00000
    129       2.2925      0.00000
    130       2.3866      0.00000
    131       2.5961      0.00000
    132       2.6026      0.00000
    133       2.7201      0.00000
    134       2.8105      0.00000
    135       2.8873      0.00000
    136       2.9088      0.00000
    137       2.9945      0.00000
    138       3.0213      0.00000
    139       3.0863      0.00000
    140       3.1590      0.00000
    141       3.2192      0.00000
    142       3.2256      0.00000
    143       3.3066      0.00000
    144       3.4141      0.00000
    145       3.5120      0.00000
    146       3.6324      0.00000
    147       3.6501      0.00000
    148       3.7017      0.00000
    149       3.7246      0.00000
    150       3.7813      0.00000
    151       3.7958      0.00000
    152       3.8785      0.00000
    153       3.9551      0.00000
    154       3.9979      0.00000
    155       4.0136      0.00000
    156       4.1176      0.00000
    157       4.1366      0.00000
    158       4.1783      0.00000
    159       4.2225      0.00000
    160       4.4119      0.00000
    161       4.4795      0.00000
    162       4.5368      0.00000
    163       4.5631      0.00000
    164       4.6556      0.00000
    165       4.7088      0.00000
    166       4.7208      0.00000
    167       4.8161      0.00000
    168       4.8457      0.00000
    169       4.8719      0.00000
    170       4.9014      0.00000
    171       4.9525      0.00000
    172       5.0235      0.00000
    173       5.0442      0.00000
    174       5.1252      0.00000
    175       5.1765      0.00000
    176       5.1833      0.00000
    177       5.2092      0.00000
    178       5.2546      0.00000
    179       5.2874      0.00000
    180       5.3016      0.00000
    181       5.3893      0.00000
    182       5.4225      0.00000
    183       5.4480      0.00000
    184       5.4886      0.00000
    185       5.5066      0.00000
    186       5.5592      0.00000
    187       5.5918      0.00000
    188       5.6207      0.00000
    189       5.6962      0.00000
    190       5.7525      0.00000
    191       5.8176      0.00000
    192       5.8444      0.00000
    193       5.8945      0.00000
    194       5.9573      0.00000
    195       5.9850      0.00000
    196       6.0244      0.00000
    197       6.0560      0.00000
    198       6.0731      0.00000
    199       6.1371      0.00000
    200       6.2023      0.00000
    201       6.2301      0.00000
    202       6.2639      0.00000
    203       6.2733      0.00000
    204       6.3072      0.00000
    205       6.3239      0.00000
    206       6.4101      0.00000
    207       6.4620      0.00000
    208       6.4782      0.00000
    209       6.5228      0.00000
    210       6.5608      0.00000
    211       6.5701      0.00000
    212       6.7022      0.00000
    213       6.7081      0.00000
    214       6.8078      0.00000
    215       6.8095      0.00000
    216       6.8564      0.00000
    217       6.8645      0.00000
    218       6.8928      0.00000
    219       6.9621      0.00000
    220       7.0272      0.00000
    221       7.0486      0.00000
    222       7.2230      0.00000
    223       7.2586      0.00000
    224       7.3144      0.00000
    225       7.4446      0.00000
    226       7.4460      0.00000
    227       7.5178      0.00000
    228       7.5347      0.00000
    229       7.5500      0.00000
    230       7.7035      0.00000
    231       7.7448      0.00000
    232       7.8233      0.00000
    233       7.8556      0.00000
    234       7.8798      0.00000
    235       7.8996      0.00000
    236       7.9111      0.00000
    237       7.9455      0.00000
    238       8.1813      0.00000
    239       8.2291      0.00000
    240       8.2893      0.00000
    241       8.3623      0.00000
    242       8.3631      0.00000
    243       8.4285      0.00000
    244       8.4558      0.00000
    245       8.4936      0.00000
    246       8.5470      0.00000
    247       8.6019      0.00000
    248       8.7801      0.00000
    249       8.8894      0.00000
    250       8.9532      0.00000
    251       9.2119      0.00000
    252       9.4907      0.00000
    253       9.6126      0.00000
    254       9.6188      0.00000
    255       9.7706      0.00000
    256      10.2168      0.00000


--------------------------------------------------------------------------------------------------------


 soft charge-density along one line, spin component           1
         0         1         2         3         4         5         6         7         8         9
 total charge-density along one line
 
 soft charge-density along one line, spin component           2
         0         1         2         3         4         5         6         7         8         9
 total charge-density along one line
 
 pseudopotential strength for first ion, spin component:           1
 10.193   0.018   0.000  -0.000  -0.000   0.000  -0.000  -0.000
  0.018  -0.002  -0.000   0.000   0.000   0.000  -0.000  -0.000
  0.000  -0.000  -4.314  -0.000  -0.000  -0.019  -0.000  -0.000
 -0.000   0.000  -0.000  -4.293   0.000  -0.000  -0.013   0.000
 -0.000   0.000  -0.000   0.000  -4.314  -0.000   0.000  -0.019
  0.000   0.000  -0.019  -0.000  -0.000  -0.772  -0.000   0.000
 -0.000  -0.000  -0.000  -0.013   0.000  -0.000  -0.771   0.000
 -0.000  -0.000  -0.000   0.000  -0.019   0.000   0.000  -0.772
 pseudopotential strength for first ion, spin component:           2
 10.193   0.018   0.000  -0.000  -0.000   0.000  -0.000  -0.000
  0.018  -0.002  -0.000   0.000   0.000   0.000  -0.000  -0.000
  0.000  -0.000  -4.314  -0.000  -0.000  -0.019  -0.000  -0.000
 -0.000   0.000  -0.000  -4.293   0.000  -0.000  -0.013   0.000
 -0.000   0.000  -0.000   0.000  -4.314  -0.000   0.000  -0.019
  0.000   0.000  -0.019  -0.000  -0.000  -0.772  -0.000   0.000
 -0.000  -0.000  -0.000  -0.013   0.000  -0.000  -0.771   0.000
 -0.000  -0.000  -0.000   0.000  -0.019   0.000   0.000  -0.772
 total augmentation occupancy for first ion, spin component:           1
  1.473  -1.138  -0.002   0.003   0.004  -0.001   0.003   0.003
 -1.138   1.084   0.006  -0.014  -0.011   0.002  -0.005  -0.004
 -0.002   0.006   1.241   0.001   0.006   0.225   0.000  -0.000
  0.003  -0.014   0.001   0.929  -0.002   0.000   0.104  -0.001
  0.004  -0.011   0.006  -0.002   1.234  -0.000  -0.001   0.225
 -0.001   0.002   0.225   0.000  -0.000   0.047   0.000  -0.000
  0.003  -0.005   0.000   0.104  -0.001   0.000   0.013  -0.000
  0.003  -0.004  -0.000  -0.001   0.225  -0.000  -0.000   0.047
 total augmentation occupancy for first ion, spin component:           2
 -0.000   0.000  -0.000  -0.000  -0.000  -0.000   0.000  -0.000
  0.000   0.000  -0.000   0.000  -0.000  -0.000  -0.000  -0.000
 -0.000  -0.000  -0.000  -0.000   0.000   0.000   0.000   0.000
 -0.000   0.000  -0.000   0.000   0.000  -0.000  -0.000  -0.000
 -0.000  -0.000   0.000   0.000   0.000  -0.000   0.000  -0.000
 -0.000  -0.000   0.000  -0.000  -0.000   0.000   0.000  -0.000
  0.000  -0.000   0.000  -0.000   0.000   0.000  -0.000   0.000
 -0.000  -0.000   0.000  -0.000  -0.000  -0.000   0.000  -0.000


------------------------ aborting loop because EDIFF is reached ----------------------------------------


    FORLOC:  cpu time    0.0091: real time    0.0133
    FORNL :  cpu time    4.7970: real time    4.8464
    STRESS:  cpu time   71.3342: real time   71.8649
    FORCOR:  cpu time    2.0467: real time    2.0494
    OFIELD:  cpu time    0.0012: real time    0.0142

 ---------------------------------------------------------------------------------------------

         DFTD3 V3.0 Rev 1        
 IVDW         = 11
 DF pbe       
 parameters
 VDW_S6       =    1.0000
 VDW_S8       =    0.7220
 VDW_SR       =    1.2170
 rs18     =    1.0000
 alpha6   =   14.0000
 alpha8   =   16.0000
 k1-k3    =   16.0000    1.3333   -4.0000
 VDW_RADIUS   =   50.2022 A
 VDW_CNRADIUS =   21.1671 A
 Edisp (eV)   -1.72876

 E6    (eV) :    -0.9354
 E8    (eV) :    -0.7934
 % E8        : 45.89
    FORVDW:  cpu time    0.1115: real time    0.2170

  FORCE on cell =-STRESS in cart. coord.  units (eV):
  Direction    XX          YY          ZZ          XY          YZ          ZX
  --------------------------------------------------------------------------------------
  Alpha Z    91.96861    91.96861    91.96861
  Ewald   40211.40696 40077.00228-47028.19609  -116.39785    -0.05038     0.08726
  Hartree 39830.11094 39781.82265-39184.43170   -41.81855    -0.02760     0.04780
  E(xc)    -765.98300  -766.48078  -793.66769    -0.43107    -0.00007     0.00012
  Local  -82251.75644-82086.14172 83584.41052   143.42654     0.07630    -0.13214
  n-local  -258.80131  -263.06950  -245.49564    -3.69619     0.00012    -0.00019
  augment   -10.05310    -9.54857    -8.29912     0.43693     0.00003    -0.00006
  Kinetic  3152.15720  3187.80512  3583.32017    30.86962     0.00048    -0.00083
  Fock        0.00000     0.00000     0.00000     0.00000     0.00000     0.00000
  vdW        -0.41977    -0.50963     0.04727    -0.07782    -0.00001     0.00002
  -------------------------------------------------------------------------------------
  Total      -1.36991    12.84846    -0.34368    12.31159    -0.00114     0.00197
  in kB      -0.83759     7.85580    -0.21014     7.52755    -0.00070     0.00120
  external pressure =        2.27 kB  Pullay stress =        0.00 kB


 VOLUME and BASIS-vectors are now :
 -----------------------------------------------------------------------------
  energy-cutoff  :      520.00
  volume of cell :     2620.42
      direct lattice vectors                 reciprocal lattice vectors
    12.300000000  0.000000000  0.000000000     0.081300813  0.046939046  0.000000000
    -6.150000000 10.652112467  0.000000000     0.000000000  0.093878093  0.000000000
     0.000000000  0.000000000 20.000000000     0.000000000  0.000000000  0.050000000

  length of vectors
    12.300000000 12.300000000 20.000000000     0.093878093  0.093878093  0.050000000


 FORCES acting on ions:
    Electron-Ion                     Ewald-Force                    Non-Local-Force
 -----------------------------------------------------------------------------------------------
   0.541E+01 -.312E+01 0.407E+02   -.549E+01 0.317E+01 -.408E+02   0.124E+00 -.714E-01 0.168E+00
   0.191E+01 0.302E+01 0.404E+02   -.194E+01 -.326E+01 -.405E+02   -.216E-01 0.289E+00 0.108E+00
   0.166E+01 0.321E+01 0.406E+02   -.184E+01 -.336E+01 -.407E+02   0.264E+00 0.125E+00 0.117E+00
   0.159E+01 0.135E+02 0.325E+02   -.200E+01 -.136E+02 -.328E+02   0.283E+00 0.138E+00 0.201E+00
   -.226E+01 0.108E+02 0.250E+02   0.238E+01 -.111E+02 -.250E+02   0.146E-01 0.282E+00 -.614E-01
   -.121E+02 0.680E+01 0.232E+02   0.124E+02 -.671E+01 -.234E+02   -.370E+00 -.660E-01 0.201E+00
   -.153E+01 0.250E+01 0.226E+02   0.187E+01 -.259E+01 -.227E+02   -.233E+00 0.298E-01 0.130E+00
   -.262E+01 -.298E+01 0.175E+02   0.264E+01 0.311E+01 -.175E+02   -.102E+00 -.128E+00 -.381E-01
   0.541E+01 -.427E+01 0.261E+02   -.536E+01 0.455E+01 -.262E+02   -.169E-03 -.309E+00 0.138E+00
   0.156E+01 -.898E+00 0.293E+02   -.159E+01 0.917E+00 -.292E+02   0.513E-02 -.294E-02 -.413E-01
   0.640E+01 -.255E+01 0.261E+02   -.662E+01 0.237E+01 -.262E+02   0.268E+00 0.155E+00 0.138E+00
   0.105E+02 0.344E+01 0.250E+02   -.108E+02 -.349E+01 -.249E+02   0.250E+00 0.155E+00 -.566E-01
   0.110E+02 0.816E+01 0.321E+02   -.109E+02 -.858E+01 -.324E+02   -.204E-01 0.316E+00 0.190E+00
   -.316E+01 0.313E+02 0.186E+02   0.285E+01 -.341E+02 -.197E+02   0.158E+00 0.299E+01 0.110E+01
   0.287E+02 0.129E+02 0.185E+02   -.309E+02 -.146E+02 -.196E+02   0.252E+01 0.162E+01 0.109E+01
   -.401E+02 0.963E+01 0.538E+01   0.431E+02 -.109E+02 -.606E+01   -.294E+01 0.123E+01 0.704E+00
   -.851E+01 0.492E+01 -.679E+01   0.821E+01 -.474E+01 0.684E+01   0.257E+00 -.148E+00 -.278E-01
   0.612E+00 -.353E+00 0.958E+01   -.910E+00 0.525E+00 -.969E+01   0.304E+00 -.176E+00 0.119E+00
   0.127E+01 0.376E+01 0.175E+02   -.137E+01 -.384E+01 -.175E+02   0.601E-01 0.152E+00 -.381E-01
   -.293E+01 0.714E-01 0.226E+02   0.318E+01 -.323E+00 -.227E+02   -.142E+00 0.187E+00 0.130E+00
   0.291E+01 -.353E-01 0.225E+02   -.315E+01 0.282E+00 -.227E+02   0.136E+00 -.195E+00 0.127E+00
   0.120E+02 -.712E+01 0.233E+02   -.120E+02 0.737E+01 -.235E+02   0.122E+00 -.348E+00 0.203E+00
   0.284E+02 -.299E+02 0.545E+01   -.310E+02 0.319E+02 -.613E+01   0.253E+01 -.193E+01 0.706E+00
   -.284E+02 0.299E+02 0.538E+01   0.310E+02 -.319E+02 -.606E+01   -.254E+01 0.193E+01 0.704E+00
   -.120E+02 0.711E+01 0.232E+02   0.120E+02 -.737E+01 -.234E+02   -.128E+00 0.353E+00 0.201E+00
   -.105E+02 -.345E+01 0.250E+02   0.108E+02 0.350E+01 -.250E+02   -.237E+00 -.154E+00 -.614E-01
   -.636E+01 0.257E+01 0.262E+02   0.657E+01 -.239E+01 -.263E+02   -.264E+00 -.149E+00 0.144E+00
   -.123E+01 -.381E+01 0.174E+02   0.133E+01 0.389E+01 -.174E+02   -.606E-01 -.156E+00 -.366E-01
   -.639E+00 0.369E+00 0.922E+01   0.941E+00 -.544E+00 -.933E+01   -.304E+00 0.176E+00 0.112E+00
   0.858E+01 -.495E+01 -.698E+01   -.829E+01 0.478E+01 0.704E+01   -.260E+00 0.150E+00 -.326E-01
   0.401E+02 -.967E+01 0.545E+01   -.431E+02 0.109E+02 -.613E+01   0.294E+01 -.123E+01 0.706E+00
   -.287E+02 -.129E+02 0.186E+02   0.309E+02 0.146E+02 -.197E+02   -.251E+01 -.163E+01 0.110E+01
   0.316E+01 -.313E+02 0.185E+02   -.284E+01 0.340E+02 -.196E+02   -.145E+00 -.299E+01 0.109E+01
   -.109E+02 -.813E+01 0.325E+02   0.108E+02 0.855E+01 -.328E+02   0.216E-01 -.314E+00 0.201E+00
   -.195E+01 -.304E+01 0.406E+02   0.199E+01 0.328E+01 -.407E+02   0.242E-01 -.291E+00 0.117E+00
   -.536E+01 0.309E+01 0.405E+02   0.543E+01 -.313E+01 -.406E+02   -.136E+00 0.788E-01 0.156E+00
   -.161E+01 0.930E+00 0.292E+02   0.165E+01 -.953E+00 -.291E+02   -.939E-02 0.540E-02 -.455E-01
   -.540E+01 0.422E+01 0.262E+02   0.535E+01 -.450E+01 -.263E+02   -.296E-02 0.303E+00 0.144E+00
   0.268E+01 0.297E+01 0.174E+02   -.270E+01 -.310E+01 -.174E+02   0.105E+00 0.131E+00 -.367E-01
   0.148E+01 -.250E+01 0.225E+02   -.182E+01 0.259E+01 -.227E+02   0.237E+00 -.200E-01 0.127E+00
   0.122E+02 -.681E+01 0.233E+02   -.124E+02 0.671E+01 -.235E+02   0.362E+00 0.681E-01 0.203E+00
   0.226E+01 -.108E+02 0.250E+02   -.237E+01 0.111E+02 -.249E+02   -.919E-02 -.294E+00 -.566E-01
   -.159E+01 -.136E+02 0.321E+02   0.199E+01 0.137E+02 -.324E+02   -.284E+00 -.140E+00 0.190E+00
   -.166E+01 -.316E+01 0.404E+02   0.185E+01 0.331E+01 -.405E+02   -.261E+00 -.126E+00 0.108E+00
   -.129E+02 -.609E+02 -.225E+02   0.128E+02 0.876E+02 0.264E+02   -.152E+00 -.268E+02 -.399E+01
   -.464E+02 -.416E+02 -.224E+02   0.695E+02 0.549E+02 0.264E+02   -.231E+02 -.135E+02 -.399E+01
   0.463E+02 0.416E+02 -.225E+02   -.695E+02 -.549E+02 0.264E+02   0.231E+02 0.135E+02 -.399E+01
   0.128E+02 0.610E+02 -.224E+02   -.128E+02 -.877E+02 0.264E+02   0.143E+00 0.268E+02 -.399E+01
   -.495E-01 0.286E-01 -.905E+03   0.514E-01 -.297E-01 0.894E+03   -.714E-03 0.412E-03 0.115E+02
 -----------------------------------------------------------------------------------------------
   0.148E-01 -.856E-02 -.582E+01   -.177E-12 -.327E-12 0.227E-12   -.143E-01 0.827E-02 0.582E+01
 
 
 POSITION                                       TOTAL-FORCE (eV/Angst)
 -----------------------------------------------------------------------------------
     12.28948      0.00608     14.81672         0.043881     -0.025350      0.011708
      1.22271      0.69616     14.83542        -0.053981      0.055318     -0.016467
     -3.69854     10.63889     14.83491         0.082249     -0.025734     -0.010057
      3.67848      0.68769     14.91638        -0.122640      0.005863     -0.026740
     -1.23412     10.63237     14.91061         0.128946     -0.023451     -0.001859
      6.13423      0.70621     14.95283        -0.136171      0.032551      0.011426
      7.37050      0.00420     14.91737         0.110161     -0.060753      0.004825
      8.58776      0.73373     14.91933        -0.081408     -0.001285      0.015002
      9.82458      0.02092     14.87879         0.042915     -0.029279     -0.000463
     11.05658      0.71789     14.85093        -0.028034      0.016170     -0.002766
     11.04417      2.13332     14.87879         0.046807     -0.022516     -0.000464
     -0.01555      2.82709     14.91086        -0.065527      0.099289      0.001055
      1.21603      2.10917     14.91731         0.056863     -0.098298     -0.035637
      2.42774      2.81989     15.07276        -0.149983      0.225099      0.022586
      3.68773      2.09248     15.07282         0.283171     -0.028287      0.015397
      6.07381      2.13078     15.08948         0.072262     -0.028985      0.016316
      7.31056      2.88065     15.07745        -0.039335      0.022742      0.025504
      8.55562      2.16182     14.96751         0.007127     -0.004101      0.007161
      9.80845      2.84803     14.91933        -0.039607      0.071200      0.015018
      9.83161      4.26697     14.91737         0.107739     -0.065002      0.004841
     -1.22131      4.96523     14.91752        -0.108786      0.051994      0.002599
      0.00470      4.24513     14.95276         0.086710     -0.093934      0.013649
      1.26860      4.90514     15.08950        -0.065066      0.051103      0.019126
      7.34159      4.32665     15.08948         0.061240     -0.048052      0.016318
      8.60551      4.98661     14.95283        -0.096229      0.101667      0.011427
     -3.67496      6.40471     14.91061         0.084770     -0.099941     -0.001853
     -2.43437      7.09837     14.87861        -0.048271      0.028001      0.003445
     -1.19846      6.38397     14.91966         0.037392     -0.072102      0.016182
      0.05428      7.07007     14.96847        -0.002966      0.001699      0.001435
      1.29954      6.35112     15.07808         0.031351     -0.018131      0.022100
      2.53632      7.10090     15.08950        -0.076818      0.030773      0.019123
      4.92177      7.13969     15.07276        -0.269913      0.017326      0.022600
      6.18172      6.41220     15.07282         0.166104     -0.231100      0.015383
      7.39368      7.12261     14.91638        -0.066379      0.103293     -0.026734
     -4.91282      8.53570     14.83491         0.063437     -0.058391     -0.010054
     -3.67914      9.22556     14.81696        -0.067116      0.038765      0.002362
     -2.44652      8.51391     14.85111         0.032765     -0.018902     -0.006307
     -1.21456      9.21116     14.87861        -0.048396      0.027805      0.003447
      0.02209      8.49802     14.91966         0.081082      0.003654      0.016167
      1.23933      9.22719     14.91752        -0.099420      0.068163      0.002584
      2.47596      8.52548     14.95276         0.124716     -0.028175      0.013648
      3.69390      9.25203     14.91086        -0.118759      0.007113      0.001049
      4.93142      8.54441     14.91731         0.113557     -0.000119     -0.035643
      6.15846      9.24513     14.83542        -0.074859      0.019082     -0.016468
      4.87247      2.75664     15.24070        -0.194454     -0.061208     -0.047290
      2.41122      4.17786     15.24068         0.039873     -0.198483     -0.049023
      6.19892      5.05411     15.24070        -0.044035      0.199046     -0.047309
      3.73748      6.47501     15.24068         0.191885      0.064530     -0.049005
      4.30501      4.61591     16.65611         0.001152     -0.000666      0.030656
 -----------------------------------------------------------------------------------
    total drift:                                0.000489     -0.000283     -0.001855


--------------------------------------------------------------------------------------------------------



  FREE ENERGIE OF THE ION-ELECTRON SYSTEM (eV)
  ---------------------------------------------------
  free  energy   TOTEN  =      -442.38663178 eV

  energy  without entropy=     -442.37702063  energy(sigma->0) =     -442.38182620
 


--------------------------------------------------------------------------------------------------------


    POTLOK:  cpu time    2.9966: real time    3.0009


--------------------------------------------------------------------------------------------------------


 stress matrix after NEB project (eV)
     -1.36991     12.31159      0.00197
     12.31159     12.84846     -0.00114
      0.00197     -0.00114     -0.34368
  FORCES: max atom, RMS     0.285017    0.131753
  FORCE total and by dimension    0.922272    0.283171
  Stress total and by dimension   21.684744   12.848457
 writing wavefunctions
     LOOP+:  cpu time 2430.0178: real time 2503.1542
    4ORBIT:  cpu time    0.0000: real time    0.0000

 total amount of memory used by VASP MPI-rank0   696067. kBytes
=======================================================================

   base      :      30000. kBytes
   nonl-proj :     452198. kBytes
   fftplans  :       7547. kBytes
   grid      :     115983. kBytes
   one-center:       1524. kBytes
   wavefun   :      88815. kBytes
 
  
  
 General timing and accounting informations for this job:
 ========================================================
  
                  Total CPU time used (sec):     2580.507
                            User time (sec):     2469.486
                          System time (sec):      111.021
                         Elapsed time (sec):     2656.758
  
                   Maximum memory used (kb):      873312.
                   Average memory used (kb):           0.
  
                          Minor page faults:       856890
                          Major page faults:            1
                 Voluntary context switches:        11127
