C  N  Sr                                
   1.00000000000000     
    12.3000000000000007    0.0000000000000000    0.0000000000000000
    -6.1499999999999977   10.6521124665485960    0.0000000000000000
     0.0000000000000000    0.0000000000000000   20.0000000000000000
   C    N    Sr
    44     4     1
Direct
  0.9994295882566135  0.0005704121891514  0.7408358827338080
  0.1320844428609237  0.0653540354100513  0.7417708972885942
  0.1986844159207490  0.9987582624398343  0.7417457002801673
  0.3313426948432628  0.0645589448958187  0.7458191342065498
  0.3987384736860907  0.9981465816511429  0.7455304069246486
  0.5318665437991545  0.0662980601623107  0.7476415937078895
  0.5994248658378662  0.0003942620401508  0.7458685480316556
  0.7326326178766457  0.0688812294637234  0.7459666755353964
  0.7997281232994702  0.0019639632457236  0.7439392728475326
  0.9326060358089556  0.0673939648241127  0.7425467152900515
  0.9980360372301073  0.2002718771076967  0.7439392731096214
  0.1314369303705031  0.2654015543184942  0.7455428445360902
  0.1978668840077870  0.1980050831195099  0.7458656039069151
  0.3297399508622753  0.2647257847371220  0.7536378478208794
  0.3980348485209243  0.1964384828577765  0.7536410286184216
  0.5938223073253565  0.2000339496106164  0.7544738449935698
  0.7295698101866456  0.2704301900954629  0.7538722527481199
  0.7970525272838968  0.2029474723111104  0.7483756754383989
  0.9311187695158686  0.2673673812849064  0.7459666760676990
  0.9996057379160036  0.4005751346246930  0.7458685482963968
  0.1337692479649894  0.4661262996424779  0.7458759672578130
  0.1996440693305353  0.3985247005319110  0.7476382069267868
  0.3333808078236140  0.4604855004128041  0.7544748891506556
  0.7999660500760911  0.4061776922234379  0.7544738448169914
  0.9337019395608718  0.4681334558093128  0.7476415938276916
  0.0018534180970380  0.6012615261330231  0.7455304068496810
  0.1352742587541633  0.6663818130907245  0.7439305583090157
  0.2022219369669556  0.5993153875767737  0.7459830807228555
  0.3362755891817755  0.6637244093510378  0.7484236925836877
  0.4037691203772170  0.5962308780085143  0.7539040098219622
  0.5395144998654173  0.6666191931018117  0.7544748896808277
  0.7352742164438009  0.6702600503880264  0.7536378479842611
  0.8035615184895316  0.6019651513143612  0.7536410286134733
  0.9354410545371236  0.6686573044126132  0.7458191340584114
  0.0012417378195531  0.8013155842088973  0.7417457009924845
  0.1339218091858920  0.8660781913073671  0.7408481650072165
  0.2007308273767789  0.7992691732345254  0.7425552905128401
  0.3336181866007398  0.8647257403941082  0.7439305584816845
  0.4006846118685881  0.7977780622007249  0.7459830812575268
  0.5338737009516034  0.8662307520171467  0.7458759675984621
  0.6014752992743679  0.8003559316071498  0.7476382068622911
  0.7345984447034145  0.8685630679503749  0.7455428443858471
  0.8019949168892461  0.8021331161373246  0.7458656033811173
  0.9346459640740620  0.8679155575537998  0.7417708978278988
  0.5255301704278614  0.2587881863373855  0.7620350570065806
  0.3921388772550685  0.3922096761476609  0.7620341306729267
  0.7412118141751414  0.4744698300563245  0.7620350571646106
  0.6077903258834930  0.6078611244999127  0.7620341327365995
  0.5666669806359729  0.4333330179610596  0.8328057331253975
 
  0.00000000E+00  0.00000000E+00  0.00000000E+00
  0.00000000E+00  0.00000000E+00  0.00000000E+00
  0.00000000E+00  0.00000000E+00  0.00000000E+00
  0.00000000E+00  0.00000000E+00  0.00000000E+00
  0.00000000E+00  0.00000000E+00  0.00000000E+00
  0.00000000E+00  0.00000000E+00  0.00000000E+00
  0.00000000E+00  0.00000000E+00  0.00000000E+00
  0.00000000E+00  0.00000000E+00  0.00000000E+00
  0.00000000E+00  0.00000000E+00  0.00000000E+00
  0.00000000E+00  0.00000000E+00  0.00000000E+00
  0.00000000E+00  0.00000000E+00  0.00000000E+00
  0.00000000E+00  0.00000000E+00  0.00000000E+00
  0.00000000E+00  0.00000000E+00  0.00000000E+00
  0.00000000E+00  0.00000000E+00  0.00000000E+00
  0.00000000E+00  0.00000000E+00  0.00000000E+00
  0.00000000E+00  0.00000000E+00  0.00000000E+00
  0.00000000E+00  0.00000000E+00  0.00000000E+00
  0.00000000E+00  0.00000000E+00  0.00000000E+00
  0.00000000E+00  0.00000000E+00  0.00000000E+00
  0.00000000E+00  0.00000000E+00  0.00000000E+00
  0.00000000E+00  0.00000000E+00  0.00000000E+00
  0.00000000E+00  0.00000000E+00  0.00000000E+00
  0.00000000E+00  0.00000000E+00  0.00000000E+00
  0.00000000E+00  0.00000000E+00  0.00000000E+00
  0.00000000E+00  0.00000000E+00  0.00000000E+00
  0.00000000E+00  0.00000000E+00  0.00000000E+00
  0.00000000E+00  0.00000000E+00  0.00000000E+00
  0.00000000E+00  0.00000000E+00  0.00000000E+00
  0.00000000E+00  0.00000000E+00  0.00000000E+00
  0.00000000E+00  0.00000000E+00  0.00000000E+00
  0.00000000E+00  0.00000000E+00  0.00000000E+00
  0.00000000E+00  0.00000000E+00  0.00000000E+00
  0.00000000E+00  0.00000000E+00  0.00000000E+00
  0.00000000E+00  0.00000000E+00  0.00000000E+00
  0.00000000E+00  0.00000000E+00  0.00000000E+00
  0.00000000E+00  0.00000000E+00  0.00000000E+00
  0.00000000E+00  0.00000000E+00  0.00000000E+00
  0.00000000E+00  0.00000000E+00  0.00000000E+00
  0.00000000E+00  0.00000000E+00  0.00000000E+00
  0.00000000E+00  0.00000000E+00  0.00000000E+00
  0.00000000E+00  0.00000000E+00  0.00000000E+00
  0.00000000E+00  0.00000000E+00  0.00000000E+00
  0.00000000E+00  0.00000000E+00  0.00000000E+00
  0.00000000E+00  0.00000000E+00  0.00000000E+00
  0.00000000E+00  0.00000000E+00  0.00000000E+00
  0.00000000E+00  0.00000000E+00  0.00000000E+00
  0.00000000E+00  0.00000000E+00  0.00000000E+00
  0.00000000E+00  0.00000000E+00  0.00000000E+00
  0.00000000E+00  0.00000000E+00  0.00000000E+00
