       N       E                     dE             d eps       ncg     rms          ort
DAV:   1     0.957932605236E+03    0.95793E+03   -0.86455E+04  3328   0.662E+02
DAV:   2    -0.363487331289E+03   -0.13214E+04   -0.13209E+04  3328   0.943E+01
DAV:   3    -0.437915714223E+03   -0.74428E+02   -0.74428E+02  3328   0.352E+01
DAV:   4    -0.438848936489E+03   -0.93322E+00   -0.93321E+00  3328   0.456E+00
DAV:   5    -0.438849063181E+03   -0.12669E-03   -0.12669E-03  3328   0.644E-02
SDA:   6    -0.438849063181E+03    0.72760E-11   -0.12669E-03  3328   0.224E-05 0.000E+00
   1 F= -.44056570E+03 E0= -.44056352E+03  d E =-.436144E-02  mag=     0.0000
