C  N  Na                                
   1.00000000000000     
    12.3000000000000007    0.0000000000000000    0.0000000000000000
    -6.1499999999999977   10.6521124665485960    0.0000000000000000
     0.0000000000000000    0.0000000000000000   20.0000000000000000
   C    N    Na
    44     4     1
Direct
  0.9994874658944966  0.0005126439549770  0.7431867261763401
  0.1319865385919599  0.0653883142079010  0.7435716397365368
  0.1986923272694128  0.9986891343268525  0.7435761543745372
  0.3314814548650062  0.0643557977812179  0.7461721957223730
  0.3987901403141905  0.9978961471044556  0.7464160833154168
  0.5314427302543692  0.0660591656502589  0.7483468349419766
  0.5992964248706159  0.0002617422975817  0.7472754699672635
  0.7321716844294173  0.0690862136401833  0.7473946167570418
  0.7996087328023691  0.0024538003761236  0.7455650806760943
  0.9323201193467341  0.0676797870975108  0.7445178474990399
  0.9975463414351466  0.2003913444101073  0.7455650947696029
  0.1312296584113355  0.2654829365269222  0.7463769952923869
  0.1977064477362873  0.1981654162103013  0.7461653816507976
  0.3300779896779531  0.2663128964161601  0.7519381152081763
  0.3996414002844304  0.1967365505883052  0.7519528725415370
  0.5929292553951839  0.2000899698159913  0.7533904920309666
  0.7290835242668052  0.2709164781509017  0.7533019770803264
  0.7963944312521818  0.2036056221267657  0.7492639969643378
  0.9309136804862987  0.2678282104490322  0.7473945157589981
  0.9997382794338492  0.4007035237650172  0.7472753403304040
  0.1336409478142926  0.4660078207576390  0.7472239249402648
  0.1994157579090654  0.3981154318457669  0.7482771554052334
  0.3334479396455379  0.4595643665240985  0.7533292300795438
  0.7999100400526160  0.4070706464724623  0.7533904009232231
  0.9339410302361770  0.4685571147708600  0.7483469012591186
  0.0021038760560970  0.6012097590859113  0.7464159470715686
  0.1357839979161355  0.6662999139208026  0.7455961568309135
  0.2024377159663970  0.5988721534330494  0.7473250056754637
  0.3369471077223380  0.6630529865710884  0.7491648137009079
  0.4042752711663979  0.5957246439800414  0.7532037007092143
  0.5404356582025542  0.6665521478523857  0.7533291989222590
  0.7336871800464522  0.6699220172188092  0.7519381269413685
  0.8032635202562375  0.6003585825123281  0.7519528527971886
  0.9356441447250887  0.6685185466418844  0.7461720755694898
  0.0013109628579784  0.8013077365894290  0.7435761459475501
  0.1338150485106695  0.8661848756675212  0.7431839822257160
  0.2009885139276335  0.7990114658568785  0.7445217072456174
  0.3337000972858490  0.8642158094200809  0.7455962734098307
  0.4011277322664668  0.7975622639763174  0.7473250247247236
  0.5339923662060215  0.8663591400469244  0.7472240159680723
  0.6018845919540752  0.8005842622657724  0.7482771376743784
  0.7345170899072357  0.8687704696521621  0.7463769586632196
  0.8018347212480421  0.8022936371183036  0.7461653657965996
  0.9346118674299433  0.8680135398663396  0.7435716508359818
  0.5251640463305094  0.2591648037476020  0.7580531294850914
  0.3925197708083914  0.3918264916639913  0.7580201415683447
  0.7408353188851819  0.4748360742506250  0.7580530435100741
  0.6081735137408870  0.6074801888805936  0.7580201425070925
  0.5666405439076954  0.4333594145137383  0.8187293588178193
 
  0.00000000E+00  0.00000000E+00  0.00000000E+00
  0.00000000E+00  0.00000000E+00  0.00000000E+00
  0.00000000E+00  0.00000000E+00  0.00000000E+00
  0.00000000E+00  0.00000000E+00  0.00000000E+00
  0.00000000E+00  0.00000000E+00  0.00000000E+00
  0.00000000E+00  0.00000000E+00  0.00000000E+00
  0.00000000E+00  0.00000000E+00  0.00000000E+00
  0.00000000E+00  0.00000000E+00  0.00000000E+00
  0.00000000E+00  0.00000000E+00  0.00000000E+00
  0.00000000E+00  0.00000000E+00  0.00000000E+00
  0.00000000E+00  0.00000000E+00  0.00000000E+00
  0.00000000E+00  0.00000000E+00  0.00000000E+00
  0.00000000E+00  0.00000000E+00  0.00000000E+00
  0.00000000E+00  0.00000000E+00  0.00000000E+00
  0.00000000E+00  0.00000000E+00  0.00000000E+00
  0.00000000E+00  0.00000000E+00  0.00000000E+00
  0.00000000E+00  0.00000000E+00  0.00000000E+00
  0.00000000E+00  0.00000000E+00  0.00000000E+00
  0.00000000E+00  0.00000000E+00  0.00000000E+00
  0.00000000E+00  0.00000000E+00  0.00000000E+00
  0.00000000E+00  0.00000000E+00  0.00000000E+00
  0.00000000E+00  0.00000000E+00  0.00000000E+00
  0.00000000E+00  0.00000000E+00  0.00000000E+00
  0.00000000E+00  0.00000000E+00  0.00000000E+00
  0.00000000E+00  0.00000000E+00  0.00000000E+00
  0.00000000E+00  0.00000000E+00  0.00000000E+00
  0.00000000E+00  0.00000000E+00  0.00000000E+00
  0.00000000E+00  0.00000000E+00  0.00000000E+00
  0.00000000E+00  0.00000000E+00  0.00000000E+00
  0.00000000E+00  0.00000000E+00  0.00000000E+00
  0.00000000E+00  0.00000000E+00  0.00000000E+00
  0.00000000E+00  0.00000000E+00  0.00000000E+00
  0.00000000E+00  0.00000000E+00  0.00000000E+00
  0.00000000E+00  0.00000000E+00  0.00000000E+00
  0.00000000E+00  0.00000000E+00  0.00000000E+00
  0.00000000E+00  0.00000000E+00  0.00000000E+00
  0.00000000E+00  0.00000000E+00  0.00000000E+00
  0.00000000E+00  0.00000000E+00  0.00000000E+00
  0.00000000E+00  0.00000000E+00  0.00000000E+00
  0.00000000E+00  0.00000000E+00  0.00000000E+00
  0.00000000E+00  0.00000000E+00  0.00000000E+00
  0.00000000E+00  0.00000000E+00  0.00000000E+00
  0.00000000E+00  0.00000000E+00  0.00000000E+00
  0.00000000E+00  0.00000000E+00  0.00000000E+00
  0.00000000E+00  0.00000000E+00  0.00000000E+00
  0.00000000E+00  0.00000000E+00  0.00000000E+00
  0.00000000E+00  0.00000000E+00  0.00000000E+00
  0.00000000E+00  0.00000000E+00  0.00000000E+00
  0.00000000E+00  0.00000000E+00  0.00000000E+00
