C  N  Re                                
   1.00000000000000     
    12.3000000000000007    0.0000000000000000    0.0000000000000000
    -6.1499999999999977   10.6521124665485960    0.0000000000000000
     0.0000000000000000    0.0000000000000000   20.0000000000000000
   C    N    Re
    44     4     1
Direct
  0.9990034426723723  0.0009965595421455  0.7421917310520002
  0.1309161995830371  0.0642671226603014  0.7427451450079727
  0.1975736158907427  0.9975823475899618  0.7427792805041691
  0.3295684182228878  0.0618291174530552  0.7470840913719836
  0.3982564529735929  0.9968655781876771  0.7480268682628500
  0.5314511813253411  0.0663040893915814  0.7508062431591229
  0.5992669958865084  0.0004191896358360  0.7494703230607300
  0.7322616620562962  0.0694443156786031  0.7492874558327430
  0.7994563173032271  0.0025753105330768  0.7466750940976631
  0.9322058772196792  0.0677941260452941  0.7447025348519745
  0.9974246860934888  0.2005436838570767  0.7466750986745949
  0.1301898091442459  0.2649352420610544  0.7479776403056350
  0.1951697474812033  0.1962446760384825  0.7470525760455186
  0.3251704540772989  0.2590373875691219  0.7538063449839582
  0.3923501796156084  0.1918620917830478  0.7537886510252041
  0.5937642892896570  0.1993853837998886  0.7567153862847993
  0.7288854804167441  0.2711145188775640  0.7563084711605672
  0.7966621116764747  0.2033378880512338  0.7514250287900901
  0.9305556809291912  0.2677383401196541  0.7492874648972436
  0.9995808099756437  0.4007330080063685  0.7494703274709927
  0.1337491494418194  0.4659404095138648  0.7494591439807975
  0.1996376353627208  0.3981082089131264  0.7508006324459741
  0.3327339582264860  0.4604296033129160  0.7567075068491786
  0.8006146178440164  0.4062357087261343  0.7567153980457144
  0.9336959099558830  0.4685488201259957  0.7508062506862001
  0.0031344219716568  0.6017435500223841  0.7480268695918884
  0.1359085248475179  0.6661272772636510  0.7467281051923620
  0.2027786032952583  0.5989355093979725  0.7493096979042502
  0.3366773958332468  0.6633226016316338  0.7513745115325963
  0.4044588457251158  0.5955411513667529  0.7562549981391646
  0.5395703941094222  0.6672660354252692  0.7567075021883697
  0.7409626098742347  0.6748295399806599  0.7538063531290319
  0.8081379092164757  0.6076498198921889  0.7537886653320767
  0.9381708838416547  0.6704315840485784  0.7470841068525149
  0.0024176536179869  0.8024263867285477  0.7427793014556817
  0.1343329968441546  0.8656670078245960  0.7422699971808979
  0.2011192520191108  0.7988807518444003  0.7447500251480380
  0.3338727275145407  0.8640914740049234  0.7467281127949685
  0.4010644939892134  0.7972213980268480  0.7493097086121679
  0.5340595947467685  0.8662508503200580  0.7494591508136890
  0.6018917936388023  0.8003623627816476  0.7508006325046120
  0.7350647599519951  0.8698101859543114  0.7479776429116428
  0.8037553284690778  0.8048302487793791  0.7470525960444485
  0.9357328825880795  0.8690838073215226  0.7427451692682571
  0.5215327612372082  0.2563562298037836  0.7633437322976072
  0.3896898145677559  0.3882036467672352  0.7633715744142481
  0.7436437704067902  0.4784672331967508  0.7633437433402630
  0.6117963488892324  0.6103101750053959  0.7633715643935598
  0.5666725501406045  0.4333274451383508  0.7798515501100090
 
  0.00000000E+00  0.00000000E+00  0.00000000E+00
  0.00000000E+00  0.00000000E+00  0.00000000E+00
  0.00000000E+00  0.00000000E+00  0.00000000E+00
  0.00000000E+00  0.00000000E+00  0.00000000E+00
  0.00000000E+00  0.00000000E+00  0.00000000E+00
  0.00000000E+00  0.00000000E+00  0.00000000E+00
  0.00000000E+00  0.00000000E+00  0.00000000E+00
  0.00000000E+00  0.00000000E+00  0.00000000E+00
  0.00000000E+00  0.00000000E+00  0.00000000E+00
  0.00000000E+00  0.00000000E+00  0.00000000E+00
  0.00000000E+00  0.00000000E+00  0.00000000E+00
  0.00000000E+00  0.00000000E+00  0.00000000E+00
  0.00000000E+00  0.00000000E+00  0.00000000E+00
  0.00000000E+00  0.00000000E+00  0.00000000E+00
  0.00000000E+00  0.00000000E+00  0.00000000E+00
  0.00000000E+00  0.00000000E+00  0.00000000E+00
  0.00000000E+00  0.00000000E+00  0.00000000E+00
  0.00000000E+00  0.00000000E+00  0.00000000E+00
  0.00000000E+00  0.00000000E+00  0.00000000E+00
  0.00000000E+00  0.00000000E+00  0.00000000E+00
  0.00000000E+00  0.00000000E+00  0.00000000E+00
  0.00000000E+00  0.00000000E+00  0.00000000E+00
  0.00000000E+00  0.00000000E+00  0.00000000E+00
  0.00000000E+00  0.00000000E+00  0.00000000E+00
  0.00000000E+00  0.00000000E+00  0.00000000E+00
  0.00000000E+00  0.00000000E+00  0.00000000E+00
  0.00000000E+00  0.00000000E+00  0.00000000E+00
  0.00000000E+00  0.00000000E+00  0.00000000E+00
  0.00000000E+00  0.00000000E+00  0.00000000E+00
  0.00000000E+00  0.00000000E+00  0.00000000E+00
  0.00000000E+00  0.00000000E+00  0.00000000E+00
  0.00000000E+00  0.00000000E+00  0.00000000E+00
  0.00000000E+00  0.00000000E+00  0.00000000E+00
  0.00000000E+00  0.00000000E+00  0.00000000E+00
  0.00000000E+00  0.00000000E+00  0.00000000E+00
  0.00000000E+00  0.00000000E+00  0.00000000E+00
  0.00000000E+00  0.00000000E+00  0.00000000E+00
  0.00000000E+00  0.00000000E+00  0.00000000E+00
  0.00000000E+00  0.00000000E+00  0.00000000E+00
  0.00000000E+00  0.00000000E+00  0.00000000E+00
  0.00000000E+00  0.00000000E+00  0.00000000E+00
  0.00000000E+00  0.00000000E+00  0.00000000E+00
  0.00000000E+00  0.00000000E+00  0.00000000E+00
  0.00000000E+00  0.00000000E+00  0.00000000E+00
  0.00000000E+00  0.00000000E+00  0.00000000E+00
  0.00000000E+00  0.00000000E+00  0.00000000E+00
  0.00000000E+00  0.00000000E+00  0.00000000E+00
  0.00000000E+00  0.00000000E+00  0.00000000E+00
  0.00000000E+00  0.00000000E+00  0.00000000E+00
