       N       E                     dE             d eps       ncg     rms          rms(c)
DAV:   1    -0.483923072509E+03   -0.48392E+03   -0.17623E+02  8192   0.208E+01    0.344E+01
DAV:   2    -0.468587208642E+03    0.15336E+02   -0.52512E+02  5888   0.258E+01    0.243E+01
DAV:   3    -0.445136366429E+03    0.23451E+02   -0.12405E+02  7680   0.564E+01    0.118E+01
DAV:   4    -0.444224132102E+03    0.91223E+00   -0.10324E+01  7936   0.375E+00    0.559E+00
DAV:   5    -0.445316418778E+03   -0.10923E+01   -0.55045E+00  7168   0.288E+00    0.337E+00
DAV:   6    -0.445986729725E+03   -0.67031E+00   -0.45822E-01  8192   0.946E-01    0.179E+00
DAV:   7    -0.446371242100E+03   -0.38451E+00   -0.36623E-01  7168   0.672E-01    0.131E+00
DAV:   8    -0.446459964010E+03   -0.88722E-01   -0.11282E-01  7168   0.779E-01    0.638E-01
DAV:   9    -0.446492599497E+03   -0.32635E-01   -0.49367E-02  7680   0.232E-01    0.378E-01
DAV:  10    -0.446489713300E+03    0.28862E-02   -0.21442E-02  6656   0.216E-01    0.185E-01
DAV:  11    -0.446493964971E+03   -0.42517E-02   -0.35987E-03  7680   0.118E-01    0.129E-01
DAV:  12    -0.446501921743E+03   -0.79568E-02   -0.50104E-03  8192   0.944E-02    0.123E-01
DAV:  13    -0.446509690252E+03   -0.77685E-02   -0.37782E-03  7168   0.103E-01    0.479E-02
DAV:  14    -0.446513449786E+03   -0.37595E-02   -0.10954E-03  7680   0.297E-02    0.338E-02
DAV:  15    -0.446516481337E+03   -0.30316E-02   -0.18239E-04  7936   0.200E-02    0.206E-02
DAV:  16    -0.446520285646E+03   -0.38043E-02   -0.24334E-04  7680   0.147E-02    0.108E-02
DAV:  17    -0.446522014714E+03   -0.17291E-02   -0.12304E-04  6144   0.814E-03    0.748E-03
DAV:  18    -0.446522995968E+03   -0.98125E-03   -0.64233E-05  6144   0.621E-03    0.336E-03
DAV:  19    -0.446523267489E+03   -0.27152E-03   -0.18646E-05  7424   0.282E-03    0.194E-03
DAV:  20    -0.446523383807E+03   -0.11632E-03   -0.66405E-06  5632   0.173E-03    0.120E-03
DAV:  21    -0.446523481558E+03   -0.97751E-04   -0.52445E-06  4864   0.133E-03    0.946E-04
DAV:  22    -0.446523533187E+03   -0.51629E-04   -0.24461E-06  7936   0.899E-04    0.651E-04
DAV:  23    -0.446523560006E+03   -0.26819E-04   -0.72794E-07  7424   0.490E-04    0.427E-04
DAV:  24    -0.446523576922E+03   -0.16916E-04   -0.35960E-07  7680   0.302E-04    0.238E-04
DAV:  25    -0.446523583826E+03   -0.69041E-05   -0.64427E-08  8192   0.153E-04
   1 F= -.44839082E+03 E0= -.44838826E+03  d E =-.448391E+03  mag=     2.9993
       N       E                     dE             d eps       ncg     rms          rms(c)
DAV:   1    -0.446523824479E+03   -0.24756E-03   -0.20858E-02  8192   0.215E-01    0.274E-02
DAV:   2    -0.446523816667E+03    0.78124E-05   -0.13809E-04  8192   0.205E-02    0.150E-02
DAV:   3    -0.446523809835E+03    0.68315E-05   -0.14374E-05  7680   0.585E-03
   2 F= -.44839109E+03 E0= -.44838853E+03  d E =-.274159E-03  mag=     2.9993
       N       E                     dE             d eps       ncg     rms          rms(c)
DAV:   1    -0.446523982853E+03   -0.16619E-03   -0.60350E-03  7680   0.116E-01    0.144E-02
DAV:   2    -0.446523981135E+03    0.17183E-05   -0.37336E-05  7680   0.105E-02
   3 F= -.44839125E+03 E0= -.44838869E+03  d E =-.157205E-03  mag=     2.9993
       N       E                     dE             d eps       ncg     rms          rms(c)
DAV:   1    -0.446524112194E+03   -0.12934E-03   -0.43107E-03  6144   0.969E-02    0.134E-02
DAV:   2    -0.446524109756E+03    0.24378E-05   -0.25825E-05  8192   0.868E-03
   4 F= -.44839138E+03 E0= -.44838882E+03  d E =-.130858E-03  mag=     2.9993
       N       E                     dE             d eps       ncg     rms          rms(c)
DAV:   1    -0.446524231019E+03   -0.11883E-03   -0.35769E-03  5120   0.882E-02    0.135E-02
DAV:   2    -0.446524229180E+03    0.18393E-05   -0.23827E-05  7680   0.823E-03
   5 F= -.44839150E+03 E0= -.44838894E+03  d E =-.120891E-03  mag=     2.9993
       N       E                     dE             d eps       ncg     rms          rms(c)
DAV:   1    -0.446524038217E+03    0.19280E-03   -0.89041E-03  5632   0.138E-01    0.130E-02
DAV:   2    -0.446524042487E+03   -0.42701E-05   -0.52463E-05  8192   0.122E-02
   6 F= -.44839131E+03 E0= -.44838875E+03  d E =0.188991E-03  mag=     2.9993
       N       E                     dE             d eps       ncg     rms          rms(c)
DAV:   1    -0.446521006548E+03    0.30317E-02   -0.22411E+00  4096   0.220E+00    0.258E-01
DAV:   2    -0.446520823772E+03    0.18278E-03   -0.14022E-02  7936   0.201E-01    0.143E-01
DAV:   3    -0.446520390652E+03    0.43312E-03   -0.12928E-03  8192   0.518E-02    0.598E-02
DAV:   4    -0.446520496074E+03   -0.10542E-03   -0.23562E-04  8192   0.276E-02    0.167E-02
DAV:   5    -0.446520598773E+03   -0.10270E-03   -0.34850E-05  8192   0.914E-03    0.917E-03
DAV:   6    -0.446520675404E+03   -0.76631E-04   -0.12825E-05  8192   0.695E-03    0.407E-03
DAV:   7    -0.446520725245E+03   -0.49841E-04   -0.22132E-06  8192   0.312E-03    0.126E-03
DAV:   8    -0.446520766259E+03   -0.41014E-04   -0.21864E-07  7168   0.548E-04    0.741E-04
DAV:   9    -0.446520815736E+03   -0.49476E-04   -0.20189E-07  8192   0.364E-04    0.477E-04
DAV:  10    -0.446520869987E+03   -0.54251E-04   -0.33205E-07  7680   0.334E-04    0.291E-04
DAV:  11    -0.446520898255E+03   -0.28267E-04   -0.19062E-07  8192   0.212E-04    0.194E-04
DAV:  12    -0.446520919051E+03   -0.20797E-04   -0.25737E-07  7680   0.237E-04    0.851E-05
DAV:  13    -0.446520924263E+03   -0.52112E-05   -0.61060E-08  7936   0.109E-04
   7 F= -.44838815E+03 E0= -.44838560E+03  d E =0.316405E-02  mag=     2.9993
       N       E                     dE             d eps       ncg     rms          rms(c)
DAV:   1    -0.446524973177E+03   -0.40541E-02   -0.35000E+00  4096   0.274E+00    0.320E-01
DAV:   2    -0.446524868733E+03    0.10444E-03   -0.21684E-02  7936   0.250E-01    0.176E-01
DAV:   3    -0.446524122584E+03    0.74615E-03   -0.19762E-03  5632   0.644E-02    0.733E-02
DAV:   4    -0.446524221032E+03   -0.98448E-04   -0.36946E-04  8192   0.345E-02    0.208E-02
DAV:   5    -0.446524349645E+03   -0.12861E-03   -0.54979E-05  8192   0.118E-02    0.113E-02
DAV:   6    -0.446524454846E+03   -0.10520E-03   -0.18991E-05  7680   0.834E-03    0.486E-03
DAV:   7    -0.446524524818E+03   -0.69972E-04   -0.34553E-06  5888   0.379E-03    0.153E-03
DAV:   8    -0.446524576631E+03   -0.51813E-04   -0.31293E-07  8192   0.758E-04    0.914E-04
DAV:   9    -0.446524652507E+03   -0.75876E-04   -0.47822E-07  7936   0.436E-04    0.559E-04
DAV:  10    -0.446524724195E+03   -0.71689E-04   -0.60637E-07  7936   0.414E-04    0.354E-04
DAV:  11    -0.446524761624E+03   -0.37429E-04   -0.37503E-07  7936   0.282E-04    0.227E-04
DAV:  12    -0.446524789049E+03   -0.27425E-04   -0.54488E-07  7680   0.314E-04    0.931E-05
DAV:  13    -0.446524794185E+03   -0.51353E-05   -0.82718E-08  7936   0.119E-04
   8 F= -.44839208E+03 E0= -.44838951E+03  d E =-.392668E-02  mag=     2.9993
       N       E                     dE             d eps       ncg     rms          rms(c)
DAV:   1    -0.446525789995E+03   -0.10009E-02   -0.22039E-01  7168   0.688E-01    0.814E-02
DAV:   2    -0.446525721349E+03    0.68646E-04   -0.94733E-04  8192   0.505E-02    0.436E-02
DAV:   3    -0.446525656087E+03    0.65262E-04   -0.12716E-04  7168   0.161E-02    0.179E-02
DAV:   4    -0.446525653433E+03    0.26537E-05   -0.19497E-05  8192   0.792E-03
   9 F= -.44839296E+03 E0= -.44839039E+03  d E =-.881905E-03  mag=     2.9993
       N       E                     dE             d eps       ncg     rms          rms(c)
DAV:   1    -0.446527560720E+03   -0.19046E-02   -0.96539E-01  4096   0.144E+00    0.167E-01
DAV:   2    -0.446527557388E+03    0.33324E-05   -0.62503E-03  7680   0.135E-01    0.937E-02
DAV:   3    -0.446527309549E+03    0.24784E-03   -0.55667E-04  7680   0.351E-02    0.393E-02
DAV:   4    -0.446527328902E+03   -0.19354E-04   -0.10845E-04  8192   0.196E-02    0.112E-02
DAV:   5    -0.446527386099E+03   -0.57196E-04   -0.17409E-05  8192   0.687E-03    0.620E-03
DAV:   6    -0.446527442840E+03   -0.56741E-04   -0.63592E-06  8192   0.473E-03    0.276E-03
DAV:   7    -0.446527484090E+03   -0.41250E-04   -0.10993E-06  7424   0.206E-03    0.861E-04
DAV:   8    -0.446527513366E+03   -0.29276E-04   -0.12119E-07  7936   0.373E-04    0.550E-04
DAV:   9    -0.446527555785E+03   -0.42419E-04   -0.25040E-07  7936   0.281E-04    0.347E-04
DAV:  10    -0.446527597455E+03   -0.41670E-04   -0.39690E-07  7936   0.306E-04    0.215E-04
DAV:  11    -0.446527617226E+03   -0.19771E-04   -0.20727E-07  7680   0.202E-04    0.131E-04
DAV:  12    -0.446527629323E+03   -0.12097E-04   -0.24448E-07  7168   0.204E-04    0.513E-05
DAV:  13    -0.446527631108E+03   -0.17854E-05   -0.28352E-08  7936   0.720E-05
  10 F= -.44839497E+03 E0= -.44839240E+03  d E =-.200786E-02  mag=     2.9993
       N       E                     dE             d eps       ncg     rms          rms(c)
DAV:   1    -0.446527583790E+03    0.45533E-04   -0.60295E-04  7168   0.359E-02    0.417E-03
DAV:   2    -0.446527583394E+03    0.39618E-06   -0.24936E-06  7168   0.269E-03
  11 F= -.44839492E+03 E0= -.44839235E+03  d E =0.485874E-04  mag=     2.9993
       N       E                     dE             d eps       ncg     rms          rms(c)
DAV:   1    -0.446526877668E+03    0.70612E-03   -0.13983E-01  5120   0.548E-01    0.646E-02
DAV:   2    -0.446526842023E+03    0.35645E-04   -0.74338E-04  6144   0.457E-02    0.355E-02
DAV:   3    -0.446526799377E+03    0.42646E-04   -0.87087E-05  6656   0.136E-02    0.146E-02
DAV:   4    -0.446526803189E+03   -0.38122E-05   -0.14401E-05  8192   0.657E-03
  12 F= -.44839413E+03 E0= -.44839157E+03  d E =0.790668E-03  mag=     2.9993
       N       E                     dE             d eps       ncg     rms          rms(c)
DAV:   1    -0.446525892342E+03    0.90704E-03   -0.23620E-01  5632   0.711E-01    0.836E-02
DAV:   2    -0.446525849896E+03    0.42446E-04   -0.12899E-03  7680   0.602E-02    0.463E-02
DAV:   3    -0.446525776341E+03    0.73555E-04   -0.13317E-04  7424   0.172E-02    0.197E-02
DAV:   4    -0.446525792168E+03   -0.15827E-04   -0.25212E-05  8192   0.907E-03    0.548E-03
DAV:   5    -0.446525816963E+03   -0.24796E-04   -0.41036E-06  7936   0.298E-03    0.304E-03
DAV:   6    -0.446525840622E+03   -0.23658E-04   -0.14908E-06  7936   0.230E-03    0.134E-03
DAV:   7    -0.446525857201E+03   -0.16579E-04   -0.26459E-07  7424   0.103E-03    0.445E-04
DAV:   8    -0.446525869992E+03   -0.12791E-04   -0.39731E-08  7168   0.195E-04    0.286E-04
DAV:   9    -0.446525885960E+03   -0.15968E-04   -0.59677E-08  7424   0.151E-04    0.190E-04
DAV:  10    -0.446525903872E+03   -0.17912E-04   -0.12153E-07  6656   0.175E-04    0.113E-04
DAV:  11    -0.446525911678E+03   -0.78058E-05   -0.54040E-08  7680   0.105E-04
  13 F= -.44839322E+03 E0= -.44839066E+03  d E =0.907254E-03  mag=     2.9993
       N       E                     dE             d eps       ncg     rms          rms(c)
DAV:   1    -0.446523161388E+03    0.27425E-02   -0.20318E+00  4096   0.209E+00    0.243E-01
DAV:   2    -0.446522980596E+03    0.18079E-03   -0.12659E-02  7680   0.192E-01    0.134E-01
DAV:   3    -0.446522579838E+03    0.40076E-03   -0.12103E-03  6656   0.508E-02    0.554E-02
DAV:   4    -0.446522683901E+03   -0.10406E-03   -0.21050E-04  8192   0.266E-02    0.158E-02
DAV:   5    -0.446522774197E+03   -0.90296E-04   -0.30261E-05  8192   0.874E-03    0.872E-03
DAV:   6    -0.446522841576E+03   -0.67379E-04   -0.11549E-05  8192   0.665E-03    0.388E-03
DAV:   7    -0.446522886150E+03   -0.44574E-04   -0.20061E-06  7424   0.298E-03    0.116E-03
DAV:   8    -0.446522922674E+03   -0.36524E-04   -0.18429E-07  8192   0.477E-04    0.684E-04
DAV:   9    -0.446522967397E+03   -0.44723E-04   -0.17705E-07  7680   0.324E-04    0.439E-04
DAV:  10    -0.446523015832E+03   -0.48434E-04   -0.29415E-07  6912   0.311E-04    0.268E-04
DAV:  11    -0.446523041348E+03   -0.25516E-04   -0.17589E-07  7680   0.201E-04    0.178E-04
DAV:  12    -0.446523059425E+03   -0.18077E-04   -0.22008E-07  7424   0.216E-04    0.778E-05
DAV:  13    -0.446523063918E+03   -0.44927E-05   -0.51848E-08  7936   0.101E-04
  14 F= -.44839032E+03 E0= -.44838777E+03  d E =0.289771E-02  mag=     2.9993
       N       E                     dE             d eps       ncg     rms          rms(c)
DAV:   1    -0.446528564218E+03   -0.55048E-02   -0.65995E+00  4096   0.376E+00    0.438E-01
DAV:   2    -0.446528353820E+03    0.21040E-03   -0.40185E-02  7936   0.342E-01    0.241E-01
DAV:   3    -0.446527061039E+03    0.12928E-02   -0.37602E-03  5888   0.906E-02    0.996E-02
DAV:   4    -0.446527275431E+03   -0.21439E-03   -0.70605E-04  8192   0.491E-02    0.288E-02
DAV:   5    -0.446527473345E+03   -0.19791E-03   -0.10246E-04  8192   0.168E-02    0.157E-02
DAV:   6    -0.446527631554E+03   -0.15821E-03   -0.36301E-05  7680   0.117E-02    0.668E-03
DAV:   7    -0.446527736323E+03   -0.10477E-03   -0.63848E-06  7424   0.522E-03    0.205E-03
DAV:   8    -0.446527812125E+03   -0.75801E-04   -0.50700E-07  8192   0.983E-04    0.122E-03
DAV:   9    -0.446527921265E+03   -0.10914E-03   -0.73161E-07  7936   0.560E-04    0.743E-04
DAV:  10    -0.446528025554E+03   -0.10429E-03   -0.90757E-07  7424   0.530E-04    0.469E-04
DAV:  11    -0.446528081041E+03   -0.55487E-04   -0.56860E-07  7936   0.364E-04    0.303E-04
DAV:  12    -0.446528121857E+03   -0.40816E-04   -0.81988E-07  7424   0.396E-04    0.128E-04
DAV:  13    -0.446528130223E+03   -0.83660E-05   -0.13812E-07  7424   0.160E-04
  15 F= -.44839548E+03 E0= -.44839290E+03  d E =-.515381E-02  mag=     2.9993
       N       E                     dE             d eps       ncg     rms          rms(c)
DAV:   1    -0.446529772833E+03   -0.16510E-02   -0.71338E-01  4352   0.124E+00    0.143E-01
DAV:   2    -0.446529718494E+03    0.54339E-04   -0.42966E-03  7424   0.111E-01    0.793E-02
DAV:   3    -0.446529545676E+03    0.17282E-03   -0.42116E-04  7168   0.302E-02    0.329E-02
DAV:   4    -0.446529555313E+03   -0.96372E-05   -0.74464E-05  8192   0.160E-02
  16 F= -.44839693E+03 E0= -.44839435E+03  d E =-.145631E-02  mag=     2.9993
       N       E                     dE             d eps       ncg     rms          rms(c)
DAV:   1    -0.446531459496E+03   -0.19138E-02   -0.10881E+00  4096   0.153E+00    0.178E-01
DAV:   2    -0.446531480585E+03   -0.21090E-04   -0.70346E-03  5888   0.144E-01    0.100E-01
DAV:   3    -0.446531217973E+03    0.26261E-03   -0.66439E-04  7680   0.395E-02    0.422E-02
DAV:   4    -0.446531250693E+03   -0.32720E-04   -0.13124E-04  8192   0.219E-02    0.121E-02
DAV:   5    -0.446531320798E+03   -0.70105E-04   -0.19784E-05  8192   0.767E-03    0.681E-03
DAV:   6    -0.446531393628E+03   -0.72830E-04   -0.74907E-06  8192   0.516E-03    0.309E-03
DAV:   7    -0.446531447199E+03   -0.53571E-04   -0.13576E-06  5888   0.225E-03    0.965E-04
DAV:   8    -0.446531483714E+03   -0.36515E-04   -0.16127E-07  7936   0.404E-04    0.625E-04
DAV:   9    -0.446531536819E+03   -0.53105E-04   -0.32550E-07  7936   0.311E-04    0.398E-04
DAV:  10    -0.446531589910E+03   -0.53091E-04   -0.54234E-07  7936   0.355E-04    0.244E-04
DAV:  11    -0.446531614028E+03   -0.24118E-04   -0.27074E-07  7168   0.231E-04    0.147E-04
DAV:  12    -0.446531627917E+03   -0.13889E-04   -0.29174E-07  7168   0.225E-04    0.560E-05
DAV:  13    -0.446531629813E+03   -0.18961E-05   -0.32600E-08  7936   0.775E-05
  17 F= -.44839905E+03 E0= -.44839646E+03  d E =-.211366E-02  mag=     2.9993
       N       E                     dE             d eps       ncg     rms          rms(c)
DAV:   1    -0.446535131782E+03   -0.35039E-02   -0.37292E+00  4096   0.283E+00    0.328E-01
DAV:   2    -0.446535004441E+03    0.12734E-03   -0.22664E-02  7936   0.257E-01    0.180E-01
DAV:   3    -0.446534238203E+03    0.76624E-03   -0.21111E-03  6656   0.683E-02    0.755E-02
DAV:   4    -0.446534341459E+03   -0.10326E-03   -0.39745E-04  8192   0.375E-02    0.217E-02
DAV:   5    -0.446534465027E+03   -0.12357E-03   -0.61199E-05  8192   0.133E-02    0.119E-02
DAV:   6    -0.446534569682E+03   -0.10465E-03   -0.21877E-05  7680   0.908E-03    0.512E-03
DAV:   7    -0.446534644590E+03   -0.74908E-04   -0.36308E-06  6912   0.389E-03    0.155E-03
DAV:   8    -0.446534698463E+03   -0.53873E-04   -0.29426E-07  7936   0.698E-04    0.928E-04
DAV:   9    -0.446534774511E+03   -0.76048E-04   -0.45272E-07  7936   0.420E-04    0.571E-04
DAV:  10    -0.446534848958E+03   -0.74447E-04   -0.63389E-07  7936   0.420E-04    0.359E-04
DAV:  11    -0.446534887247E+03   -0.38289E-04   -0.37863E-07  7936   0.289E-04    0.232E-04
DAV:  12    -0.446534915577E+03   -0.28330E-04   -0.55772E-07  7424   0.322E-04    0.968E-05
DAV:  13    -0.446534920914E+03   -0.53372E-05   -0.84521E-08  7936   0.124E-04
  18 F= -.44840242E+03 E0= -.44839982E+03  d E =-.336976E-02  mag=     2.9993
       N       E                     dE             d eps       ncg     rms          rms(c)
DAV:   1    -0.446537067186E+03   -0.21516E-02   -0.16955E+00  4096   0.191E+00    0.221E-01
DAV:   2    -0.446537007816E+03    0.59370E-04   -0.10518E-02  7936   0.175E-01    0.122E-01
DAV:   3    -0.446536634021E+03    0.37380E-03   -0.96657E-04  6656   0.461E-02    0.509E-02
DAV:   4    -0.446536669307E+03   -0.35286E-04   -0.18134E-04  8192   0.253E-02    0.146E-02
DAV:   5    -0.446536733965E+03   -0.64657E-04   -0.28179E-05  8192   0.891E-03    0.804E-03
DAV:   6    -0.446536791973E+03   -0.58009E-04   -0.10264E-05  8192   0.614E-03    0.348E-03
DAV:   7    -0.446536834580E+03   -0.42607E-04   -0.16923E-06  6912   0.266E-03    0.104E-03
DAV:   8    -0.446536865757E+03   -0.31178E-04   -0.14291E-07  7936   0.461E-04    0.624E-04
DAV:   9    -0.446536909799E+03   -0.44041E-04   -0.24351E-07  7936   0.293E-04    0.385E-04
DAV:  10    -0.446536952771E+03   -0.42972E-04   -0.35726E-07  7936   0.304E-04    0.242E-04
DAV:  11    -0.446536974928E+03   -0.22157E-04   -0.20445E-07  7936   0.208E-04    0.156E-04
DAV:  12    -0.446536990891E+03   -0.15963E-04   -0.29439E-07  7424   0.228E-04    0.652E-05
DAV:  13    -0.446536993871E+03   -0.29802E-05   -0.43841E-08  7936   0.901E-05
  19 F= -.44840455E+03 E0= -.44840194E+03  d E =-.213191E-02  mag=     2.9994
       N       E                     dE             d eps       ncg     rms          rms(c)
DAV:   1    -0.446536369590E+03    0.62130E-03   -0.19895E-01  6400   0.653E-01    0.768E-02
DAV:   2    -0.446536299874E+03    0.69716E-04   -0.85179E-04  7424   0.480E-02    0.414E-02
DAV:   3    -0.446536240502E+03    0.59373E-04   -0.11648E-04  6400   0.154E-02    0.165E-02
DAV:   4    -0.446536248467E+03   -0.79654E-05   -0.17735E-05  8192   0.709E-03
  20 F= -.44840379E+03 E0= -.44840120E+03  d E =0.759395E-03  mag=     2.9994
       N       E                     dE             d eps       ncg     rms          rms(c)
DAV:   1    -0.446540943421E+03   -0.47029E-02   -0.80314E+00  4096   0.415E+00    0.481E-01
DAV:   2    -0.446540776597E+03    0.16682E-03   -0.48133E-02  7936   0.375E-01    0.263E-01
DAV:   3    -0.446539295730E+03    0.14809E-02   -0.44928E-03  6912   0.983E-02    0.109E-01
DAV:   4    -0.446539542296E+03   -0.24657E-03   -0.81330E-04  7168   0.524E-02    0.315E-02
DAV:   5    -0.446539754883E+03   -0.21259E-03   -0.12321E-04  8192   0.184E-02    0.172E-02
DAV:   6    -0.446539915344E+03   -0.16046E-03   -0.42917E-05  7680   0.128E-02    0.730E-03
DAV:   7    -0.446540024862E+03   -0.10952E-03   -0.75327E-06  6912   0.571E-03    0.224E-03
DAV:   8    -0.446540106367E+03   -0.81505E-04   -0.58036E-07  7424   0.108E-03    0.130E-03
DAV:   9    -0.446540217477E+03   -0.11111E-03   -0.69558E-07  7936   0.565E-04    0.797E-04
DAV:  10    -0.446540331013E+03   -0.11354E-03   -0.98178E-07  7424   0.557E-04    0.496E-04
DAV:  11    -0.446540388342E+03   -0.57329E-04   -0.54410E-07  7936   0.363E-04    0.330E-04
DAV:  12    -0.446540435061E+03   -0.46720E-04   -0.93883E-07  7424   0.427E-04    0.141E-04
DAV:  13    -0.446540444786E+03   -0.97247E-05   -0.15714E-07  7424   0.173E-04
  21 F= -.44840812E+03 E0= -.44840549E+03  d E =-.432979E-02  mag=     2.9994
       N       E                     dE             d eps       ncg     rms          rms(c)
DAV:   1    -0.446540025152E+03    0.40991E-03   -0.13980E-01  6912   0.547E-01    0.645E-02
DAV:   2    -0.446539971081E+03    0.54071E-04   -0.56344E-04  7680   0.391E-02    0.347E-02
DAV:   3    -0.446539925320E+03    0.45761E-04   -0.79922E-05  6400   0.127E-02    0.141E-02
DAV:   4    -0.446539929683E+03   -0.43629E-05   -0.12713E-05  8192   0.593E-03
  22 F= -.44840759E+03 E0= -.44840497E+03  d E =0.528447E-03  mag=     2.9994
       N       E                     dE             d eps       ncg     rms          rms(c)
DAV:   1    -0.446540308015E+03   -0.38270E-03   -0.60640E-02  7424   0.361E-01    0.415E-02
DAV:   2    -0.446540306165E+03    0.18499E-05   -0.25180E-04  7424   0.264E-02    0.220E-02
DAV:   3    -0.446540314906E+03   -0.87415E-05   -0.36223E-05  7680   0.836E-03
  23 F= -.44840799E+03 E0= -.44840536E+03  d E =-.396382E-03  mag=     2.9994
       N       E                     dE             d eps       ncg     rms          rms(c)
DAV:   1    -0.446540652843E+03   -0.34668E-03   -0.49587E-02  8192   0.324E-01    0.388E-02
DAV:   2    -0.446540637100E+03    0.15743E-04   -0.16542E-04  7424   0.220E-02    0.210E-02
DAV:   3    -0.446540625973E+03    0.11128E-04   -0.29102E-05  6400   0.817E-03    0.776E-03
DAV:   4    -0.446540624924E+03    0.10488E-05   -0.44028E-06  8192   0.409E-03
  24 F= -.44840831E+03 E0= -.44840568E+03  d E =-.327104E-03  mag=     2.9994
