C  N  Re                                
   1.00000000000000     
    12.3000000000000007    0.0000000000000000    0.0000000000000000
    -6.1499999999999977   10.6521124665485960    0.0000000000000000
     0.0000000000000000    0.0000000000000000   20.0000000000000000
   C    N    Re
    44     4     1
Direct
  0.9990140000000025  0.0009859999999975  0.7444649999999982
  0.1308369999999996  0.0641660000000002  0.7447110000000023
  0.1974760000000018  0.9975170000000020  0.7447439999999972
  0.3294970000000035  0.0617280000000022  0.7478710000000035
  0.3982450000000028  0.9968339999999998  0.7485509999999991
  0.5314639999999997  0.0662450000000021  0.7502819999999986
  0.5992689999999996  0.0003969999999995  0.7491780000000006
  0.7322720000000018  0.0694230000000005  0.7492459999999994
  0.7994869999999992  0.0025890000000004  0.7476550000000017
  0.9322329999999965  0.0677670000000035  0.7463970000000018
  0.9974109999999996  0.2005130000000008  0.7476550000000017
  0.1301539999999974  0.2649139999999974  0.7484859999999998
  0.1950580000000031  0.1961820000000003  0.7478279999999984
  0.3252209999999991  0.2591159999999988  0.7531620000000032
  0.3924129999999977  0.1919100000000000  0.7531480000000030
  0.5938500000000033  0.1994150000000019  0.7551920000000010
  0.7288959999999989  0.2711040000000011  0.7546899999999965
  0.7966809999999995  0.2033190000000005  0.7507900000000021
  0.9305769999999995  0.2677279999999982  0.7492459999999994
  0.9996030000000005  0.4007310000000004  0.7491780000000006
  0.1337320000000020  0.4659430000000029  0.7492439999999974
  0.1995780000000025  0.3981139999999996  0.7503370000000018
  0.3327570000000009  0.4605019999999982  0.7553690000000017
  0.8005849999999981  0.4061499999999967  0.7551920000000010
  0.9337549999999979  0.4685360000000003  0.7502819999999986
  0.0031660000000002  0.6017549999999972  0.7485509999999991
  0.1359100000000026  0.6661629999999974  0.7477329999999967
  0.2027569999999983  0.5989489999999975  0.7494330000000033
  0.3366550000000004  0.6633449999999996  0.7510490000000019
  0.4044450000000026  0.5955549999999974  0.7549759999999992
  0.5394980000000018  0.6672429999999991  0.7553690000000017
  0.7408840000000012  0.6747790000000009  0.7531620000000032
  0.8080900000000000  0.6075870000000023  0.7531480000000030
  0.9382719999999978  0.6705029999999965  0.7478710000000035
  0.0024829999999980  0.8025239999999982  0.7447439999999972
  0.1343140000000034  0.8656859999999966  0.7445080000000033
  0.2010920000000027  0.7989079999999973  0.7464489999999984
  0.3338370000000026  0.8640899999999974  0.7477329999999967
  0.4010510000000025  0.7972430000000017  0.7494330000000033
  0.5340569999999971  0.8662679999999980  0.7492439999999974
  0.6018860000000004  0.8004219999999975  0.7503370000000018
  0.7350860000000026  0.8698460000000026  0.7484859999999998
  0.8038179999999997  0.8049419999999969  0.7478279999999984
  0.9358339999999998  0.8691630000000004  0.7447110000000023
  0.5217870000000033  0.2564560000000000  0.7614469999999969
  0.3898050000000026  0.3884520000000009  0.7615639999999999
  0.7435440000000000  0.4782129999999967  0.7614469999999969
  0.6115479999999991  0.6101949999999974  0.7615639999999999
  0.5667070000000010  0.4332929999999990  0.7773139999999970
 
  0.00000000E+00  0.00000000E+00  0.00000000E+00
  0.00000000E+00  0.00000000E+00  0.00000000E+00
  0.00000000E+00  0.00000000E+00  0.00000000E+00
  0.00000000E+00  0.00000000E+00  0.00000000E+00
  0.00000000E+00  0.00000000E+00  0.00000000E+00
  0.00000000E+00  0.00000000E+00  0.00000000E+00
  0.00000000E+00  0.00000000E+00  0.00000000E+00
  0.00000000E+00  0.00000000E+00  0.00000000E+00
  0.00000000E+00  0.00000000E+00  0.00000000E+00
  0.00000000E+00  0.00000000E+00  0.00000000E+00
  0.00000000E+00  0.00000000E+00  0.00000000E+00
  0.00000000E+00  0.00000000E+00  0.00000000E+00
  0.00000000E+00  0.00000000E+00  0.00000000E+00
  0.00000000E+00  0.00000000E+00  0.00000000E+00
  0.00000000E+00  0.00000000E+00  0.00000000E+00
  0.00000000E+00  0.00000000E+00  0.00000000E+00
  0.00000000E+00  0.00000000E+00  0.00000000E+00
  0.00000000E+00  0.00000000E+00  0.00000000E+00
  0.00000000E+00  0.00000000E+00  0.00000000E+00
  0.00000000E+00  0.00000000E+00  0.00000000E+00
  0.00000000E+00  0.00000000E+00  0.00000000E+00
  0.00000000E+00  0.00000000E+00  0.00000000E+00
  0.00000000E+00  0.00000000E+00  0.00000000E+00
  0.00000000E+00  0.00000000E+00  0.00000000E+00
  0.00000000E+00  0.00000000E+00  0.00000000E+00
  0.00000000E+00  0.00000000E+00  0.00000000E+00
  0.00000000E+00  0.00000000E+00  0.00000000E+00
  0.00000000E+00  0.00000000E+00  0.00000000E+00
  0.00000000E+00  0.00000000E+00  0.00000000E+00
  0.00000000E+00  0.00000000E+00  0.00000000E+00
  0.00000000E+00  0.00000000E+00  0.00000000E+00
  0.00000000E+00  0.00000000E+00  0.00000000E+00
  0.00000000E+00  0.00000000E+00  0.00000000E+00
  0.00000000E+00  0.00000000E+00  0.00000000E+00
  0.00000000E+00  0.00000000E+00  0.00000000E+00
  0.00000000E+00  0.00000000E+00  0.00000000E+00
  0.00000000E+00  0.00000000E+00  0.00000000E+00
  0.00000000E+00  0.00000000E+00  0.00000000E+00
  0.00000000E+00  0.00000000E+00  0.00000000E+00
  0.00000000E+00  0.00000000E+00  0.00000000E+00
  0.00000000E+00  0.00000000E+00  0.00000000E+00
  0.00000000E+00  0.00000000E+00  0.00000000E+00
  0.00000000E+00  0.00000000E+00  0.00000000E+00
  0.00000000E+00  0.00000000E+00  0.00000000E+00
  0.00000000E+00  0.00000000E+00  0.00000000E+00
  0.00000000E+00  0.00000000E+00  0.00000000E+00
  0.00000000E+00  0.00000000E+00  0.00000000E+00
  0.00000000E+00  0.00000000E+00  0.00000000E+00
  0.00000000E+00  0.00000000E+00  0.00000000E+00
