       N       E                     dE             d eps       ncg     rms          rms(c)
DAV:   1     0.122801577373E+04    0.12280E+04   -0.86375E+04  4096   0.604E+02
DAV:   2    -0.390588199378E+03   -0.16186E+04   -0.16181E+04  6144   0.116E+02
DAV:   3    -0.478346127249E+03   -0.87758E+02   -0.87746E+02  8192   0.402E+01
DAV:   4    -0.478431428510E+03   -0.85301E-01   -0.85301E-01  5120   0.150E+00
DAV:   5    -0.478432329003E+03   -0.90049E-03   -0.90049E-03  8192   0.111E-01    0.284E+01
DAV:   6    -0.453420215183E+03    0.25012E+02   -0.40710E+01  7424   0.780E+00    0.142E+01
DAV:   7    -0.445274013098E+03    0.81462E+01   -0.18153E+01  8192   0.514E+00    0.440E+00
DAV:   8    -0.444454369857E+03    0.81964E+00   -0.20045E+00  8192   0.168E+00    0.201E+00
DAV:   9    -0.444260691416E+03    0.19368E+00   -0.17934E-01  8192   0.714E-01    0.973E-01
DAV:  10    -0.444177239418E+03    0.83452E-01   -0.61747E-02  6144   0.465E-01    0.456E-01
DAV:  11    -0.444152358573E+03    0.24881E-01   -0.24595E-02  8192   0.216E-01    0.324E-01
DAV:  12    -0.444144028198E+03    0.83304E-02   -0.27539E-02  7168   0.168E-01    0.202E-01
DAV:  13    -0.444132701602E+03    0.11327E-01   -0.21317E-02  7424   0.152E-01    0.134E-01
DAV:  14    -0.444139575232E+03   -0.68736E-02   -0.36008E-03  8192   0.671E-02    0.914E-02
DAV:  15    -0.444159504470E+03   -0.19929E-01   -0.22905E-03  7168   0.471E-02    0.586E-02
DAV:  16    -0.444175216783E+03   -0.15712E-01   -0.18181E-03  7936   0.386E-02    0.300E-02
DAV:  17    -0.444183201504E+03   -0.79847E-02   -0.10074E-03  7168   0.250E-02    0.186E-02
DAV:  18    -0.444185902189E+03   -0.27007E-02   -0.23459E-04  6144   0.123E-02    0.103E-02
DAV:  19    -0.444187104058E+03   -0.12019E-02   -0.87439E-05  6400   0.764E-03    0.630E-03
DAV:  20    -0.444187659080E+03   -0.55502E-03   -0.42432E-05  5888   0.486E-03    0.371E-03
DAV:  21    -0.444187978573E+03   -0.31949E-03   -0.33866E-05  7680   0.370E-03    0.237E-03
DAV:  22    -0.444188148362E+03   -0.16979E-03   -0.15634E-05  7680   0.222E-03    0.155E-03
DAV:  23    -0.444188228240E+03   -0.79878E-04   -0.38643E-06  6912   0.120E-03    0.113E-03
DAV:  24    -0.444188283712E+03   -0.55472E-04   -0.73414E-07  7680   0.652E-04    0.648E-04
DAV:  25    -0.444188317790E+03   -0.34078E-04   -0.45296E-07  7168   0.425E-04    0.355E-04
DAV:  26    -0.444188325331E+03   -0.75411E-05   -0.50817E-08  8192   0.186E-04
   1 F= -.44593713E+03 E0= -.44591640E+03  d E =-.445937E+03  mag=     0.0001
