C  N  La
 1.0000000000000000
    12.3000000000000007    0.0000000000000000    0.0000000000000000
    -6.1499999999999977   10.6521124665485960    0.0000000000000000
     0.0000000000000000    0.0000000000000000   20.0000000000000000
 C   N   La 
  44   4   1
Direct
  0.9994030000000000  0.0005970000000000  0.7490360000000003
  0.1321350000000000  0.0656380000000000  0.7495550000000000
  0.1989490000000000  0.9988310000000000  0.7495540000000001
  0.3310540000000000  0.0643070000000000  0.7496290000000001
  0.3986399999999999  0.9981399999999999  0.7477040000000001
  0.5322860000000000  0.0665750000000000  0.7464150000000001
  0.5997650000000000  0.0005130000000000  0.7454090000000000
  0.7326160000000000  0.0684100000000000  0.7460870000000002
  0.7997560000000001  0.0012590000000000  0.7471060000000000
  0.9328230000000000  0.0671770000000000  0.7479940000000003
  0.9987410000000001  0.2002440000000000  0.7471060000000000
  0.1314500000000000  0.2653120000000000  0.7477110000000000
  0.1976290000000000  0.1977430000000000  0.7496690000000000
  0.3306690000000000  0.2649900000000000  0.7518400000000001
  0.3983050000000000  0.1973500000000000  0.7518450000000000
  0.5953150000000001  0.1999360000000000  0.7489479999999999
  0.7301440000000001  0.2698560000000000  0.7483390000000001
  0.7977440000000000  0.2022560000000000  0.7465800000000000
  0.9315900000000000  0.2673840000000000  0.7460870000000002
  0.9994870000000000  0.4002350000000000  0.7454090000000000
  0.1338740000000000  0.4664340000000000  0.7454080000000000
  0.1999170000000000  0.3989370000000000  0.7464040000000001
  0.3332880000000000  0.4619820000000000  0.7489430000000001
  0.8000640000000001  0.4046850000000000  0.7489479999999999
  0.9334249999999999  0.4677140000000001  0.7464150000000001
  0.0018600000000000  0.6013600000000000  0.7477040000000001
  0.1345950000000000  0.6664099999999999  0.7470880000000000
  0.2017580000000000  0.5992810000000000  0.7460870000000002
  0.3355900000000000  0.6644099999999999  0.7465710000000000
  0.4031860000000000  0.5968140000000000  0.7483490000000002
  0.5380180000000000  0.6667120000000000  0.7489430000000001
  0.7350100000000002  0.6693310000000000  0.7518400000000001
  0.8026500000000000  0.6016950000000000  0.7518450000000000
  0.9356930000000000  0.6689460000000000  0.7496290000000001
  0.0011690000000000  0.8010510000000000  0.7495540000000001
  0.1339180000000000  0.8660820000000000  0.7490410000000001
  0.2005090000000000  0.7994910000000000  0.7480040000000000
  0.3335899999999999  0.8654049999999999  0.7470880000000000
  0.4007189999999999  0.7982419999999999  0.7460870000000002
  0.5335660000000000  0.8661260000000000  0.7454080000000000
  0.6010630000000000  0.8000830000000000  0.7464040000000001
  0.7346880000000000  0.8685500000000000  0.7477110000000000
  0.8022570000000002  0.8023709999999999  0.7496690000000000
  0.9343620000000002  0.8678650000000001  0.7495550000000000
  0.5275300000000001  0.2606230000000000  0.7543620000000000
  0.3939630000000001  0.3942070000000000  0.7543530000000001
  0.7393770000000001  0.4724700000000000  0.7543620000000000
  0.6057930000000000  0.6060370000000000  0.7543530000000001
  0.5666560000000000  0.4333440000000000  0.8188540000000000
