       N       E                     dE             d eps       ncg     rms          rms(c)
DAV:   1    -0.477363148546E+03   -0.47736E+03   -0.17197E+02  8192   0.189E+01    0.467E+01
DAV:   2    -0.507018287092E+03   -0.29655E+02   -0.14777E+03  5888   0.446E+01    0.495E+01
DAV:   3    -0.461970791648E+03    0.45047E+02   -0.64377E+01  7936   0.198E+01    0.274E+01
DAV:   4    -0.443941194046E+03    0.18030E+02   -0.14168E+02  4608   0.399E+01    0.168E+01
DAV:   5    -0.441322656868E+03    0.26185E+01   -0.89943E+00  8192   0.327E+00    0.925E+00
DAV:   6    -0.440579526393E+03    0.74313E+00   -0.40904E+00  5888   0.256E+00    0.460E+00
DAV:   7    -0.440841686273E+03   -0.26216E+00   -0.34832E+00  5888   0.373E+00    0.235E+00
DAV:   8    -0.441420441872E+03   -0.57876E+00   -0.87659E-01  7680   0.218E+00    0.276E+00
DAV:   9    -0.441496905841E+03   -0.76464E-01   -0.14578E+00  6656   0.309E+00    0.130E+00
DAV:  10    -0.441517937389E+03   -0.21032E-01   -0.38069E-02  7936   0.433E-01    0.894E-01
DAV:  11    -0.441537304636E+03   -0.19367E-01   -0.12668E-01  5888   0.705E-01    0.406E-01
DAV:  12    -0.441587555611E+03   -0.50251E-01   -0.32030E-02  7424   0.407E-01    0.164E-01
DAV:  13    -0.441624902275E+03   -0.37347E-01   -0.12759E-02  5120   0.160E-01    0.175E-01
DAV:  14    -0.441641114249E+03   -0.16212E-01   -0.11595E-02  6656   0.221E-01    0.165E-01
DAV:  15    -0.441648614847E+03   -0.75006E-02   -0.35325E-03  5376   0.975E-02    0.378E-02
DAV:  16    -0.441651192961E+03   -0.25781E-02   -0.43695E-04  7424   0.432E-02    0.277E-02
DAV:  17    -0.441654392657E+03   -0.31997E-02   -0.36921E-04  5888   0.321E-02    0.243E-02
DAV:  18    -0.441657752190E+03   -0.33595E-02   -0.40815E-04  4864   0.269E-02    0.128E-02
DAV:  19    -0.441659108673E+03   -0.13565E-02   -0.51484E-05  5376   0.642E-03    0.136E-02
DAV:  20    -0.441659765655E+03   -0.65698E-03   -0.38531E-05  4608   0.102E-02    0.305E-03
DAV:  21    -0.441659971528E+03   -0.20587E-03   -0.15513E-05  5888   0.403E-03    0.341E-03
DAV:  22    -0.441660052106E+03   -0.80577E-04   -0.35194E-06  5376   0.212E-03    0.144E-03
DAV:  23    -0.441660108128E+03   -0.56022E-04   -0.22634E-06  5888   0.124E-03    0.841E-04
DAV:  24    -0.441660125879E+03   -0.17751E-04   -0.12968E-07  7168   0.628E-04    0.441E-04
DAV:  25    -0.441660139050E+03   -0.13172E-04   -0.11893E-07  7168   0.442E-04    0.474E-04
DAV:  26    -0.441660143802E+03   -0.47520E-05   -0.29338E-08  7680   0.221E-04
   1 F= -.44341038E+03 E0= -.44341020E+03  d E =-.443410E+03  mag=     0.0003
       N       E                     dE             d eps       ncg     rms          rms(c)
DAV:   1    -0.441660364862E+03   -0.22581E-03   -0.35884E-02  5120   0.303E-01    0.390E-02
DAV:   2    -0.441660362456E+03    0.24061E-05   -0.43530E-04  6656   0.377E-02    0.230E-02
DAV:   3    -0.441660358789E+03    0.36673E-05   -0.57640E-05  7168   0.176E-02
   2 F= -.44341062E+03 E0= -.44341044E+03  d E =-.236686E-03  mag=     0.0002
       N       E                     dE             d eps       ncg     rms          rms(c)
DAV:   1    -0.441660509580E+03   -0.14712E-03   -0.83675E-03  5120   0.143E-01    0.221E-02
DAV:   2    -0.441660506386E+03    0.31940E-05   -0.17654E-04  7424   0.316E-02    0.168E-02
DAV:   3    -0.441660504010E+03    0.23758E-05   -0.53082E-05  4608   0.174E-02
   3 F= -.44341075E+03 E0= -.44341057E+03  d E =-.135356E-03  mag=     0.0001
