C  N  Ni                                
   1.00000000000000     
    12.3000000000000007    0.0000000000000000    0.0000000000000000
    -6.1499999999999977   10.6521124665485960    0.0000000000000000
     0.0000000000000000    0.0000000000000000   20.0000000000000000
   C    N    Ni
    44     4     1
Direct
  0.9991953186275253  0.0008046854674169  0.7500024212883303
  0.1315167028583923  0.0648322783578005  0.7499932040483096
  0.1981562257691103  0.9981735727572241  0.7499932953752610
  0.3307549301350177  0.0634158235470059  0.7499787738603697
  0.3986377106678904  0.9977854783469865  0.7499958130167210
  0.5315378517358755  0.0679695475320079  0.7499848092273939
  0.5990789431788638  0.0009419724466091  0.7499926713826578
  0.7321854510332004  0.0695737720851187  0.7499995219709434
  0.7993133232456515  0.0024139869845688  0.7500031080531939
  0.9322498379918376  0.0677501609891018  0.7500022190965396
  0.9975860220596363  0.2006866874156495  0.7500031096995085
  0.1310826241455939  0.2652900169062883  0.7499957310734833
  0.1967281301836214  0.1974508912165232  0.7499760056252525
  0.3284797106724887  0.2621492185570609  0.7500074457112417
  0.3953508614474261  0.1951116082671724  0.7500087609503713
  0.5933234144578148  0.2034681986143618  0.7500407861522933
  0.7281724157363610  0.2718275826207019  0.7500140679161998
  0.7962323221306976  0.2037676786305967  0.7499980084671576
  0.9304262030956676  0.2678145321203042  0.7499995251335088
  0.9990579822348720  0.4009209956872745  0.7499926697858594
  0.1343054314085242  0.4657269732458821  0.7499902887158668
  0.2013152585906476  0.3981869340257831  0.7499845182332640
  0.3367864163969942  0.4599858783264589  0.7500356532077593
  0.7965318049196612  0.4066765848785400  0.7500407881928262
  0.9320304531693461  0.4684621679071247  0.7499848098623059
  0.0022145743738628  0.6013622762435930  0.7499958079318398
  0.1357113048150786  0.6659544042869675  0.7500030924856427
  0.2029266638190125  0.5988183555850088  0.7499994104140011
  0.3370705525055259  0.6629293936393649  0.7499980432084492
  0.4051654799195974  0.5948345274872147  0.7500163898690880
  0.5400141472717244  0.6632136080899173  0.7500356531811305
  0.7378507816130171  0.6715202933731722  0.7500074416706228
  0.8048883947297846  0.6046491372586907  0.7500087583435074
  0.9365841970062051  0.6692450787539863  0.7499787716109565
  0.0018264200820851  0.8018437798560175  0.7499932906817304
  0.1341561619401846  0.8658438032221626  0.7500023849344798
  0.2010953645756791  0.7989045285002422  0.7500022476266790
  0.3340454603781044  0.8642887462582270  0.7500030968172517
  0.4011813553289679  0.7970732846137547  0.7499994128130356
  0.5342728207097756  0.8656944950900769  0.7499902888385342
  0.6018129749770371  0.7986847424522071  0.7499845180818445
  0.7347099402147000  0.8689173754126563  0.7499957290688628
  0.8025491053677180  0.8032718690028201  0.7499760010548845
  0.9351677208853860  0.8684832975064828  0.7499932033477442
  0.5241460753477031  0.2638592763979793  0.7501679796740071
  0.3972114304097622  0.3908517225968351  0.7501673135400226
  0.7361407265350682  0.4758539273399386  0.7501679804815181
  0.6091482840280238  0.6027885649177210  0.7501673163047852
  0.5666647172732653  0.4333352851814242  0.7503278619727608
 
  0.00000000E+00  0.00000000E+00  0.00000000E+00
  0.00000000E+00  0.00000000E+00  0.00000000E+00
  0.00000000E+00  0.00000000E+00  0.00000000E+00
  0.00000000E+00  0.00000000E+00  0.00000000E+00
  0.00000000E+00  0.00000000E+00  0.00000000E+00
  0.00000000E+00  0.00000000E+00  0.00000000E+00
  0.00000000E+00  0.00000000E+00  0.00000000E+00
  0.00000000E+00  0.00000000E+00  0.00000000E+00
  0.00000000E+00  0.00000000E+00  0.00000000E+00
  0.00000000E+00  0.00000000E+00  0.00000000E+00
  0.00000000E+00  0.00000000E+00  0.00000000E+00
  0.00000000E+00  0.00000000E+00  0.00000000E+00
  0.00000000E+00  0.00000000E+00  0.00000000E+00
  0.00000000E+00  0.00000000E+00  0.00000000E+00
  0.00000000E+00  0.00000000E+00  0.00000000E+00
  0.00000000E+00  0.00000000E+00  0.00000000E+00
  0.00000000E+00  0.00000000E+00  0.00000000E+00
  0.00000000E+00  0.00000000E+00  0.00000000E+00
  0.00000000E+00  0.00000000E+00  0.00000000E+00
  0.00000000E+00  0.00000000E+00  0.00000000E+00
  0.00000000E+00  0.00000000E+00  0.00000000E+00
  0.00000000E+00  0.00000000E+00  0.00000000E+00
  0.00000000E+00  0.00000000E+00  0.00000000E+00
  0.00000000E+00  0.00000000E+00  0.00000000E+00
  0.00000000E+00  0.00000000E+00  0.00000000E+00
  0.00000000E+00  0.00000000E+00  0.00000000E+00
  0.00000000E+00  0.00000000E+00  0.00000000E+00
  0.00000000E+00  0.00000000E+00  0.00000000E+00
  0.00000000E+00  0.00000000E+00  0.00000000E+00
  0.00000000E+00  0.00000000E+00  0.00000000E+00
  0.00000000E+00  0.00000000E+00  0.00000000E+00
  0.00000000E+00  0.00000000E+00  0.00000000E+00
  0.00000000E+00  0.00000000E+00  0.00000000E+00
  0.00000000E+00  0.00000000E+00  0.00000000E+00
  0.00000000E+00  0.00000000E+00  0.00000000E+00
  0.00000000E+00  0.00000000E+00  0.00000000E+00
  0.00000000E+00  0.00000000E+00  0.00000000E+00
  0.00000000E+00  0.00000000E+00  0.00000000E+00
  0.00000000E+00  0.00000000E+00  0.00000000E+00
  0.00000000E+00  0.00000000E+00  0.00000000E+00
  0.00000000E+00  0.00000000E+00  0.00000000E+00
  0.00000000E+00  0.00000000E+00  0.00000000E+00
  0.00000000E+00  0.00000000E+00  0.00000000E+00
  0.00000000E+00  0.00000000E+00  0.00000000E+00
  0.00000000E+00  0.00000000E+00  0.00000000E+00
  0.00000000E+00  0.00000000E+00  0.00000000E+00
  0.00000000E+00  0.00000000E+00  0.00000000E+00
  0.00000000E+00  0.00000000E+00  0.00000000E+00
  0.00000000E+00  0.00000000E+00  0.00000000E+00
