       N       E                     dE             d eps       ncg     rms          ort
DAV:   1     0.525040495796E+02    0.52504E+02   -0.37853E+03   256   0.333E+01
DAV:   2    -0.114630032551E+00   -0.52619E+02   -0.52619E+02   256   0.739E+00
DAV:   3    -0.147959240816E+00   -0.33329E-01   -0.33329E-01   256   0.284E-01
DAV:   4    -0.148003115242E+00   -0.43874E-04   -0.43874E-04   256   0.914E-03
DAV:   5    -0.148003117007E+00   -0.17648E-08   -0.17596E-08   256   0.621E-05
SDA:   6    -0.316785568519E+00   -0.16878E+00   -0.17596E-08   256   0.425E-01 0.000E+00
CGA:   7    -0.332406879378E+00   -0.15621E-01   -0.15653E-01   256   0.106E-01-0.231E-03
CGA:   8    -0.336030545471E+00   -0.36237E-02   -0.36283E-02   256   0.579E-02-0.344E-04
CGA:   9    -0.338398752836E+00   -0.23682E-02   -0.23746E-02   256   0.196E-02-0.340E-04
CGA:  10    -0.339137083351E+00   -0.73833E-03   -0.73883E-03   256   0.221E-03-0.231E-05
CGA:  11    -0.339223858720E+00   -0.86775E-04   -0.87021E-04   256   0.240E-04-0.151E-05
CGA:  12    -0.339232102755E+00   -0.82440E-05   -0.81742E-05   256   0.308E-05 0.684E-06
   1 F= -.33923210E+00 E0= -.33923210E+00  d E =-.509600E-12  mag=     1.0000
