       N       E                     dE             d eps       ncg     rms          ort
DAV:   1     0.517016970118E+02    0.51702E+02   -0.52509E+03   256   0.451E+01
DAV:   2    -0.209537006768E+00   -0.51911E+02   -0.51911E+02   256   0.804E+00
DAV:   3    -0.307297323723E+00   -0.97760E-01   -0.97760E-01   256   0.528E-01
DAV:   4    -0.308525916527E+00   -0.12286E-02   -0.12286E-02   256   0.603E-02
DAV:   5    -0.308525956035E+00   -0.39508E-07   -0.39477E-07   256   0.329E-04
SDA:   6    -0.145468252882E+01   -0.11462E+01   -0.39477E-07   256   0.187E+00 0.000E+00
CGA:   7    -0.149232661030E+01   -0.37644E-01   -0.37644E-01   256   0.475E-01-0.938E-04
CGA:   8    -0.150596541418E+01   -0.13639E-01   -0.13646E-01   256   0.256E-01-0.935E-04
CGA:   9    -0.151275533843E+01   -0.67899E-02   -0.67914E-02   256   0.767E-02-0.110E-04
CGA:  10    -0.151519240393E+01   -0.24371E-02   -0.24377E-02   256   0.354E-02-0.384E-05
CGA:  11    -0.151639431231E+01   -0.12019E-02   -0.12032E-02   256   0.992E-03-0.115E-04
CGA:  12    -0.151665656249E+01   -0.26225E-03   -0.26242E-03   256   0.174E-03-0.377E-05
CGA:  13    -0.151670724843E+01   -0.50686E-04   -0.50645E-04   256   0.336E-04 0.583E-06
CGA:  14    -0.151671813637E+01   -0.10888E-04   -0.10898E-04   256   0.893E-05-0.107E-06
CGA:  15    -0.151672120924E+01   -0.30729E-05   -0.30008E-05   256   0.297E-05 0.674E-06
   1 F= -.15167212E+01 E0= -.15167212E+01  d E =-.555868E-11  mag=     3.0000
