       N       E                     dE             d eps       ncg     rms          ort
DAV:   1     0.989510697005E+03    0.98951E+03   -0.87166E+04  3328   0.668E+02
DAV:   2    -0.367007300909E+03   -0.13565E+04   -0.13559E+04  3328   0.973E+01
DAV:   3    -0.441776721693E+03   -0.74769E+02   -0.74769E+02  3328   0.364E+01
DAV:   4    -0.442583195892E+03   -0.80647E+00   -0.80647E+00  3328   0.411E+00
DAV:   5    -0.442583336240E+03   -0.14035E-03   -0.14035E-03  3328   0.665E-02
SDA:   6    -0.442583336240E+03    0.00000E+00   -0.14035E-03  3328   0.191E-05 0.000E+00
   1 F= -.44433171E+03 E0= -.44433001E+03  d E =-.339859E-02  mag=    -1.0058
