C  N  Lu                                
   1.00000000000000     
    12.3000000000000007    0.0000000000000000    0.0000000000000000
    -6.1499999999999977   10.6521124665485960    0.0000000000000000
     0.0000000000000000    0.0000000000000000   20.0000000000000000
   C    N    Lu
    44     4     1
Direct
  0.9992688413797879  0.0007311377358192  0.7420886836145399
  0.1318667237282014  0.0653909220634645  0.7423376952196179
  0.1986834937654081  0.9985596482300352  0.7423083961007961
  0.3306456909297282  0.0636563822530931  0.7459516767302787
  0.3985236893940467  0.9977512012885583  0.7470708706581561
  0.5320754399960705  0.0669052516407334  0.7491861445662735
  0.5996294894374614  0.0006622376000820  0.7483373368891790
  0.7323608700707851  0.0688585001174218  0.7484283261581623
  0.7995856826550707  0.0016241226472005  0.7463598367763353
  0.9326053213826810  0.0673946385529334  0.7446599207051747
  0.9983758142892256  0.2004142753652900  0.7463598377059029
  0.1310820954379039  0.2652183910993173  0.7470727177202647
  0.1969994648990223  0.1973411982937421  0.7459856095717114
  0.3290722609511008  0.2631507418234520  0.7512265001620619
  0.3964621478893591  0.1957364248824334  0.7512295604374657
  0.5945529865287469  0.2003186807793185  0.7533783346650438
  0.7294356354902192  0.2705643265741315  0.7531546563479807
  0.7972458629364496  0.2027540779382235  0.7499382139075266
  0.9311414379382157  0.2676391128029465  0.7484283272049055
  0.9993377294672356  0.4003705071785930  0.7483373380069267
  0.1340280526580031  0.4663275028230061  0.7483211411551594
  0.2002523087165002  0.3987486400532987  0.7491648387006080
  0.3336807531751305  0.4612010969881055  0.7533711227636317
  0.7996813124347568  0.4054469824661666  0.7533783352173700
  0.9330947391850302  0.4679245548079649  0.7491861441733150
  0.0022488038814501  0.6014763133790879  0.7470708701532374
  0.1349637970170932  0.6662618163730016  0.7463506723236364
  0.2022131566690604  0.5990454029845083  0.7483952267476042
  0.3360976853806008  0.6639023122973100  0.7499248831041427
  0.4039115295252032  0.5960884280178504  0.7531462656528873
  0.5387988753972621  0.6663191699223106  0.7533711203116908
  0.7368492484561457  0.6709276720787187  0.7512264967166260
  0.8042635829335154  0.6035378054329925  0.7512295612788904
  0.9363436297419199  0.6693543108357645  0.7459516791663674
  0.0014403693991056  0.8013164947094893  0.7423083997169186
  0.1340441951834848  0.8659558432401582  0.7420620887508989
  0.2007169735584142  0.7992830466554182  0.7446312152828582
  0.3337382181141919  0.8650362237203240  0.7463506752097047
  0.4009546132142390  0.7977868352010802  0.7483952295532674
  0.5336725006649985  0.8659718963311889  0.7483211423223253
  0.6012513474418810  0.7997476337731229  0.7491648366499035
  0.7347815871983627  0.8689178018968846  0.7470727145261336
  0.8026587964945264  0.8030004828076613  0.7459856086633323
  0.9346090897395669  0.8681332413386897  0.7423376970985842
  0.5251353587355183  0.2602668259924812  0.7584155546875451
  0.3936168299452660  0.3918107187766466  0.7584108554023388
  0.7397331673788301  0.4748646034050097  0.7584155595355355
  0.6081892661553425  0.6063831130448420  0.7584108452280347
  0.5666675330378723  0.4333324517801174  0.8087852367591850
 
  0.00000000E+00  0.00000000E+00  0.00000000E+00
  0.00000000E+00  0.00000000E+00  0.00000000E+00
  0.00000000E+00  0.00000000E+00  0.00000000E+00
  0.00000000E+00  0.00000000E+00  0.00000000E+00
  0.00000000E+00  0.00000000E+00  0.00000000E+00
  0.00000000E+00  0.00000000E+00  0.00000000E+00
  0.00000000E+00  0.00000000E+00  0.00000000E+00
  0.00000000E+00  0.00000000E+00  0.00000000E+00
  0.00000000E+00  0.00000000E+00  0.00000000E+00
  0.00000000E+00  0.00000000E+00  0.00000000E+00
  0.00000000E+00  0.00000000E+00  0.00000000E+00
  0.00000000E+00  0.00000000E+00  0.00000000E+00
  0.00000000E+00  0.00000000E+00  0.00000000E+00
  0.00000000E+00  0.00000000E+00  0.00000000E+00
  0.00000000E+00  0.00000000E+00  0.00000000E+00
  0.00000000E+00  0.00000000E+00  0.00000000E+00
  0.00000000E+00  0.00000000E+00  0.00000000E+00
  0.00000000E+00  0.00000000E+00  0.00000000E+00
  0.00000000E+00  0.00000000E+00  0.00000000E+00
  0.00000000E+00  0.00000000E+00  0.00000000E+00
  0.00000000E+00  0.00000000E+00  0.00000000E+00
  0.00000000E+00  0.00000000E+00  0.00000000E+00
  0.00000000E+00  0.00000000E+00  0.00000000E+00
  0.00000000E+00  0.00000000E+00  0.00000000E+00
  0.00000000E+00  0.00000000E+00  0.00000000E+00
  0.00000000E+00  0.00000000E+00  0.00000000E+00
  0.00000000E+00  0.00000000E+00  0.00000000E+00
  0.00000000E+00  0.00000000E+00  0.00000000E+00
  0.00000000E+00  0.00000000E+00  0.00000000E+00
  0.00000000E+00  0.00000000E+00  0.00000000E+00
  0.00000000E+00  0.00000000E+00  0.00000000E+00
  0.00000000E+00  0.00000000E+00  0.00000000E+00
  0.00000000E+00  0.00000000E+00  0.00000000E+00
  0.00000000E+00  0.00000000E+00  0.00000000E+00
  0.00000000E+00  0.00000000E+00  0.00000000E+00
  0.00000000E+00  0.00000000E+00  0.00000000E+00
  0.00000000E+00  0.00000000E+00  0.00000000E+00
  0.00000000E+00  0.00000000E+00  0.00000000E+00
  0.00000000E+00  0.00000000E+00  0.00000000E+00
  0.00000000E+00  0.00000000E+00  0.00000000E+00
  0.00000000E+00  0.00000000E+00  0.00000000E+00
  0.00000000E+00  0.00000000E+00  0.00000000E+00
  0.00000000E+00  0.00000000E+00  0.00000000E+00
  0.00000000E+00  0.00000000E+00  0.00000000E+00
  0.00000000E+00  0.00000000E+00  0.00000000E+00
  0.00000000E+00  0.00000000E+00  0.00000000E+00
  0.00000000E+00  0.00000000E+00  0.00000000E+00
  0.00000000E+00  0.00000000E+00  0.00000000E+00
  0.00000000E+00  0.00000000E+00  0.00000000E+00
