       N       E                     dE             d eps       ncg     rms          ort
SDA:   1    -0.335634728168E+03   -0.33563E+03    0.00000E+00  3328   0.138E+03 0.000E+00
CGA:   2    -0.411709258321E+03   -0.76075E+02   -0.73294E+02  3328   0.665E+02 0.464E+01
CGA:   3    -0.429850627293E+03   -0.18141E+02   -0.18065E+02  3328   0.342E+02 0.668E+00
CGA:   4    -0.437502714306E+03   -0.76521E+01   -0.76500E+01  3328   0.194E+02 0.299E+00
CGA:   5    -0.440660206439E+03   -0.31575E+01   -0.31586E+01  3328   0.910E+01-0.160E-01
CGA:   6    -0.442321317474E+03   -0.16611E+01   -0.16623E+01  3328   0.321E+01-0.266E-02
CGA:   7    -0.442967217426E+03   -0.64590E+00   -0.64600E+00  3328   0.140E+01-0.673E-03
CGA:   8    -0.443241529079E+03   -0.27431E+00   -0.27428E+00  3328   0.494E+00-0.149E-02
CGA:   9    -0.443351486122E+03   -0.10996E+00   -0.10997E+00  3328   0.185E+00-0.618E-03
CGA:  10    -0.443393571483E+03   -0.42085E-01   -0.42086E-01  3328   0.671E-01-0.328E-04
CGA:  11    -0.443411079946E+03   -0.17508E-01   -0.17508E-01  3328   0.275E-01 0.101E-04
CGA:  12    -0.443418918344E+03   -0.78384E-02   -0.78426E-02  3328   0.125E-01-0.525E-04
CGA:  13    -0.443422691245E+03   -0.37729E-02   -0.37730E-02  3328   0.521E-02-0.674E-05
CGA:  14    -0.443424304143E+03   -0.16129E-02   -0.16104E-02  3328   0.211E-02 0.191E-04
CGA:  15    -0.443424971628E+03   -0.66748E-03   -0.66592E-03  3328   0.877E-03 0.120E-04
CGA:  16    -0.443425299581E+03   -0.32795E-03   -0.32672E-03  3328   0.492E-03 0.691E-05
CGA:  17    -0.443425511031E+03   -0.21145E-03   -0.21190E-03  3328   0.347E-03-0.279E-05
CGA:  18    -0.443425658020E+03   -0.14699E-03   -0.14796E-03  3328   0.223E-03-0.554E-05
CGA:  19    -0.443425743317E+03   -0.85297E-04   -0.85644E-04  3328   0.109E-03-0.268E-05
CGA:  20    -0.443425783167E+03   -0.39851E-04   -0.40069E-04  3328   0.476E-04-0.202E-05
CGA:  21    -0.443425800202E+03   -0.17035E-04   -0.17075E-04  3328   0.198E-04-0.416E-06
CGA:  22    -0.443425807339E+03   -0.71361E-05   -0.71360E-05  3328   0.787E-05 0.229E-08
   1 F= -.44516363E+03 E0= -.44514706E+03  d E =-.331422E-01  mag=     0.1177
