C  N  Au
 1.0000000000000000
    12.3000000000000007    0.0000000000000000    0.0000000000000000
    -6.1499999999999977   10.6521124665485960    0.0000000000000000
     0.0000000000000000    0.0000000000000000   20.0000000000000000
 C   N   Au 
  44   4   1
Direct
  0.9988830000000000  0.0011170000000000  0.7458090000000001
  0.1305450000000000  0.0640950000000000  0.7465650000000000
  0.1974230000000000  0.9972500000000000  0.7465980000000001
  0.3286120000000000  0.0606480000000000  0.7496740000000000
  0.3980330000000001  0.9965330000000001  0.7499730000000000
  0.5314650000000000  0.0665270000000000  0.7517239999999999
  0.5994250000000000  0.0007780000000000  0.7508550000000001
  0.7320440000000000  0.0695890000000000  0.7502650000000000
  0.7993710000000001  0.0025500000000000  0.7486810000000000
  0.9321820000000000  0.0678180000000000  0.7472200000000000
  0.9974499999999999  0.2006290000000000  0.7486810000000000
  0.1298430000000000  0.2646940000000000  0.7499690000000001
  0.1939760000000000  0.1952910000000000  0.7496260000000001
  0.3246510000000000  0.2580370000000000  0.7533760000000003
  0.3913640000000000  0.1913390000000000  0.7533840000000001
  0.5938650000000000  0.2003280000000000  0.7541410000000000
  0.7285740000000001  0.2714260000000000  0.7536389999999999
  0.7965690000000000  0.2034310000000000  0.7512270000000001
  0.9304110000000000  0.2679560000000000  0.7502650000000000
  0.9992220000000001  0.4005750000000000  0.7508550000000001
  0.1340940000000000  0.4660920000000000  0.7508620000000001
  0.1998420000000000  0.3981200000000000  0.7517380000000000
  0.3336660000000001  0.4605120000000000  0.7541360000000000
  0.7996720000000003  0.4061350000000000  0.7541410000000000
  0.9334730000000001  0.4685350000000000  0.7517239999999999
  0.0034670000000000  0.6019670000000000  0.7499730000000000
  0.1358730000000000  0.6660300000000000  0.7486670000000002
  0.2029280000000000  0.5987090000000000  0.7502300000000002
  0.3367780000000000  0.6632220000000000  0.7511560000000000
  0.4047840000000000  0.5952160000000000  0.7536300000000002
  0.5394880000000000  0.6663340000000000  0.7541360000000000
  0.7419630000000002  0.6753490000000000  0.7533760000000003
  0.8086610000000001  0.6086360000000000  0.7533840000000001
  0.9393520000000000  0.6713880000000000  0.7496740000000000
  0.0027500000000000  0.8025770000000000  0.7465980000000001
  0.1344410000000000  0.8655590000000000  0.7458650000000002
  0.2011490000000000  0.7988510000000001  0.7472440000000002
  0.3339700000000000  0.8641270000000000  0.7486670000000002
  0.4012910000000001  0.7970720000000000  0.7502300000000002
  0.5339080000000000  0.8659060000000000  0.7508620000000001
  0.6018800000000000  0.8001580000000000  0.7517380000000000
  0.7353060000000001  0.8701570000000000  0.7499690000000001
  0.8047090000000000  0.8060240000000000  0.7496260000000001
  0.9359050000000000  0.8694550000000000  0.7465650000000000
  0.5201490000000000  0.2553690000000000  0.7565420000000000
  0.3886970000000001  0.3868130000000001  0.7565300000000001
  0.7446310000000003  0.4798510000000000  0.7565420000000000
  0.6131870000000000  0.6113030000000000  0.7565300000000001
  0.5666670000000000  0.4333330000000000  0.7581360000000000
