       N       E                     dE             d eps       ncg     rms          rms(c)
DAV:   1     0.113905431348E+04    0.11391E+04   -0.81315E+04  4096   0.561E+02
DAV:   2    -0.400674078387E+03   -0.15397E+04   -0.15369E+04  6144   0.110E+02
DAV:   3    -0.472364644797E+03   -0.71691E+02   -0.71662E+02  8192   0.356E+01
DAV:   4    -0.472412872454E+03   -0.48228E-01   -0.48228E-01  4096   0.113E+00
DAV:   5    -0.472413140260E+03   -0.26781E-03   -0.26781E-03  8192   0.888E-02    0.280E+01
DAV:   6    -0.449321423470E+03    0.23092E+02   -0.34712E+01  6912   0.678E+00    0.143E+01
DAV:   7    -0.441548045528E+03    0.77734E+01   -0.17516E+01  8192   0.474E+00    0.386E+00
DAV:   8    -0.440972789331E+03    0.57526E+00   -0.13594E+00  7680   0.133E+00    0.172E+00
DAV:   9    -0.440822539338E+03    0.15025E+00   -0.13119E-01  7168   0.479E-01    0.468E-01
DAV:  10    -0.440801877063E+03    0.20662E-01   -0.14410E-02  7168   0.142E-01    0.328E-01
DAV:  11    -0.440784125376E+03    0.17752E-01   -0.18239E-02  8192   0.119E-01    0.216E-01
DAV:  12    -0.440771862932E+03    0.12262E-01   -0.21884E-02  7680   0.123E-01    0.117E-01
DAV:  13    -0.440782225264E+03   -0.10362E-01   -0.27082E-03  5376   0.470E-02    0.836E-02
DAV:  14    -0.440803421769E+03   -0.21197E-01   -0.24093E-03  6912   0.406E-02    0.383E-02
DAV:  15    -0.440815221192E+03   -0.11799E-01   -0.11925E-03  7168   0.287E-02    0.252E-02
DAV:  16    -0.440820880076E+03   -0.56589E-02   -0.50642E-04  7680   0.180E-02    0.140E-02
DAV:  17    -0.440823483469E+03   -0.26034E-02   -0.23157E-04  6144   0.125E-02    0.664E-03
DAV:  18    -0.440824352930E+03   -0.86946E-03   -0.39615E-05  5376   0.617E-03    0.437E-03
DAV:  19    -0.440824808159E+03   -0.45523E-03   -0.28326E-05  5120   0.481E-03    0.251E-03
DAV:  20    -0.440825004421E+03   -0.19626E-03   -0.13484E-05  6656   0.351E-03    0.159E-03
DAV:  21    -0.440825082635E+03   -0.78213E-04   -0.43617E-06  6144   0.229E-03    0.115E-03
DAV:  22    -0.440825134104E+03   -0.51469E-04   -0.15752E-06  6656   0.168E-03    0.770E-04
DAV:  23    -0.440825176641E+03   -0.42537E-04   -0.73218E-07  6144   0.126E-03    0.486E-04
DAV:  24    -0.440825195667E+03   -0.19026E-04   -0.34647E-07  7168   0.826E-04    0.279E-04
DAV:  25    -0.440825203812E+03   -0.81456E-05   -0.83809E-08  6144   0.408E-04
   1 F= -.44248661E+03 E0= -.44248220E+03  d E =-.442487E+03  mag=     0.0003
