C  N  Li
 1.0000000000000000
    12.3000000000000007    0.0000000000000000    0.0000000000000000
    -6.1499999999999977   10.6521124665485960    0.0000000000000000
     0.0000000000000000    0.0000000000000000   20.0000000000000000
 C   N   Li 
  44   4   1
Direct
  0.9994300000000000  0.0005700000000000  0.7500000000000000
  0.1316840000000000  0.0650660000000000  0.7500000000000000
  0.1983880000000000  0.9983599999999999  0.7500000000000000
  0.3310270000000000  0.0637000000000000  0.7500000000000000
  0.3987260000000000  0.9976990000000000  0.7500000000000000
  0.5313400000000000  0.0662890000000000  0.7500000000000000
  0.5992170000000000  0.0003700000000000  0.7500000000000000
  0.7320460000000001  0.0692650000000000  0.7500000000000000
  0.7995110000000000  0.0026240000000000  0.7500000000000000
  0.9322200000000000  0.0677800000000000  0.7500000000000000
  0.9973760000000003  0.2004890000000000  0.7500000000000000
  0.1310280000000000  0.2653910000000000  0.7500000000000000
  0.1970360000000000  0.1976960000000000  0.7500000000000000
  0.3293630000000001  0.2653360000000000  0.7500000000000000
  0.3986700000000000  0.1960330000000000  0.7500000000000000
  0.5927829999999999  0.2007440000000000  0.7500000000000000
  0.7286990000000002  0.2713010000000000  0.7500000000000000
  0.7961720000000000  0.2038280000000000  0.7500000000000000
  0.9307350000000001  0.2679540000000000  0.7500000000000000
  0.9996300000000002  0.4007830000000001  0.7500000000000000
  0.1336930000000001  0.4658890000000001  0.7500000000000000
  0.1996160000000000  0.3979960000000000  0.7500000000000000
  0.3340800000000000  0.4594560000000000  0.7500000000000000
  0.7992560000000000  0.4072170000000001  0.7500000000000000
  0.9337110000000000  0.4686600000000001  0.7500000000000000
  0.0023010000000000  0.6012740000000000  0.7500000000000000
  0.1359530000000000  0.6661830000000000  0.7500000000000000
  0.2025900000000000  0.5987070000000000  0.7500000000000000
  0.3371530000000000  0.6628470000000000  0.7500000000000000
  0.4046340000000000  0.5953660000000000  0.7500000000000000
  0.5405440000000000  0.6659200000000000  0.7500000000000000
  0.7346640000000001  0.6706370000000000  0.7500000000000000
  0.8039670000000000  0.6013300000000000  0.7500000000000000
  0.9363000000000000  0.6689730000000000  0.7500000000000000
  0.0016400000000000  0.8016120000000000  0.7500000000000000
  0.1339030000000000  0.8660970000000000  0.7500000000000000
  0.2011080000000000  0.7988920000000000  0.7500000000000000
  0.3338170000000001  0.8640470000000001  0.7500000000000000
  0.4012930000000000  0.7974100000000000  0.7500000000000000
  0.5341110000000000  0.8663069999999999  0.7500000000000000
  0.6020040000000000  0.8003840000000000  0.7500000000000000
  0.7346080000000001  0.8689720000000000  0.7500000000000000
  0.8023040000000002  0.8029640000000000  0.7500000000000000
  0.9349340000000000  0.8683160000000000  0.7500000000000000
  0.5247170000000000  0.2599950000000000  0.7500000000000000
  0.3933290000000000  0.3913900000000000  0.7500000000000000
  0.7400050000000001  0.4752830000000000  0.7500000000000000
  0.6086100000000000  0.6066710000000000  0.7500000000000000
  0.5666639999999999  0.4333360000000000  0.7500000000000000
