 PAW_PBE C 08Apr2002
 4.00000000000000000
 parameters from PSCTR are:
   VRHFIN =C: s2p2
   LEXCH  = PE
   EATOM  =   147.1560 eV,   10.8157 Ry

   TITEL  = PAW_PBE C 08Apr2002
   LULTRA =        F    use ultrasoft PP ?
   IUNSCR =        0    unscreen: 0-lin 1-nonlin 2-no
   RPACOR =     .000    partial core radius
   POMASS =   12.011; ZVAL   =    4.000    mass and valenz
   RCORE  =    1.500    outmost cutoff radius
   RWIGS  =    1.630; RWIGS  =     .863    wigner-seitz radius (au A)
   ENMAX  =  400.000; ENMIN  =  300.000 eV
   ICORE  =        2    local potential
   LCOR   =        T    correct aug charges
   LPAW   =        T    paw PP
   EAUG   =  644.873
   DEXC   =     .000
   RMAX   =    2.266    core radius for proj-oper
   RAUG   =    1.300    factor for augmentation sphere
   RDEP   =    1.501    radius for radial grids
   RDEPT  =    1.300    core radius for aug-charge
   QCUT   =   -5.516; QGAM   =   11.032    optimization parameters
 
   Description
     l     E      TYP  RCUT    TYP  RCUT
     0   .000     23  1.200
     0   .000     23  1.200
     1   .000     23  1.500
     1  2.500     23  1.500
     2   .000      7  1.500
   Error from kinetic energy argument (eV)
   NDATA  =      100
   STEP   =   20.000   1.050
  51.3      49.5      48.6      46.8      45.9      44.1      42.4      41.6
  39.9      38.2      37.4      35.8      34.3      32.8      31.4      30.0
  28.6      27.3      26.1      24.3      23.2      22.1      20.5      19.6
  18.6      17.3      16.0      15.2      14.1      13.1      12.1      11.1
  10.3      9.47      8.72      8.02      7.15      6.55      5.82      5.31
  4.69      4.13      3.63      3.17      2.76      2.40      2.07      1.72
  1.47      1.20      .971      .815      .650      .512      .380      .292
  .222      .158      .110      .748E-01  .504E-01  .337E-01  .227E-01  .149E-01
  .111E-01  .869E-02  .756E-02  .700E-02  .657E-02  .614E-02  .551E-02  .474E-02
  .392E-02  .314E-02  .237E-02  .184E-02  .143E-02  .118E-02  .104E-02  .993E-03
  .959E-03  .910E-03  .829E-03  .707E-03  .570E-03  .442E-03  .343E-03  .275E-03
  .245E-03  .238E-03  .236E-03  .227E-03  .202E-03  .169E-03  .131E-03  .102E-03
  .851E-04  .796E-04  .787E-04  .761E-04
END of PSCTR-controll parameters
 local part
 124.721915246208937
   .20370041E+02   .20367047E+02   .20363065E+02   .20356432E+02   .20347149E+02
   .20335222E+02   .20320655E+02   .20303451E+02   .20283615E+02   .20261149E+02
   .20236054E+02   .20208330E+02   .20177973E+02   .20144979E+02   .20109342E+02
   .20071052E+02   .20030100E+02   .19986473E+02   .19940156E+02   .19891131E+02
   .19839380E+02   .19784881E+02   .19727608E+02   .19667533E+02   .19604624E+02
   .19538848E+02   .19470165E+02   .19398533E+02   .19323907E+02   .19246238E+02
   .19165474E+02   .19081559E+02   .18994436E+02   .18904042E+02   .18810316E+02
   .18713191E+02   .18612600E+02   .18508475E+02   .18400746E+02   .18289342E+02
   .18174194E+02   .18055230E+02   .17932383E+02   .17805584E+02   .17674770E+02
   .17539878E+02   .17400851E+02   .17257634E+02   .17110178E+02   .16958440E+02
   .16802384E+02   .16641980E+02   .16477205E+02   .16308046E+02   .16134498E+02
   .15956565E+02   .15774263E+02   .15587618E+02   .15396667E+02   .15201458E+02
   .15002052E+02   .14798523E+02   .14590957E+02   .14379453E+02   .14164124E+02
   .13945096E+02   .13722507E+02   .13496509E+02   .13267269E+02   .13034964E+02
   .12799787E+02   .12561941E+02   .12321643E+02   .12079119E+02   .11834608E+02
   .11588360E+02   .11340633E+02   .11091695E+02   .10841823E+02   .10591299E+02
   .10340414E+02   .10089462E+02   .98387442E+01   .95885628E+01   .93392235E+01
   .90910332E+01   .88442985E+01   .85993254E+01   .83564171E+01   .81158740E+01
   .78779914E+01   .76430593E+01   .74113606E+01   .71831703E+01   .69587545E+01
   .67383690E+01   .65222587E+01   .63106564E+01   .61037820E+01   .59018416E+01
   .57050266E+01   .55135133E+01   .53274620E+01   .51470163E+01   .49723031E+01
   .48034315E+01   .46404931E+01   .44835614E+01   .43326919E+01   .41879218E+01
   .40492700E+01   .39167374E+01   .37903070E+01   .36699442E+01   .35555971E+01
   .34471969E+01   .33446585E+01   .32478812E+01   .31567490E+01   .30711318E+01
   .29908859E+01   .29158549E+01   .28458705E+01   .27807538E+01   .27203159E+01
   .26643592E+01   .26126782E+01   .25650608E+01   .25212894E+01   .24811415E+01
   .24443918E+01   .24108123E+01   .23801739E+01   .23522476E+01   .23268052E+01
   .23036204E+01   .22824701E+01   .22631352E+01   .22454013E+01   .22290599E+01
   .22139090E+01   .21997540E+01   .21864085E+01   .21736945E+01   .21614436E+01
   .21494971E+01   .21377065E+01   .21259340E+01   .21140529E+01   .21019474E+01
   .20895134E+01   .20766579E+01   .20632996E+01   .20493686E+01   .20348062E+01
   .20195649E+01   .20036082E+01   .19869100E+01   .19694548E+01   .19512365E+01
   .19322589E+01   .19125343E+01   .18920837E+01   .18709357E+01   .18491262E+01
   .18266977E+01   .18036985E+01   .17801824E+01   .17562075E+01   .17318361E+01
   .17071335E+01   .16821677E+01   .16570086E+01   .16317270E+01   .16063948E+01
   .15810833E+01   .15558635E+01   .15308050E+01   .15059756E+01   .14814409E+01
   .14572636E+01   .14335032E+01   .14102158E+01   .13874532E+01   .13652631E+01
   .13436886E+01   .13227681E+01   .13025351E+01   .12830178E+01   .12642394E+01
   .12462178E+01   .12289658E+01   .12124909E+01   .11967956E+01   .11818774E+01
   .11677289E+01   .11543381E+01   .11416888E+01   .11297604E+01   .11185286E+01
   .11079653E+01   .10980394E+01   .10887169E+01   .10799609E+01   .10717326E+01
   .10639913E+01   .10566949E+01   .10498000E+01   .10432627E+01   .10370386E+01
   .10310836E+01   .10253536E+01   .10198054E+01   .10143970E+01   .10090873E+01
   .10038372E+01   .99860926E+00   .99336835E+00   .98808151E+00   .98271838E+00
   .97725128E+00   .97165536E+00   .96590871E+00   .95999244E+00   .95389076E+00
   .94759097E+00   .94108348E+00   .93436178E+00   .92742240E+00   .92026483E+00
   .91289140E+00   .90530719E+00   .89751990E+00   .88953964E+00   .88137882E+00
   .87305193E+00   .86457534E+00   .85596709E+00   .84724670E+00   .83843488E+00
   .82955338E+00   .82062468E+00   .81167180E+00   .80271806E+00   .79378687E+00
   .78490146E+00   .77608471E+00   .76735895E+00   .75874572E+00   .75026562E+00
   .74193815E+00   .73378153E+00   .72581255E+00   .71804650E+00   .71049701E+00
   .70317595E+00   .69609343E+00   .68925768E+00   .68267502E+00   .67634989E+00
   .67028480E+00   .66448037E+00   .65893536E+00   .65364672E+00   .64860965E+00
   .64381770E+00   .63926282E+00   .63493551E+00   .63082489E+00   .62691886E+00
   .62320423E+00   .61966683E+00   .61629170E+00   .61306320E+00   .60996518E+00
   .60698114E+00   .60409438E+00   .60128812E+00   .59854571E+00   .59585071E+00
   .59318709E+00   .59053928E+00   .58789240E+00   .58523230E+00   .58254567E+00
   .57982020E+00   .57704459E+00   .57420869E+00   .57130350E+00   .56832130E+00
   .56525559E+00   .56210123E+00   .55885435E+00   .55551241E+00   .55207418E+00
   .54853970E+00   .54491030E+00   .54118846E+00   .53737787E+00   .53348329E+00
   .52951049E+00   .52546620E+00   .52135799E+00   .51719421E+00   .51298385E+00
   .50873649E+00   .50446213E+00   .50017117E+00   .49587419E+00   .49158197E+00
   .48730527E+00   .48305479E+00   .47884106E+00   .47467432E+00   .47056446E+00
   .46652089E+00   .46255249E+00   .45866752E+00   .45487354E+00   .45117740E+00
   .44758510E+00   .44410183E+00   .44073191E+00   .43747871E+00   .43434471E+00
   .43133146E+00   .42843957E+00   .42566872E+00   .42301770E+00   .42048440E+00
   .41806590E+00   .41575842E+00   .41355747E+00   .41145782E+00   .40945360E+00
   .40753838E+00   .40570518E+00   .40394661E+00   .40225491E+00   .40062201E+00
   .39903965E+00   .39749944E+00   .39599292E+00   .39451167E+00   .39304737E+00
   .39159186E+00   .39013724E+00   .38867593E+00   .38720073E+00   .38570485E+00
   .38418204E+00   .38262655E+00   .38103324E+00   .37939758E+00   .37771570E+00
   .37598438E+00   .37420112E+00   .37236410E+00   .37047222E+00   .36852508E+00
   .36652295E+00   .36446680E+00   .36235825E+00   .36019954E+00   .35799352E+00
   .35574356E+00   .35345359E+00   .35112797E+00   .34877149E+00   .34638929E+00
   .34398685E+00   .34156984E+00   .33914418E+00   .33671586E+00   .33429099E+00
   .33187566E+00   .32947591E+00   .32709768E+00   .32474675E+00   .32242866E+00
   .32014872E+00   .31791189E+00   .31572278E+00   .31358561E+00   .31150416E+00
   .30948175E+00   .30752120E+00   .30562483E+00   .30379444E+00   .30203129E+00
   .30033609E+00   .29870903E+00   .29714975E+00   .29565737E+00   .29423051E+00
   .29286727E+00   .29156532E+00   .29032187E+00   .28913372E+00   .28799732E+00
   .28690876E+00   .28586386E+00   .28485818E+00   .28388708E+00   .28294575E+00
   .28202929E+00   .28113270E+00   .28025099E+00   .27937919E+00   .27851241E+00
   .27764585E+00   .27677490E+00   .27589514E+00   .27500240E+00   .27409276E+00
   .27316263E+00   .27220876E+00   .27122823E+00   .27021853E+00   .26917754E+00
   .26810355E+00   .26699528E+00   .26585187E+00   .26467290E+00   .26345836E+00
   .26220868E+00   .26092468E+00   .25960760E+00   .25825903E+00   .25688093E+00
   .25547560E+00   .25404564E+00   .25259392E+00   .25112354E+00   .24963785E+00
   .24814034E+00   .24663464E+00   .24512451E+00   .24361375E+00   .24210618E+00
   .24060565E+00   .23911592E+00   .23764068E+00   .23618352E+00   .23474787E+00
   .23333695E+00   .23195382E+00   .23060127E+00   .22928182E+00   .22799774E+00
   .22675098E+00   .22554318E+00   .22437564E+00   .22324935E+00   .22216493E+00
   .22112269E+00   .22012257E+00   .21916418E+00   .21824680E+00   .21736940E+00
   .21653062E+00   .21572884E+00   .21496215E+00   .21422840E+00   .21352520E+00
   .21284996E+00   .21219995E+00   .21157224E+00   .21096382E+00   .21037158E+00
   .20979234E+00   .20922293E+00   .20866013E+00   .20810079E+00   .20754181E+00
   .20698018E+00   .20641301E+00   .20583754E+00   .20525119E+00   .20465158E+00
   .20403650E+00   .20340400E+00   .20275237E+00   .20208013E+00   .20138608E+00
   .20066930E+00   .19992913E+00   .19916520E+00   .19837742E+00   .19756595E+00
   .19673127E+00   .19587408E+00   .19499535E+00   .19409629E+00   .19317833E+00
   .19224309E+00   .19129242E+00   .19032831E+00   .18935289E+00   .18836843E+00
   .18737730E+00   .18638193E+00   .18538484E+00   .18438853E+00   .18339554E+00
   .18240837E+00   .18142949E+00   .18046127E+00   .17950602E+00   .17856592E+00
   .17764303E+00   .17673925E+00   .17585631E+00   .17499577E+00   .17415898E+00
   .17334710E+00   .17256106E+00   .17180158E+00   .17106916E+00   .17036405E+00
   .16968629E+00   .16903568E+00   .16841183E+00   .16781409E+00   .16724163E+00
   .16669341E+00   .16616823E+00   .16566469E+00   .16518125E+00   .16471622E+00
   .16426780E+00   .16383409E+00   .16341308E+00   .16300273E+00   .16260093E+00
   .16220555E+00   .16181447E+00   .16142557E+00   .16103678E+00   .16064608E+00
   .16025153E+00   .15985127E+00   .15944356E+00   .15902679E+00   .15859947E+00
   .15816027E+00   .15770802E+00   .15724172E+00   .15676055E+00   .15626388E+00
   .15575124E+00   .15522237E+00   .15467721E+00   .15411586E+00   .15353862E+00
   .15294597E+00   .15233856E+00   .15171720E+00   .15108286E+00   .15043664E+00
   .14977979E+00   .14911366E+00   .14843970E+00   .14775946E+00   .14707455E+00
   .14638664E+00   .14569742E+00   .14500863E+00   .14432199E+00   .14363921E+00
   .14296197E+00   .14229192E+00   .14163061E+00   .14097955E+00   .14034014E+00
   .13971369E+00   .13910136E+00   .13850424E+00   .13792323E+00   .13735913E+00
   .13681257E+00   .13628404E+00   .13577385E+00   .13528217E+00   .13480903E+00
   .13435426E+00   .13391756E+00   .13349850E+00   .13309646E+00   .13271073E+00
   .13234044E+00   .13198461E+00   .13164217E+00   .13131192E+00   .13099261E+00
   .13068290E+00   .13038140E+00   .13008665E+00   .12979721E+00   .12951159E+00
   .12922830E+00   .12894587E+00   .12866286E+00   .12837787E+00   .12808956E+00
   .12779664E+00   .12749792E+00   .12719228E+00   .12687871E+00   .12655630E+00
   .12622426E+00   .12588192E+00   .12552874E+00   .12516431E+00   .12478835E+00
   .12440070E+00   .12400137E+00   .12359046E+00   .12316825E+00   .12273510E+00
   .12229152E+00   .12183812E+00   .12137563E+00   .12090488E+00   .12042677E+00
   .11994231E+00   .11945257E+00   .11895866E+00   .11846177E+00   .11796310E+00
   .11746388E+00   .11696536E+00   .11646879E+00   .11597539E+00   .11548637E+00
   .11500290E+00   .11452609E+00   .11405702E+00   .11359666E+00   .11314594E+00
   .11270569E+00   .11227663E+00   .11185942E+00   .11145458E+00   .11106252E+00
   .11068358E+00   .11031793E+00   .10996566E+00   .10962674E+00   .10930101E+00
   .10898822E+00   .10868798E+00   .10839983E+00   .10812320E+00   .10785742E+00
   .10760174E+00   .10735533E+00   .10711730E+00   .10688669E+00   .10666251E+00
   .10644371E+00   .10622921E+00   .10601792E+00   .10580875E+00   .10560060E+00
   .10539239E+00   .10518306E+00   .10497157E+00   .10475696E+00   .10453828E+00
   .10431468E+00   .10408535E+00   .10384957E+00   .10360669E+00   .10335617E+00
   .10309753E+00   .10283041E+00   .10255454E+00   .10226976E+00   .10197599E+00
   .10167327E+00   .10136174E+00   .10104161E+00   .10071322E+00   .10037698E+00
   .10003339E+00   .99683035E-01   .99326560E-01   .98964686E-01   .98598192E-01
   .98227905E-01   .97854696E-01   .97479469E-01   .97103153E-01   .96726690E-01
   .96351032E-01   .95977122E-01   .95605896E-01   .95238263E-01   .94875104E-01
   .94517262E-01   .94165530E-01   .93820648E-01   .93483297E-01   .93154087E-01
   .92833560E-01   .92522178E-01   .92220322E-01   .91928290E-01   .91646293E-01
   .91374453E-01   .91112806E-01   .90861296E-01   .90619782E-01   .90388037E-01
   .90165753E-01   .89952541E-01   .89747938E-01   .89551415E-01   .89362374E-01
   .89180165E-01   .89004083E-01   .88833381E-01   .88667275E-01   .88504954E-01
   .88345585E-01   .88188323E-01   .88032318E-01   .87876726E-01   .87720712E-01
   .87563465E-01   .87404199E-01   .87242164E-01   .87076653E-01   .86907006E-01
   .86732619E-01   .86552947E-01   .86367508E-01   .86175890E-01   .85977752E-01
   .85772829E-01   .85560931E-01   .85341946E-01   .85115842E-01   .84882662E-01
   .84642528E-01   .84395638E-01   .84142261E-01   .83882734E-01   .83617462E-01
   .83346910E-01   .83071598E-01   .82792096E-01   .82509020E-01   .82223022E-01
   .81934789E-01   .81645029E-01   .81354469E-01   .81063847E-01   .80773905E-01
   .80485378E-01   .80198993E-01   .79915456E-01   .79635450E-01   .79359624E-01
   .79088592E-01   .78822923E-01   .78563138E-01   .78309707E-01   .78063040E-01
   .77823487E-01   .77591337E-01   .77366809E-01   .77150057E-01   .76941167E-01
   .76740152E-01   .76546960E-01   .76361469E-01   .76183493E-01   .76012780E-01
   .75849017E-01   .75691837E-01   .75540816E-01   .75395484E-01   .75255324E-01
   .75119783E-01   .74988274E-01   .74860182E-01   .74734871E-01   .74611692E-01
   .74489984E-01   .74369085E-01   .74248340E-01   .74127101E-01   .74004738E-01
   .73880645E-01   .73754243E-01   .73624987E-01   .73492372E-01   .73355935E-01
   .73215260E-01   .73069982E-01   .72919790E-01   .72764430E-01   .72603706E-01
   .72437483E-01   .72265685E-01   .72088299E-01   .71905371E-01   .71717010E-01
   .71523379E-01   .71324701E-01   .71121250E-01   .70913351E-01   .70701375E-01
   .70485738E-01   .70266892E-01   .70045324E-01   .69821549E-01   .69596105E-01
   .69369549E-01   .69142452E-01   .68915389E-01   .68688937E-01   .68463671E-01
   .68240152E-01   .68018928E-01   .67800526E-01   .67585445E-01   .67374156E-01
   .67167094E-01   .66964656E-01   .66767195E-01   .66575021E-01   .66388395E-01
   .66207526E-01   .66032573E-01   .65863641E-01   .65700781E-01   .65543991E-01
   .65393213E-01   .65248338E-01   .65109204E-01   .64975603E-01   .64847276E-01
   .64723922E-01   .64605200E-01   .64490731E-01   .64380102E-01   .64272872E-01
   .64168575E-01   .64066726E-01   .63966823E-01   .63868355E-01   .63770806E-01
   .63673660E-01   .63576405E-01   .63478540E-01   .63379580E-01   .63279057E-01
   .63176528E-01   .63071579E-01   .62963827E-01   .62852923E-01   .62738558E-01
   .62620462E-01   .62498412E-01   .62372226E-01   .62241770E-01   .62106960E-01
   .61967756E-01   .61824170E-01   .61676259E-01   .61524129E-01   .61367929E-01
   .61207855E-01   .61044141E-01   .60877060E-01   .60706923E-01   .60534070E-01
   .60358873E-01   .60181727E-01   .60003048E-01   .59823270E-01   .59642838E-01
   .59462206E-01   .59281831E-01   .59102169E-01   .58923670E-01   .58746775E-01
   .58571909E-01   .58399479E-01   .58229870E-01   .58063440E-01   .57900520E-01
   .57741407E-01   .57586363E-01   .57435612E-01   .57289341E-01   .57147695E-01
   .57010775E-01   .56878642E-01   .56751311E-01   .56628757E-01   .56510908E-01
   .56397655E-01   .56288844E-01   .56184286E-01   .56083754E-01   .55986987E-01
   .55893693E-01   .55803552E-01   .55716218E-01   .55631325E-01   .55548488E-01
   .55467309E-01   .55387379E-01   .55308284E-01   .55229607E-01   .55150934E-01
   .55071857E-01   .54991978E-01   .54910915E-01   .54828302E-01   .54743793E-01
   .54657071E-01   .54567841E-01   .54475842E-01   .54380842E-01   .54282647E-01
   .54181097E-01   .54076069E-01   .53967480E-01   .53855285E-01   .53739479E-01
   .53620095E-01   .53497207E-01   .53370924E-01   .53241394E-01   .53108796E-01
   .52973345E-01   .52835284E-01   .52694885E-01   .52552444E-01   .52408280E-01
   .52262728E-01   .52116142E-01   .51968885E-01   .51821329E-01   .51673851E-01
   .51526828E-01   .51380634E-01   .51235637E-01   .51092192E-01   .50950643E-01
   .50811317E-01   .50674519E-01   .50540531E-01   .50409612E-01   .50281988E-01
   .50157861E-01   .50037397E-01   .49920729E-01   .49807956E-01   .49699143E-01
   .49594318E-01   .49493471E-01   .49396560E-01   .49303505E-01   .49214193E-01
   .49128478E-01   .49046182E-01   .48967100E-01   .48890996E-01   .48817613E-01
   .48746669E-01   .48677865E-01   .48610885E-01   .48545398E-01   .48481065E-01
   .48417539E-01   .48354471E-01   .48291511E-01   .48228314E-01   .48164541E-01
   .48099863E-01   .48033964E-01   .47966547E-01   .47897331E-01   .47826058E-01
   .47752495E-01   .47676435E-01   .47597697E-01   .47516131E-01   .47431619E-01
   .47344073E-01   .47253440E-01   .47159697E-01   .47062858E-01   .46962965E-01
 gradient corrections used for XC
 5
 atomic pseudo charge-density
   .40000000E+01   .39894900E+01   .39582020E+01   .39068475E+01   .38365676E+01
   .37488701E+01   .36455522E+01   .35286148E+01   .34001764E+01   .32623924E+01
   .31173852E+01   .29671861E+01   .28136923E+01   .26586361E+01   .25035670E+01
   .23498438E+01   .21986345E+01   .20509225E+01   .19075176E+01   .17690689E+01
   .16360799E+01   .15089238E+01   .13878591E+01   .12730444E+01   .11645520E+01
   .10623816E+01   .96647127E+00   .87670875E+00   .79294050E+00   .71498025E+00
   .64261635E+00   .57561818E+00   .51374165E+00   .45673396E+00   .40433763E+00
   .35629386E+00   .31234537E+00   .27223873E+00   .23572619E+00   .20256723E+00
   .17252965E+00   .14539051E+00   .12093668E+00   .98965284E-01   .79283926E-01
   .61710762E-01   .46074455E-01   .32214036E-01   .19978673E-01   .92273858E-02
  -.17129911E-03  -.83397200E-02  -.15391484E-01  -.21431883E-01  -.26558326E-01
  -.30860765E-01  -.34422125E-01  -.37318724E-01  -.39620689E-01  -.41392351E-01
  -.42692632E-01  -.43575414E-01  -.44089892E-01  -.44280909E-01  -.44189275E-01
  -.43852064E-01  -.43302903E-01  -.42572229E-01  -.41687545E-01  -.40673652E-01
  -.39552862E-01  -.38345208E-01  -.37068625E-01  -.35739131E-01  -.34370987E-01
  -.32976850E-01  -.31567908E-01  -.30154015E-01  -.28743807E-01  -.27344813E-01
  -.25963554E-01  -.24605642E-01  -.23275859E-01  -.21978245E-01  -.20716161E-01
  -.19492364E-01  -.18309064E-01  -.17167982E-01  -.16070400E-01  -.15017212E-01
  -.14008960E-01  -.13045883E-01  -.12127944E-01  -.11254869E-01  -.10426176E-01
  -.96411985E-02  -.88991161E-02  -.81989728E-02  -.75396992E-02  -.69201309E-02
  -.63390252E-02  -.57950768E-02  -.52869306E-02  -.48131948E-02  -.43724520E-02
  -.39632685E-02  -.35842039E-02  -.32338185E-02  -.29106807E-02  -.26133730E-02
  -.23404975E-02  -.20906808E-02  -.18625779E-02  -.16548763E-02  -.14662983E-02
  -.12956043E-02  -.11415948E-02  -.10031117E-02  -.87904038E-03  -.76831031E-03
  -.66989594E-03  -.58281725E-03  -.50613997E-03  -.43897557E-03  -.38048116E-03
  -.32985907E-03  -.28635640E-03  -.24926428E-03  -.21791713E-03  -.19169172E-03
  -.17000618E-03  -.15231889E-03  -.13812728E-03  -.12696662E-03  -.11840868E-03
  -.11206038E-03  -.10756243E-03  -.10458788E-03  -.10284067E-03  -.10205420E-03
  -.10198983E-03  -.10243541E-03  -.10320382E-03  -.10413150E-03  -.10507701E-03
  -.10591958E-03  -.10655770E-03  -.10690776E-03  -.10690264E-03  -.10649045E-03
  -.10563321E-03  -.10430558E-03  -.10249368E-03  -.10019394E-03  -.97411903E-04
  -.94161239E-04  -.90462658E-04  -.86342952E-04  -.81834062E-04  -.76972202E-04
  -.71797027E-04  -.66350863E-04  -.60677976E-04  -.54823902E-04  -.48834824E-04
  -.42757002E-04  -.36636248E-04  -.30517455E-04  -.24444170E-04  -.18458220E-04
  -.12599377E-04  -.69050699E-05  -.14101411E-05   .38533596E-05   .88563384E-05
   .13572784E-04   .17979862E-04   .22057967E-04   .25790753E-04   .29165127E-04
   .32171219E-04   .34802321E-04   .37054812E-04   .38928050E-04   .40424254E-04
   .41548366E-04   .42307895E-04   .42712753E-04   .42775078E-04   .42509044E-04
   .41930672E-04   .41057628E-04   .39909024E-04   .38505210E-04   .36867574E-04
   .35018335E-04   .32980347E-04   .30776900E-04   .28431531E-04   .25967839E-04
   .23409308E-04   .20779141E-04   .18100099E-04   .15394352E-04   .12683343E-04
   .99876602E-05   .73269199E-05   .47196652E-05   .21832738E-05  -.26612093E-06
  -.26136966E-05  -.48459962E-05  -.69509705E-05  -.89180082E-05  -.10737955E-04
  -.12403120E-04  -.13907274E-04  -.15245635E-04  -.16414842E-04  -.17412925E-04
  -.18239262E-04  -.18894531E-04  -.19380647E-04  -.19700707E-04  -.19858913E-04
  -.19860497E-04  -.19711649E-04  -.19419423E-04  -.18991661E-04  -.18436897E-04
  -.17764271E-04  -.16983436E-04  -.16104469E-04  -.15137779E-04  -.14094018E-04
  -.12983994E-04  -.11818584E-04  -.10608653E-04  -.93649753E-05  -.80981563E-05
  -.68185635E-05  -.55362587E-05  -.42609358E-05  -.30018642E-05  -.17678364E-05
  -.56712210E-06   .59257268E-06   .17041408E-05   .27611032E-05   .37576329E-05
   .46885729E-05   .55494485E-05   .63364747E-05   .70465576E-05   .76772913E-05
   .82269492E-05   .86944718E-05   .90794484E-05   .93820966E-05   .96032364E-05
   .97442618E-05   .98071092E-05   .97942222E-05   .97085150E-05   .95533334E-05
   .93324133E-05   .90498395E-05   .87100017E-05   .83175510E-05   .78773561E-05
   .73944586E-05   .68740299E-05   .63213278E-05   .57416545E-05   .51403160E-05
   .45225820E-05   .38936493E-05   .32586050E-05   .26223937E-05   .19897859E-05
   .13653490E-05   .75342120E-06   .15808773E-06  -.41683995E-06  -.96784232E-06
  -.14917071E-05  -.19855416E-05  -.24467826E-05  -.28732026E-05  -.32629148E-05
  -.36143737E-05  -.39263743E-05  -.41980485E-05  -.44288590E-05  -.46185911E-05
  -.47673421E-05  -.48755097E-05  -.49437772E-05  -.49730984E-05  -.49646802E-05
  -.49199645E-05  -.48406086E-05  -.47284651E-05  -.45855609E-05  -.44140755E-05
  -.42163195E-05  -.39947123E-05  -.37517602E-05  -.34900346E-05  -.32121506E-05
  -.29207457E-05  -.26184596E-05  -.23079144E-05  -.19916960E-05  -.16723361E-05
  -.13522955E-05  -.10339484E-05  -.71956822E-06  -.41131424E-06  -.11122015E-06
   .17881646E-06   .45704305E-06   .72185964E-06   .97182491E-06   .12056609E-05
   .14222565E-05   .16206688E-05   .18001243E-05   .19600182E-05   .20999118E-05
   .22195301E-05   .23187575E-05   .23976321E-05   .24563400E-05   .24952081E-05
   .25146961E-05   .25153883E-05   .24979843E-05   .24632891E-05   .24122036E-05
   .23457138E-05   .22648803E-05   .21708277E-05   .20647336E-05   .19478179E-05
   .18213320E-05   .16865487E-05   .15447516E-05   .13972253E-05   .12452459E-05
   .10900719E-05   .93293577E-06   .77503581E-06   .61752862E-06   .46152239E-06
   .30807066E-06   .15816677E-06   .12739005E-07  -.12735356E-06  -.26132457E-06
  -.38846317E-06  -.50813609E-06  -.61978918E-06  -.72294809E-06  -.81721854E-06
  -.90228580E-06  -.97791371E-06  -.10439431E-05  -.11002898E-05  -.11469419E-05
  -.11839571E-05  -.12114589E-05  -.12296334E-05  -.12387248E-05  -.12390316E-05
  -.12309018E-05  -.12147281E-05  -.11909435E-05  -.11600163E-05  -.11224449E-05
  -.10787535E-05  -.10294863E-05  -.97520367E-06  -.91647663E-06  -.85388276E-06
  -.78800156E-06  -.71941031E-06  -.64868001E-06  -.57637166E-06  -.50303265E-06
  -.42919358E-06  -.35536526E-06  -.28203600E-06  -.20966924E-06  -.13870146E-06
  -.69540363E-07  -.25634316E-08   .61883314E-07   .12348619E-06   .18196450E-06
   .23707084E-06   .28859122E-06   .33634491E-06   .38018401E-06   .41999287E-06
   .45568726E-06   .48721338E-06   .51454669E-06   .53769062E-06   .55667507E-06
   .57155493E-06   .58240839E-06   .58933523E-06   .59245505E-06   .59190547E-06
   .58784023E-06   .58042744E-06   .56984766E-06   .55629214E-06   .53996100E-06
   .52106152E-06   .49980645E-06   .47641242E-06   .45109836E-06   .42408409E-06
   .39558893E-06   .36583041E-06   .33502312E-06   .30337757E-06   .27109929E-06
   .23838785E-06   .20543614E-06   .17242964E-06   .13954584E-06   .10695374E-06
   .74813405E-07   .43275666E-07   .12481843E-07  -.17436428E-07  -.46357310E-07
  -.74168811E-07  -.10076878E-06  -.12606483E-06  -.14997427E-06  -.17242391E-06
  -.19334994E-06  -.21269766E-06  -.23042128E-06  -.24648367E-06  -.26085607E-06
  -.27351786E-06  -.28445619E-06  -.29366577E-06  -.30114856E-06  -.30691344E-06
  -.31097596E-06  -.31335807E-06  -.31408779E-06  -.31319900E-06  -.31073113E-06
  -.30672891E-06  -.30124215E-06  -.29432545E-06  -.28603797E-06  -.27644321E-06
  -.26560872E-06  -.25360594E-06  -.24050989E-06  -.22639893E-06  -.21135456E-06
  -.19546112E-06  -.17880555E-06  -.16147710E-06  -.14356706E-06  -.12516847E-06
  -.10637578E-06  -.87284562E-07  -.67991183E-07  -.48592423E-07  -.29185139E-07
  -.98658847E-08   .92694738E-08   .28126154E-07   .46610864E-07   .64632213E-07
   .82101130E-07   .98931289E-07   .11503953E-06   .13034627E-06   .14477595E-06
   .15825741E-06   .17072429E-06   .18211544E-06   .19237526E-06   .20145407E-06
   .20930840E-06   .21590130E-06   .22120261E-06   .22518921E-06   .22784515E-06
   .22916188E-06   .22913831E-06   .22778091E-06   .22510374E-06   .22112841E-06
   .21588403E-06   .20940707E-06   .20174125E-06   .19293726E-06   .18305256E-06
   .17215102E-06   .16030261E-06   .14758298E-06   .13407304E-06   .11985844E-06
   .10502911E-06   .89678674E-07   .73903880E-07   .57803998E-07   .41480189E-07
   .25034862E-07   .85710175E-08  -.78084252E-08  -.24001293E-07  -.39906833E-07
  -.55426374E-07  -.70463977E-07  -.84927079E-07  -.98727103E-07  -.11178005E-06
  -.12400706E-06  -.13533495E-06  -.14569668E-06  -.15503180E-06  -.16328690E-06
  -.17041589E-06  -.17638034E-06  -.18114974E-06  -.18470165E-06  -.18702187E-06
  -.18810450E-06  -.18795193E-06  -.18657487E-06  -.18399215E-06  -.18023064E-06
  -.17532500E-06  -.16931738E-06  -.16225716E-06  -.15420051E-06  -.14520998E-06
  -.13535407E-06  -.12470665E-06  -.11334649E-06  -.10135660E-06  -.88823690E-07
  -.75837495E-07  -.62490139E-07  -.48875466E-07  -.35088367E-07  -.21224102E-07
  -.73776225E-08   .63570979E-08   .19887723E-07   .33124194E-07   .45979356E-07
   .58369547E-07   .70215167E-07   .81441213E-07   .91977763E-07   .10176044E-06
   .11073081E-06   .11883676E-06   .12603278E-06   .13228025E-06   .13754765E-06
   .14181067E-06   .14505237E-06   .14726318E-06   .14844092E-06   .14859068E-06
   .14772477E-06   .14586250E-06   .14303000E-06   .13925989E-06   .13459104E-06
   .12906817E-06   .12274144E-06   .11566608E-06   .10790186E-06   .99512635E-07
   .90565833E-07   .81131898E-07   .71283751E-07   .61096228E-07   .50645504E-07
   .40008531E-07   .29262457E-07   .18484072E-07   .77492476E-08  -.28675974E-08
  -.13294019E-07  -.23460046E-07  -.33298652E-07  -.42746200E-07  -.51742853E-07
  -.60232950E-07  -.68165351E-07  -.75493733E-07  -.82176855E-07  -.88178773E-07
  -.93469019E-07  -.98022732E-07  -.10182074E-06  -.10484962E-06  -.10710169E-06
  -.10857493E-06  -.10927298E-06  -.10920494E-06  -.10838523E-06  -.10683340E-06
  -.10457390E-06  -.10163577E-06  -.98052390E-07  -.93861130E-07  -.89103007E-07
  -.83822319E-07  -.78066251E-07  -.71884480E-07  -.65328756E-07  -.58452488E-07
  -.51310317E-07  -.43957688E-07  -.36450431E-07  -.28844344E-07  -.21194780E-07
  -.13556254E-07  -.59820564E-08   .14761063E-08   .87684629E-08   .15847499E-07
   .22668258E-07   .29188613E-07   .35369518E-07   .41175223E-07   .46573463E-07
   .51535618E-07   .56036840E-07   .60056145E-07   .63576484E-07   .66584772E-07
   .69071889E-07   .71032659E-07   .72465786E-07   .73373776E-07   .73762822E-07
   .73642668E-07   .73026451E-07   .71930518E-07   .70374224E-07   .68379717E-07
   .65971700E-07   .63177183E-07   .60025227E-07   .56546677E-07   .52773883E-07
   .48740429E-07   .44480847E-07   .40030343E-07   .35424518E-07   .30699094E-07
   .25889652E-07   .21031375E-07   .16158799E-07   .11305583E-07   .65042830E-08
   .17861505E-08  -.28190595E-08  -.72832606E-08  -.11580190E-07  -.15685545E-07
  -.19577099E-07  -.23234801E-07  -.26640852E-07  -.29779764E-07  -.32638398E-07
  -.35205985E-07  -.37474124E-07  -.39436770E-07  -.41090193E-07  -.42432932E-07
  -.43465724E-07  -.44191427E-07  -.44614921E-07  -.44743004E-07  -.44584271E-07
  -.44148993E-07  -.43448973E-07  -.42497411E-07  -.41308752E-07  -.39898536E-07
  -.38283245E-07  -.36480143E-07  -.34507126E-07  -.32382565E-07  -.30125155E-07
  -.27753768E-07  -.25287308E-07  -.22744577E-07  -.20144140E-07  -.17504207E-07
  -.14842515E-07  -.12176224E-07  -.95218170E-08  -.68950172E-08  -.43107085E-08
  -.17828698E-08   .67548171E-09   .30523361E-08   .53367266E-08   .75187554E-08
   .95896091E-08   .11541566E-07   .13367991E-07   .15063329E-07   .16623082E-07
   .18043783E-07   .19322963E-07   .20459115E-07   .21451641E-07   .22300813E-07
   .23007713E-07   .23574175E-07   .24002733E-07   .24296554E-07   .24459380E-07
   .24495461E-07   .24409502E-07   .24206590E-07   .23892145E-07   .23471858E-07
   .22951633E-07   .22337542E-07   .21635766E-07   .20852560E-07   .19994202E-07
   .19066961E-07   .18077060E-07   .17030647E-07   .15933771E-07   .14792357E-07
   .13612192E-07   .12398908E-07   .11157975E-07   .98946952E-08   .86141953E-08
   .73214307E-08   .60211860E-08   .47180798E-08   .34165713E-08   .21209687E-08
   .83543781E-09  -.43598720E-09  -.16893937E-08  -.29209799E-08  -.41270446E-08
  -.53039777E-08  -.64482516E-08  -.75564137E-08  -.86250803E-08  -.96509327E-08
  -.10630715E-07  -.11561233E-07  -.12439359E-07  -.13262030E-07  -.14026264E-07
  -.14729158E-07  -.15367907E-07  -.15939815E-07  -.16442307E-07  -.16872954E-07
  -.17229484E-07  -.17509805E-07  -.17712031E-07  -.17834498E-07  -.17875790E-07
  -.17834765E-07  -.17710574E-07  -.17502687E-07  -.17210914E-07  -.16835429E-07
  -.16376786E-07  -.15835939E-07  -.15214259E-07  -.14513545E-07  -.13736037E-07
  -.12884424E-07  -.11961847E-07  -.10971900E-07  -.99186285E-08  -.88065248E-08
  -.76405142E-08  -.64259427E-08  -.51685588E-08  -.38744910E-08  -.25502216E-08
  -.12025568E-08   .16140726E-09   .15343218E-08   .29086260E-08   .42765908E-08
   .56303649E-08   .69620244E-08   .82636232E-08   .95272464E-08   .10745064E-07
   .11909386E-07   .13012718E-07   .14047815E-07   .15007739E-07   .15885909E-07
   .16676160E-07   .17372786E-07   .17970592E-07   .18464940E-07   .18851790E-07
   .19127737E-07   .19290048E-07   .19336692E-07   .19266363E-07   .19078501E-07
   .18773310E-07   .18351763E-07   .17815610E-07   .17167373E-07   .16410342E-07
   .15548559E-07   .14586799E-07   .13530548E-07   .12385969E-07   .11159868E-07
   .98596519E-08   .84932852E-08   .70692366E-08   .55964254E-08   .40841624E-08
   .25420881E-08   .98010759E-09  -.59167741E-09  -.21630380E-08  -.37236897E-08
  -.52633642E-08  -.67718825E-08  -.82392266E-08  -.96556114E-08  -.11011555E-07
  -.12297948E-07  -.13506118E-07  -.14627896E-07  -.15655673E-07  -.16582459E-07
  -.17401931E-07  -.18108486E-07  -.18697277E-07  -.19164252E-07  -.19506188E-07
  -.19720711E-07  -.19806318E-07  -.19762387E-07  -.19589185E-07  -.19287868E-07
  -.18860471E-07  -.18309900E-07  -.17639907E-07  -.16855065E-07  -.15960739E-07
  -.14963046E-07  -.13868811E-07  -.12685520E-07  -.11421268E-07  -.10084700E-07
  -.86849467E-08  -.72315646E-08  -.57344642E-08  -.42038405E-08  -.26501008E-08
  -.10837905E-08   .48448204E-09   .20441206E-08   .35846164E-08   .50956218E-08
   .65670232E-08   .79890116E-08   .93521515E-08   .10647446E-07   .11866399E-07
   .13001074E-07   .14044148E-07   .14988961E-07   .15829560E-07   .16560736E-07
   .17178062E-07   .17677917E-07   .18057509E-07   .18314892E-07   .18448971E-07
   .18459512E-07   .18347132E-07   .18113294E-07   .17760291E-07   .17291226E-07
   .16709983E-07   .16021195E-07   .15230210E-07   .14343043E-07   .13366334E-07
   .12307295E-07   .11173655E-07   .99736045E-08   .87157315E-08   .74089595E-08
   .60624825E-08   .46856976E-08   .32881383E-08   .18794063E-08   .46910370E-09
  -.93323375E-09  -.23182037E-08  -.36766016E-08  -.49994838E-08  -.62782273E-08
  -.75045873E-08  -.86707511E-08  -.97693884E-08  -.10793699E-07  -.11737453E-07
  -.12595033E-07  -.13361463E-07  -.14032440E-07  -.14604354E-07  -.15074308E-07
  -.15440129E-07  -.15700380E-07  -.15854357E-07  -.15902089E-07  -.15844329E-07
  -.15682542E-07  -.15418884E-07  -.15056181E-07  -.14597904E-07  -.14048132E-07
  -.13411522E-07  -.12693269E-07  -.11899062E-07  -.11035039E-07  -.10107739E-07
  -.91240519E-08  -.80911681E-08  -.70165238E-08  -.59077471E-08  -.47726033E-08
  -.36189393E-08  -.24546283E-08  -.12875154E-08  -.12536420E-09   .10241948E-08
   .21537149E-08   .32559810E-08   .43240565E-08   .53513264E-08   .63315385E-08
   .72588407E-08   .81278148E-08   .89335067E-08   .96714534E-08   .10337705E-07
   .10928847E-07   .11442010E-07   .11874887E-07   .12225737E-07   .12493388E-07
   .12677236E-07   .12777240E-07   .12793915E-07   .12728316E-07   .12582026E-07
   .12357137E-07   .12056223E-07   .11682320E-07   .11238896E-07   .10729818E-07
   .10159324E-07   .95319832E-08   .88526655E-08   .81265011E-08   .73588426E-08
   .65552249E-08   .57213260E-08   .48629257E-08   .39858667E-08   .30960146E-08
 25.1333556480996805 T
 Non local Part
 0 2 1.19916030564286080
 6.64147139257665753 -0.902950942393947048E-01 -0.902950942393947048E-01 -0.494570754788003619E-02
 Reciprocal Space Part
   .55817778E+01   .55705292E+01   .55368742E+01   .54810842E+01   .54036090E+01
   .53050722E+01   .51862655E+01   .50481413E+01   .48918033E+01   .47184965E+01
   .45295951E+01   .43265891E+01   .41110702E+01   .38847161E+01   .36492746E+01
   .34065459E+01   .31583653E+01   .29065851E+01   .26530561E+01   .23996093E+01
   .21480380E+01   .19000796E+01   .16573990E+01   .14215722E+01   .11940710E+01
   .97624910E+00   .76932962E+00   .57439430E+00   .39237433E+00   .22404317E+00
   .70011403E-01  -.69276357E-01  -.19354238E+00  -.30267462E+00  -.39672330E+00
  -.47589550E+00  -.54054769E+00  -.59117641E+00  -.62840720E+00  -.65298201E+00
  -.66574526E+00  -.66762884E+00  -.65963619E+00  -.64282584E+00  -.61829466E+00
  -.58716098E+00  -.55054809E+00  -.50956809E+00  -.46530668E+00  -.41880877E+00
  -.37106549E+00  -.32300249E+00  -.27546984E+00  -.22923368E+00  -.18496959E+00
  -.14325789E+00  -.10458070E+00  -.69320980E-01  -.37763250E-01  -.10096082E-01
   .13583844E-01   .33266241E-01   .49020451E-01   .60987606E-01   .69371922E-01
   .74431341E-01   .76467752E-01   .75816996E-01   .72838896E-01   .67907498E-01
   .61401725E-01   .53696622E-01   .45155343E-01   .36122003E-01   .26915516E-01
   .17824469E-01   .91031031E-02   .96841293E-03  -.64016513E-02  -.12868900E-01
  -.18334607E-01  -.22738262E-01  -.26055498E-01  -.28295268E-01  -.29496423E-01
  -.29723817E-01  -.29064057E-01  -.27621053E-01  -.25511488E-01  -.22860336E-01
  -.19796541E-01  -.16448962E-01  -.12942675E-01  -.93957003E-02  -.59162147E-02
  -.26002886E-02   .46983200E-03   .32268923E-02   .56192551E-02   .76110128E-02
 Real Space Part
  -.69534111E+01  -.69008643E+01  -.67439149E+01  -.64846258E+01  -.61264015E+01
  -.56739369E+01  -.51331487E+01  -.45110871E+01  -.38158316E+01  -.30563714E+01
  -.22424722E+01  -.13845316E+01  -.49342616E+00   .41964975E+00   .13433478E+01
   .22663320E+01   .31774436E+01   .40658621E+01   .49212597E+01   .57339466E+01
   .64950054E+01   .71964102E+01   .78311315E+01   .83932221E+01   .88778851E+01
   .92815206E+01   .96017523E+01   .98374329E+01   .99886278E+01   .10056579E+02
   .10043651E+02   .99532522E+01   .97897493E+01   .95583598E+01   .92650354E+01
   .89163354E+01   .85192934E+01   .80812800E+01   .76098643E+01   .71126773E+01
   .65972797E+01   .60710370E+01   .55410038E+01   .50138200E+01   .44956195E+01
   .39919547E+01   .35077354E+01   .30471850E+01   .26138123E+01   .22103999E+01
   .18390082E+01   .15009937E+01   .11970412E+01   .92720705E+00   .69097321E+00
   .48730908E+00   .31473956E+00   .17141725E+00   .55196666E-01  -.36291350E-01
  -.10556696E+00  -.15523202E+00  -.18790557E+00  -.20616537E+00  -.21249645E+00
  -.20924726E+00  -.19859404E+00  -.18251343E+00  -.16276324E+00  -.14087115E+00
  -.11813077E+00  -.95604363E-01  -.74131485E-01  -.54342573E-01  -.36676532E-01
  -.21401321E-01  -.86365671E-02   .16227553E-02   .94824334E-02   .15125707E-01
   .18791209E-01   .20752711E-01   .21301098E-01   .20728862E-01   .19317303E-01
   .17326466E-01   .14987782E-01   .12499256E-01   .10022986E-01   .76847243E-02
   .55751736E-02   .37526593E-02   .22468383E-02   .10630977E-02   .18732362E-03
  -.40924829E-03  -.76534653E-03  -.92534563E-03  -.93546876E-03  -.84061581E-03
 Reciprocal Space Part
  -.18050704E+02  -.17834272E+02  -.17186760E+02  -.16113521E+02  -.14623482E+02
  -.12729146E+02  -.10446591E+02  -.77954652E+01  -.47989573E+01  -.14837576E+01
   .21200169E+01   .59789299E+01   .10056375E+02   .14312772E+02   .18705823E+02
   .23190815E+02   .27720993E+02   .32247989E+02   .36722309E+02   .41093883E+02
   .45312654E+02   .49329224E+02   .53095520E+02   .56565493E+02   .59695819E+02
   .62446596E+02   .64782024E+02   .66671043E+02   .68087925E+02   .69012796E+02
   .69432071E+02   .69338806E+02   .68732931E+02   .67621372E+02   .66018053E+02
   .63943765E+02   .61425910E+02   .58498115E+02   .55199729E+02   .51575201E+02
   .47673357E+02   .43546587E+02   .39249955E+02   .34840257E+02   .30375044E+02
   .25911622E+02   .21506061E+02   .17212234E+02   .13080900E+02   .91588530E+01
   .54881601E+01   .21055001E+01  -.95838227E+00  -.36790948E+01  -.60388808E+01
  -.80267626E+01  -.96385435E+01  -.10876670E+02  -.11749959E+02  -.12273201E+02
  -.12466648E+02  -.12355399E+02  -.11968702E+02  -.11339191E+02  -.10502073E+02
  -.94942880E+01  -.83536641E+01  -.71180804E+01  -.58246663E+01  -.45090480E+01
  -.32046618E+01  -.19421464E+01  -.74882792E+00   .35169526E+00   .13398601E+01
   .22003369E+01   .29221161E+01   .34984875E+01   .39269162E+01   .42088235E+01
   .43492818E+01   .43566365E+01   .42420665E+01   .40190991E+01   .37030930E+01
   .33107050E+01   .28593554E+01   .23667065E+01   .18501663E+01   .13264317E+01
   .81107916E+00   .31821257E+00  -.13982499E+00  -.55267182E+00  -.91209780E+00
  -.12120841E+01  -.14488344E+01  -.16207210E+01  -.17281718E+01  -.17735043E+01
 Real Space Part
   .10651139E+04   .10644690E+04   .10625081E+04   .10591538E+04   .10542809E+04
   .10477220E+04   .10392749E+04   .10287116E+04   .10157888E+04   .10002596E+04
   .98188486E+03   .96044581E+03   .93575544E+03   .90766958E+03   .87609671E+03
   .84100623E+03   .80243497E+03   .76049163E+03   .71535894E+03   .66729356E+03
   .61662359E+03   .56374381E+03   .50910879E+03   .45322409E+03   .39663573E+03
   .33991847E+03   .28366297E+03   .22846251E+03   .17489949E+03   .12353223E+03
   .74882375E+02   .29423356E+02  -.12429823E+02  -.50329150E+02  -.84000326E+02
  -.11324746E+03  -.13795569E+03  -.15809158E+03  -.17370155E+03  -.18490823E+03
  -.19190502E+03  -.19494902E+03  -.19435265E+03  -.19047419E+03  -.18370756E+03
  -.17447167E+03  -.16319972E+03  -.15032861E+03  -.13628891E+03  -.12149559E+03
  -.10633967E+03  -.91181076E+02  -.76342788E+02  -.62106350E+02  -.48708813E+02
  -.36341096E+02  -.25147706E+02  -.15227736E+02  -.66370019E+01   .60880866E+00
   .65301792E+01   .11179163E+02   .14634341E+02   .16995528E+02   .18378415E+02
   .18909313E+02   .18720165E+02   .17943940E+02   .16710533E+02   .15143243E+02
   .13355885E+02   .11450557E+02   .95160752E+01   .76270408E+01   .58435107E+01
   .42112018E+01   .27621624E+01   .15158297E+01   .48038513E+00  -.34567781E+00
  -.97186072E+00  -.14139210E+01  -.16921593E+01  -.18297962E+01  -.18514895E+01
  -.17820313E+01  -.16452525E+01  -.14631487E+01  -.12552329E+01  -.10381074E+01
  -.82524120E+00  -.62692995E+00  -.45041348E+00  -.30011899E+00  -.17799937E+00
  -.83934893E-01  -.16168161E-01   .28254623E-01   .53059773E-01   .62358715E-01
 Non local Part
 1 2 1.19916030564286080
 -1.25459306742451093 0.228100760454737587E-01 0.228100760454737587E-01 -0.700981276733592118
 Reciprocal Space Part
   .00000000E+00   .23510789E+00   .46836234E+00   .69793402E+00   .92204139E+00
   .11389735E+01   .13471118E+01   .15449501E+01   .17311126E+01   .19043703E+01
   .20636539E+01   .22080652E+01   .23368850E+01   .24495780E+01   .25457954E+01
   .26253740E+01   .26883327E+01   .27348663E+01   .27653367E+01   .27802619E+01
   .27803027E+01   .27662478E+01   .27389977E+01   .26995471E+01   .26489663E+01
   .25883833E+01   .25189648E+01   .24418976E+01   .23583711E+01   .22695607E+01
   .21766115E+01   .20806245E+01   .19826438E+01   .18836459E+01   .17845301E+01
   .16861121E+01   .15891184E+01   .14941834E+01   .14018480E+01   .13125600E+01
   .12266766E+01   .11444678E+01   .10661213E+01   .99174936E+00   .92139498E+00
   .85504034E+00   .79261477E+00   .73400336E+00   .67905551E+00   .62759336E+00
   .57941985E+00   .53432639E+00   .49209973E+00   .45252826E+00   .41540736E+00
   .38054389E+00   .34775980E+00   .31689471E+00   .28780770E+00   .26037813E+00
   .23450569E+00   .21010971E+00   .18712783E+00   .16551415E+00   .14523693E+00
   .12627598E+00   .10861987E+00   .92263068E-01   .77203056E-01   .63437602E-01
   .50962234E-01   .39767981E-01   .29839474E-01   .21153417E-01   .13677481E-01
   .73696341E-02   .21778907E-02  -.19595132E-02  -.51135603E-02  -.73635388E-02
  -.87958246E-02  -.95024151E-02  -.95792707E-02  -.91245303E-02  -.82366629E-02
  -.70126172E-02  -.55460307E-02  -.39255516E-02  -.22333231E-02  -.54367111E-03
   .10779713E-02   .25758793E-02   .39045755E-02   .50290887E-02   .59249343E-02
   .65778287E-02   .69831577E-02   .71452240E-02   .70763059E-02   .67955637E-02
 Real Space Part
   .00000000E+00   .23584444E+01   .46905809E+01   .69705668E+01   .91734793E+01
   .11275748E+02   .13255558E+02   .15093213E+02   .16771445E+02   .18275680E+02
   .19594235E+02   .20718452E+02   .21642774E+02   .22364748E+02   .22884966E+02
   .23206950E+02   .23336969E+02   .23283822E+02   .23058561E+02   .22674189E+02
   .22145325E+02   .21487856E+02   .20718572E+02   .19854810E+02   .18914098E+02
   .17913820E+02   .16870901E+02   .15801528E+02   .14720895E+02   .13643000E+02
   .12580468E+02   .11544435E+02   .10544456E+02   .95884707E+01   .86828003E+01
   .78321846E+01   .70398518E+01   .63076171E+01   .56360052E+01   .50243916E+01
   .44711564E+01   .39738471E+01   .35293436E+01   .31340209E+01   .27839065E+01
   .24748267E+01   .22025405E+01   .19628579E+01   .17517407E+01   .15653850E+01
   .14002853E+01   .12532803E+01   .11215805E+01   .10027809E+01   .89485770E+00
   .79615357E+00   .70535222E+00   .62144491E+00   .54369142E+00   .47157738E+00
   .40477041E+00   .34307664E+00   .28639943E+00   .23470160E+00   .18797213E+00
   .14619822E+00   .10934294E+00   .77328764E-01   .50026788E-01   .27251291E-01
   .87591178E-02  -.57467833E-02  -.16610463E-01  -.24213511E-01  -.28963878E-01
  -.31283785E-01  -.31597457E-01  -.30319360E-01  -.27843477E-01  -.24534068E-01
  -.20718243E-01  -.16680503E-01  -.12659360E-01  -.88459612E-02  -.53846167E-02
  -.23749991E-02   .12423795E-03   .20907329E-02   .35329050E-02   .44839862E-02
   .49959065E-02   .51333191E-02   .49680098E-02   .45738887E-02   .40227146E-02
   .33806453E-02   .27056586E-02   .20458418E-02   .14385027E-02   .91002329E-03
 Reciprocal Space Part
   .00000000E+00   .29272926E+00   .57843399E+00   .85023484E+00   .11015397E+01
   .13261794E+01   .15185341E+01   .16736479E+01   .17873284E+01   .18562306E+01
   .18779215E+01   .18509255E+01   .17747492E+01   .16498856E+01   .14777963E+01
   .12608754E+01   .10023919E+01   .70641614E+00   .37772921E+00   .21718724E-01
  -.35573657E+00  -.74839098E+00  -.11497619E+01  -.15532628E+01  -.19523357E+01
  -.23405817E+01  -.27118843E+01  -.30605258E+01  -.33812917E+01  -.36695632E+01
  -.39213948E+01  -.41335755E+01  -.43036740E+01  -.44300652E+01  -.45119403E+01
  -.45492988E+01  -.45429232E+01  -.44943396E+01  -.44057620E+01  -.42800250E+01
  -.41205058E+01  -.39310365E+01  -.37158106E+01  -.34792853E+01  -.32260817E+01
  -.29608856E+01  -.26883505E+01  -.24130063E+01  -.21391741E+01  -.18708888E+01
  -.16118327E+01  -.13652790E+01  -.11340470E+01  -.92047055E+00  -.72637731E+00
  -.55308185E+00  -.40138970E+00  -.27161305E+00  -.16359660E+00  -.76752772E-01
  -.10104639E-01   .37664549E-01   .68156995E-01   .83202612E-01   .84799534E-01
   .75054428E-01   .56124091E-01   .30159711E-01  -.74497392E-03  -.34600541E-01
  -.69562879E-01  -.10396763E+00  -.13635759E+00  -.16550280E+00  -.19041323E+00
  -.21034427E+00  -.22479520E+00  -.23350134E+00  -.23642027E+00  -.23371303E+00
  -.22572115E+00  -.21294033E+00  -.19599172E+00  -.17559194E+00  -.15252250E+00
  -.12759976E+00  -.10164610E+00  -.75463148E-01  -.49807632E-01  -.25370407E-01
  -.27590838E-02   .17515510E-01   .35048873E-01   .49548366E-01   .60834843E-01
   .68840593E-01   .73603904E-01   .75260639E-01   .74033291E-01   .70218015E-01
 Real Space Part
   .00000000E+00  -.44565316E+01  -.88736793E+01  -.13212431E+02  -.17434518E+02
  -.21502784E+02  -.25381550E+02  -.29036977E+02  -.32437420E+02  -.35553771E+02
  -.38359789E+02  -.40832411E+02  -.42952041E+02  -.44702811E+02  -.46072803E+02
  -.47054238E+02  -.47643617E+02  -.47841801E+02  -.47654050E+02  -.47089992E+02
  -.46163524E+02  -.44892661E+02  -.43299301E+02  -.41408940E+02  -.39250314E+02
  -.36854984E+02  -.34256876E+02  -.31491766E+02  -.28596733E+02  -.25609588E+02
  -.22568287E+02  -.19510342E+02  -.16472240E+02  -.13488886E+02  -.10593077E+02
  -.78150297E+01  -.51819498E+01  -.27176791E+01  -.44240695E+00   .16275384E+01
   .34798180E+01   .51061276E+01   .65021612E+01   .76674960E+01   .86054018E+01
   .93225838E+01   .98288640E+01   .10136814E+02   .10261344E+02   .10219273E+02
   .10028865E+02   .97093782E+01   .92806093E+01   .87624554E+01   .81745059E+01
   .75356666E+01   .68638280E+01   .61755803E+01   .54859812E+01   .48083782E+01
   .41542863E+01   .35333200E+01   .29531777E+01   .24196742E+01   .19368174E+01
   .15069225E+01   .11307583E+01   .80771818E+00   .53600812E+00   .31284662E+00
   .13466788E+00  -.26769640E-02  -.10372651E+00  -.17322843E+00  -.21597563E+00
  -.23666226E+00  -.23976167E+00  -.22942775E+00  -.20941978E+00  -.18305043E+00
  -.15315567E+00  -.12208482E+00  -.91708380E-01  -.63441081E-01  -.38277137E-01
  -.16834879E-01   .59226634E-03   .13981221E-01   .23523731E-01   .29572128E-01
   .32588335E-01   .33097637E-01   .31648362E-01   .28778214E-01   .24987606E-01
   .20720005E-01   .16348990E-01   .12171480E-01   .84063741E-02   .51977359E-02
 PAW radial sets
 323 0.699084555240741423
(5E20.12)                                
 augmentation charges (non sperical)
  -.610085085999E-01  -.186338196202E-02  -.286321339088E-01   .165933387291E-01  -.186338196202E-02
  -.601132130549E-04   .464666195505E-04   .217264853682E-03  -.286321339088E-01   .464666195505E-04
   .535065865316E-01   .383319399150E-03   .165933387291E-01   .217264853682E-03   .383319399150E-03
   .119224496368E-02
 uccopancies in atom
   .200000000005E+01   .000000000000E+00   .000000000000E+00   .000000000000E+00   .000000000000E+00
   .000000000000E+00   .000000000000E+00   .000000000000E+00   .000000000000E+00   .000000000000E+00
   .666666666439E+00   .000000000000E+00   .000000000000E+00   .000000000000E+00   .000000000000E+00
   .000000000000E+00
 grid
   .266163843696E-04   .274818827895E-04   .283755250589E-04   .292982263456E-04   .302509315762E-04
   .312346164042E-04   .322502882088E-04   .332989871268E-04   .343817871173E-04   .354997970623E-04
   .366541619016E-04   .378460638057E-04   .390767233863E-04   .403474009463E-04   .416593977706E-04
   .430140574586E-04   .444127673002E-04   .458569596965E-04   .473481136267E-04   .488877561628E-04
   .504774640331E-04   .521188652376E-04   .538136407145E-04   .555635260619E-04   .573703133154E-04
   .592358527830E-04   .611620549401E-04   .631508923861E-04   .652044018643E-04   .673246863478E-04
   .695139171933E-04   .717743363644E-04   .741082587279E-04   .765180744243E-04   .790062513153E-04
   .815753375116E-04   .842279639819E-04   .869668472475E-04   .897947921642E-04   .927146947948E-04
   .957295453747E-04   .988424313742E-04   .102056540661E-03   .105375164763E-03   .108801702242E-03
   .112339662172E-03   .115992667733E-03   .119764459921E-03   .123658901382E-03   .127679980364E-03
   .131831814803E-03   .136118656540E-03   .140544895676E-03   .145115065067E-03   .149833844965E-03
   .154706067814E-03   .159736723194E-03   .164930962938E-03   .170294106401E-03   .175831645909E-03
   .181549252388E-03   .187452781165E-03   .193548277971E-03   .199841985127E-03   .206340347939E-03
   .213050021297E-03   .219977876495E-03   .227131008261E-03   .234516742027E-03   .242142641430E-03
   .250016516057E-03   .258146429445E-03   .266540707334E-03   .275207946198E-03   .284157022049E-03
   .293397099521E-03   .302937641261E-03   .312788417618E-03   .322959516647E-03   .333461354443E-03
   .344304685805E-03   .355500615252E-03   .367060608395E-03   .378996503676E-03   .391320524495E-03
   .404045291726E-03   .417183836643E-03   .430749614264E-03   .444756517131E-03   .459218889537E-03
   .474151542213E-03   .489569767503E-03   .505489355015E-03   .521926607798E-03   .538898359036E-03
   .556421989285E-03   .574515444273E-03   .593197253280E-03   .612486548111E-03   .632403082688E-03
   .652967253285E-03   .674200119407E-03   .696123425367E-03   .718759622544E-03   .742131892384E-03
   .766264170131E-03   .791181169349E-03   .816908407220E-03   .843472230686E-03   .870899843422E-03
   .899219333701E-03   .928459703155E-03   .958650896478E-03   .989823832089E-03   .102201043380E-02
   .105524366350E-02   .108955755493E-02   .112498724850E-02   .116156902732E-02   .119934035433E-02
   .123833991067E-02   .127860763528E-02   .132018476584E-02   .136311388097E-02   .140743894383E-02
   .145320534715E-02   .150045995974E-02   .154925117444E-02   .159962895772E-02   .165164490084E-02
   .170535227266E-02   .176080607424E-02   .181806309510E-02   .187718197144E-02   .193822324615E-02
   .200124943084E-02   .206632506983E-02   .213351680625E-02   .220289345031E-02   .227452604977E-02
   .234848796266E-02   .242485493244E-02   .250370516557E-02   .258511941158E-02   .266918104576E-02
   .275597615457E-02   .284559362380E-02   .293812522956E-02   .303366573230E-02   .313231297384E-02
   .323416797759E-02   .333933505196E-02   .344792189722E-02   .356003971581E-02   .367580332615E-02
   .379533128031E-02   .391874598535E-02   .404617382872E-02   .417774530766E-02   .431359516287E-02
   .445386251646E-02   .459869101447E-02   .474822897393E-02   .490262953478E-02   .506205081668E-02
   .522665608097E-02   .539661389781E-02   .557209831886E-02   .575328905551E-02   .594037166289E-02
   .613353772995E-02   .633298507563E-02   .653891795142E-02   .675154725060E-02   .697109072414E-02
   .719777320374E-02   .743182683208E-02   .767349130052E-02   .792301409459E-02   .818065074744E-02
   .844666510152E-02   .872132957877E-02   .900492545962E-02   .929774317102E-02   .960008258391E-02
   .991225332026E-02   .102345750702E-01   .105673779193E-01   .109110026869E-01   .112658012746E-01
   .116321370274E-01   .120103851049E-01   .124009328662E-01   .128041802665E-01   .132205402662E-01
   .136504392545E-01   .140943174853E-01   .145526295289E-01   .150258447369E-01   .155144477228E-01
   .160189388589E-01   .165398347883E-01   .170776689537E-01   .176329921445E-01   .182063730601E-01
   .187983988927E-01   .194096759284E-01   .200408301684E-01   .206925079697E-01   .213653767074E-01
   .220601254578E-01   .227774657044E-01   .235181320663E-01   .242828830506E-01   .250725018290E-01
   .258877970402E-01   .267296036178E-01   .275987836452E-01   .284962272388E-01   .294228534593E-01
   .303796112527E-01   .313674804228E-01   .323874726339E-01   .334406324470E-01   .345280383900E-01
   .356508040616E-01   .368100792718E-01   .380070512198E-01   .392429457094E-01   .405190284047E-01
   .418366061258E-01   .431970281875E-01   .446016877807E-01   .460520233998E-01   .475495203150E-01
   .490957120941E-01   .506921821726E-01   .523405654753E-01   .540425500908E-01   .557998790001E-01
   .576143518615E-01   .594878268538E-01   .614222225791E-01   .634195200277E-01   .654817646066E-01
   .676110682346E-01   .698096115046E-01   .720796459171E-01   .744234961856E-01   .768435626176E-01
   .793423235727E-01   .819223380004E-01   .845862480609E-01   .873367818310E-01   .901767560975E-01
   .931090792423E-01   .961367542205E-01   .992628816359E-01   .102490662916E+00   .105823403591E+00
   .109264516679E+00   .112817526180E+00   .116486070686E+00   .120273907107E+00   .124184914520E+00
   .128223098136E+00   .132392593410E+00   .136697670269E+00   .141142737487E+00   .145732347202E+00
   .150471199575E+00   .155364147606E+00   .160416202100E+00   .165632536802E+00   .171018493697E+00
   .176579588473E+00   .182321516178E+00   .188250157047E+00   .194371582528E+00   .200692061494E+00
   .207218066668E+00   .213956281250E+00   .220913605761E+00   .228097165108E+00   .235514315885E+00
   .243172653901E+00   .251080021964E+00   .259244517910E+00   .267674502897E+00   .276378609965E+00
   .285365752880E+00   .294645135264E+00   .304226260013E+00   .314118939037E+00   .324333303303E+00
   .334879813214E+00   .345769269317E+00   .357012823366E+00   .368621989744E+00   .380608657251E+00
   .392985101282E+00   .405763996398E+00   .418958429304E+00   .432581912251E+00   .446648396878E+00
   .461172288493E+00   .476168460830E+00   .491652271281E+00   .507639576621E+00   .524146749247E+00
   .541190693946E+00   .558788865208E+00   .576959285097E+00   .595720561711E+00   .615091908236E+00
   .635093162626E+00   .655744807911E+00   .677067993181E+00   .699084555241E+00   .721817040975E+00
   .745288730434E+00   .769523660679E+00   .794546650398E+00
 aepotential
   .383317401350E+05   .370760521630E+05   .358215427817E+05   .345723614372E+05   .333329235581E+05
   .321072411919E+05   .308989386383E+05   .297112470463E+05   .285470076453E+05   .274086798574E+05
   .262983535166E+05   .252177644407E+05   .241683130613E+05   .231510852278E+05   .221668746907E+05
   .212162067494E+05   .202993625032E+05   .194164032472E+05   .185671946044E+05   .177514300587E+05
   .169686535705E+05   .162182810557E+05   .154996205585E+05   .148118909766E+05   .141542392477E+05
   .135257560060E+05   .129254896671E+05   .123524589625E+05   .118056640518E+05   .112840961958E+05
   .107867460148E+05   .103126107938E+05   .986070033795E+04   .943004200499E+04   .901968485448E+04
   .862870276244E+04   .825619708807E+04   .790129849413E+04   .756316831746E+04   .724099943751E+04
   .693401678227E+04   .664147745305E+04   .636267057252E+04   .609691689646E+04   .584356827969E+04
   .560200695715E+04   .537164466484E+04   .515192177660E+04   .494230629451E+04   .474229278168E+04
   .455140136800E+04   .436917663011E+04   .419518652364E+04   .402902138329E+04   .387029279002E+04
   .371863253072E+04   .357369179155E+04   .343513992726E+04   .330266368403E+04   .317596636331E+04
   .305476672301E+04   .293879844635E+04   .282780911686E+04   .272155961227E+04   .261982329965E+04
   .252238545902E+04   .242904250854E+04   .233960151475E+04   .225387951953E+04   .217170307075E+04
   .209290762256E+04   .201733712284E+04   .194484348396E+04   .187528618728E+04   .180853185036E+04
   .174445383460E+04   .168293188934E+04   .162385178535E+04   .156710500646E+04   .151258842233E+04
   .146020400231E+04   .140985854502E+04   .136146340998E+04   .131493427670E+04   .127019091146E+04
   .122715695065E+04   .118575969310E+04   .114592990721E+04   .110760164901E+04   .107071208076E+04
   .103520132763E+04   .100101229465E+04   .968090551732E+03   .936384173502E+03   .905843624873E+03
   .876421626702E+03   .848073052039E+03   .820754808212E+03   .794425739614E+03   .769046524597E+03
   .744579591633E+03   .720989023054E+03   .698240480930E+03   .676301124330E+03   .655139537739E+03
   .634725661561E+03   .615030725674E+03   .596027188030E+03   .577688674777E+03   .559989924704E+03
   .542906737097E+03   .526415920536E+03   .510495246165E+03   .495123402472E+03   .480279952596E+03
   .465945293766E+03   .452100619670E+03   .438727882504E+03   .425809760163E+03   .413329622066E+03
   .401271498932E+03   .389620052484E+03   .378360547788E+03   .367478826286E+03   .356961280721E+03
   .346794830362E+03   .336966898773E+03   .327465391112E+03   .318278674497E+03   .309395556619E+03
   .300805268514E+03   .292497445394E+03   .284462110100E+03   .276689656664E+03   .269170834721E+03
   .261896734731E+03   .254858773865E+03   .248048682373E+03   .241458490845E+03   .235080517842E+03
   .228907358231E+03   .222931871878E+03   .217147172978E+03   .211546619837E+03   .206123805074E+03
   .200872546185E+03   .195786876778E+03   .190861037791E+03   .186089469450E+03   .181466803375E+03
   .176987855056E+03   .172647616682E+03   .168441250263E+03   .164364080974E+03   .160411590899E+03
   .156579412924E+03   .152863324933E+03   .149259244204E+03   .145763222136E+03   .142371439012E+03
   .139080199145E+03   .135885926133E+03   .132785158305E+03   .129774544362E+03   .126850839236E+03
   .124010899974E+03   .121251681982E+03   .118570235228E+03   .115963700738E+03   .113429307103E+03
   .110964367262E+03   .108566275250E+03   .106232503230E+03   .103960598509E+03   .101748180767E+03
   .995929393180E+02   .974926305371E+02   .954450753531E+02   .934481568477E+02   .914998179451E+02
   .895980592072E+02   .877409366956E+02   .859265599431E+02   .841530899713E+02   .824187374331E+02
   .807217607940E+02   .790604646145E+02   .774331978845E+02   .758383524512E+02   .742743614975E+02
   .727396980970E+02   .712328738357E+02   .697524374914E+02   .682969737885E+02   .668651022009E+02
   .654554758266E+02   .640667803164E+02   .626977328633E+02   .613470812491E+02   .600136029490E+02
   .586961042929E+02   .573934196797E+02   .561044108453E+02   .548279661925E+02   .535630001670E+02
   .523084526805E+02   .510632886094E+02   .498264973080E+02   .485970922131E+02   .473741104651E+02
   .461566125988E+02   .449436822753E+02   .437344260616E+02   .425279732599E+02   .413234757805E+02
   .401201080623E+02   .389170670348E+02   .377135721249E+02   .365088653029E+02   .353022111734E+02
   .340928970973E+02   .328802333592E+02   .316635533635E+02   .304422138675E+02   .292155952447E+02
   .279831017783E+02   .267441619801E+02   .254982289382E+02   .242447806833E+02   .229833205798E+02
   .217133777326E+02   .204345074131E+02   .191462914991E+02   .178483389287E+02   .165402861685E+02
   .152217976926E+02   .138925664776E+02   .125523145105E+02   .112007933164E+02   .983778450878E+01
   .846310036873E+01   .707658446486E+01   .567811232366E+01   .426759216912E+01   .284496575141E+01
   .141020929284E+01  -.366654156141E-01  -.149560972345E+01  -.296653658322E+01  -.444931870035E+01
  -.594378629039E+01  -.744972434548E+01  -.896686929182E+01  -.104949048950E+02  -.120334572435E+02
  -.135820886085E+02  -.151402899440E+02  -.167074717553E+02  -.182829530266E+02  -.198659478663E+02
  -.214555495031E+02  -.230507112591E+02  -.246502241472E+02  -.262526908046E+02  -.278564956091E+02
  -.294597710474E+02  -.310603607592E+02  -.326557801918E+02  -.342431765070E+02  -.358192903045E+02
  -.373804228649E+02  -.389224139265E+02  -.404406363995E+02  -.419300157173E+02  -.433850824888E+02
  -.448000674747E+02  -.461690474478E+02  -.474861491702E+02  -.487458171466E+02  -.499431492767E+02
  -.510743075199E+02  -.521370165321E+02  -.531311804649E+02  -.540596711832E+02  -.549293630873E+02
  -.557524764820E+02  -.565481668190E+02  -.573439201000E+02  -.581754998773E+02  -.590828862883E+02
  -.600984575072E+02  -.612246894042E+02  -.624054073495E+02  -.635079321979E+02  -.643429503546E+02
  -.647341328244E+02  -.646074102868E+02  -.640374460998E+02  -.632091682825E+02  -.623198210793E+02
  -.614972752813E+02  -.607833039180E+02  -.601643928333E+02  -.596083077577E+02  -.590852924460E+02
  -.585747945374E+02  -.580649267477E+02  -.575497821306E+02  -.570268364802E+02  -.564950806221E+02
  -.559539033021E+02  -.554025550570E+02  -.548399930324E+02  -.542649352801E+02  -.536760011707E+02
  -.530718627739E+02  -.524513698695E+02  -.518136362967E+02  -.511580889113E+02  -.504844862598E+02
  -.497929152047E+02  -.490837727492E+02  -.483577385574E+02
 core charge-density
   .210201471976E-05   .224075664592E-05   .238865458685E-05   .254631262205E-05   .271437467066E-05
   .289352711738E-05   .308450161127E-05   .328807804893E-05   .350508775400E-05   .373641686609E-05
   .398300995265E-05   .424587385875E-05   .452608181007E-05   .482477778602E-05   .514318118056E-05
   .548259176971E-05   .584439500577E-05   .623006765990E-05   .664118383576E-05   .707942137855E-05
   .754656870563E-05   .804453208605E-05   .857534339869E-05   .914116840034E-05   .974431553701E-05
   .103872453343E-04   .110725804047E-04   .118031161120E-04   .125818319365E-04   .134119035859E-04
   .142967159018E-04   .152398766133E-04   .162452309925E-04   .173168774727E-04   .184591842904E-04
   .196768072185E-04   .209747084634E-04   .223581767995E-04   .238328490247E-04   .254047328205E-04
   .270802311103E-04   .288661680134E-04   .307698164969E-04   .327989278389E-04   .349617630191E-04
   .372671261631E-04   .397244001732E-04   .423435846899E-04   .451353365329E-04   .481110127855E-04
   .512827166925E-04   .546633465537E-04   .582666478101E-04   .621072685268E-04   .662008184941E-04
   .705639321818E-04   .752143357953E-04   .801709186982E-04   .854538094856E-04   .910844570067E-04
   .970857166572E-04   .103481942281E-03   .110299084044E-03   .117564792660E-03   .125308530387E-03
   .133561689217E-03   .142357716729E-03   .151732250102E-03   .161723258793E-03   .172371196456E-03
   .183719162681E-03   .195813075181E-03   .208701853104E-03   .222437612158E-03   .237075872332E-03
   .252675778986E-03   .269300338178E-03   .287016667117E-03   .305896260713E-03   .326015275242E-03
   .347454830188E-03   .370301329441E-03   .394646803036E-03   .420589270757E-03   .448233128946E-03
   .477689562001E-03   .509076980088E-03   .542521484709E-03   .578157363861E-03   .616127618631E-03
   .656584523168E-03   .699690220109E-03   .745617353632E-03   .794549742481E-03   .846683095389E-03
   .902225771526E-03   .961399588699E-03   .102444068224E-02   .109160041766E-02   .116314636027E-02
   .123936330534E-02   .132055437229E-02   .140704216687E-02   .149917001532E-02   .159730327486E-02
   .170183072500E-02   .181316604445E-02   .193174937867E-02   .205804900338E-02   .219256308964E-02
   .233582157635E-02   .248838815641E-02   .265086238310E-02   .282388190341E-02   .300812482576E-02
   .320431222944E-02   .341321082396E-02   .363563576644E-02   .387245364601E-02   .412458564415E-02
   .439301088078E-02   .467876995601E-02   .498296869806E-02   .530678212831E-02   .565145865486E-02
   .601832450658E-02   .640878841994E-02   .682434659150E-02   .726658790948E-02   .773719947818E-02
   .823797244965E-02   .877080817735E-02   .933772470722E-02   .994086362171E-02   .105824972531E-01
   .112650362829E-01   .119910377433E-01   .127632134399E-01   .135844388111E-01   .144577622441E-01
   .153864148634E-01   .163738208122E-01   .174236080432E-01   .185396196377E-01   .197259256706E-01
   .209868356391E-01   .223269114720E-01   .237509811369E-01   .252641528593E-01   .268718299708E-01
   .285797263970E-01   .303938828004E-01   .323206833847E-01   .343668733724E-01   .365395771581E-01
   .388463171429E-01   .412950332480E-01   .438941031033E-01   .466523629042E-01   .495791289213E-01
   .526842196464E-01   .559779785495E-01   .594712974148E-01   .631756402191E-01   .671030675022E-01
   .712662611768E-01   .756785497076E-01   .803539335844E-01   .853071109979E-01   .905535036149E-01
   .961092823336E-01   .101991392886E+00   .108217581135E+00   .114806417891E+00   .121777323066E+00
   .129150588943E+00   .136947402324E+00   .145189865301E+00   .153901014352E+00   .163104837444E+00
   .172826288805E+00   .183091300959E+00   .193926793635E+00   .205360679071E+00   .217421863247E+00
   .230140242492E+00   .243546694913E+00   .257673066026E+00   .272552147933E+00   .288217651336E+00
   .304704169664E+00   .322047134505E+00   .340282761512E+00   .359447985923E+00   .379580386761E+00
   .400718098759E+00   .422899711034E+00   .446164151471E+00   .470550555773E+00   .496098120117E+00
   .522845936323E+00   .550832808460E+00   .580097049822E+00   .610676259202E+00   .642607075471E+00
   .675924909479E+00   .710663652389E+00   .746855359642E+00   .784529909868E+00   .823714638198E+00
   .864433943582E+00   .906708869968E+00   .950556661362E+00   .995990291124E+00   .104301796611E+01
   .109164260662E+01   .114186130363E+01   .119366475488E+01   .124703668237E+01   .130195323380E+01
   .135838237157E+01   .141628325299E+01   .147560560672E+01   .153628911031E+01   .159826277524E+01
   .166144434602E+01   .172573972093E+01   .179104240281E+01   .185723298887E+01   .192417870953E+01
   .199173302679E+01   .205973530355E+01   .212801055564E+01   .219636929928E+01   .226460750671E+01
   .233250668330E+01   .239983407940E+01   .246634305053E+01   .253177357856E+01   .259585296684E+01
   .265829672076E+01   .271880962463E+01   .277708702399E+01   .283281632099E+01   .288567868813E+01
   .293535100324E+01   .298150800565E+01   .302382467008E+01   .306197879136E+01   .309565376868E+01
   .312454157393E+01   .314834588399E+01   .316678535168E+01   .317959698537E+01   .318653960172E+01
   .318739731108E+01   .318198299002E+01   .317014169081E+01   .315175393296E+01   .312673881878E+01
   .309505691121E+01   .305671281039E+01   .301175736428E+01   .296028944858E+01   .290245725290E+01
   .283845901318E+01   .276854313492E+01   .269300765859E+01   .261219902697E+01   .252651012442E+01
   .243637757071E+01   .234227826612E+01   .224472520064E+01   .214426255778E+01   .204146016233E+01
   .193690734109E+01   .183120628548E+01   .172496502364E+01   .161879013072E+01   .151327931436E+01
   .140901403108E+01   .130655229498E+01   .120642184091E+01   .110911380351E+01   .101507706536E+01
   .924713415287E+00   .838373638738E+00   .756354633201E+00   .678897594052E+00   .606187236400E+00
   .538351896408E+00   .475464205924E+00   .417541937254E+00   .364548734839E+00   .316394938044E+00
   .272939426364E+00   .233993809082E+00   .199329712305E+00   .168688507967E+00   .141791603202E+00
   .118349382811E+00   .980680113325E-01   .806544733117E-01   .658206202508E-01   .532867336649E-01
   .427847431325E-01   .340610365648E-01   .268787587943E-01   .210195270993E-01   .162845404577E-01
   .124951006767E-01   .949259334725E-02   .713799599173E-02   .531099208522E-02   .390877477541E-02
   .284462447957E-02   .204634106180E-02   .145460473349E-02   .102133087525E-02   .708073374340E-03
   .484519560765E-03   .327108148624E-03   .217790419037E-03
 kinetic energy-density
   .187149272566E-01   .190029016528E-01   .193021383520E-01   .196131445331E-01   .199364668482E-01
   .202726831041E-01   .206224041703E-01   .209862753360E-01   .213649778729E-01   .217592307042E-01
   .221697921893E-01   .225974620544E-01   .230430834585E-01   .235075452233E-01   .239917842237E-01
   .244967879609E-01   .250235973262E-01   .255733095592E-01   .261470814287E-01   .267461326327E-01
   .273717494355E-01   .280252885669E-01   .287081813606E-01   .294219382048E-01   .301681532636E-01
   .309485095218E-01   .317647841490E-01   .326188542310E-01   .335127028323E-01   .344484255235E-01
   .354282371948E-01   .364544794691E-01   .375296284508E-01   .386563030240E-01   .398372736687E-01
   .410754718683E-01   .423740000125E-01   .437361420645E-01   .451653748014E-01   .466653797901E-01
   .482400561570E-01   .498935341207E-01   .516301894220E-01   .534546586408E-01   .553718554950E-01
   .573869882016E-01   .595055778913E-01   .617334782350E-01   .640768963281E-01   .665424148420E-01
   .691370156842E-01   .718681050854E-01   .747435402840E-01   .777716580423E-01   .809613048245E-01
   .843218689283E-01   .878633147711E-01   .915962193527E-01   .955318108150E-01   .996820098605E-01
   .104059473466E+00   .108677641585E+00   .113550786803E+00   .118694067089E+00   .124123581995E+00
   .129856432521E+00   .135910784469E+00   .142305936459E+00   .149062391504E+00   .156201933897E+00
   .163747710518E+00   .171724317478E+00   .180157892402E+00   .189076212387E+00   .198508798378E+00
   .208487026104E+00   .219044244082E+00   .230215899162E+00   .242039670048E+00   .254555609264E+00
   .267806294183E+00   .281836987641E+00   .296695808659E+00   .312433914112E+00   .329105691757E+00
   .346768965584E+00   .365485214034E+00   .385319802119E+00   .406342228041E+00   .428626385361E+00
   .452250841902E+00   .477299135691E+00   .503860089876E+00   .532028147324E+00   .561903725927E+00
   .593593596265E+00   .627211282887E+00   .662877490414E+00   .700720556173E+00   .740876931071E+00
   .783491690049E+00   .828719074092E+00   .876723065934E+00   .927678000833E+00   .981769215175E+00
   .103919373456E+01   .110016100428E+01   .116489366388E+01   .123362836932E+01   .130661666466E+01
   .138412590656E+01   .146644024463E+01   .155386166052E+01   .164671106948E+01   .174532948751E+01
   .185007926809E+01   .196134541224E+01   .207953695573E+01   .220508843837E+01   .233846145866E+01
   .248014631989E+01   .263066377108E+01   .279056684906E+01   .296044282603E+01   .314091526877E+01
   .333264621471E+01   .353633847128E+01   .375273804390E+01   .398263670078E+01   .422687467799E+01
   .448634353582E+01   .476198916903E+01   .505481498233E+01   .536588523522E+01   .569632856593E+01
   .604734170172E+01   .642019336275E+01   .681622836857E+01   .723687195545E+01   .768363431125E+01
   .815811533885E+01   .866200965348E+01   .919711182443E+01   .976532186826E+01   .103686510014E+02
   .110092276605E+02   .116893037974E+02   .124112614561E+02   .131776196376E+02   .139910414599E+02
   .148543416164E+02   .157704941386E+02   .167426404663E+02   .177740978254E+02   .188683679172E+02
   .200291459156E+02   .212603297708E+02   .225660298148E+02   .239505786611E+02   .254185413897E+02
   .269747260040E+02   .286241941448E+02   .303722720411E+02   .322245616746E+02   .341869521299E+02
   .362656310986E+02   .384670964953E+02   .407981681485E+02   .432659995054E+02   .458780893047E+02
   .486422931402E+02   .515668348501E+02   .546603176435E+02   .579317348741E+02   .613904803553E+02
   .650463581030E+02   .689095913788E+02   .729908308934E+02   .773011620136E+02   .818521108089E+02
   .866556487471E+02   .917241958441E+02   .970706220433E+02   .102708246595E+03   .108650835174E+03
   .114912594467E+03   .121508163936E+03   .128452604432E+03   .135761383343E+03   .143450355903E+03
   .151535742297E+03   .160034100166E+03   .168962292084E+03   .178337447588E+03   .188176919311E+03
   .198498232731E+03   .209319029088E+03   .220657000954E+03   .232529819984E+03   .244955056327E+03
   .257950089232E+03   .271532008341E+03   .285717505210E+03   .300522754616E+03   .315963285221E+03
   .332053839245E+03   .348808220795E+03   .366239132631E+03   .384358001152E+03   .403174789553E+03
   .422697799137E+03   .442933458957E+03   .463886104051E+03   .485557742726E+03   .507947813511E+03
   .531052932602E+03   .554866632844E+03   .579379095524E+03   .604576876521E+03   .630442628632E+03
   .656954822183E+03   .684087466359E+03   .711809833998E+03   .740086192954E+03   .768875547433E+03
   .798131393124E+03   .827801490198E+03   .857827658668E+03   .888145600844E+03   .918684755966E+03
   .949368192307E+03   .980112542272E+03   .101082798616E+04   .104141829035E+04   .107178090569E+04
   .110180713178E+04   .113138235255E+04   .116038634853E+04   .118869369036E+04   .121617421790E+04
   .124269360841E+04   .126811403643E+04   .129229492698E+04   .131509380267E+04   .133636722370E+04
   .135597181862E+04   .137376540192E+04   .138960817268E+04   .140336398711E+04   .141490169540E+04
   .142409653185E+04   .143083154490E+04   .143499905206E+04   .143650210272E+04   .143525593026E+04
   .143118937310E+04   .142424624329E+04   .141438661985E+04   .140158804370E+04   .138584659017E+04
   .136717779557E+04   .134561741424E+04   .132122198382E+04   .129406917745E+04   .126425792364E+04
   .123190827657E+04   .119716102241E+04   .116017701014E+04   .112113619867E+04   .108023641603E+04
   .103769182992E+04   .993731133613E+03   .948595455686E+03   .902536007070E+03   .855811484921E+03
   .808685259103E+03   .761422374678E+03   .714286418279E+03   .667536262337E+03   .621422839436E+03
   .576185893199E+03   .532050869837E+03   .489225992577E+03   .447899597254E+03   .408237795951E+03
   .370382528452E+03   .334450063979E+03   .300530043795E+03   .268685225931E+03   .238952207524E+03
   .211343498908E+03   .185851228955E+03   .162452188076E+03   .141112750295E+03   .121791110838E+03
   .104434777422E+03   .889742185649E+02   .753170557585E+02   .633476452647E+02   .529332849578E+02
   .439337166174E+02   .362092956323E+02   .296256559217E+02   .240555383153E+02   .193793214078E+02
   .154852579587E+02   .122697443525E+02   .963761241955E+01   .750235296988E+01   .578620180549E+01
   .442005836368E+01   .334323786417E+01   .250307633395E+01   .185441692586E+01   .135900893055E+01
   .984850383892E+00   .705502793867E+00   .499403134414E+00   .349194331708E+00   .241091270573E+00
   .164295079104E+00   .110464301462E+00   .732477232375E-01
 pspotential
  -.688889563991E+02  -.688859867412E+02  -.688831106037E+02  -.688803250462E+02  -.688776272155E+02
  -.688750143495E+02  -.688724837717E+02  -.688700328911E+02  -.688676591977E+02  -.688653602608E+02
  -.688631337259E+02  -.688609773126E+02  -.688588888128E+02  -.688568660880E+02  -.688549070663E+02
  -.688530097420E+02  -.688511721715E+02  -.688493924735E+02  -.688476688255E+02  -.688459994619E+02
  -.688443826738E+02  -.688428168048E+02  -.688413002519E+02  -.688398314619E+02  -.688384089307E+02
  -.688370312015E+02  -.688356968633E+02  -.688344045501E+02  -.688331529381E+02  -.688319407457E+02
  -.688307667317E+02  -.688296296939E+02  -.688285284677E+02  -.688274619257E+02  -.688264289758E+02
  -.688254285599E+02  -.688244596540E+02  -.688235212658E+02  -.688226124343E+02  -.688217322292E+02
  -.688208797490E+02  -.688200541209E+02  -.688192544994E+02  -.688184800661E+02  -.688177300278E+02
  -.688170036167E+02  -.688163000890E+02  -.688156187246E+02  -.688149588259E+02  -.688143197171E+02
  -.688137007442E+02  -.688131012737E+02  -.688125206918E+02  -.688119584042E+02  -.688114138354E+02
  -.688108864282E+02  -.688103756429E+02  -.688098809565E+02  -.688094018632E+02  -.688089378725E+02
  -.688084885101E+02  -.688080533160E+02  -.688076318451E+02  -.688072236665E+02  -.688068283628E+02
  -.688064455298E+02  -.688060747762E+02  -.688057157231E+02  -.688053680035E+02  -.688050312622E+02
  -.688047051553E+02  -.688043893497E+02  -.688040835233E+02  -.688037873638E+02  -.688035005692E+02
  -.688032228471E+02  -.688029539143E+02  -.688026934969E+02  -.688024413298E+02  -.688021971563E+02
  -.688019607282E+02  -.688017318051E+02  -.688015101547E+02  -.688012955520E+02  -.688010877797E+02
  -.688008866271E+02  -.688006918910E+02  -.688005033747E+02  -.688003208880E+02  -.688001442470E+02
  -.687999732743E+02  -.687998077983E+02  -.687996476534E+02  -.687994926793E+02  -.687993427220E+02
  -.687991976321E+02  -.687990572661E+02  -.687989214854E+02  -.687987901564E+02  -.687986631505E+02
  -.687985403441E+02  -.687984216179E+02  -.687983068576E+02  -.687981959533E+02  -.687980887993E+02
  -.687979852948E+02  -.687978853428E+02  -.687977888509E+02  -.687976957307E+02  -.687976058980E+02
  -.687975192728E+02  -.687974357789E+02  -.687973553444E+02  -.687972779013E+02  -.687972033858E+02
  -.687971317377E+02  -.687970629013E+02  -.687969968247E+02  -.687969334599E+02  -.687968727634E+02
  -.687968146954E+02  -.687967592203E+02  -.687967063072E+02  -.687966559290E+02  -.687966080633E+02
  -.687965626919E+02  -.687965198015E+02  -.687964793834E+02  -.687964414333E+02  -.687964059529E+02
  -.687963729482E+02  -.687963424307E+02  -.687963144176E+02  -.687962889318E+02  -.687962660020E+02
  -.687962456634E+02  -.687962279573E+02  -.687962129321E+02  -.687962006431E+02  -.687961911532E+02
  -.687961845329E+02  -.687961808611E+02  -.687961802249E+02  -.687961827209E+02  -.687961884551E+02
  -.687961975430E+02  -.687962101115E+02  -.687962262982E+02  -.687962462524E+02  -.687962701361E+02
  -.687962981243E+02  -.687963304059E+02  -.687963671847E+02  -.687964086798E+02  -.687964551267E+02
  -.687965067786E+02  -.687965639071E+02  -.687966268030E+02  -.687966957780E+02  -.687967711656E+02
  -.687968533224E+02  -.687969426296E+02  -.687970394944E+02  -.687971443510E+02  -.687972576630E+02
  -.687973799246E+02  -.687975116623E+02  -.687976534371E+02  -.687978058460E+02  -.687979695244E+02
  -.687981451479E+02  -.687983334348E+02  -.687985351483E+02  -.687987510986E+02  -.687989821460E+02
  -.687992292029E+02  -.687994932367E+02  -.687997752724E+02  -.688000763957E+02  -.688003977551E+02
  -.688007405658E+02  -.688011061119E+02  -.688014957490E+02  -.688019109084E+02  -.688023530983E+02
  -.688028239076E+02  -.688033250079E+02  -.688038581565E+02  -.688044251982E+02  -.688050280672E+02
  -.688056687886E+02  -.688063494797E+02  -.688070723499E+02  -.688078397012E+02  -.688086539268E+02
  -.688095175087E+02  -.688104330157E+02  -.688114030976E+02  -.688124304797E+02  -.688135179554E+02
  -.688146683756E+02  -.688158846362E+02  -.688171696637E+02  -.688185263960E+02  -.688199577609E+02
  -.688214666496E+02  -.688230558862E+02  -.688247281917E+02  -.688264861406E+02  -.688283321139E+02
  -.688302682412E+02  -.688322963363E+02  -.688344178226E+02  -.688366336488E+02  -.688389441915E+02
  -.688413491467E+02  -.688438474061E+02  -.688464369177E+02  -.688491145307E+02  -.688518758209E+02
  -.688547148965E+02  -.688576241830E+02  -.688605941845E+02  -.688636132213E+02  -.688666671413E+02
  -.688697390053E+02  -.688728087433E+02  -.688758527834E+02  -.688788436509E+02  -.688817495389E+02
  -.688845338502E+02  -.688871547130E+02  -.688895644711E+02  -.688917091518E+02  -.688935279164E+02
  -.688949524978E+02  -.688959066317E+02  -.688963054887E+02  -.688960551185E+02  -.688950519153E+02
  -.688931821176E+02  -.688903213577E+02  -.688863342755E+02  -.688810742143E+02  -.688743830182E+02
  -.688660909491E+02  -.688560167451E+02  -.688439678398E+02  -.688297407627E+02  -.688131217405E+02
  -.687938875149E+02  -.687718063933E+02  -.687466395421E+02  -.687181425318E+02  -.686860671328E+02
  -.686501633622E+02  -.686101817683E+02  -.685658759377E+02  -.685170052013E+02  -.684633375073E+02
  -.684046524231E+02  -.683407442210E+02  -.682714249958E+02  -.681965277544E+02  -.681159094160E+02
  -.680294536485E+02  -.679370734684E+02  -.678387135183E+02  -.677343519329E+02  -.676240016930E+02
  -.675077113559E+02  -.673855650367E+02  -.672576814981E+02  -.671242121853E+02  -.669853380203E+02
  -.668412647466E+02  -.666922165917E+02  -.665384279966E+02  -.663801331537E+02  -.662175531029E+02
  -.660508801689E+02  -.658802595975E+02  -.657057683725E+02  -.655273913819E+02  -.653449953790E+02
  -.651583015419E+02  -.649668578963E+02  -.647700134098E+02  -.645668961557E+02  -.643563985316E+02
  -.641371729807E+02  -.639076418840E+02  -.636660250861E+02  -.634103877206E+02  -.631387094822E+02
  -.628489742078E+02  -.625392757157E+02  -.622079326486E+02  -.618536021106E+02  -.614753798876E+02
  -.610728746490E+02  -.606462452159E+02  -.601961937686E+02  -.597239132786E+02  -.592309935141E+02
  -.587192955012E+02  -.581908081958E+02  -.576475026417E+02  -.570911979412E+02  -.565234504120E+02
  -.559454731997E+02  -.553580892927E+02  -.547617171356E+02  -.541563853081E+02  -.535413959031E+02
  -.529440596403E+02  -.523371726302E+02  -.517437282672E+02  -.511316376789E+02  -.504857670576E+02
  -.498097462626E+02  -.491001980528E+02  -.483609990814E+02
 core charge-density (pseudized)
   .000000000000E+00   .000000000000E+00   .000000000000E+00   .000000000000E+00   .000000000000E+00
   .000000000000E+00   .000000000000E+00   .000000000000E+00   .000000000000E+00   .000000000000E+00
   .000000000000E+00   .000000000000E+00   .000000000000E+00   .000000000000E+00   .000000000000E+00
   .000000000000E+00   .000000000000E+00   .000000000000E+00   .000000000000E+00   .000000000000E+00
   .000000000000E+00   .000000000000E+00   .000000000000E+00   .000000000000E+00   .000000000000E+00
   .000000000000E+00   .000000000000E+00   .000000000000E+00   .000000000000E+00   .000000000000E+00
   .000000000000E+00   .000000000000E+00   .000000000000E+00   .000000000000E+00   .000000000000E+00
   .000000000000E+00   .000000000000E+00   .000000000000E+00   .000000000000E+00   .000000000000E+00
   .000000000000E+00   .000000000000E+00   .000000000000E+00   .000000000000E+00   .000000000000E+00
   .000000000000E+00   .000000000000E+00   .000000000000E+00   .000000000000E+00   .000000000000E+00
   .000000000000E+00   .000000000000E+00   .000000000000E+00   .000000000000E+00   .000000000000E+00
   .000000000000E+00   .000000000000E+00   .000000000000E+00   .000000000000E+00   .000000000000E+00
   .000000000000E+00   .000000000000E+00   .000000000000E+00   .000000000000E+00   .000000000000E+00
   .000000000000E+00   .000000000000E+00   .000000000000E+00   .000000000000E+00   .000000000000E+00
   .000000000000E+00   .000000000000E+00   .000000000000E+00   .000000000000E+00   .000000000000E+00
   .000000000000E+00   .000000000000E+00   .000000000000E+00   .000000000000E+00   .000000000000E+00
   .000000000000E+00   .000000000000E+00   .000000000000E+00   .000000000000E+00   .000000000000E+00
   .000000000000E+00   .000000000000E+00   .000000000000E+00   .000000000000E+00   .000000000000E+00
   .000000000000E+00   .000000000000E+00   .000000000000E+00   .000000000000E+00   .000000000000E+00
   .000000000000E+00   .000000000000E+00   .000000000000E+00   .000000000000E+00   .000000000000E+00
   .000000000000E+00   .000000000000E+00   .000000000000E+00   .000000000000E+00   .000000000000E+00
   .000000000000E+00   .000000000000E+00   .000000000000E+00   .000000000000E+00   .000000000000E+00
   .000000000000E+00   .000000000000E+00   .000000000000E+00   .000000000000E+00   .000000000000E+00
   .000000000000E+00   .000000000000E+00   .000000000000E+00   .000000000000E+00   .000000000000E+00
   .000000000000E+00   .000000000000E+00   .000000000000E+00   .000000000000E+00   .000000000000E+00
   .000000000000E+00   .000000000000E+00   .000000000000E+00   .000000000000E+00   .000000000000E+00
   .000000000000E+00   .000000000000E+00   .000000000000E+00   .000000000000E+00   .000000000000E+00
   .000000000000E+00   .000000000000E+00   .000000000000E+00   .000000000000E+00   .000000000000E+00
   .000000000000E+00   .000000000000E+00   .000000000000E+00   .000000000000E+00   .000000000000E+00
   .000000000000E+00   .000000000000E+00   .000000000000E+00   .000000000000E+00   .000000000000E+00
   .000000000000E+00   .000000000000E+00   .000000000000E+00   .000000000000E+00   .000000000000E+00
   .000000000000E+00   .000000000000E+00   .000000000000E+00   .000000000000E+00   .000000000000E+00
   .000000000000E+00   .000000000000E+00   .000000000000E+00   .000000000000E+00   .000000000000E+00
   .000000000000E+00   .000000000000E+00   .000000000000E+00   .000000000000E+00   .000000000000E+00
   .000000000000E+00   .000000000000E+00   .000000000000E+00   .000000000000E+00   .000000000000E+00
   .000000000000E+00   .000000000000E+00   .000000000000E+00   .000000000000E+00   .000000000000E+00
   .000000000000E+00   .000000000000E+00   .000000000000E+00   .000000000000E+00   .000000000000E+00
   .000000000000E+00   .000000000000E+00   .000000000000E+00   .000000000000E+00   .000000000000E+00
   .000000000000E+00   .000000000000E+00   .000000000000E+00   .000000000000E+00   .000000000000E+00
   .000000000000E+00   .000000000000E+00   .000000000000E+00   .000000000000E+00   .000000000000E+00
   .000000000000E+00   .000000000000E+00   .000000000000E+00   .000000000000E+00   .000000000000E+00
   .000000000000E+00   .000000000000E+00   .000000000000E+00   .000000000000E+00   .000000000000E+00
   .000000000000E+00   .000000000000E+00   .000000000000E+00   .000000000000E+00   .000000000000E+00
   .000000000000E+00   .000000000000E+00   .000000000000E+00   .000000000000E+00   .000000000000E+00
   .000000000000E+00   .000000000000E+00   .000000000000E+00   .000000000000E+00   .000000000000E+00
   .000000000000E+00   .000000000000E+00   .000000000000E+00   .000000000000E+00   .000000000000E+00
   .000000000000E+00   .000000000000E+00   .000000000000E+00   .000000000000E+00   .000000000000E+00
   .000000000000E+00   .000000000000E+00   .000000000000E+00   .000000000000E+00   .000000000000E+00
   .000000000000E+00   .000000000000E+00   .000000000000E+00   .000000000000E+00   .000000000000E+00
   .000000000000E+00   .000000000000E+00   .000000000000E+00   .000000000000E+00   .000000000000E+00
   .000000000000E+00   .000000000000E+00   .000000000000E+00   .000000000000E+00   .000000000000E+00
   .000000000000E+00   .000000000000E+00   .000000000000E+00   .000000000000E+00   .000000000000E+00
   .000000000000E+00   .000000000000E+00   .000000000000E+00   .000000000000E+00   .000000000000E+00
   .000000000000E+00   .000000000000E+00   .000000000000E+00   .000000000000E+00   .000000000000E+00
   .000000000000E+00   .000000000000E+00   .000000000000E+00   .000000000000E+00   .000000000000E+00
   .000000000000E+00   .000000000000E+00   .000000000000E+00   .000000000000E+00   .000000000000E+00
   .000000000000E+00   .000000000000E+00   .000000000000E+00   .000000000000E+00   .000000000000E+00
   .000000000000E+00   .000000000000E+00   .000000000000E+00   .000000000000E+00   .000000000000E+00
   .000000000000E+00   .000000000000E+00   .000000000000E+00   .000000000000E+00   .000000000000E+00
   .000000000000E+00   .000000000000E+00   .000000000000E+00   .000000000000E+00   .000000000000E+00
   .000000000000E+00   .000000000000E+00   .000000000000E+00   .000000000000E+00   .000000000000E+00
   .000000000000E+00   .000000000000E+00   .000000000000E+00   .000000000000E+00   .000000000000E+00
   .000000000000E+00   .000000000000E+00   .000000000000E+00   .000000000000E+00   .000000000000E+00
   .000000000000E+00   .000000000000E+00   .000000000000E+00   .000000000000E+00   .000000000000E+00
   .000000000000E+00   .000000000000E+00   .000000000000E+00
 pseudo wavefunction
   .717870223758E-04   .741213572537E-04   .765315988782E-04   .790202155471E-04   .815897558215E-04
   .842428511349E-04   .869822184888E-04   .898106632347E-04   .927310819471E-04   .957464653899E-04
   .988599015791E-04   .102074578945E-03   .105393789599E-03   .108820932702E-03   .112359517948E-03
   .116013169158E-03   .119785627989E-03   .123680757769E-03   .127702547451E-03   .131855115698E-03
   .136142715104E-03   .140569736545E-03   .145140713676E-03   .149860327579E-03   .154733411549E-03
   .159764956050E-03   .164960113823E-03   .170324205164E-03   .175862723369E-03   .181581340366E-03
   .187485912517E-03   .193582486619E-03   .199877306096E-03   .206376817394E-03   .213087676578E-03
   .220016756154E-03   .227171152104E-03   .234558191154E-03   .242185438276E-03   .250060704436E-03
   .258192054594E-03   .266587815961E-03   .275256586530E-03   .284207243875E-03   .293448954252E-03
   .302991181977E-03   .312843699121E-03   .323016595522E-03   .333520289111E-03   .344365536584E-03
   .355563444420E-03   .367125480251E-03   .379063484606E-03   .391389683042E-03   .404116698657E-03
   .417257565021E-03   .430825739524E-03   .444835117154E-03   .459300044732E-03   .474235335597E-03
   .489656284785E-03   .505578684683E-03   .522018841210E-03   .538993590510E-03   .556520316196E-03
   .574616967150E-03   .593302075909E-03   .612594777639E-03   .632514829730E-03   .653082632036E-03
   .674319247758E-03   .696246425021E-03   .718886619138E-03   .742263015616E-03   .766399553891E-03
   .791320951847E-03   .817052731131E-03   .843621243284E-03   .871053696732E-03   .899378184647E-03
   .928623713715E-03   .958820233842E-03   .989998668827E-03   .102219094803E-02   .105543003905E-02
   .108974998154E-02   .112518592198E-02   .116177414977E-02   .119955213430E-02   .123855856337E-02
   .127883338282E-02   .132041783739E-02   .136335451299E-02   .140768738032E-02   .145346183985E-02
   .150072476836E-02   .154952456692E-02   .159991121047E-02   .165193629897E-02   .170565311025E-02
   .176111665459E-02   .181838373103E-02   .187751298552E-02   .193856497102E-02   .200160220943E-02
   .206668925571E-02   .213389276389E-02   .220328155539E-02   .227492668944E-02   .234890153590E-02
   .242528185032E-02   .250414585157E-02   .258557430190E-02   .266965058962E-02   .275646081454E-02
   .284609387606E-02   .293864156425E-02   .303419865378E-02   .313286300101E-02   .323473564415E-02
   .333992090671E-02   .344852650429E-02   .356066365493E-02   .367644719288E-02   .379599568624E-02
   .391943155828E-02   .404688121284E-02   .417847516365E-02   .431434816801E-02   .445463936466E-02
   .459949241628E-02   .474905565649E-02   .490348224167E-02   .506293030778E-02   .522756313214E-02
   .539754930056E-02   .557306287991E-02   .575428359618E-02   .594139701845E-02   .613459474876E-02
   .633407461814E-02   .654004088904E-02   .675270446428E-02   .697228310286E-02   .719900164264E-02
   .743309223039E-02   .767479455916E-02   .792435611347E-02   .818203242234E-02   .844808732062E-02
   .872279321870E-02   .900643138100E-02   .929929221346E-02   .960167556038E-02   .991389101080E-02
   .102362582149E-01   .105691072103E-01   .109127787597E-01   .112676246982E-01   .116340082934E-01
   .120123046152E-01   .124029009196E-01   .128061970435E-01   .132226058123E-01   .136525534616E-01
   .140964800712E-01   .145548400143E-01   .150281024199E-01   .155167516514E-01   .160212877994E-01
   .165422271909E-01   .170801029149E-01   .176354653644E-01   .182088827962E-01   .188009419083E-01
   .194122484359E-01   .200434277663E-01   .206951255733E-01   .213680084719E-01   .220627646942E-01
   .227801047854E-01   .235207623239E-01   .242854946618E-01   .250750836907E-01   .258903366305E-01
   .267320868433E-01   .276011946728E-01   .284985483096E-01   .294250646840E-01   .303816903863E-01
   .313694026150E-01   .323892101552E-01   .334421543865E-01   .345293103217E-01   .356517876776E-01
   .368107319777E-01   .380073256888E-01   .392427893909E-01   .405183829834E-01   .418354069253E-01
   .431952035137E-01   .445991581984E-01   .460487009354E-01   .475453075791E-01   .490905013146E-01
   .506858541297E-01   .523329883290E-01   .540335780891E-01   .557893510568E-01   .576020899897E-01
   .594736344407E-01   .614058824867E-01   .634007925008E-01   .654603849697E-01   .675867443550E-01
   .697820209999E-01   .720484330798E-01   .743882685971E-01   .768038874195E-01   .792977233616E-01
   .818722863080E-01   .845301643767E-01   .872740261228E-01   .901066227780E-01   .930307905261E-01
   .960494528102E-01   .991656226692E-01   .102382405100E+00   .105702999438E+00   .109130701763E+00
   .112668907299E+00   .116321112836E+00   .120090919136E+00   .123982033332E+00   .127998271308E+00
   .132143560039E+00   .136421939896E+00   .140837566886E+00   .145394714824E+00   .150097777413E+00
   .154951270210E+00   .159959832471E+00   .165128228827E+00   .170461350794E+00   .175964218054E+00
   .181641979506E+00   .187499914020E+00   .193543430884E+00   .199778069861E+00   .206209500841E+00
   .212843523008E+00   .219686063465E+00   .226743175253E+00   .234021034673E+00   .241525937847E+00
   .249264296391E+00   .257242632131E+00   .265467570712E+00   .273945833995E+00   .282684231081E+00
   .291689647822E+00   .300969034623E+00   .310529392355E+00   .320377756172E+00   .330521176968E+00
   .340966700246E+00   .351721342092E+00   .362792061937E+00   .374185731763E+00   .385909101372E+00
   .397968759274E+00   .410371088750E+00   .423122218558E+00   .436227967737E+00   .449693783864E+00
   .463524674112E+00   .477725128349E+00   .492299033480E+00   .507249578134E+00   .522579146740E+00
   .538289201953E+00   .554380154284E+00   .570851217722E+00   .587700250025E+00   .604923576284E+00
   .622515794241E+00   .640469559787E+00   .658775350959E+00   .677421208693E+00   .696392452526E+00
   .715671369429E+00   .735236873906E+00   .755064137588E+00   .775124186577E+00   .795383465008E+00
   .815803363485E+00   .836339711416E+00   .856942232728E+00   .877553965049E+00   .898110643238E+00
   .918540049169E+00   .938761330896E+00   .958684295874E+00   .978208684778E+00   .997223434628E+00
   .101560594258E+01   .103322134468E+01   .104992182737E+01   .106554599325E+01   .107991830700E+01
   .109284865167E+01   .110413203038E+01   .111354845314E+01   .112086305318E+01   .112582648089E+01
   .112815826033E+01   .112766526986E+01   .112429219396E+01   .111806470671E+01   .110902663553E+01
   .109723971270E+01   .108278313973E+01   .106575297316E+01
 ae wavefunction
  -.435742517947E-03  -.449893177036E-03  -.464503226381E-03  -.479587570063E-03  -.495161595061E-03
  -.511241186854E-03  -.527842745526E-03  -.544983202382E-03  -.562680037106E-03  -.580951295461E-03
  -.599815607567E-03  -.619292206750E-03  -.639400949017E-03  -.660162333128E-03  -.681597521339E-03
  -.703728360783E-03  -.726577405556E-03  -.750167939497E-03  -.774523999699E-03  -.799670400771E-03
  -.825632759880E-03  -.852437522580E-03  -.880111989478E-03  -.908684343740E-03  -.938183679480E-03
  -.968640031044E-03  -.100008440323E-02  -.103254880249E-02  -.106606626906E-02  -.110067091020E-02
  -.113639793438E-02  -.117328368669E-02  -.121136568521E-02  -.125068265865E-02  -.129127458513E-02
  -.133318273222E-02  -.137644969815E-02  -.142111945447E-02  -.146723738990E-02  -.151485035564E-02
  -.156400671213E-02  -.161475637720E-02  -.166715087575E-02  -.172124339103E-02  -.177708881751E-02
  -.183474381533E-02  -.189426686652E-02  -.195571833299E-02  -.201916051623E-02  -.208465771892E-02
  -.215227630849E-02  -.222208478256E-02  -.229415383644E-02  -.236855643275E-02  -.244536787308E-02
  -.252466587200E-02  -.260653063319E-02  -.269104492797E-02  -.277829417628E-02  -.286836652997E-02
  -.296135295881E-02  -.305734733898E-02  -.315644654424E-02  -.325875053997E-02  -.336436247986E-02
  -.347338880566E-02  -.358593934981E-02  -.370212744121E-02  -.382207001408E-02  -.394588772003E-02
  -.407370504355E-02  -.420565042075E-02  -.434185636172E-02  -.448245957638E-02  -.462760110401E-02
  -.477742644658E-02  -.493208570585E-02  -.509173372452E-02  -.525653023127E-02  -.542663999011E-02
  -.560223295378E-02  -.578348442162E-02  -.597057520176E-02  -.616369177789E-02  -.636302648065E-02
  -.656877766365E-02  -.678114988445E-02  -.700035409032E-02  -.722660780908E-02  -.746013534500E-02
  -.770116797996E-02  -.794994417981E-02  -.820670980623E-02  -.847171833394E-02  -.874523107357E-02
  -.902751740010E-02  -.931885498706E-02  -.961953004655E-02  -.992983757504E-02  -.102500816052E-01
  -.105805754637E-01  -.109216420351E-01  -.112736140315E-01  -.116368342691E-01  -.120116559500E-01
  -.123984429509E-01  -.127975701174E-01  -.132094235654E-01  -.136344009872E-01  -.140729119656E-01
  -.145253782923E-01  -.149922342937E-01  -.154739271620E-01  -.159709172922E-01  -.164836786248E-01
  -.170126989948E-01  -.175584804848E-01  -.181215397845E-01  -.187024085548E-01  -.193016337964E-01
  -.199197782231E-01  -.205574206391E-01  -.212151563204E-01  -.218935973989E-01  -.225933732497E-01
  -.233151308810E-01  -.240595353255E-01  -.248272700327E-01  -.256190372626E-01  -.264355584778E-01
  -.272775747364E-01  -.281458470807E-01  -.290411569250E-01  -.299643064382E-01  -.309161189217E-01
  -.318974391810E-01  -.329091338894E-01  -.339520919425E-01  -.350272248024E-01  -.361354668290E-01
  -.372777755970E-01  -.384551321973E-01  -.396685415195E-01  -.409190325138E-01  -.422076584303E-01
  -.435354970318E-01  -.449036507795E-01  -.463132469854E-01  -.477654379319E-01  -.492614009518E-01
  -.508023384670E-01  -.523894779821E-01  -.540240720271E-01  -.557073980463E-01  -.574407582283E-01
  -.592254792716E-01  -.610629120806E-01  -.629544313867E-01  -.649014352884E-01  -.669053447033E-01
  -.689676027260E-01  -.710896738847E-01  -.732730432877E-01  -.755192156539E-01  -.778297142169E-01
  -.802060794943E-01  -.826498679133E-01  -.851626502822E-01  -.877460100970E-01  -.904015416732E-01
  -.931308480896E-01  -.959355389333E-01  -.988172278336E-01  -.101777529769E+00  -.104818058135E+00
  -.107940421563E+00  -.111146220461E+00  -.114437043280E+00  -.117814462472E+00  -.121280030132E+00
  -.124835273308E+00  -.128481688949E+00  -.132220738490E+00  -.136053842035E+00  -.139982372135E+00
  -.144007647128E+00  -.148130924032E+00  -.152353390950E+00  -.156676158992E+00  -.161100253670E+00
  -.165626605748E+00  -.170256041537E+00  -.174989272593E+00  -.179826884815E+00  -.184769326900E+00
  -.189816898153E+00  -.194969735618E+00  -.200227800511E+00  -.205590863939E+00  -.211058491884E+00
  -.216630029429E+00  -.222304584222E+00  -.228081009153E+00  -.233957884239E+00  -.239933497701E+00
  -.246005826237E+00  -.252172514476E+00  -.258430853626E+00  -.264777759312E+00  -.271209748616E+00
  -.277722916340E+00  -.284312910504E+00  -.290974907116E+00  -.297703584239E+00  -.304493095405E+00
  -.311337042424E+00  -.318228447646E+00  -.325159725750E+00  -.332122655133E+00  -.339108349001E+00
  -.346107226258E+00  -.353108982305E+00  -.360102559894E+00  -.367076120170E+00  -.374017014061E+00
  -.380911754200E+00  -.387745987563E+00  -.394504469032E+00  -.401171036125E+00  -.407728585119E+00
  -.414159048843E+00  -.420443376428E+00  -.426561515308E+00  -.432492395804E+00  -.438213918634E+00
  -.443702945710E+00  -.448935294606E+00  -.453885737104E+00  -.458528002233E+00  -.462834784249E+00
  -.466777755996E+00  -.470327588142E+00  -.473453974758E+00  -.476125665740E+00  -.478310506592E+00
  -.479975486076E+00  -.481086792249E+00  -.481609877413E+00  -.481509532496E+00  -.480749971371E+00
  -.479294925619E+00  -.477107750216E+00  -.474151540602E+00  -.470389261561E+00  -.465783888302E+00
  -.460298560072E+00  -.453896746594E+00  -.446542427526E+00  -.438200285079E+00  -.428835909804E+00
  -.418416019475E+00  -.406908690835E+00  -.394283603848E+00  -.380512297898E+00  -.365568439236E+00
  -.349428098716E+00  -.332070038708E+00  -.313476007769E+00  -.293631041509E+00  -.272523767779E+00
  -.250146714166E+00  -.226496615562E+00  -.201574719441E+00  -.175387086446E+00  -.147944883820E+00
  -.119264669340E+00  -.893686635019E-01  -.582850078665E-01  -.260480075826E-01   .730164389810E-02
   .417166601866E-01   .771429803763E-01   .113519614909E+00   .150778525779E+00   .188844552184E+00
   .227635399600E+00   .267061721085E+00   .307027335378E+00   .347429645854E+00   .388160339023E+00
   .429106427031E+00   .470151609649E+00   .511177717128E+00   .552065672491E+00   .592695180096E+00
   .632942588996E+00   .672677320253E+00   .711758452074E+00   .750033482899E+00   .787340238686E+00
   .823511018127E+00   .858377021983E+00   .891771646742E+00   .923532423259E+00   .953502106838E+00
   .981529483979E+00   .100747023338E+01   .103118796300E+01   .105255541998E+01   .107145581493E+01
   .108778418556E+01   .110144872741E+01   .111237203157E+01   .112049218446E+01   .112576369931E+01
   .112815826033E+01   .112766526986E+01   .112429219396E+01   .111806470671E+01   .110902663553E+01
   .109723971270E+01   .108278313973E+01   .106575297316E+01
 pseudo wavefunction
   .343855759999E-05   .355037091431E-05   .366582011861E-05   .378502344294E-05   .390810296192E-05
   .403518471972E-05   .416639885916E-05   .430187975496E-05   .444176615139E-05   .458620130432E-05
   .473533312795E-05   .488931434630E-05   .504830264954E-05   .521246085559E-05   .538195707675E-05
   .555696489195E-05   .573766352444E-05   .592423802539E-05   .611687946334E-05   .631578511993E-05
   .652115869188E-05   .673321049961E-05   .695215770267E-05   .717822452205E-05   .741164246986E-05
   .765265058641E-05   .790149568498E-05   .815843260462E-05   .842372447107E-05   .869764296629E-05
   .898046860662E-05   .927249103011E-05   .957400929309E-05   .988533217644E-05   .102067785018E-04
   .105386774582E-04   .108813689389E-04   .112352038896E-04   .116005446680E-04   .119777654148E-04
   .123672524366E-04   .127694046018E-04   .131846337490E-04   .136133651087E-04   .140560377388E-04
   .145131049742E-04   .149850348913E-04   .154723107868E-04   .159754316731E-04   .164949127894E-04
   .170312861287E-04   .175851009835E-04   .181569245074E-04   .187473422966E-04   .193569589894E-04
   .199863988852E-04   .206363065839E-04   .213073476463E-04   .220002092752E-04   .227156010196E-04
   .234542555009E-04   .242169291636E-04   .250044030495E-04   .258174835978E-04   .266570034709E-04
   .275238224070E-04   .284188281007E-04   .293429371118E-04   .302970958040E-04   .312822813141E-04
   .322995025525E-04   .333498012366E-04   .344342529572E-04   .355539682800E-04   .367100938833E-04
   .379038137315E-04   .391363502881E-04   .404089657674E-04   .417229634265E-04   .430796889008E-04
   .444805315809E-04   .459269260360E-04   .474203534828E-04   .489623433018E-04   .505544746039E-04
   .521983778470E-04   .538957365056E-04   .556482887945E-04   .574578294490E-04   .593262115619E-04
   .612553484816E-04   .632472157708E-04   .653038532291E-04   .674273669822E-04   .696199316373E-04
   .718837925106E-04   .742212679252E-04   .766347515854E-04   .791267150267E-04   .816997101468E-04
   .843563718176E-04   .870994205827E-04   .899316654427E-04   .928560067304E-04   .958754390803E-04
   .989930544934E-04   .102212045502E-03   .105535708440E-03   .108967446812E-03   .112510774780E-03
   .116169320763E-03   .119946831142E-03   .123847174103E-03   .127874343589E-03   .132032463391E-03
   .136325791364E-03   .140758723789E-03   .145335799862E-03   .150061706349E-03   .154941282370E-03
   .159979524357E-03   .165181591158E-03   .170552809320E-03   .176098678529E-03   .181824877239E-03
   .187737268477E-03   .193841905835E-03   .200145039660E-03   .206653123444E-03   .213372820413E-03
   .220311010347E-03   .227474796596E-03   .234871513348E-03   .242508733111E-03   .250394274453E-03
   .258536209979E-03   .266942874576E-03   .275622873916E-03   .284585093239E-03   .293838706418E-03
   .303393185310E-03   .313258309418E-03   .323444175857E-03   .333961209642E-03   .344820174308E-03
   .356032182868E-03   .367608709128E-03   .379561599355E-03   .391903084331E-03   .404645791781E-03
   .417802759207E-03   .431387447123E-03   .445413752722E-03   .459896023967E-03   .474849074139E-03
   .490288196839E-03   .506229181472E-03   .522688329216E-03   .539682469498E-03   .557228976984E-03
   .575345789108E-03   .594051424152E-03   .613364999882E-03   .633306252776E-03   .653895557846E-03
   .675153949069E-03   .697103140461E-03   .719765547788E-03   .743164310953E-03   .767323317057E-03
   .792267224172E-03   .818021485824E-03   .844612376222E-03   .872067016233E-03   .900413400142E-03
   .929680423194E-03   .959897909947E-03   .991096643458E-03   .102330839531E-02   .105656595649E-02
   .109090316917E-02   .112635495935E-02   .116295737043E-02   .120074759770E-02   .123976402378E-02
   .128004625494E-02   .132163515849E-02   .136457290103E-02   .140890298774E-02   .145467030259E-02
   .150192114958E-02   .155070329491E-02   .160106601018E-02   .165306011643E-02   .170673802930E-02
   .176215380493E-02   .181936318694E-02   .187842365412E-02   .193939446909E-02   .200233672767E-02
   .206731340898E-02   .213438942628E-02   .220363167832E-02   .227510910123E-02   .234889272086E-02
   .242505570531E-02   .250367341765E-02   .258482346872E-02   .266858576958E-02   .275504258375E-02
   .284427857874E-02   .293638087674E-02   .303143910420E-02   .312954543990E-02   .323079466121E-02
   .333528418807E-02   .344311412431E-02   .355438729574E-02   .366920928440E-02   .378768845849E-02
   .390993599701E-02   .403606590856E-02   .416619504321E-02   .430044309660E-02   .443893260498E-02
   .458178893018E-02   .472914023288E-02   .488111743283E-02   .503785415421E-02   .519948665428E-02
   .536615373310E-02   .553799662213E-02   .571515884885E-02   .589778607469E-02   .608602590282E-02
   .628002765238E-02   .647994209485E-02   .668592114830E-02   .689811752438E-02   .711668432243E-02
   .734177456465E-02   .757354066520E-02   .781213382564E-02   .805770334804E-02   .831039585610E-02
   .857035441362E-02   .883771752832E-02   .911261802757E-02   .939518179119E-02   .968552632449E-02
   .998375915303E-02   .102899760181E-01   .106042588496E-01   .109266734901E-01   .112572671412E-01
   .115960654985E-01   .119430695398E-01   .122982519240E-01   .126615529556E-01   .130328760625E-01
   .134120827296E-01   .137989868226E-01   .141933482297E-01   .145948657392E-01   .150031690611E-01
   .154178098909E-01   .158382518989E-01   .162638595185E-01   .166938853859E-01   .171274562738E-01
   .175635573352E-01   .180010144584E-01   .184384745075E-01   .188743831996E-01   .193069603411E-01
   .197341721149E-01   .201537000800E-01   .205629065081E-01   .209587956454E-01   .213379704514E-01
   .216965843224E-01   .220302872721E-01   .223341659983E-01   .226026772302E-01   .228295737141E-01
   .230078221730E-01   .231295125546E-01   .231857578830E-01   .231665840450E-01   .230608088842E-01
   .228559100556E-01   .225378812130E-01   .220910762784E-01   .214980417913E-01   .207393376687E-01
   .197933471468E-01   .186360772443E-01   .172409518109E-01   .155786001262E-01   .136166451323E-01
   .113194967438E-01   .864815731154E-02   .556004826093E-02   .200886919547E-02  -.205549662129E-02
  -.668701351940E-02  -.119434412162E-01  -.178861753538E-01  -.245799531729E-01  -.320923928314E-01
  -.404933311070E-01  -.498539208502E-01  -.602454469396E-01  -.717378181025E-01  -.843976923881E-01
  -.982572463524E-01  -.113431938710E+00  -.129962815882E+00  -.147925476302E+00  -.167397789939E+00
  -.188460087115E+00  -.211195414457E+00  -.235689872331E+00
 ae wavefunction
  -.655609122826E-05  -.676899905707E-05  -.698881876848E-05  -.721577460561E-05  -.745009807708E-05
  -.769202819182E-05  -.794181170128E-05  -.819970334956E-05  -.846596613143E-05  -.874087155877E-05
  -.902469993540E-05  -.931774064088E-05  -.962029242330E-05  -.993266370149E-05  -.102551728769E-04
  -.105881486555E-04  -.109319303798E-04  -.112868683719E-04  -.116533242870E-04  -.120316714784E-04
  -.124222953746E-04  -.128255938674E-04  -.132419777136E-04  -.136718709483E-04  -.141157113126E-04
  -.145739506937E-04  -.150470555800E-04  -.155355075299E-04  -.160398036561E-04  -.165604571246E-04
  -.170979976704E-04  -.176529721286E-04  -.182259449831E-04  -.188174989321E-04  -.194282354715E-04
  -.200587754973E-04  -.207097599266E-04  -.213818503374E-04  -.220757296304E-04  -.227921027095E-04
  -.235316971854E-04  -.242952641000E-04  -.250835786742E-04  -.258974410793E-04  -.267376772313E-04
  -.276051396118E-04  -.285007081127E-04  -.294252909085E-04  -.303798253547E-04  -.313652789153E-04
  -.323826501176E-04  -.334329695376E-04  -.345173008153E-04  -.356367417016E-04  -.367924251370E-04
  -.379855203641E-04  -.392172340733E-04  -.404888115843E-04  -.418015380630E-04  -.431567397764E-04
  -.445557853843E-04  -.460000872716E-04  -.474911029196E-04  -.490303363191E-04  -.506193394267E-04
  -.522597136637E-04  -.539531114602E-04  -.557012378455E-04  -.575058520856E-04  -.593687693689E-04
  -.612918625421E-04  -.632770638971E-04  -.653263670098E-04  -.674418286331E-04  -.696255706450E-04
  -.718797820523E-04  -.742067210534E-04  -.766087171588E-04  -.790881733733E-04  -.816475684398E-04
  -.842894591464E-04  -.870164826988E-04  -.898313591585E-04  -.927368939490E-04  -.957359804318E-04
  -.988316025516E-04  -.102026837556E-03  -.105324858785E-03  -.108728938541E-03  -.112242451028E-03
  -.115868875379E-03  -.119611798746E-03  -.123474919492E-03  -.127462050444E-03  -.131577122245E-03
  -.135824186777E-03  -.140207420684E-03  -.144731128964E-03  -.149399748666E-03  -.154217852659E-03
  -.159190153505E-03  -.164321507411E-03  -.169616918274E-03  -.175081541821E-03  -.180720689835E-03
  -.186539834474E-03  -.192544612684E-03  -.198740830698E-03  -.205134468627E-03  -.211731685146E-03
  -.218538822262E-03  -.225562410173E-03  -.232809172212E-03  -.240286029877E-03  -.248000107945E-03
  -.255958739656E-03  -.264169471988E-03  -.272640070992E-03  -.281378527207E-03  -.290393061126E-03
  -.299692128739E-03  -.309284427116E-03  -.319178900041E-03  -.329384743692E-03  -.339911412345E-03
  -.350768624109E-03  -.361966366669E-03  -.373514903040E-03  -.385424777308E-03  -.397706820349E-03
  -.410372155518E-03  -.423432204288E-03  -.436898691816E-03  -.450783652438E-03  -.465099435041E-03
  -.479858708330E-03  -.495074465933E-03  -.510760031337E-03  -.526929062624E-03  -.543595556979E-03
  -.560773854929E-03  -.578478644299E-03  -.596724963824E-03  -.615528206394E-03  -.634904121890E-03
  -.654868819544E-03  -.675438769809E-03  -.696630805649E-03  -.718462123219E-03  -.740950281862E-03
  -.764113203357E-03  -.787969170353E-03  -.812536823912E-03  -.837835160080E-03  -.863883525392E-03
  -.890701611245E-03  -.918309447002E-03  -.946727391760E-03  -.975976124644E-03  -.100607663352E-02
  -.103705020200E-02  -.106891839458E-02  -.110170303984E-02  -.113542621144E-02  -.117011020683E-02
  -.120577752349E-02  -.124245083250E-02  -.128015294925E-02  -.131890680108E-02  -.135873539162E-02
  -.139966176162E-02  -.144170894603E-02  -.148489992701E-02  -.152925758270E-02  -.157480463127E-02
  -.162156357022E-02  -.166955661033E-02  -.171880560409E-02  -.176933196815E-02  -.182115659954E-02
  -.187429978504E-02  -.192878110354E-02  -.198461932073E-02  -.204183227580E-02  -.210043675960E-02
  -.216044838374E-02  -.222188144014E-02  -.228474875047E-02  -.234906150491E-02  -.241482908954E-02
  -.248205890193E-02  -.255075615403E-02  -.262092366194E-02  -.269256162168E-02  -.276566737035E-02
  -.284023513193E-02  -.291625574691E-02  -.299371638508E-02  -.307260024061E-02  -.315288620865E-02
  -.323454854268E-02  -.331755649172E-02  -.340187391669E-02  -.348745888500E-02  -.357426324264E-02
  -.366223216298E-02  -.375130367145E-02  -.384140814546E-02  -.393246778878E-02  -.402439607977E-02
  -.411709719292E-02  -.421046539309E-02  -.430438440215E-02  -.439872673758E-02  -.449335302300E-02
  -.458811127043E-02  -.468283613456E-02  -.477734813917E-02  -.487145287652E-02  -.496494018016E-02
  -.505758327255E-02  -.514913788875E-02  -.523934137790E-02  -.532791178486E-02  -.541454691445E-02
  -.549892338155E-02  -.558069565077E-02  -.565949507000E-02  -.573492890299E-02  -.580657936668E-02
  -.587400268005E-02  -.593672813220E-02  -.599425717818E-02  -.604606257264E-02  -.609158755219E-02
  -.613024507917E-02  -.616141716066E-02  -.618445425853E-02  -.619867480789E-02  -.620336486339E-02
  -.619777789497E-02  -.618113475679E-02  -.615262385580E-02  -.611140154893E-02  -.605659280069E-02
  -.598729213647E-02  -.590256492957E-02  -.580144906401E-02  -.568295701860E-02  -.554607842196E-02
  -.538978313216E-02  -.521302489904E-02  -.501474567204E-02  -.479388062066E-02  -.454936393997E-02
  -.428013551813E-02  -.398514854792E-02  -.366337816942E-02  -.331383123541E-02  -.293555729625E-02
  -.252766090487E-02  -.208931534729E-02  -.161977790723E-02  -.111840677698E-02  -.584679729454E-03
  -.182146683025E-04   .581207825300E-03   .121361982960E-02   .187883918292E-02   .257644022787E-02
   .330572207936E-02   .406567429712E-02   .485493984432E-02   .567177521530E-02   .651400761775E-02
   .737898909896E-02   .826354751388E-02   .916393424625E-02   .100757686173E-01   .109939789522E-01
   .119127403294E-01   .128254091164E-01   .137244545094E-01   .146013874512E-01   .154466875247E-01
   .162497287251E-01   .169987054222E-01   .176805603012E-01   .182809164509E-01   .187840155702E-01
   .191726625170E-01   .194281718035E-01   .195303036636E-01   .194571691115E-01   .191850840508E-01
   .186883725185E-01   .179391559182E-01   .169071927011E-01   .155598196063E-01   .138619906720E-01
   .117763573181E-01   .926332827185E-02   .628108658620E-02   .278557796959E-02  -.126950532033E-02
  -.593272908570E-02  -.112549051725E-01  -.172890643319E-01  -.240904181795E-01  -.317163150650E-01
  -.402261943607E-01  -.496815431480E-01  -.601458588641E-01  -.716846213574E-01  -.843652780355E-01
  -.982572463524E-01  -.113431938710E+00  -.129962815882E+00  -.147925476302E+00  -.167397789939E+00
  -.188460087115E+00  -.211195414457E+00  -.235689872331E+00
 pseudo wavefunction
   .563540859347E-08   .600786626449E-08   .640494055630E-08   .682825844040E-08   .727955441873E-08
   .776067763064E-08   .827359942951E-08   .882042146020E-08   .940338427033E-08   .100248764907E-07
   .106874446223E-07   .113938034707E-07   .121468472693E-07   .129496615384E-07   .138055357278E-07
   .147179766947E-07   .156907230730E-07   .167277605920E-07   .178333384073E-07   .190119865113E-07
   .202685342946E-07   .216081303335E-07   .230362634864E-07   .245587853833E-07   .261819344024E-07
   .279123612313E-07   .297571561175E-07   .317238779199E-07   .338205850803E-07   .360558686425E-07
   .384388874527E-07   .409794056871E-07   .436878328599E-07   .465752664748E-07   .496535374959E-07
   .529352588242E-07   .564338769774E-07   .601637271855E-07   .641400921283E-07   .683792645541E-07
   .728986140379E-07   .777166581514E-07   .828531383365E-07   .883291007943E-07   .941669827191E-07
   .100390704233E-06   .107025766396E-06   .114099355693E-06   .121640455429E-06   .129679964484E-06
   .138250823918E-06   .147388151945E-06   .157129387824E-06   .167514445263E-06   .178585875960E-06
   .190389043959E-06   .202972311517E-06   .216387237268E-06   .230688787478E-06   .245935561260E-06
   .262190030684E-06   .279518796742E-06   .297992862244E-06   .317687922738E-06   .338684676672E-06
   .361069156038E-06   .384933078884E-06   .410374225117E-06   .437496837143E-06   .466412046989E-06
   .497238331653E-06   .530101998551E-06   .565137703044E-06   .602489000172E-06   .642308932854E-06
   .684760658963E-06   .730018119842E-06   .778266753009E-06   .829704251961E-06   .884541376196E-06
   .943002814778E-06   .100532810696E-05   .107177262367E-05   .114260861386E-05   .121812631999E-05
   .129863516728E-05   .138446503151E-05   .147596759065E-05   .157351776580E-05   .167751525736E-05
   .178838618277E-05   .190658482240E-05   .203259548094E-05   .216693447172E-05   .231015223223E-05
   .246283557942E-05   .262561011405E-05   .279914278403E-05   .298414461703E-05   .318137363380E-05
   .339163795400E-05   .361579910726E-05   .385477556313E-05   .410954649424E-05   .438115578827E-05
   .467071632493E-05   .497941453575E-05   .530851526509E-05   .565936695252E-05   .603340715757E-05
   .643216844969E-05   .685728468745E-05   .731049771266E-05   .779366448694E-05   .830876469991E-05
   .885790888011E-05   .944334704203E-05   .100674779045E-04   .107328587184E-04   .114422157435E-04
   .121984554180E-04   .130046762663E-04   .138641815928E-04   .147804930159E-04   .157573648950E-04
   .167987997114E-04   .179090644660E-04   .190927081599E-04   .203545804298E-04   .216998514160E-04
   .231340329418E-04   .246630010932E-04   .262930202900E-04   .280307689477E-04   .298833668347E-04
   .318584042369E-04   .339639730489E-04   .362086999200E-04   .386017815894E-04   .411530225552E-04
   .438728752333E-04   .467724827673E-04   .498637246677E-04   .531592654645E-04   .566726065746E-04
   .604181415935E-04   .644112152397E-04   .686681861917E-04   .732064940741E-04   .780447308677E-04
   .832027170341E-04   .887015826677E-04   .945638540041E-04   .100813545640E-03   .107476258843E-03
   .114579286345E-03   .122151724057E-03   .130224590157E-03   .138830952031E-03   .148006061597E-03
   .157787499549E-03   .168215329124E-03   .179332260004E-03   .191183823034E-03   .203818556458E-03
   .217288204431E-03   .231647928618E-03   .246956533745E-03   .263276708003E-03   .280675279299E-03
   .299223488379E-03   .318997279940E-03   .340077612913E-03   .362550791159E-03   .386508815934E-03
   .412049761538E-03   .439278175667E-03   .468305506086E-03   .499250555342E-03   .532239965345E-03
   .567408733777E-03   .604900764394E-03   .644869453427E-03   .687478314448E-03   .732901644181E-03
   .781325231931E-03   .832947115462E-03   .887978386315E-03   .946644047793E-03   .100918392899E-02
   .107585365849E-02   .114692570159E-02   .122269046511E-02   .130345747413E-02   .138955662526E-02
   .148133952139E-02   .157918089300E-02   .168348011159E-02   .179466280119E-02   .191318255387E-02
   .203952275611E-02   .217419853284E-02   .231775881644E-02   .247078854874E-02   .263391102401E-02
   .280779038181E-02   .299313425896E-02   .319069661014E-02   .340128070773E-02   .362574233140E-02
   .386499315908E-02   .412000437119E-02   .439181048093E-02   .468151340366E-02   .499028677951E-02
   .531938056376E-02   .567012590008E-02   .604394029290E-02   .644233309519E-02   .686691132922E-02
   .731938585814E-02   .780157792698E-02   .831542609246E-02   .886299356117E-02   .944647595673E-02
   .100682095365E-01   .107306798791E-01   .114365310642E-01   .121885753659E-01   .129898034814E-01
   .138433953166E-01   .147527313479E-01   .157214045830E-01   .167532331366E-01   .178522734413E-01
   .190228341077E-01   .202694904477E-01   .215970996717E-01   .230108167655E-01   .245161110510E-01
   .261187834253E-01   .278249842710E-01   .296412320197E-01   .315744323432E-01   .336318979367E-01
   .358213688444E-01   .381510332672E-01   .406295487722E-01   .432660638073E-01   .460702394023E-01
   .490522709130E-01   .522229096357E-01   .555934840907E-01   .591759207332E-01   .629827638118E-01
   .670271940485E-01   .713230457611E-01   .758848219909E-01   .807277071372E-01   .858675765219E-01
   .913210022355E-01   .971052545202E-01   .103238297856E+00   .109738780808E+00   .116626018567E+00
   .123919967025E+00   .131641187044E+00   .139810797483E+00   .148450415362E+00   .157582081422E+00
   .167228169129E+00   .177411275073E+00   .188154088481E+00   .199479237473E+00   .211409109499E+00
   .223965643295E+00   .237170089603E+00   .251042737822E+00   .265602605784E+00   .280867089905E+00
   .296851573107E+00   .313568988194E+00   .331029334775E+00   .349239148393E+00   .368200921309E+00
   .387912475432E+00   .408366289161E+00   .429548781600E+00   .451439559571E+00   .474010635347E+00
   .497225625895E+00   .521038947873E+00   .545395026559E+00   .570227541389E+00   .595458735794E+00
   .620998824523E+00   .646745537472E+00   .672583845076E+00   .698385916287E+00   .724011365684E+00
   .749307850846E+00   .774112084099E+00   .798251323299E+00   .821545403372E+00   .843809362604E+00
   .864856703695E+00   .884503307608E+00   .902571986389E+00   .918897617394E+00   .933332743909E+00
   .945753454235E+00   .956065262074E+00   .964208605323E+00   .970163460013E+00   .973952434941E+00
   .975641577861E+00   .975337997314E+00   .973183302052E+00   .969341805567E+00   .963982466511E+00
   .957253674228E+00   .949250286078E+00   .939967137898E+00
 ae wavefunction
   .345880269803E-07   .368147396271E-07   .391630877573E-07   .416408806975E-07   .442563796648E-07
   .470183275065E-07   .499359803346E-07   .530191411165E-07   .562781953533E-07   .597241489837E-07
   .633686686638E-07   .672241245792E-07   .713036359587E-07   .756211194698E-07   .801913406860E-07
   .850299688307E-07   .901536350141E-07   .955799941953E-07   .101327791116E-06   .107416930467E-06
   .113868551572E-06   .120705107882E-06   .127950451600E-06   .135629923775E-06   .143770450234E-06
   .152400643718E-06   .161550912651E-06   .171253576971E-06   .181542991487E-06   .192455677263E-06
   .204030461550E-06   .216308626838E-06   .229334069623E-06   .243153469531E-06   .257816469471E-06
   .273375867567E-06   .289887821608E-06   .307412066875E-06   .326012148197E-06   .345755667189E-06
   .366714545666E-06   .388965306283E-06   .412589371555E-06   .437673382450E-06   .464309537843E-06
   .492595956204E-06   .522637060981E-06   .554543991229E-06   .588435039152E-06   .624436116314E-06
   .662681250411E-06   .703313114606E-06   .746483591562E-06   .792354374454E-06   .841097607392E-06
   .892896567826E-06   .947946393699E-06   .100645485829E-05   .106864319584E-05   .113474698138E-05
   .120501706815E-05   .127972058660E-05   .135914200881E-05   .144358428278E-05   .153337004103E-05
   .162884288848E-05   .173036877475E-05   .183833745647E-05   .195316405540E-05   .207529071870E-05
   .220518838808E-05   .234335868479E-05   .249033591827E-05   .264668922633E-05   .281302485559E-05
   .298998859133E-05   .317826834648E-05   .337859692020E-05   .359175493710E-05   .381857397892E-05
   .405993992120E-05   .431679648841E-05   .459014904167E-05   .488106861436E-05   .519069621170E-05
   .552024739158E-05   .587101714484E-05   .624438509476E-05   .664182103620E-05   .706489083686E-05
   .751526272388E-05   .799471398120E-05   .850513808399E-05   .904855229890E-05   .962710578015E-05
   .102430881938E-04   .108989389041E-04   .115972567594E-04   .123408105145E-04   .131325499332E-04
   .139756176126E-04   .148733615779E-04   .158293486960E-04   .168473789614E-04   .179315007108E-04
   .190860268264E-04   .203155519905E-04   .216249710612E-04   .230194986388E-04   .245046899018E-04
   .260864627920E-04   .277711216371E-04   .295653823016E-04   .314763989640E-04   .335117926256E-04
   .356796814598E-04   .379887131204E-04   .404480991341E-04   .430676515087E-04   .458578216993E-04
   .488297420813E-04   .519952700901E-04   .553670351951E-04   .589584888889E-04   .627839578816E-04
   .668587007013E-04   .711989679173E-04   .758220662119E-04   .807464265434E-04   .859916766568E-04
   .915787182129E-04   .975298088258E-04   .103868649313E-03   .110620476484E-03   .117812161806E-03
   .125472316323E-03   .133631402195E-03   .142321851285E-03   .151578191213E-03   .161437179343E-03
   .171937945185E-03   .183122141720E-03   .195034106204E-03   .207721031012E-03   .221233145136E-03
   .235623906972E-03   .250950209091E-03   .267272595685E-03   .284655493464E-03   .303167456795E-03
   .322881427931E-03   .343875013202E-03   .366230776132E-03   .390036548445E-03   .415385760012E-03
   .442377788834E-03   .471118332212E-03   .501719800316E-03   .534301733429E-03   .568991244209E-03
   .605923486367E-03   .645242151254E-03   .687099993885E-03   .731659390044E-03   .779092926154E-03
   .829584023705E-03   .883327600092E-03   .940530767818E-03   .100141357408E-02   .106620978285E-02
   .113516770174E-02   .120855105577E-02   .128663991061E-02   .136973164774E-02   .145814199397E-02
   .155220610817E-02   .165227972784E-02   .175874037846E-02   .187198864842E-02   .199244953274E-02
   .212057384858E-02   .225683972563E-02   .240175417491E-02   .255585473900E-02   .271971122729E-02
   .289392753957E-02   .307914358152E-02   .327603727554E-02   .348532667035E-02   .370777215312E-02
   .394417876724E-02   .419539863956E-02   .446233352010E-02   .474593743783E-02   .504721947541E-02
   .536724666607E-02   .570714701529E-02   .606811265001E-02   .645140309744E-02   .685834869576E-02
   .729035413788E-02   .774890214992E-02   .823555730457E-02   .875196996978E-02   .929988039215E-02
   .988112291363E-02   .104976303197E-01   .111514383156E-01   .118446901277E-01   .125796412233E-01
   .133586641445E-01   .141842534468E-01   .150590307347E-01   .159857497830E-01   .169673017313E-01
   .180067203384E-01   .191071872789E-01   .202720374648E-01   .215047643706E-01   .228090253387E-01
   .241886468392E-01   .256476296546E-01   .271901539582E-01   .288205842499E-01   .305434741118E-01
   .323635707393E-01   .342858192035E-01   .363153663933E-01   .384575645820E-01   .407179745612E-01
   .431023682761E-01   .456167308958E-01   .482672622432E-01   .510603775081E-01   .540027071583E-01
   .571010959597E-01   .603626010131E-01   .637944887051E-01   .674042304707E-01   .711994972565E-01
   .751881525675E-01   .793782439807E-01   .837779929965E-01   .883957831019E-01   .932401459101E-01
   .983197452423E-01   .103643359011E+00   .109219858768E+00   .115058186771E+00   .121167330436E+00
   .127556294036E+00   .134234067512E+00   .141209592272E+00   .148491723865E+00   .156089191418E+00
   .164010553754E+00   .172264152109E+00   .180858059409E+00   .189800026080E+00   .199097422382E+00
   .208757177326E+00   .218785714228E+00   .229188883025E+00   .239971889488E+00   .251139221539E+00
   .262694572877E+00   .274640764188E+00   .286979662183E+00   .299712096784E+00   .312837776678E+00
   .326355203518E+00   .340261584915E+00   .354552746333E+00   .369223041887E+00   .384265263953E+00
   .399670551406E+00   .415428296305E+00   .431526048923E+00   .447949421271E+00   .464681989806E+00
   .481705198910E+00   .498998268148E+00   .516538108581E+00   .534299256830E+00   .552253840873E+00
   .570371599694E+00   .588619990658E+00   .606964434030E+00   .625368759241E+00   .643795919193E+00
   .662208997143E+00   .680572398679E+00   .698852865629E+00   .717019633899E+00   .735042944768E+00
   .752890589331E+00   .770523296286E+00   .787890909173E+00   .804931355401E+00   .821572952966E+00
   .837738646284E+00   .853350000447E+00   .868329655898E+00   .882602263867E+00   .896094573156E+00
   .908735288781E+00   .920455036227E+00   .931186536235E+00   .940864977431E+00   .949428530232E+00
   .956818937764E+00   .962982127564E+00   .967868801554E+00   .971434976111E+00   .973642456203E+00
   .974459236487E+00   .973859827995E+00   .971825512270E+00   .968344526450E+00   .963412183401E+00
   .957030931285E+00   .949210356990E+00   .939967137898E+00
 pseudo wavefunction
  -.279100332060E-08  -.297546742365E-08  -.317212320158E-08  -.338177643140E-08  -.360528614584E-08
  -.384356815318E-08  -.409759878966E-08  -.436841891992E-08  -.465713820182E-08  -.496493963318E-08
  -.529308439896E-08  -.564291703887E-08  -.601587095646E-08  -.641347429233E-08  -.683735618556E-08
  -.728925344894E-08  -.777101768534E-08  -.828462287450E-08  -.883217346120E-08  -.941591297798E-08
  -.100382332378E-07  -.107016841344E-07  -.114089840897E-07  -.121630311930E-07  -.129669150751E-07
  -.138239295678E-07  -.147375862001E-07  -.157116285863E-07  -.167500477652E-07  -.178570985526E-07
  -.190373169755E-07  -.202955388575E-07  -.216369196333E-07  -.230669554724E-07  -.245915057993E-07
  -.262168173018E-07  -.279495495259E-07  -.297968021628E-07  -.317661441390E-07  -.338656446294E-07
  -.361039061195E-07  -.384900996534E-07  -.410340024109E-07  -.437460377687E-07  -.466373180090E-07
  -.497196898505E-07  -.530057829893E-07  -.565090618476E-07  -.602438807426E-07  -.642255427017E-07
  -.684703621646E-07  -.729957318304E-07  -.778201939216E-07  -.829635161588E-07  -.884467727567E-07
  -.942924307731E-07  -.100524442165E-06  -.107168341928E-06  -.114251352723E-06  -.121802496421E-06
  -.129852713009E-06  -.138434987371E-06  -.147584484433E-06  -.157338693248E-06  -.167737580606E-06
  -.178823754787E-06  -.190642640146E-06  -.203242663231E-06  -.216675451205E-06  -.230996043379E-06
  -.246263116728E-06  -.262539226313E-06  -.279891061585E-06  -.298389719639E-06  -.318110996522E-06
  -.339135697790E-06  -.361549969599E-06  -.385445651673E-06  -.410920653597E-06  -.438079355985E-06
  -.467033038159E-06  -.497900334092E-06  -.530807718486E-06  -.565890024977E-06  -.603290998579E-06
  -.643163884653E-06  -.685672056786E-06  -.730989686178E-06  -.779302455259E-06  -.830808318475E-06
  -.885718313346E-06  -.944257425134E-06  -.100666550865E-05  -.107319827097E-05  -.114412831913E-05
  -.121974627702E-05  -.130036197611E-05  -.138630572487E-05  -.147792966206E-05  -.157560919949E-05
  -.167974456009E-05  -.179076241763E-05  -.190911764480E-05  -.203529517683E-05  -.216981199824E-05
  -.231321926086E-05  -.246610454188E-05  -.262909425103E-05  -.280285619688E-05  -.298810232272E-05
  -.318559162316E-05  -.339613325358E-05  -.362058984486E-05  -.385988103730E-05  -.411498724795E-05
  -.438695368687E-05  -.467689463877E-05  -.498599802752E-05  -.531553028225E-05  -.566684152493E-05
  -.604137110065E-05  -.644065347328E-05  -.686632451062E-05  -.732012818467E-05  -.780392371464E-05
  -.831969318161E-05  -.886954964637E-05  -.945574580324E-05  -.100806832056E-04  -.107469221007E-04
  -.114571919139E-04  -.122144024253E-04  -.130216556843E-04  -.138822587115E-04  -.147997370379E-04
  -.157778491399E-04  -.168206018252E-04  -.179322666362E-04  -.191173973350E-04  -.203808485423E-04
  -.217277956078E-04  -.231637557902E-04  -.246946108353E-04  -.263266310442E-04  -.280665009288E-04
  -.299213465589E-04  -.318987647140E-04  -.340068539568E-04  -.362542477552E-04  -.386501497879E-04
  -.412043715772E-04  -.439273726015E-04  -.468303030501E-04  -.499250493950E-04  -.532242829633E-04
  -.567415117076E-04  -.604911353844E-04  -.644885043632E-04  -.687499823040E-04  -.732930129577E-04
  -.781361913574E-04  -.832993396886E-04  -.888035881438E-04  -.946714610865E-04  -.100926968871E-03
  -.107595705689E-03  -.114704953825E-03  -.122283794757E-03  -.130363227527E-03  -.138976294859E-03
  -.148158217538E-03  -.157946537565E-03  -.168381270675E-03  -.179505068800E-03  -.191363393143E-03
  -.204004698523E-03  -.217480629723E-03  -.231846230618E-03  -.247160166882E-03  -.263484963153E-03
  -.280887255575E-03  -.299438060680E-03  -.319213061663E-03  -.340292913127E-03  -.362763565471E-03
  -.386716610145E-03  -.412249647075E-03  -.439466675641E-03  -.468478510647E-03  -.499403224845E-03
  -.532366619614E-03  -.567502725527E-03  -.604954334604E-03  -.644873566158E-03  -.687422468234E-03
  -.732773656763E-03  -.781110994622E-03  -.832630312942E-03  -.887540177094E-03  -.946062699880E-03
  -.100843440462E-02  -.107490714085E-02  -.114574905561E-02  -.122124562321E-02  -.130170073660E-02
  -.138743786363E-02  -.147880127134E-02  -.157615732184E-02  -.167989584301E-02  -.179043157778E-02
  -.190820571524E-02  -.203368750745E-02  -.216737597522E-02  -.230980170646E-02  -.246152875055E-02
  -.262315661189E-02  -.279532234574E-02  -.297870275910E-02  -.317401671921E-02  -.338202757143E-02
  -.360354566834E-02  -.383943101045E-02  -.409059599886E-02  -.435800829868E-02  -.464269381116E-02
  -.494573975085E-02  -.526829782285E-02  -.561158749277E-02  -.597689934018E-02  -.636559848360E-02
  -.677912806178E-02  -.721901275286E-02  -.768686230858E-02  -.818437507615E-02  -.871334147500E-02
  -.927564738919E-02  -.987327742939E-02  -.105083180100E-01  -.111829601782E-01  -.118995021197E-01
  -.126603512567E-01  -.134680258372E-01  -.143251559008E-01  -.152344834894E-01  -.161988619506E-01
  -.172212541600E-01  -.183047294655E-01  -.194524591272E-01  -.206677099968E-01  -.219538361483E-01
  -.233142681308E-01  -.247524994748E-01  -.262720700375E-01  -.278765457220E-01  -.295694940484E-01
  -.313544549982E-01  -.332349064866E-01  -.352142237462E-01  -.372956318335E-01  -.394821503891E-01
  -.417765296978E-01  -.441811770102E-01  -.466980719964E-01  -.493286701138E-01  -.520737925813E-01
  -.549335015674E-01  -.579069591200E-01  -.609922683005E-01  -.641862949312E-01  -.674844683360E-01
  -.708805594534E-01  -.743664347429E-01  -.779317843870E-01  -.815638234472E-01  -.852469648520E-01
  -.889624634163E-01  -.926880305187E-01  -.963974196265E-01  -.100059983574E+00  -.103640205399E+00
  -.107097205642E+00  -.110384230348E+00  -.113448125613E+00  -.116228806356E+00  -.118658729208E+00
  -.120662381827E+00  -.122155803741E+00  -.123046156855E+00  -.123231367001E+00  -.122599861329E+00
  -.121030429774E+00  -.118392242085E+00  -.114545054827E+00  -.109339644965E+00  -.102618507758E+00
  -.942168562765E-01  -.839639573143E-01  -.716848331267E-01  -.572023496269E-01  -.403396986013E-01
  -.209232634852E-01   .121416534536E-02   .262298892774E-01   .542676129321E-01   .854537073972E-01
   .119893607610E+00   .157668569643E+00   .198833051986E+00   .243413010949E+00   .291405404078E+00
   .342779164013E+00   .397477822421E+00   .455423810756E+00   .516524221269E+00   .580677457773E+00
   .647779725320E+00   .717729694069E+00   .790428935263E+00   .865774902453E+00   .943642393869E+00
   .102384870860E+01   .110609729177E+01   .118988811168E+01
 ae wavefunction
  -.116542067594E-07  -.124044977761E-07  -.131957736016E-07  -.140306656112E-07  -.149119574462E-07
  -.158425950344E-07  -.168256972502E-07  -.178645672328E-07  -.189627044082E-07  -.201238172617E-07
  -.213518369099E-07  -.226509315269E-07  -.240255216803E-07  -.254802966387E-07  -.270202317135E-07
  -.286506067059E-07  -.303770255296E-07  -.322054370900E-07  -.341421575006E-07  -.361938937267E-07
  -.383677687500E-07  -.406713483551E-07  -.431126696449E-07  -.457002713986E-07  -.484432263953E-07
  -.513511758310E-07  -.544343659691E-07  -.577036871700E-07  -.611707154577E-07  -.648477567899E-07
  -.687478942106E-07  -.728850380733E-07  -.772739795394E-07  -.819304475651E-07  -.868711696074E-07
  -.921139362941E-07  -.976776703179E-07  -.103582499833E-06  -.109849836650E-06  -.116502459544E-06
  -.123564603011E-06  -.131062051839E-06  -.139022241858E-06  -.147474367297E-06  -.156449495165E-06
  -.165980687121E-06  -.176103129339E-06  -.186854270866E-06  -.198273971060E-06  -.210404656679E-06
  -.223291489277E-06  -.236982543566E-06  -.251528997468E-06  -.266985334637E-06  -.283409560247E-06
  -.300863430940E-06  -.319412699843E-06  -.339127377657E-06  -.360082010861E-06  -.382355978163E-06
  -.406033806394E-06  -.431205507107E-06  -.457966935252E-06  -.486420171376E-06  -.516673928875E-06
  -.548843987947E-06  -.583053658010E-06  -.619434270419E-06  -.658125703492E-06  -.699276941957E-06
  -.743046673053E-06  -.789603921719E-06  -.839128727392E-06  -.891812865166E-06  -.947860614192E-06
  -.100748957643E-05  -.107093154901E-05  -.113843345377E-05  -.121025832760E-05  -.128668637772E-05
  -.136801610591E-05  -.145456550650E-05  -.154667334260E-05  -.164470050592E-05  -.174903146549E-05
  -.186007581124E-05  -.197826989835E-05  -.210407859921E-05  -.223799716990E-05  -.238055323851E-05
  -.253230892350E-05  -.269386309025E-05  -.286585375507E-05  -.304896064599E-05  -.324390793075E-05
  -.345146712267E-05  -.367246017595E-05  -.390776278282E-05  -.415830788548E-05  -.442508941676E-05
  -.470916628434E-05  -.501166661428E-05  -.533379227057E-05  -.567682366857E-05  -.604212490128E-05
  -.643114919862E-05  -.684544474122E-05  -.728666085140E-05  -.775655458580E-05  -.825699775532E-05
  -.878998439987E-05  -.935763874710E-05  -.996222368613E-05  -.106061497892E-04  -.112919849164E-04
  -.120224644406E-04  -.128005021321E-04  -.136292017456E-04  -.145118693528E-04  -.154520264704E-04
  -.164534240312E-04  -.175200572543E-04  -.186561814691E-04  -.198663289557E-04  -.211553268635E-04
  -.225283162782E-04  -.239907725076E-04  -.255485266641E-04  -.272077886245E-04  -.289751714536E-04
  -.308577173829E-04  -.328629254418E-04  -.349987808435E-04  -.372737862353E-04  -.396969949279E-04
  -.422780462274E-04  -.450272029982E-04  -.479553915954E-04  -.510742443111E-04  -.543961444887E-04
  -.579342744694E-04  -.617026665405E-04  -.657162570707E-04  -.699909440230E-04  -.745436480496E-04
  -.793923773845E-04  -.845562967609E-04  -.900558005919E-04  -.959125906717E-04  -.102149758660E-03
  -.108791873636E-03  -.115865075016E-03  -.123397171149E-03  -.131417743923E-03  -.139958259726E-03
  -.149052187125E-03  -.158735121661E-03  -.169044918139E-03  -.180021830872E-03  -.191708662286E-03
  -.204150920391E-03  -.217396985582E-03  -.231498287289E-03  -.246509491031E-03  -.262488696406E-03
  -.279497646635E-03  -.297601950258E-03  -.316871315613E-03  -.337379798797E-03  -.359206065760E-03
  -.382433669297E-03  -.407151341649E-03  -.433453303517E-03  -.461439590281E-03  -.491216396253E-03
  -.522896437828E-03  -.556599336408E-03  -.592452022021E-03  -.630589158538E-03  -.671153591471E-03
  -.714296819297E-03  -.760179489312E-03  -.808971919000E-03  -.860854643940E-03  -.916018993258E-03
  -.974667693643E-03  -.103701550293E-02  -.110328987428E-02  -.117373165185E-02  -.124859579904E-02
  -.132815216011E-02  -.141268625609E-02  -.150250011577E-02  -.159791314254E-02  -.169926301765E-02
  -.180690664054E-02  -.192122110648E-02  -.204260472202E-02  -.217147805810E-02  -.230828504096E-02
  -.245349408034E-02  -.260759923450E-02  -.277112141118E-02  -.294460960335E-02  -.312864215812E-02
  -.332382807689E-02  -.353080834438E-02  -.375025728348E-02  -.398288393254E-02  -.422943344082E-02
  -.449068847740E-02  -.476747064777E-02  -.506064191174E-02  -.537110599514E-02  -.569980978681E-02
  -.604774471137E-02  -.641594806671E-02  -.680550431407E-02  -.721754630679E-02  -.765325644248E-02
  -.811386772120E-02  -.860066469065E-02  -.911498425698E-02  -.965821633760E-02  -.102318043300E-01
  -.108372453676E-01  -.114760903311E-01  -.121499435805E-01  -.128604623686E-01  -.136093558956E-01
  -.143983839573E-01  -.152293551373E-01  -.161041244889E-01  -.170245906457E-01  -.179926922974E-01
  -.190104039593E-01  -.200797309592E-01  -.212027035591E-01  -.223813701213E-01  -.236177892228E-01
  -.249140206129E-01  -.262721149025E-01  -.276941018621E-01  -.291819772014E-01  -.307376876894E-01
  -.323631144669E-01  -.340600543932E-01  -.358301992573E-01  -.376751126749E-01  -.395962044805E-01
  -.415947024138E-01  -.436716208885E-01  -.458277266219E-01  -.480635008913E-01  -.503790981760E-01
  -.527743009314E-01  -.552484702362E-01  -.578004920430E-01  -.604287187595E-01  -.631309058800E-01
  -.659041433832E-01  -.687447816140E-01  -.716483513616E-01  -.746094778523E-01  -.776217883748E-01
  -.806778132642E-01  -.837688799724E-01  -.868849999614E-01  -.900147481647E-01  -.931451347659E-01
  -.962614690568E-01  -.993472151489E-01  -.102383839329E+00  -.105350648884E+00  -.108224622255E+00
  -.110980230477E+00  -.113589249961E+00  -.116020566855E+00  -.118239973483E+00  -.120209957715E+00
  -.121889486565E+00  -.123233785983E+00  -.124194119546E+00  -.124717569791E+00  -.124746827215E+00
  -.124219993528E+00  -.123070407576E+00  -.121226503932E+00  -.118611714138E+00  -.115144416120E+00
  -.110737923637E+00  -.105300480905E+00  -.987351922876E-01  -.909397990956E-01  -.818062623135E-01
  -.712202497639E-01  -.590607954837E-01  -.452004418151E-01  -.295059878331E-01  -.118396629322E-01
   .793961119861E-02   .299750801289E-01   .544111019193E-01   .813920105918E-01   .111060751685E+00
   .143557217466E+00   .179016260798E+00   .217565385042E+00   .259322106952E+00   .304390982216E+00
   .352860275065E+00   .404798246896E+00   .460249035383E+00   .519228095764E+00   .581717179741E+00
   .647658834662E+00   .716950416187E+00   .789437621611E+00   .864907568857E+00   .943081468528E+00
   .102360696409E+01   .110605024916E+01   .118988811168E+01
 End of Dataset
 PAW_PBE N 08Apr2002
 5.00000000000000000
 parameters from PSCTR are:
   VRHFIN =N: s2p3
   LEXCH  = PE
   EATOM  =   264.5486 eV,   19.4438 Ry

   TITEL  = PAW_PBE N 08Apr2002
   LULTRA =        F    use ultrasoft PP ?
   IUNSCR =        0    unscreen: 0-lin 1-nonlin 2-no
   RPACOR =     .000    partial core radius
   POMASS =   14.001; ZVAL   =    5.000    mass and valenz
   RCORE  =    1.500    outmost cutoff radius
   RWIGS  =    1.400; RWIGS  =     .741    wigner-seitz radius (au A)
   ENMAX  =  400.000; ENMIN  =  300.000 eV
   ICORE  =        2    local potential
   LCOR   =        T    correct aug charges
   LPAW   =        T    paw PP
   EAUG   =  627.112
   DEXC   =     .000
   RMAX   =    2.247    core radius for proj-oper
   RAUG   =    1.300    factor for augmentation sphere
   RDEP   =    1.514    radius for radial grids
   QCUT   =   -5.562; QGAM   =   11.124    optimization parameters
 
   Description
     l     E      TYP  RCUT    TYP  RCUT
     0   .000     23  1.200
     0   .000     23  1.200
     1   .000     23  1.500
     1   .700     23  1.500
     2   .000      7  1.500
   Error from kinetic energy argument (eV)
   NDATA  =      100
   STEP   =   20.000   1.050
  106.      104.      102.      99.8      98.5      95.8      93.0      91.6
  88.9      86.1      84.8      82.0      79.3      76.6      73.9      71.2
  68.6      66.1      63.5      59.9      57.5      55.1      51.7      49.5
  47.4      44.3      41.4      39.5      36.8      34.2      31.7      29.4
  27.2      25.1      23.2      21.4      19.1      17.5      15.6      14.2
  12.6      11.1      9.72      8.50      7.41      6.43      5.55      4.60
  3.93      3.21      2.60      2.18      1.74      1.37      1.02      .784
  .597      .422      .293      .199      .133      .872E-01  .567E-01  .347E-01
  .238E-01  .169E-01  .137E-01  .123E-01  .116E-01  .109E-01  .100E-01  .875E-02
  .733E-02  .589E-02  .445E-02  .343E-02  .259E-02  .207E-02  .177E-02  .163E-02
  .153E-02  .142E-02  .127E-02  .106E-02  .841E-03  .647E-03  .505E-03  .416E-03
  .381E-03  .372E-03  .362E-03  .337E-03  .285E-03  .227E-03  .173E-03  .137E-03
  .121E-03  .118E-03  .117E-03  .109E-03
END of PSCTR-controll parameters
 local part
 124.721915246208937
   .21525339E+02   .21525656E+02   .21522032E+02   .21515994E+02   .21507544E+02
   .21496684E+02   .21483417E+02   .21467744E+02   .21449665E+02   .21429180E+02
   .21406285E+02   .21380973E+02   .21353237E+02   .21323066E+02   .21290447E+02
   .21255363E+02   .21217798E+02   .21177730E+02   .21135137E+02   .21089993E+02
   .21042269E+02   .20991935E+02   .20938955E+02   .20883291E+02   .20824902E+02
   .20763740E+02   .20699757E+02   .20632897E+02   .20563104E+02   .20490316E+02
   .20414467E+02   .20335489E+02   .20253311E+02   .20167858E+02   .20079052E+02
   .19986815E+02   .19891065E+02   .19791718E+02   .19688691E+02   .19581898E+02
   .19471256E+02   .19356678E+02   .19238082E+02   .19115386E+02   .18988510E+02
   .18857379E+02   .18721920E+02   .18582064E+02   .18437751E+02   .18288922E+02
   .18135529E+02   .17977528E+02   .17814885E+02   .17647574E+02   .17475579E+02
   .17298894E+02   .17117523E+02   .16931482E+02   .16740800E+02   .16545516E+02
   .16345683E+02   .16141367E+02   .15932649E+02   .15719621E+02   .15502391E+02
   .15281081E+02   .15055825E+02   .14826774E+02   .14594092E+02   .14357955E+02
   .14118556E+02   .13876099E+02   .13630801E+02   .13382893E+02   .13132616E+02
   .12880223E+02   .12625979E+02   .12370157E+02   .12113038E+02   .11854915E+02
   .11596085E+02   .11336851E+02   .11077523E+02   .10818414E+02   .10559840E+02
   .10302120E+02   .10045571E+02   .97905115E+01   .95372582E+01   .92861240E+01
   .90374180E+01   .87914439E+01   .85484988E+01   .83088720E+01   .80728442E+01
   .78406858E+01   .76126566E+01   .73890041E+01   .71699631E+01   .69557544E+01
   .67465841E+01   .65426430E+01   .63441057E+01   .61511301E+01   .59638566E+01
   .57824083E+01   .56068897E+01   .54373873E+01   .52739689E+01   .51166837E+01
   .49655622E+01   .48206165E+01   .46818399E+01   .45492079E+01   .44226782E+01
   .43021908E+01   .41876690E+01   .40790200E+01   .39761350E+01   .38788905E+01
   .37871488E+01   .37007590E+01   .36195579E+01   .35433708E+01   .34720127E+01
   .34052892E+01   .33429977E+01   .32849282E+01   .32308648E+01   .31805866E+01
   .31338688E+01   .30904841E+01   .30502033E+01   .30127969E+01   .29780362E+01
   .29456937E+01   .29155452E+01   .28873698E+01   .28609512E+01   .28360790E+01
   .28125490E+01   .27901639E+01   .27687349E+01   .27480813E+01   .27280320E+01
   .27084252E+01   .26891097E+01   .26699448E+01   .26508007E+01   .26315588E+01
   .26121120E+01   .25923646E+01   .25722323E+01   .25516426E+01   .25305342E+01
   .25088570E+01   .24865720E+01   .24636508E+01   .24400754E+01   .24158380E+01
   .23909399E+01   .23653919E+01   .23392129E+01   .23124300E+01   .22850775E+01
   .22571964E+01   .22288337E+01   .22000418E+01   .21708779E+01   .21414029E+01
   .21116813E+01   .20817801E+01   .20517682E+01   .20217158E+01   .19916937E+01
   .19617727E+01   .19320229E+01   .19025133E+01   .18733110E+01   .18444807E+01
   .18160846E+01   .17881814E+01   .17608263E+01   .17340705E+01   .17079608E+01
   .16825394E+01   .16578438E+01   .16339065E+01   .16107548E+01   .15884108E+01
   .15668912E+01   .15462077E+01   .15263665E+01   .15073689E+01   .14892109E+01
   .14718839E+01   .14553744E+01   .14396646E+01   .14247325E+01   .14105520E+01
   .13970938E+01   .13843248E+01   .13722094E+01   .13607093E+01   .13497838E+01
   .13393906E+01   .13294859E+01   .13200246E+01   .13109613E+01   .13022499E+01
   .12938446E+01   .12856999E+01   .12777710E+01   .12700145E+01   .12623879E+01
   .12548507E+01   .12473643E+01   .12398923E+01   .12324005E+01   .12248576E+01
   .12172348E+01   .12095065E+01   .12016498E+01   .11936452E+01   .11854762E+01
   .11771294E+01   .11685948E+01   .11598655E+01   .11509376E+01   .11418104E+01
   .11324859E+01   .11229692E+01   .11132678E+01   .11033919E+01   .10933538E+01
   .10831683E+01   .10728517E+01   .10624224E+01   .10519000E+01   .10413055E+01
   .10306609E+01   .10199890E+01   .10093131E+01   .99865680E+00   .98804386E+00
   .97749779E+00   .96704175E+00   .95669834E+00   .94648935E+00   .93643563E+00
   .92655684E+00   .91687140E+00   .90739622E+00   .89814668E+00   .88913645E+00
   .88037744E+00   .87187970E+00   .86365138E+00   .85569867E+00   .84802583E+00
   .84063513E+00   .83352693E+00   .82669967E+00   .82014993E+00   .81387250E+00
   .80786048E+00   .80210534E+00   .79659704E+00   .79132416E+00   .78627401E+00
   .78143278E+00   .77678567E+00   .77231706E+00   .76801063E+00   .76384956E+00
   .75981666E+00   .75589452E+00   .75206570E+00   .74831284E+00   .74461884E+00
   .74096699E+00   .73734110E+00   .73372564E+00   .73010585E+00   .72646786E+00
   .72279880E+00   .71908686E+00   .71532140E+00   .71149297E+00   .70759344E+00
   .70361595E+00   .69955501E+00   .69540648E+00   .69116755E+00   .68683680E+00
   .68241411E+00   .67790064E+00   .67329883E+00   .66861230E+00   .66384579E+00
   .65900510E+00   .65409703E+00   .64912922E+00   .64411015E+00   .63904896E+00
   .63395539E+00   .62883965E+00   .62371232E+00   .61858424E+00   .61346641E+00
   .60836984E+00   .60330550E+00   .59828418E+00   .59331638E+00   .58841224E+00
   .58358145E+00   .57883312E+00   .57417577E+00   .56961719E+00   .56516443E+00
   .56082372E+00   .55660042E+00   .55249900E+00   .54852299E+00   .54467499E+00
   .54095665E+00   .53736863E+00   .53391070E+00   .53058165E+00   .52737938E+00
   .52430093E+00   .52134251E+00   .51849951E+00   .51576664E+00   .51313789E+00
   .51060670E+00   .50816593E+00   .50580801E+00   .50352496E+00   .50130852E+00
   .49915019E+00   .49704134E+00   .49497326E+00   .49293726E+00   .49092475E+00
   .48892731E+00   .48693675E+00   .48494521E+00   .48294519E+00   .48092966E+00
   .47889205E+00   .47682637E+00   .47472720E+00   .47258976E+00   .47040992E+00
   .46818424E+00   .46590999E+00   .46358515E+00   .46120841E+00   .45877919E+00
   .45629760E+00   .45376445E+00   .45118123E+00   .44855007E+00   .44587369E+00
   .44315541E+00   .44039907E+00   .43760898E+00   .43478991E+00   .43194697E+00
   .42908561E+00   .42621155E+00   .42333070E+00   .42044910E+00   .41757289E+00
   .41470822E+00   .41186120E+00   .40903785E+00   .40624400E+00   .40348532E+00
   .40076717E+00   .39809463E+00   .39547240E+00   .39290481E+00   .39039573E+00
   .38794858E+00   .38556629E+00   .38325127E+00   .38100542E+00   .37883007E+00
   .37672604E+00   .37469358E+00   .37273241E+00   .37084172E+00   .36902018E+00
   .36726597E+00   .36557677E+00   .36394984E+00   .36238201E+00   .36086973E+00
   .35940913E+00   .35799601E+00   .35662593E+00   .35529423E+00   .35399608E+00
   .35272654E+00   .35148058E+00   .35025318E+00   .34903928E+00   .34783395E+00
   .34663234E+00   .34542975E+00   .34422169E+00   .34300390E+00   .34177240E+00
   .34052349E+00   .33925382E+00   .33796042E+00   .33664065E+00   .33529231E+00
   .33391360E+00   .33250314E+00   .33105997E+00   .32958359E+00   .32807388E+00
   .32653120E+00   .32495627E+00   .32335023E+00   .32171462E+00   .32005131E+00
   .31836251E+00   .31665075E+00   .31491884E+00   .31316983E+00   .31140699E+00
   .30963376E+00   .30785373E+00   .30607060E+00   .30428812E+00   .30251011E+00
   .30074035E+00   .29898258E+00   .29724048E+00   .29551761E+00   .29381738E+00
   .29214302E+00   .29049756E+00   .28888379E+00   .28730425E+00   .28576120E+00
   .28425659E+00   .28279207E+00   .28136897E+00   .27998827E+00   .27865064E+00
   .27735638E+00   .27610546E+00   .27489752E+00   .27373187E+00   .27260749E+00
   .27152307E+00   .27047699E+00   .26946740E+00   .26849215E+00   .26754889E+00
   .26663508E+00   .26574798E+00   .26488473E+00   .26404232E+00   .26321767E+00
   .26240765E+00   .26160908E+00   .26081879E+00   .26003364E+00   .25925056E+00
   .25846655E+00   .25767874E+00   .25688439E+00   .25608092E+00   .25526595E+00
   .25443730E+00   .25359302E+00   .25273139E+00   .25185093E+00   .25095045E+00
   .25002901E+00   .24908594E+00   .24812086E+00   .24713366E+00   .24612449E+00
   .24509379E+00   .24404226E+00   .24297082E+00   .24188065E+00   .24077315E+00
   .23964992E+00   .23851276E+00   .23736361E+00   .23620457E+00   .23503786E+00
   .23386582E+00   .23269082E+00   .23151532E+00   .23034179E+00   .22917272E+00
   .22801054E+00   .22685768E+00   .22571647E+00   .22458917E+00   .22347790E+00
   .22238468E+00   .22131136E+00   .22025964E+00   .21923101E+00   .21822680E+00
   .21724813E+00   .21629588E+00   .21537076E+00   .21447322E+00   .21360349E+00
   .21276159E+00   .21194731E+00   .21116022E+00   .21039967E+00   .20966484E+00
   .20895467E+00   .20826795E+00   .20760330E+00   .20695917E+00   .20633390E+00
   .20572570E+00   .20513267E+00   .20455284E+00   .20398419E+00   .20342463E+00
   .20287207E+00   .20232442E+00   .20177959E+00   .20123555E+00   .20069032E+00
   .20014199E+00   .19958874E+00   .19902888E+00   .19846082E+00   .19788312E+00
   .19729450E+00   .19669381E+00   .19608010E+00   .19545258E+00   .19481064E+00
   .19415385E+00   .19348199E+00   .19279499E+00   .19209300E+00   .19137633E+00
   .19064547E+00   .18990108E+00   .18914397E+00   .18837513E+00   .18759564E+00
   .18680675E+00   .18600979E+00   .18520621E+00   .18439754E+00   .18358535E+00
   .18277129E+00   .18195704E+00   .18114427E+00   .18033468E+00   .17952994E+00
   .17873169E+00   .17794152E+00   .17716096E+00   .17639144E+00   .17563432E+00
   .17489086E+00   .17416218E+00   .17344930E+00   .17275308E+00   .17207425E+00
   .17141341E+00   .17077099E+00   .17014726E+00   .16954235E+00   .16895623E+00
   .16838871E+00   .16783946E+00   .16730799E+00   .16679368E+00   .16629577E+00
   .16581339E+00   .16534554E+00   .16489113E+00   .16444896E+00   .16401778E+00
   .16359624E+00   .16318296E+00   .16277652E+00   .16237545E+00   .16197831E+00
   .16158362E+00   .16118995E+00   .16079588E+00   .16040004E+00   .16000114E+00
   .15959791E+00   .15918921E+00   .15877397E+00   .15835121E+00   .15792007E+00
   .15747981E+00   .15702980E+00   .15656955E+00   .15609869E+00   .15561698E+00
   .15512431E+00   .15462071E+00   .15410635E+00   .15358150E+00   .15304658E+00
   .15250212E+00   .15194876E+00   .15138724E+00   .15081841E+00   .15024318E+00
   .14966258E+00   .14907765E+00   .14848954E+00   .14789939E+00   .14730842E+00
   .14671785E+00   .14612888E+00   .14554275E+00   .14496066E+00   .14438378E+00
   .14381325E+00   .14325013E+00   .14269547E+00   .14215020E+00   .14161519E+00
   .14109123E+00   .14057900E+00   .14007909E+00   .13959198E+00   .13911804E+00
   .13865753E+00   .13821060E+00   .13777728E+00   .13735749E+00   .13695102E+00
   .13655759E+00   .13617677E+00   .13580805E+00   .13545084E+00   .13510443E+00
   .13476804E+00   .13444084E+00   .13412190E+00   .13381026E+00   .13350490E+00
   .13320479E+00   .13290884E+00   .13261597E+00   .13232509E+00   .13203512E+00
   .13174499E+00   .13145366E+00   .13116014E+00   .13086347E+00   .13056275E+00
   .13025715E+00   .12994591E+00   .12962835E+00   .12930385E+00   .12897193E+00
   .12863214E+00   .12828419E+00   .12792783E+00   .12756295E+00   .12718952E+00
   .12680763E+00   .12641744E+00   .12601923E+00   .12561336E+00   .12520028E+00
   .12478053E+00   .12435471E+00   .12392350E+00   .12348764E+00   .12304794E+00
   .12260523E+00   .12216039E+00   .12171434E+00   .12126801E+00   .12082233E+00
   .12037825E+00   .11993670E+00   .11949860E+00   .11906484E+00   .11863628E+00
   .11821374E+00   .11779797E+00   .11738968E+00   .11698952E+00   .11659805E+00
   .11621578E+00   .11584313E+00   .11548042E+00   .11512791E+00   .11478576E+00
   .11445406E+00   .11413278E+00   .11382182E+00   .11352100E+00   .11323004E+00
   .11294859E+00   .11267623E+00   .11241245E+00   .11215668E+00   .11190830E+00
   .11166662E+00   .11143091E+00   .11120040E+00   .11097429E+00   .11075175E+00
   .11053195E+00   .11031402E+00   .11009712E+00   .10988040E+00   .10966304E+00
   .10944423E+00   .10922320E+00   .10899923E+00   .10877162E+00   .10853974E+00
   .10830301E+00   .10806092E+00   .10781303E+00   .10755896E+00   .10729840E+00
   .10703113E+00   .10675700E+00   .10647594E+00   .10618796E+00   .10589315E+00
   .10559167E+00   .10528376E+00   .10496972E+00   .10464995E+00   .10432487E+00
   .10399498E+00   .10366085E+00   .10332307E+00   .10298229E+00   .10263917E+00
   .10229443E+00   .10194880E+00   .10160301E+00   .10125781E+00   .10091395E+00
   .10057217E+00   .10023318E+00   .99897697E-01   .99566386E-01   .99239885E-01
   .98918791E-01   .98603653E-01   .98294967E-01   .97993177E-01   .97698662E-01
   .97411742E-01   .97132669E-01   .96861627E-01   .96598733E-01   .96344031E-01
   .96097497E-01   .95859038E-01   .95628491E-01   .95405629E-01   .95190160E-01
   .94981733E-01   .94779940E-01   .94584321E-01   .94394371E-01   .94209540E-01
   .94029243E-01   .93852866E-01   .93679768E-01   .93509292E-01   .93340767E-01
   .93173518E-01   .93006871E-01   .92840159E-01   .92672731E-01   .92503954E-01
   .92333221E-01   .92159960E-01   .91983632E-01   .91803744E-01   .91619847E-01
   .91431542E-01   .91238485E-01   .91040388E-01   .90837022E-01   .90628218E-01
   .90413869E-01   .90193931E-01   .89968422E-01   .89737421E-01   .89501068E-01
   .89259562E-01   .89013159E-01   .88762166E-01   .88506941E-01   .88247890E-01
   .87985457E-01   .87720125E-01   .87452409E-01   .87182851E-01   .86912012E-01
   .86640472E-01   .86368819E-01   .86097646E-01   .85827545E-01   .85559100E-01
   .85292882E-01   .85029445E-01   .84769316E-01   .84512997E-01   .84260954E-01
   .84013616E-01   .83771371E-01   .83534560E-01   .83303480E-01   .83078373E-01
   .82859430E-01   .82646790E-01   .82440535E-01   .82240691E-01   .82047230E-01
   .81860069E-01   .81679071E-01   .81504046E-01   .81334755E-01   .81170913E-01
   .81012190E-01   .80858214E-01   .80708579E-01   .80562846E-01   .80420547E-01
   .80281192E-01   .80144271E-01   .80009262E-01   .79875635E-01   .79742855E-01
   .79610390E-01   .79477716E-01   .79344319E-01   .79209704E-01   .79073398E-01
   .78934952E-01   .78793950E-01   .78650009E-01   .78502783E-01   .78351967E-01
   .78197300E-01   .78038565E-01   .77875592E-01   .77708262E-01   .77536501E-01
   .77360287E-01   .77179649E-01   .76994661E-01   .76805448E-01   .76612179E-01
   .76415069E-01   .76214373E-01   .76010386E-01   .75803438E-01   .75593891E-01
   .75382136E-01   .75168589E-01   .74953683E-01   .74737870E-01   .74521611E-01
   .74305377E-01   .74089637E-01   .73874860E-01   .73661508E-01   .73450030E-01
   .73240859E-01   .73034410E-01   .72831071E-01   .72631205E-01   .72435141E-01
   .72243177E-01   .72055572E-01   .71872547E-01   .71694281E-01   .71520913E-01
   .71352537E-01   .71189203E-01   .71030917E-01   .70877640E-01   .70729290E-01
   .70585743E-01   .70446834E-01   .70312357E-01   .70182071E-01   .70055701E-01
   .69932940E-01   .69813452E-01   .69696878E-01   .69582837E-01   .69470931E-01
   .69360748E-01   .69251869E-01   .69143867E-01   .69036316E-01   .68928792E-01
   .68820879E-01   .68712171E-01   .68602280E-01   .68490835E-01   .68377486E-01
   .68261912E-01   .68143818E-01   .68022941E-01   .67899052E-01   .67771958E-01
   .67641500E-01   .67507561E-01   .67370062E-01   .67228962E-01   .67084264E-01
   .66936007E-01   .66784270E-01   .66629171E-01   .66470865E-01   .66309540E-01
   .66145418E-01   .65978751E-01   .65809819E-01   .65638926E-01   .65466397E-01
   .65292577E-01   .65117825E-01   .64942511E-01   .64767012E-01   .64591710E-01
   .64416986E-01   .64243218E-01   .64070775E-01   .63900018E-01   .63731291E-01
   .63564920E-01   .63401212E-01   .63240448E-01   .63082884E-01   .62928747E-01
   .62778232E-01   .62631504E-01   .62488693E-01   .62349891E-01   .62215160E-01
   .62084521E-01   .61957962E-01   .61835432E-01   .61716848E-01   .61602091E-01
   .61491009E-01   .61383419E-01   .61279111E-01   .61177844E-01   .61079355E-01
   .60983360E-01   .60889555E-01   .60797620E-01   .60707223E-01   .60618021E-01
   .60529668E-01   .60441813E-01   .60354105E-01   .60266201E-01   .60177762E-01
   .60088461E-01   .59997984E-01   .59906036E-01   .59812340E-01   .59716643E-01
   .59618713E-01   .59518349E-01   .59415376E-01   .59309648E-01   .59201053E-01
   .59089509E-01   .58974967E-01   .58857410E-01   .58736857E-01   .58613357E-01
 gradient corrections used for XC
 5
 atomic pseudo charge-density
   .50000000E+01   .49905920E+01   .49625297E+01   .49162908E+01   .48526485E+01
   .47726391E+01   .46775203E+01   .45687233E+01   .44478032E+01   .43163885E+01
   .41761349E+01   .40286837E+01   .38756263E+01   .37184763E+01   .35586481E+01
   .33974423E+01   .32360365E+01   .30754820E+01   .29167034E+01   .27605022E+01
   .26075624E+01   .24584576E+01   .23136596E+01   .21735467E+01   .20384129E+01
   .19084767E+01   .17838898E+01   .16647446E+01   .15510824E+01   .14428999E+01
   .13401557E+01   .12427762E+01   .11506608E+01   .10636865E+01   .98171194E+00
   .90458151E+00   .83212827E+00   .76417698E+00   .70054656E+00   .64105227E+00
   .58550763E+00   .53372598E+00   .48552186E+00   .44071220E+00   .39911723E+00
   .36056131E+00   .32487354E+00   .29188830E+00   .26144558E+00   .23339135E+00
   .20757767E+00   .18386290E+00   .16211167E+00   .14219496E+00   .12399000E+00
   .10738022E+00   .92255114E-01   .78510091E-01   .66046338E-01   .54770616E-01
   .44595079E-01   .35437065E-01   .27218895E-01   .19867655E-01   .13314990E-01
   .74968898E-02   .23534788E-02  -.21711896E-02  -.61293344E-02  -.95696441E-02
  -.12537468E-01  -.15074999E-01  -.17221454E-01  -.19013244E-01  -.20484138E-01
  -.21665420E-01  -.22586039E-01  -.23272752E-01  -.23750261E-01  -.24041341E-01
  -.24166965E-01  -.24146416E-01  -.23997402E-01  -.23736157E-01  -.23377542E-01
  -.22935135E-01  -.22421320E-01  -.21847372E-01  -.21223529E-01  -.20559071E-01
  -.19862388E-01  -.19141041E-01  -.18401826E-01  -.17650830E-01  -.16893487E-01
  -.16134623E-01  -.15378508E-01  -.14628898E-01  -.13889078E-01  -.13161896E-01
  -.12449805E-01  -.11754893E-01  -.11078916E-01  -.10423328E-01  -.97893049E-02
  -.91777749E-02  -.85894391E-02  -.80247948E-02  -.74841557E-02  -.69676714E-02
  -.64753449E-02  -.60070492E-02  -.55625423E-02  -.51414814E-02  -.47434360E-02
  -.43679000E-02  -.40143022E-02  -.36820170E-02  -.33703735E-02  -.30786639E-02
  -.28061514E-02  -.25520773E-02  -.23156672E-02  -.20961372E-02  -.18926989E-02
  -.17045640E-02  -.15309487E-02  -.13710774E-02  -.12241863E-02  -.10895255E-02
  -.96636251E-03  -.85398380E-03  -.75169686E-03  -.65883175E-03  -.57474238E-03
  -.49880750E-03  -.43043156E-03  -.36904518E-03  -.31410564E-03  -.26509696E-03
  -.22153000E-03  -.18294233E-03  -.14889794E-03  -.11898693E-03  -.92824951E-04
  -.70052694E-04  -.50335202E-04  -.33361152E-04  -.18842059E-04  -.65114415E-05
   .38760630E-05   .12545615E-04   .19703113E-04   .25536152E-04   .30214996E-04
   .33893552E-04   .36710342E-04   .38789474E-04   .40241596E-04   .41164839E-04
   .41645733E-04   .41760111E-04   .41573973E-04   .41144334E-04   .40520031E-04
   .39742502E-04   .38846523E-04   .37860918E-04   .36809223E-04   .35710316E-04
   .34579005E-04   .33426582E-04   .32261331E-04   .31089003E-04   .29913252E-04
   .28736026E-04   .27557934E-04   .26378567E-04   .25196786E-04   .24010980E-04
   .22819290E-04   .21619803E-04   .20410715E-04   .19190469E-04   .17957865E-04
   .16712152E-04   .15453087E-04   .14180986E-04   .12896746E-04   .11601858E-04
   .10298397E-04   .89890087E-05   .76768723E-05   .63656651E-05   .50595101E-05
   .37629206E-05   .24807380E-05   .12180659E-05  -.19798875E-07  -.12274369E-05
  -.23993774E-05  -.35301683E-05  -.46144459E-05  -.56470012E-05  -.66228435E-05
  -.75372600E-05  -.83858715E-05  -.91646822E-05  -.98701252E-05  -.10499102E-04
  -.11049014E-04  -.11517794E-04  -.11903922E-04  -.12206444E-04  -.12424981E-04
  -.12559728E-04  -.12611453E-04  -.12581489E-04  -.12471719E-04  -.12284554E-04
  -.12022915E-04  -.11690196E-04  -.11290240E-04  -.10827295E-04  -.10305982E-04
  -.97312494E-05  -.91083283E-05  -.84426897E-05  -.77399963E-05  -.70060550E-05
  -.62467693E-05  -.54680919E-05  -.46759773E-05  -.38763362E-05  -.30749904E-05
  -.22776305E-05  -.14897744E-05  -.71672956E-06   .36443421E-07   .76496339E-06
   .14643586E-05   .21304932E-05   .27595907E-05   .33482533E-05   .38934783E-05
   .43926705E-05   .48436512E-05   .52446635E-05   .55943743E-05   .58918723E-05
   .61366633E-05   .63286623E-05   .64681816E-05   .65559178E-05   .65929340E-05
   .65806415E-05   .65207784E-05   .64153856E-05   .62667826E-05   .60775406E-05
   .58504548E-05   .55885158E-05   .52948804E-05   .49728414E-05   .46257983E-05
   .42572269E-05   .38706503E-05   .34696093E-05   .30576348E-05   .26382202E-05
   .22147954E-05   .17907023E-05   .13691712E-05   .95329963E-06   .54603217E-06
   .15014276E-06  -.23178140E-06  -.59735377E-06  -.94440039E-06  -.12709696E-05
  -.15753399E-05  -.18560253E-05  -.21117787E-05  -.23415937E-05  -.25447040E-05
  -.27205803E-05  -.28689269E-05  -.29896750E-05  -.30829753E-05  -.31491886E-05
  -.31888754E-05  -.32027842E-05  -.31918380E-05  -.31571211E-05  -.30998637E-05
  -.30214269E-05  -.29232866E-05  -.28070174E-05  -.26742757E-05  -.25267834E-05
  -.23663114E-05  -.21946629E-05  -.20136578E-05  -.18251170E-05  -.16308473E-05
  -.14326271E-05  -.12321932E-05  -.10312275E-05  -.83134591E-06  -.63408706E-06
  -.44090291E-06  -.25315007E-06  -.72082309E-07   .10115571E-06   .26553358E-06
   .42013911E-06   .56418111E-06   .69699107E-06   .81802369E-06   .92685633E-06
   .10231874E-05   .11068339E-05   .11777277E-05   .12359116E-05   .12815336E-05
   .13148415E-05   .13361764E-05   .13459651E-05   .13447133E-05   .13329972E-05
   .13114554E-05   .12807803E-05   .12417099E-05   .11950187E-05   .11415093E-05
   .10820039E-05   .10173362E-05   .94834252E-06   .87585502E-06   .80069361E-06
   .72365918E-06   .64552712E-06   .56704124E-06   .48890838E-06   .41179350E-06
   .33631544E-06   .26304326E-06   .19249323E-06   .12512644E-06   .61347112E-07
   .15013959E-08  -.54123064E-07  -.10529706E-06  -.15184918E-06  -.19366454E-06
  -.23068312E-06  -.26289758E-06  -.29035056E-06  -.31313174E-06  -.33137439E-06
  -.34525179E-06  -.35497319E-06  -.36077980E-06  -.36294038E-06  -.36174694E-06
  -.35751024E-06  -.35055532E-06  -.34121710E-06  -.32983599E-06  -.31675370E-06
  -.30230915E-06  -.28683460E-06  -.27065203E-06  -.25406973E-06  -.23737925E-06
  -.22085261E-06  -.20473984E-06  -.18926690E-06  -.17463392E-06  -.16101384E-06
  -.14855140E-06  -.13736248E-06  -.12753383E-06  -.11912313E-06  -.11215946E-06
  -.10664396E-06  -.10255098E-06  -.99829372E-07  -.98404126E-07  -.98178232E-07
  -.99034758E-07  -.10083911E-06  -.10344147E-06  -.10667933E-06  -.11038012E-06
  -.11436396E-06  -.11844637E-06  -.12244103E-06  -.12616246E-06  -.12942871E-06
  -.13206388E-06  -.13390062E-06  -.13478239E-06  -.13456562E-06  -.13312169E-06
  -.13033864E-06  -.12612274E-06  -.12039978E-06  -.11311612E-06  -.10423951E-06
  -.93759592E-07  -.81688225E-07  -.68059479E-07  -.52929400E-07  -.36375516E-07
  -.18496093E-07   .59083727E-09   .20748680E-07   .41823686E-07   .63646550E-07
   .86034184E-07   .10879164E-06   .13171419E-06   .15458944E-06   .17719964E-06
   .19932399E-06   .22074095E-06   .24123065E-06   .26057721E-06   .27857110E-06
   .29501134E-06   .30970775E-06   .32248293E-06   .33317430E-06   .34163585E-06
   .34773977E-06   .35137799E-06   .35246337E-06   .35093080E-06   .34673811E-06
   .33986661E-06   .33032159E-06   .31813243E-06   .30335259E-06   .28605933E-06
   .26635316E-06   .24435712E-06   .22021587E-06   .19409449E-06   .16617715E-06
   .13666557E-06   .10577734E-06   .73744067E-07   .40809388E-07   .72268839E-08
  -.26742112E-07  -.60830778E-07  -.94769116E-07  -.12828631E-06  -.16111307E-06
  -.19298401E-06  -.22363992E-06  -.25283007E-06  -.28031439E-06  -.30586555E-06
  -.32927098E-06  -.35033470E-06  -.36887904E-06  -.38474620E-06  -.39779963E-06
  -.40792521E-06  -.41503227E-06  -.41905440E-06  -.41994998E-06  -.41770262E-06
  -.41232129E-06  -.40384026E-06  -.39231881E-06  -.37784078E-06  -.36051386E-06
  -.34046865E-06  -.31785766E-06  -.29285395E-06  -.26564975E-06  -.23645483E-06
  -.20549476E-06  -.17300905E-06  -.13924918E-06  -.10447650E-06  -.68960099E-07
  -.32974573E-07   .32021886E-08   .39291286E-07   .75015070E-07   .11009939E-06
   .14427579E-06   .17728369E-06   .20887241E-06   .23880320E-06   .26685110E-06
   .29280672E-06   .31647781E-06   .33769079E-06   .35629200E-06   .37214889E-06
   .38515099E-06   .39521062E-06   .40226354E-06   .40626934E-06   .40721161E-06
   .40509793E-06   .39995973E-06   .39185186E-06   .38085203E-06   .36706007E-06
   .35059697E-06   .33160382E-06   .31024055E-06   .28668454E-06   .26112910E-06
   .23378183E-06   .20486289E-06   .17460317E-06   .14324238E-06   .11102709E-06
   .78208763E-07   .45041704E-07   .11781052E-07  -.21319243E-07  -.54008405E-07
  -.86040780E-07  -.11717773E-06  -.14718944E-06  -.17585665E-06  -.20297232E-06
  -.22834310E-06  -.25179075E-06  -.27315341E-06  -.29228671E-06  -.30906475E-06
  -.32338092E-06  -.33514854E-06  -.34430137E-06  -.35079394E-06  -.35460166E-06
  -.35572087E-06  -.35416862E-06  -.34998237E-06  -.34321945E-06  -.33395645E-06
  -.32228841E-06  -.30832788E-06  -.29220390E-06  -.27406076E-06  -.25405678E-06
  -.23236289E-06  -.20916115E-06  -.18464327E-06  -.15900897E-06  -.13246433E-06
  -.10522016E-06  -.77490279E-07  -.49489827E-07  -.21433587E-07   .64656829E-08
   .33998875E-07   .60962109E-07   .87158249E-07   .11239835E-06   .13650303E-06
   .15930374E-06   .18064391E-06   .20038007E-06   .21838274E-06   .23453730E-06
   .24874464E-06   .26092179E-06   .27100231E-06   .27893661E-06   .28469210E-06
   .28825326E-06   .28962146E-06   .28881482E-06   .28586776E-06   .28083059E-06
   .27376886E-06   .26476265E-06   .25390581E-06   .24130495E-06   .22707854E-06
   .21135578E-06   .19427545E-06   .17598476E-06   .15663803E-06   .13639545E-06
   .11542173E-06   .93884811E-07   .71954483E-07   .49801080E-07   .27594155E-07
   .55011930E-08  -.16313651E-07  -.37690755E-07  -.58476192E-07  -.78522823E-07
  -.97691324E-07  -.11585113E-06  -.13288132E-06  -.14867135E-06  -.16312181E-06
  -.17614495E-06  -.18766518E-06  -.19761949E-06  -.20595769E-06  -.21264264E-06
  -.21765028E-06  -.22096960E-06  -.22260256E-06  -.22256382E-06  -.22088046E-06
  -.21759151E-06  -.21274750E-06  -.20640990E-06  -.19865041E-06  -.18955027E-06
  -.17919950E-06  -.16769604E-06  -.15514485E-06  -.14165704E-06  -.12734887E-06
  -.11234081E-06  -.96756516E-07  -.80721857E-07  -.64363908E-07  -.47809962E-07
  -.31186558E-07  -.14618531E-07   .17719080E-08   .17866053E-07   .33549543E-07
   .48713153E-07   .63253529E-07   .77073867E-07   .90084529E-07   .10220359E-06
   .11335730E-06   .12348054E-06   .13251709E-06   .14041994E-06   .14715144E-06
   .15268342E-06   .15699722E-06   .16008366E-06   .16194291E-06   .16258431E-06
   .16202613E-06   .16029526E-06   .15742682E-06   .15346374E-06   .14845629E-06
   .14246156E-06   .13554286E-06   .12776913E-06   .11921435E-06   .10995681E-06
   .10007846E-06   .89664262E-07   .78801405E-07   .67578665E-07   .56085679E-07
   .44412257E-07   .32647700E-07   .20880142E-07   .91959078E-08  -.23210932E-08
  -.13589950E-07  -.24533292E-07  -.35077795E-07  -.45154641E-07  -.54699944E-07
  -.63655115E-07  -.71967187E-07  -.79589091E-07  -.86479879E-07  -.92604889E-07
  -.97935871E-07  -.10245105E-06  -.10613516E-06  -.10897937E-06  -.11098126E-06
  -.11214465E-06  -.11247944E-06  -.11200142E-06  -.11073197E-06  -.10869782E-06
  -.10593069E-06  -.10246697E-06  -.98347290E-07  -.93616181E-07  -.88321604E-07
  -.82514527E-07  -.76248479E-07  -.69579085E-07  -.62563608E-07  -.55260479E-07
  -.47728841E-07  -.40028092E-07  -.32217437E-07  -.24355456E-07  -.16499692E-07
  -.87062413E-08  -.10293857E-08   .64787683E-08   .13768616E-07   .20793359E-07
   .27509274E-07   .33875960E-07   .39856547E-07   .45417879E-07   .50530655E-07
   .55169553E-07   .59313300E-07   .62944731E-07   .66050801E-07   .68622574E-07
   .70655174E-07   .72147720E-07   .73103217E-07   .73528434E-07   .73433752E-07
   .72832987E-07   .71743200E-07   .70184484E-07   .68179729E-07   .65754385E-07
   .62936204E-07   .59754974E-07   .56242248E-07   .52431068E-07   .48355681E-07
   .44051262E-07   .39553633E-07   .34898986E-07   .30123616E-07   .25263655E-07
   .20354821E-07   .15432173E-07   .10529880E-07   .56810070E-08   .91730945E-09
  -.37309522E-08  -.82351822E-08  -.12568602E-07  -.16706386E-07  -.20625774E-07
  -.24306174E-07  -.27729235E-07  -.30878913E-07  -.33741506E-07  -.36305683E-07
  -.38562485E-07  -.40505317E-07  -.42129917E-07  -.43434310E-07  -.44418757E-07
  -.45085672E-07  -.45439545E-07  -.45486839E-07  -.45235883E-07  -.44696757E-07
  -.43881163E-07  -.42802293E-07  -.41474690E-07  -.39914107E-07  -.38137357E-07
  -.36162163E-07  -.34007015E-07  -.31691011E-07  -.29233715E-07  -.26655007E-07
  -.23974941E-07  -.21213605E-07  -.18390987E-07  -.15526845E-07  -.12640588E-07
  -.97511547E-08  -.68769120E-08  -.40355503E-08  -.12439938E-08   .14816829E-08
   .41263292E-08   .66757834E-08   .91169289E-08   .11437742E-07   .13627327E-07
   .15675952E-07   .17575060E-07   .19317290E-07   .20896475E-07   .22307640E-07
   .23546991E-07   .24611897E-07   .25500862E-07   .26213497E-07   .26750484E-07
   .27113529E-07   .27305321E-07   .27329480E-07   .27190499E-07   .26893693E-07
   .26445132E-07   .25851586E-07   .25120456E-07   .24259715E-07   .23277835E-07
   .22183728E-07   .20986680E-07   .19696282E-07   .18322370E-07   .16874960E-07
   .15364189E-07   .13800254E-07   .12193356E-07   .10553641E-07   .88911541E-08
   .72157829E-08   .55372142E-08   .38648879E-08   .22079556E-08   .57524227E-09
  -.10247893E-08  -.25840712E-08  -.40949597E-08  -.55502613E-08  -.69432565E-08
  -.82677200E-08  -.95179377E-08  -.10688721E-07  -.11775421E-07  -.12773931E-07
  -.13680699E-07  -.14492731E-07  -.15207587E-07  -.15823383E-07  -.16338788E-07
  -.16753015E-07  -.17065817E-07  -.17277472E-07  -.17388774E-07  -.17401019E-07
  -.17315985E-07  -.17135920E-07  -.16863520E-07  -.16501906E-07  -.16054608E-07
  -.15525533E-07  -.14918949E-07  -.14239450E-07  -.13491939E-07  -.12681591E-07
  -.11813829E-07  -.10894292E-07  -.99288083E-08  -.89233601E-08  -.78840552E-08
  -.68170944E-08  -.57287398E-08  -.46252828E-08  -.35130125E-08  -.23981836E-08
  -.12869854E-08  -.18551073E-09   .90027465E-09   .19645614E-08   .30017256E-08
   .40063565E-08   .49732833E-08   .58976006E-08   .67746924E-08   .76002545E-08
   .83703155E-08   .90812557E-08   .97298247E-08   .10313156E-07   .10828781E-07
   .11274638E-07   .11649084E-07   .11950898E-07   .12179287E-07   .12333884E-07
   .12414755E-07   .12422385E-07   .12357681E-07   .12221959E-07   .12016936E-07
   .11744714E-07   .11407769E-07   .11008928E-07   .10551354E-07   .10038525E-07
   .94742066E-08   .88624290E-08   .82074615E-08   .75137832E-08   .67860543E-08
   .60290856E-08   .52478079E-08   .44472402E-08   .36324577E-08   .28085595E-08
   .19806369E-08   .11537410E-08   .33285152E-09  -.47715396E-09  -.12715300E-08
  -.20456920E-08  -.27952437E-08  -.35160030E-08  -.42040268E-08  -.48556331E-08
  -.54674218E-08  -.60362933E-08  -.65594647E-08  -.70344839E-08  -.74592409E-08
  -.78319773E-08  -.81512925E-08  -.84161482E-08  -.86258700E-08  -.87801457E-08
  -.88790227E-08  -.89229013E-08  -.89125269E-08  -.88489789E-08  -.87336583E-08
  -.85682725E-08  -.83548187E-08  -.80955649E-08  -.77930300E-08  -.74499618E-08
  -.70693141E-08  -.66542227E-08  -.62079804E-08  -.57340111E-08  -.52358442E-08
  -.47170875E-08  -.41814013E-08  -.36324718E-08  -.30739853E-08  -.25096024E-08
  -.19429338E-08  -.13775159E-08  -.81678855E-09  -.26407303E-09   .27744774E-09
   .80474795E-09   .13149759E-08   .18054693E-08   .22737688E-08   .27176294E-08
   .31350305E-08   .35241834E-08   .38835369E-08   .42117810E-08   .45078489E-08
   .47709166E-08   .50004012E-08   .51959564E-08   .53574678E-08   .54850447E-08
   .55790121E-08   .56398997E-08   .56684310E-08   .56655104E-08   .56322096E-08
   .55697530E-08   .54795027E-08   .53629420E-08   .52216601E-08   .50573350E-08
   .48717170E-08   .46666129E-08   .44438692E-08   .42053565E-08   .39529542E-08
   .36885356E-08   .34139541E-08   .31310302E-08   .28415390E-08   .25471997E-08
   .22496653E-08   .19505138E-08   .16512408E-08   .13532526E-08   .10578620E-08
   .76628374E-09   .47963236E-09   .19892086E-09  -.74939500E-10  -.34113813E-09
 25.1333556480996805 T
 Non local Part
 0 2 1.18927618932127976
 4.95117802918466055 -0.263395023042996779 -0.263395023042996779 -0.110466427860580457E-01
 Reciprocal Space Part
   .45110332E+01   .45016018E+01   .44733853E+01   .44266159E+01   .43616785E+01
   .42791062E+01   .41795760E+01   .40639015E+01   .39330256E+01   .37880107E+01
   .36300287E+01   .34603494E+01   .32803279E+01   .30913912E+01   .28950241E+01
   .26927541E+01   .24861367E+01   .22767392E+01   .20661255E+01   .18558400E+01
   .16473926E+01   .14422431E+01   .12417875E+01   .10473435E+01   .86013837E+00
   .68129711E+00   .51183207E+00   .35263414E+00   .20446525E+00   .67952726E-01
  -.56414778E-01  -.16828949E+00  -.26746490E+00  -.35387441E+00  -.42758802E+00
  -.48880744E+00  -.53785942E+00  -.57518757E+00  -.60134276E+00  -.61697220E+00
  -.62280752E+00  -.61965191E+00  -.60836658E+00  -.58985678E+00  -.56505763E+00
  -.53491992E+00  -.50039616E+00  -.46242710E+00  -.42192896E+00  -.37978147E+00
  -.33681701E+00  -.29381096E+00  -.25147340E+00  -.21044217E+00  -.17127755E+00
  -.13445850E+00  -.10038034E+00  -.69354156E-01  -.41607581E-01  -.17287075E-01
   .35385049E-02   .20873119E-01   .34787714E-01   .45413499E-01   .52934499E-01
   .57579586E-01   .59614153E-01   .59331627E-01   .57045014E-01   .53078621E-01
   .47760155E-01   .41413304E-01   .34350968E-01   .26869222E-01   .19242103E-01
   .11717294E-01   .45127375E-02  -.21858099E-02  -.82262730E-02  -.13490848E-01
  -.17895726E-01  -.21390012E-01  -.23953936E-01  -.25596433E-01  -.26352204E-01
  -.26278367E-01  -.25450813E-01  -.23960375E-01  -.21908932E-01  -.19405540E-01
  -.16562704E-01  -.13492862E-01  -.10305176E-01  -.71026792E-02  -.39798380E-02
  -.10205562E-02   .17033488E-02   .41331990E-02   .62240414E-02   .79447876E-02
 Real Space Part
  -.86094301E+01  -.85611105E+01  -.84167483E+01  -.81781252E+01  -.78481830E+01
  -.74309829E+01  -.69316493E+01  -.63562983E+01  -.57119525E+01  -.50064432E+01
  -.42483008E+01  -.34466354E+01  -.26110094E+01  -.17513030E+01  -.87757604E+00
   .72880756E-04   .87164777E+00   .17273941E+01   .25579338E+01   .33543935E+01
   .41085244E+01   .48128115E+01   .54605704E+01   .60460296E+01   .65643980E+01
   .70119144E+01   .73858811E+01   .76846774E+01   .79077567E+01   .80556242E+01
   .81297977E+01   .81327519E+01   .80678469E+01   .79392434E+01   .77518064E+01
   .75109982E+01   .72227648E+01   .68934174E+01   .65295112E+01   .61377239E+01
   .57247376E+01   .52971254E+01   .48612447E+01   .44231403E+01   .39884581E+01
   .35623708E+01   .31495175E+01   .27539570E+01   .23791357E+01   .20278696E+01
   .17023408E+01   .14041072E+01   .11341243E+01   .89277839E+00   .67992962E+00
   .49496245E+00   .33684294E+00   .20418031E+00   .95291152E-01   .82645657E-02
  -.58973508E-01  -.10859825E+00  -.14282762E+00  -.16386890E+00  -.17387098E+00
  -.17488322E+00  -.16882125E+00  -.15744003E+00  -.14231409E+00  -.12482489E+00
  -.10615470E+00  -.87286671E-01  -.69010266E-01  -.51931376E-01  -.36486195E-01
  -.22958054E-01  -.11496301E-01  -.21364106E-02   .51794840E-02   .10582333E-01
   .14256819E-01   .16423418E-01   .17322291E-01   .17199279E-01   .16294208E-01
   .14831546E-01   .13013419E-01   .11014865E-01   .89811428E-02   .70268855E-02
   .52368035E-02   .36676579E-02   .23511940E-02   .12977375E-02   .50017228E-03
  -.61956935E-04  -.41843818E-03  -.60466432E-03  -.65832441E-03  -.61661233E-03
 Reciprocal Space Part
  -.23421087E+02  -.23273355E+02  -.22831452E+02  -.22099253E+02  -.21083198E+02
  -.19792270E+02  -.18237952E+02  -.16434181E+02  -.14397273E+02  -.12145841E+02
  -.97006877E+01  -.70846742E+01  -.43225642E+01  -.14408427E+01   .15324956E+01
   .45681853E+01   .76359586E+01   .10704842E+02   .13743479E+02   .16720473E+02
   .19604756E+02   .22365965E+02   .24974835E+02   .27403588E+02   .29626322E+02
   .31619392E+02   .33361764E+02   .34835351E+02   .36025307E+02   .36920290E+02
   .37512663E+02   .37798651E+02   .37778438E+02   .37456193E+02   .36840037E+02
   .35941943E+02   .34777560E+02   .33365982E+02   .31729449E+02   .29892989E+02
   .27884011E+02   .25731855E+02   .23467300E+02   .21122056E+02   .18728225E+02
   .16317773E+02   .13921993E+02   .11570998E+02   .92932264E+01   .71149952E+01
   .50600959E+01   .31494432E+01   .14007868E+01  -.17151112E+00  -.15566273E+01
  -.27473563E+01  -.37401152E+01  -.45348768E+01  -.51350321E+01  -.55471882E+01
  -.57809063E+01  -.58483875E+01  -.57641139E+01  -.55444554E+01  -.52072499E+01
  -.47713697E+01  -.42562818E+01  -.36816139E+01  -.30667355E+01  -.24303627E+01
  -.17901954E+01  -.11625950E+01  -.56230682E+00  -.22338475E-02   .50673618E+00
   .95584746E+00   .13385368E+01   .16504390E+01   .18893393E+01   .20550765E+01
   .21494018E+01   .21757985E+01   .21392691E+01   .20460979E+01   .19035944E+01
   .17198275E+01   .15033557E+01   .12629625E+01   .10074022E+01   .74516327E+00
   .48425446E+00   .23201758E+00  -.50285769E-02  -.22131131E+00  -.41229241E+00
  -.57452147E+00  -.70565470E+00  -.80444084E+00  -.87067655E+00  -.90513442E+00
 Real Space Part
   .63381100E+03   .63319012E+03   .63131750E+03   .62816376E+03   .62368168E+03
   .61780880E+03   .61047088E+03   .60158613E+03   .59107002E+03   .57884057E+03
   .56482374E+03   .54895894E+03   .53120425E+03   .51154126E+03   .48997933E+03
   .46655897E+03   .44135447E+03   .41447533E+03   .38606669E+03   .35630860E+03
   .32541412E+03   .29362636E+03   .26121444E+03   .22846869E+03   .19569489E+03
   .16320811E+03   .13132608E+03   .10036231E+03   .70619333E+02   .42382108E+02
   .15911834E+02  -.85596188E+01  -.30834522E+02  -.50753222E+02  -.68197063E+02
  -.83090262E+02  -.95400666E+02  -.10513942E+03  -.11235956E+03  -.11715360E+03
  -.11965022E+03  -.12001018E+03  -.11842152E+03  -.11509437E+03  -.11025536E+03
  -.10414185E+03  -.96996277E+02  -.89060546E+02  -.80570815E+02  -.71752690E+02
  -.62816995E+02  -.53956169E+02  -.45341390E+02  -.37120431E+02  -.29416281E+02
  -.22326518E+02  -.15923395E+02  -.10254583E+02  -.53445136E+01  -.11962215E+01
   .22063992E+01   .48960255E+01   .69191295E+01   .83330937E+01   .92033167E+01
   .96003976E+01   .95974783E+01   .92678119E+01   .86826086E+01   .79092012E+01
   .70095537E+01   .60391244E+01   .50460814E+01   .40708571E+01   .31460162E+01
   .22964049E+01   .15395420E+01   .88620818E+00   .34118706E+00  -.95888129E-01
  -.42962692E+00  -.66795538E+00  -.82120853E+00  -.90127378E+00  -.92081157E+00
  -.89257293E+00  -.82882753E+00  -.74090914E+00  -.63887981E+00  -.53130903E+00
  -.42515946E+00  -.32576754E+00  -.23690478E+00  -.16090373E+00  -.98832269E-01
  -.50699764E-01  -.15679662E-01   .76653924E-02   .21167912E-01   .26859071E-01
 Non local Part
 1 2 1.18927618932127976
 1.22338086304260707 2.14672215900143470 2.14672215900143470 1.34142492866586371
 Reciprocal Space Part
   .00000000E+00   .23087905E+00   .45959127E+00   .68400091E+00   .90203382E+00
   .11117069E+01   .13111558E+01   .14986608E+01   .16726693E+01   .18318169E+01
   .19749432E+01   .21011058E+01   .22095891E+01   .22999106E+01   .23718221E+01
   .24253074E+01   .24605768E+01   .24780568E+01   .24783780E+01   .24623582E+01
   .24309845E+01   .23853921E+01   .23268417E+01   .22566954E+01   .21763917E+01
   .20874203E+01   .19912973E+01   .18895402E+01   .17836444E+01   .16750614E+01
   .15651783E+01   .14552996E+01   .13466315E+01   .12402685E+01   .11371831E+01
   .10382178E+01   .94408030E+00   .85534161E+00   .77243620E+00   .69566530E+00
   .62520229E+00   .56110016E+00   .50330085E+00   .45164614E+00   .40588965E+00
   .36570986E+00   .33072359E+00   .30049971E+00   .27457284E+00   .25245664E+00
   .23365641E+00   .21768089E+00   .20405296E+00   .19231901E+00   .18205707E+00
   .17288333E+00   .16445728E+00   .15648520E+00   .14872228E+00   .14097322E+00
   .13309153E+00   .12497766E+00   .11657594E+00   .10787080E+00   .98882055E-01
   .89659783E-01   .80278770E-01   .70832776E-01   .61428782E-01   .52181379E-01
   .43207446E-01   .34621242E-01   .26530022E-01   .19030259E-01   .12204534E-01
   .61191437E-02   .82242341E-03  -.36562049E-02  -.73064915E-02  -.10136968E-01
  -.12173970E-01  -.13460135E-01  -.14052480E-01  -.14020125E-01  -.13441776E-01
  -.12403052E-01  -.10993756E-01  -.93051748E-02  -.74274931E-02  -.54473952E-02
  -.34459148E-02  -.14965856E-02   .33606769E-03   .19976745E-02   .34447858E-02
   .46452638E-02   .55783064E-02   .62341281E-02   .66133293E-02   .67259937E-02
 Real Space Part
   .00000000E+00   .13215069E+01   .26294969E+01   .39106933E+01   .51522943E+01
   .63421954E+01   .74691962E+01   .85231847E+01   .94952962E+01   .10378043E+02
   .11165412E+02   .11852928E+02   .12437685E+02   .12918341E+02   .13295078E+02
   .13569538E+02   .13744717E+02   .13824853E+02   .13815270E+02   .13722228E+02
   .13552742E+02   .13314409E+02   .13015219E+02   .12663382E+02   .12267150E+02
   .11834657E+02   .11373774E+02   .10891977E+02   .10396235E+02   .98929241E+01
   .93877615E+01   .88857577E+01   .83911960E+01   .79076300E+01   .74379012E+01
   .69841722E+01   .65479759E+01   .61302751E+01   .57315315E+01   .53517807E+01
   .49907092E+01   .46477329E+01   .43220719E+01   .40128215E+01   .37190165E+01
   .34396875E+01   .31739079E+01   .29208318E+01   .26797209E+01   .24499626E+01
   .22310781E+01   .20227220E+01   .18246746E+01   .16368277E+01   .14591655E+01
   .12917418E+01   .11346558E+01   .98802616E+00   .85196638E+00   .72656170E+00
   .61184854E+00   .50779745E+00   .41429997E+00   .33115985E+00   .25808856E+00
   .19470520E+00   .14054042E+00   .95043957E-01   .57595279E-01   .27516660E-01
   .40880398E-02  -.13437072E-01  -.25815329E-01  -.33797593E-01  -.38113877E-01
  -.39459718E-01  -.38484377E-01  -.35781193E-01  -.31880284E-01  -.27243673E-01
  -.22262838E-01  -.17258560E-01  -.12482876E-01  -.81228831E-02  -.43060697E-02
  -.11068380E-02   .14461418E-02   .33621050E-02   .46802303E-02   .54618535E-02
   .57831268E-02   .57283441E-02   .53841033E-02   .48344194E-02   .41568509E-02
   .34196496E-02   .26798992E-02   .19825694E-02   .13603817E-02   .83435804E-03
 Reciprocal Space Part
   .00000000E+00  -.56102570E+00  -.11037022E+01  -.16102191E+01  -.20638288E+01
  -.24493415E+01  -.27535767E+01  -.29657600E+01  -.30778533E+01  -.30848099E+01
  -.29847467E+01  -.27790293E+01  -.24722679E+01  -.20722225E+01  -.15896218E+01
  -.10378987E+01  -.43285099E+00   .20776432E+00   .86469277E+00   .15176869E+01
   .21460407E+01   .27291393E+01   .32470096E+01   .36808573E+01   .40135754E+01
   .42302116E+01   .43183819E+01   .42686192E+01   .40746487E+01   .37335821E+01
   .32460264E+01   .26161042E+01   .18513852E+01   .96273107E+00  -.35941448E-01
  -.11279743E+01  -.22943490E+01  -.35141250E+01  -.47649242E+01  -.60234495E+01
  -.72660228E+01  -.84691303E+01  -.96099598E+01  -.10666918E+02  -.11620116E+02
  -.12451803E+02  -.13146758E+02  -.13692602E+02  -.14080048E+02  -.14303074E+02
  -.14359016E+02  -.14248574E+02  -.13975752E+02  -.13547709E+02  -.12974543E+02
  -.12269015E+02  -.11446207E+02  -.10523144E+02  -.95183705E+01  -.84515043E+01
  -.73427801E+01  -.62125867E+01  -.50810155E+01  -.39674285E+01  -.28900568E+01
  -.18656391E+01  -.90910620E+00  -.33319509E-01   .75113191E+00   .14360734E+01
   .20158235E+01   .24872107E+01   .28495281E+01   .31044322E+01   .32557875E+01
   .33094653E+01   .32731016E+01   .31558237E+01   .29679526E+01   .27206902E+01
   .24257995E+01   .20952878E+01   .17410990E+01   .13748237E+01   .10074346E+01
   .64905053E+00   .30873683E+00  -.56564782E-02  -.28761534E+00  -.53204026E+00
  -.73528274E+00  -.89514089E+00  -.10108163E+01  -.10828355E+01  -.11129403E+01
  -.11039508E+01  -.10596079E+01  -.98439952E+00  -.88337673E+00  -.76196590E+00
 Real Space Part
   .00000000E+00  -.40768983E+02  -.80817076E+02  -.11943980E+03  -.15596509E+03
  -.18976834E+03  -.22028635E+03  -.24702946E+03  -.26959189E+03  -.28765979E+03
  -.30101700E+03  -.30954818E+03  -.31323950E+03  -.31217675E+03  -.30654097E+03
  -.29660192E+03  -.28270939E+03  -.26528281E+03  -.24479939E+03  -.22178120E+03
  -.19678147E+03  -.17037066E+03  -.14312252E+03  -.11560061E+03  -.88345627E+02
  -.61863814E+02  -.36616718E+02  -.13012581E+02   .86005280E+01   .27939706E+02
   .44790282E+02   .59006963E+02   .70513135E+02   .79298406E+02   .85414582E+02
   .88970239E+02   .90124155E+02   .89077826E+02   .86067334E+02   .81354855E+02
   .75220042E+02   .67951559E+02   .59838986E+02   .51165305E+02   .42200142E+02
   .33193916E+02   .24372978E+02   .15935832E+02   .80504541E+01   .85269586E+00
  -.55542486E+01  -.11099401E+02  -.15742671E+02  -.19472753E+02  -.22304389E+02
  -.24275137E+02  -.25441777E+02  -.25876519E+02  -.25663139E+02  -.24893169E+02
  -.23662271E+02  -.22066874E+02  -.20201171E+02  -.18154528E+02  -.16009350E+02
  -.13839419E+02  -.11708716E+02  -.96707092E+01  -.77680729E+01  -.60328085E+01
  -.44867067E+01  -.31420983E+01  -.20028305E+01  -.10654066E+01  -.32022704E+00
   .24712639E+00   .65461561E+00   .92252746E+00   .10723490E+01   .11257675E+01
   .11038156E+01   .10261760E+01   .91064962E+00   .77278445E+00   .62565820E+00
   .47979930E+00   .34322930E+00   .22160602E+00   .11844568E+00   .35401540E-01
  -.27422356E-01  -.71142450E-01  -.97769691E-01  -.10990130E+00  -.11044224E+00
  -.10236499E+00  -.88513230E-01  -.71451859E-01  -.53363059E-01  -.35985931E-01
 PAW radial sets
 337 0.708915279022619527
(5E20.12)                                
 augmentation charges (non sperical)
  -.121506687787E+00  -.455148147517E-02  -.959423653950E-02   .568235044013E-02  -.455148147517E-02
  -.221294527321E-03   .149257157214E-03   .371551425296E-04  -.959423653950E-02   .149257157214E-03
   .116078371832E+00   .310041503209E-01   .568235044013E-02   .371551425296E-04   .310041503209E-01
   .638391057359E-02
 uccopancies in atom
   .200000000000E+01   .000000000000E+00   .000000000000E+00   .000000000000E+00   .000000000000E+00
   .000000000000E+00   .000000000000E+00   .000000000000E+00   .000000000000E+00   .000000000000E+00
   .999999999728E+00   .000000000000E+00   .000000000000E+00   .000000000000E+00   .000000000000E+00
   .000000000000E+00
 grid
   .280527516333E-04   .289225357721E-04   .298192878340E-04   .307438439676E-04   .316970662468E-04
   .326798434741E-04   .336930920097E-04   .347377566259E-04   .358148113878E-04   .369252605618E-04
   .380701395518E-04   .392505158649E-04   .404674901063E-04   .417221970061E-04   .430158064768E-04
   .443495247045E-04   .457245952736E-04   .471423003259E-04   .486039617567E-04   .501109424469E-04
   .516646475341E-04   .532665257223E-04   .549180706334E-04   .566208221993E-04   .583763680979E-04
   .601863452337E-04   .620524412639E-04   .639763961718E-04   .659600038897E-04   .680051139712E-04
   .701136333158E-04   .722875279473E-04   .745288248462E-04   .768396138405E-04   .792220495539E-04
   .816783534148E-04   .842108157277E-04   .868217978087E-04   .895137341871E-04   .922891348757E-04
   .951505877110E-04   .981007607661E-04   .101142404838E-03   .104278356015E-03   .107511538316E-03
   .110844966423E-03   .114281748487E-03   .117825089030E-03   .121478291928E-03   .125244763500E-03
   .129128015674E-03   .133131669268E-03   .137259457366E-03   .141515228795E-03   .145902951719E-03
   .150426717332E-03   .155090743682E-03   .159899379594E-03   .164857108732E-03   .169968553777E-03
   .175238480738E-03   .180671803396E-03   .186273587883E-03   .192049057411E-03   .198003597136E-03
   .204142759186E-03   .210472267831E-03   .216998024827E-03   .223726114913E-03   .230662811488E-03
   .237814582461E-03   .245188096279E-03   .252790228147E-03   .260628066437E-03   .268708919298E-03
   .277040321473E-03   .285630041319E-03   .294486088053E-03   .303616719224E-03   .313030448405E-03
   .322736053137E-03   .332742583110E-03   .343059368603E-03   .353696029184E-03   .364662482677E-03
   .375968954412E-03   .387625986760E-03   .399644448959E-03   .412035547251E-03   .424810835334E-03
   .437982225128E-03   .451561997889E-03   .465562815655E-03   .479997733055E-03   .494880209481E-03
   .510224121638E-03   .526043776481E-03   .542353924558E-03   .559169773761E-03   .576507003509E-03
   .594381779364E-03   .612810768108E-03   .631811153281E-03   .651400651203E-03   .671597527497E-03
   .692420614113E-03   .713889326894E-03   .736023683677E-03   .758844322957E-03   .782372523134E-03
   .806630222348E-03   .831640038941E-03   .857425292542E-03   .884010025812E-03   .911419026863E-03
   .939677852369E-03   .968812851398E-03   .998851189976E-03   .102982087642E-02   .106175078746E-02
   .109467069516E-02   .112861129465E-02   .116360423281E-02   .119968213770E-02   .123687864907E-02
   .127522844964E-02   .131476729750E-02   .135553205942E-02   .139756074525E-02   .144089254332E-02
   .148556785704E-02   .153162834252E-02   .157911694742E-02   .162807795104E-02   .167855700554E-02
   .173060117855E-02   .178425899706E-02   .183958049263E-02   .189661724807E-02   .195542244556E-02
   .201605091616E-02   .207855919103E-02   .214300555407E-02   .220945009629E-02   .227795477185E-02
   .234858345582E-02   .242140200372E-02   .249647831295E-02   .257388238610E-02   .265368639620E-02
   .273596475402E-02   .282079417747E-02   .290825376313E-02   .299842505997E-02   .309139214544E-02
   .318724170380E-02   .328606310702E-02   .338794849805E-02   .349299287677E-02   .360129418856E-02
   .371295341562E-02   .382807467115E-02   .394676529639E-02   .406913596075E-02   .419530076495E-02
   .432537734748E-02   .445948699420E-02   .459775475151E-02   .474030954290E-02   .488728428917E-02
   .503881603237E-02   .519504606359E-02   .535612005467E-02   .552218819408E-02   .569340532692E-02
   .586993109928E-02   .605193010718E-02   .623957204995E-02   .643303188850E-02   .663249000848E-02
   .683813238844E-02   .705015077324E-02   .726874285286E-02   .749411244673E-02   .772646969374E-02
   .796603124822E-02   .821302048191E-02   .846766769229E-02   .873021031726E-02   .900089315657E-02
   .927996860004E-02   .956769686293E-02   .986434622857E-02   .101701932985E-01   .104855232502E-01
   .108106301035E-01   .111458169942E-01   .114913964569E-01   .118476907164E-01   .122150319883E-01
   .125937627887E-01   .129842362533E-01   .133868164670E-01   .138018788033E-01   .142298102742E-01
   .146710098911E-01   .151258890370E-01   .155948718499E-01   .160783956182E-01   .165769111888E-01
   .170908833870E-01   .176207914503E-01   .181671294750E-01   .187304068773E-01   .193111488675E-01
   .199098969406E-01   .205272093808E-01   .211636617819E-01   .218198475842E-01   .224963786278E-01
   .231938857233E-01   .239130192394E-01   .246544497100E-01   .254188684590E-01   .262069882449E-01
   .270195439257E-01   .278572931437E-01   .287210170323E-01   .296115209441E-01   .305296352018E-01
   .314762158727E-01   .324521455667E-01   .334583342591E-01   .344957201394E-01   .355652704861E-01
   .366679825681E-01   .378048845754E-01   .389770365768E-01   .401855315093E-01   .414314961966E-01
   .427160923999E-01   .440405179010E-01   .454060076197E-01   .468138347644E-01   .482653120201E-01
   .497617927717E-01   .513046723665E-01   .528953894146E-01   .545354271311E-01   .562263147182E-01
   .579696287918E-01   .597669948511E-01   .616200887945E-01   .635306384819E-01   .655004253464E-01
   .675312860547E-01   .696251142200E-01   .717838621675E-01   .740095427550E-01   .763042312493E-01
   .786700672619E-01   .811092567431E-01   .836240740397E-01   .862168640153E-01   .888900442366E-01
   .916461072276E-01   .944876227942E-01   .974172404194E-01   .100437691734E+00   .103551793066E+00
   .106762448061E+00   .110072650395E+00   .113485486565E+00   .117004138763E+00   .120631887848E+00
   .124372116402E+00   .128228311886E+00   .132204069889E+00   .136303097485E+00   .140529216684E+00
   .144886368000E+00   .149378614125E+00   .154010143714E+00   .158785275294E+00   .163708461288E+00
   .168784292168E+00   .174017500736E+00   .179412966535E+00   .184975720401E+00   .190710949150E+00
   .196624000420E+00   .202720387652E+00   .209005795233E+00   .215486083798E+00   .222167295690E+00
   .229055660599E+00   .236157601368E+00   .243479739980E+00   .251028903739E+00   .258812131627E+00
   .266836680875E+00   .275110033725E+00   .283639904409E+00   .292434246341E+00   .301501259532E+00
   .310849398238E+00   .320487378843E+00   .330424187982E+00   .340669090926E+00   .351231640216E+00
   .362121684576E+00   .373349378090E+00   .384925189674E+00   .396859912833E+00   .409164675732E+00
   .421850951565E+00   .434930569259E+00   .448415724497E+00   .462318991095E+00   .476653332723E+00
   .491432114994E+00   .506669117928E+00   .522378548794E+00   .538575055366E+00   .555273739575E+00
   .572490171592E+00   .590240404346E+00   .608540988491E+00   .627408987842E+00   .646861995280E+00
   .666918149159E+00   .687596150219E+00   .708915279023E+00   .730895413931E+00   .753557049641E+00
   .776921316292E+00   .801009999172E+00
 aepotential
   .363639741525E+05   .353486988431E+05   .343218421719E+05   .332873506987E+05   .322493425013E+05
   .312116817821E+05   .301779824554E+05   .291515900552E+05   .281355719873E+05   .271327122522E+05
   .261455097070E+05   .251761801616E+05   .242266612837E+05   .232986206673E+05   .223934661094E+05
   .215123579591E+05   .206562230842E+05   .198257700763E+05   .190215053474E+05   .182437497397E+05
   .174926553864E+05   .167682225150E+05   .160703159665E+05   .153986812261E+05   .147529597911E+05
   .141327037385E+05   .135373894181E+05   .129664301650E+05   .124191880122E+05   .118949843633E+05
   .113931096827E+05   .109128321163E+05   .104534052295E+05   .100140747189E+05   .959408436168E+04
   .919268105970E+04   .880911918884E+04   .844266424842E+04   .809259589992E+04   .775821039989E+04
   .743882261121E+04   .713376751399E+04   .684240134668E+04   .656410242701E+04   .629827164939E+04
   .604433276833E+04   .580173243593E+04   .556994011018E+04   .534844775879E+04   .513676946601E+04
   .493444100413E+04   .474101918523E+04   .455608133122E+04   .437922451875E+04   .421006498213E+04
   .404823730666E+04   .389339377076E+04   .374520359187E+04   .360335219401E+04   .346754051519E+04
   .333748429799E+04   .321291338902E+04   .309357108986E+04   .297921350116E+04   .286960890600E+04
   .276453716092E+04   .266378912080E+04   .256716609088E+04   .247447928324E+04   .238554932784E+04
   .230020577148E+04   .221828663647E+04   .213963796492E+04   .206411341185E+04   .199157384772E+04
   .192188698360E+04   .185492700868E+04   .179057426100E+04   .172871489759E+04   .166924060140E+04
   .161204828066E+04   .155703980758E+04   .150412175443E+04   .145320515704E+04   .140420526364E+04
   .135704135019E+04   .131163647545E+04   .126791731834E+04   .122581396868E+04   .118525976774E+04
   .114619113374E+04   .110854740959E+04   .107227071448E+04   .103730579901E+04   .100359991984E+04
   .971102708549E+03   .939766055312E+03   .909543996388E+03   .880392605856E+03   .852269898434E+03
   .825135730040E+03   .798951711238E+03   .773681119698E+03   .749288819036E+03   .725741183375E+03
   .703006024362E+03   .681052521465E+03   .659851157598E+03   .639373657217E+03   .619592927130E+03
   .600483001830E+03   .582018989710E+03   .564177023819E+03   .546934214176E+03   .530268602534E+03
   .514159120016E+03   .498585546066E+03   .483528470409E+03   .468969255931E+03   .454890004293E+03
   .441273522745E+03   .428103292723E+03   .415363439803E+03   .403038705661E+03   .391114420680E+03
   .379576478711E+03   .368411312191E+03   .357605868845E+03   .347147590092E+03   .337024389275E+03
   .327224631997E+03   .317737116800E+03   .308551056886E+03   .299656062835E+03   .291042125975E+03
   .282699602499E+03   .274619198521E+03   .266791955511E+03   .259209236639E+03   .251862713713E+03
   .244744354458E+03   .237846410836E+03   .231161407375E+03   .224682130329E+03   .218401617250E+03
   .212313147000E+03   .206410230161E+03   .200686599981E+03   .195136203508E+03   .189753193401E+03
   .184531919758E+03   .179466922520E+03   .174552924136E+03   .169784822509E+03   .165157684250E+03
   .160666738222E+03   .156307369361E+03   .152075112703E+03   .147965647713E+03   .143974792800E+03
   .140098500097E+03   .136332850405E+03   .132674048320E+03   .129118417754E+03   .125662397229E+03
   .122302535831E+03   .119035488956E+03   .115858014436E+03   .112766968678E+03   .109759303081E+03
   .106832060482E+03   .103982371805E+03   .101207452823E+03   .985046010377E+02   .958711926753E+02
   .933046798103E+02   .908025876049E+02   .883625116361E+02   .859821153174E+02   .836591274767E+02
   .813913399403E+02   .791766052946E+02   .770128346760E+02   .748979956694E+02   .728301103007E+02
   .708072530777E+02   .688275491452E+02   .668891724779E+02   .649903441822E+02   .631293308353E+02
   .613044429175E+02   .595140333034E+02   .577564958085E+02   .560302638159E+02   .543338089527E+02
   .526656398285E+02   .510243008416E+02   .494083710310E+02   .478164629940E+02   .462472218524E+02
   .446993242848E+02   .431714775948E+02   .416624188544E+02   .401709140744E+02   .386957574524E+02
   .372357706445E+02   .357898021135E+02   .343567265021E+02   .329354440718E+02   .315248801825E+02
   .301239848158E+02   .287317321592E+02   .273471202133E+02   .259691704701E+02   .245969276151E+02
   .232294592857E+02   .218658558680E+02   .205052303380E+02   .191467181433E+02   .177894771268E+02
   .164326874903E+02   .150755517980E+02   .137172950157E+02   .123571645916E+02   .109944305686E+02
   .962838573530E+01   .825834580743E+01   .688364964536E+01   .550365950006E+01   .411776129127E+01
   .272536491297E+01   .132590456771E+01  -.811608726201E-01  -.149634748076E+01  -.292014586199E+01
  -.435302071851E+01  -.579541038874E+01  -.724772636160E+01  -.871035276612E+01  -.101836458321E+02
  -.116679333222E+02  -.131635139298E+02  -.146706566387E+02  -.161896000369E+02  -.177205515777E+02
  -.192636867748E+02  -.208191483196E+02  -.223870451014E+02  -.239674511108E+02  -.255604041983E+02
  -.271659046567E+02  -.287839135878E+02  -.304143510061E+02  -.320570936226E+02  -.337119722409E+02
  -.353787686852E+02  -.370572121637E+02  -.387469749575E+02  -.404476673028E+02  -.421588313190E+02
  -.438799338088E+02  -.456103577416E+02  -.473493922075E+02  -.490962206156E+02  -.508499069039E+02
  -.526093795307E+02  -.543734130444E+02  -.561406070829E+02  -.579093627492E+02  -.596778564634E+02
  -.614440116193E+02  -.632054686969E+02  -.649595549163E+02  -.667032550900E+02  -.684331860342E+02
  -.701455777437E+02  -.718362654769E+02  -.735006978979E+02  -.751339673772E+02  -.767308693647E+02
  -.782859982940E+02  -.797938876916E+02  -.812492020575E+02  -.826469878511E+02  -.839829910573E+02
  -.852540490827E+02  -.864585671912E+02  -.875970892780E+02  -.886729693113E+02  -.896931274595E+02
  -.906688133867E+02  -.916161615546E+02  -.925560698026E+02  -.935125585017E+02  -.945084003335E+02
  -.955568564711E+02  -.966495565018E+02  -.977435752368E+02  -.987548956466E+02  -.995673584555E+02
  -.100061379620E+03  -.100154992533E+03  -.998385173631E+02  -.991826926026E+02  -.983122581877E+02
  -.973581436293E+02  -.964160582281E+02  -.955317704410E+02  -.947111132488E+02  -.939390886823E+02
  -.931953467187E+02  -.924622718412E+02  -.917274076175E+02  -.909830054766E+02  -.902246341771E+02
  -.894498046272E+02  -.886569511579E+02  -.878448120816E+02  -.870121334636E+02  -.861575898467E+02
  -.852798259845E+02  -.843775489340E+02  -.834496263823E+02  -.824951684779E+02  -.815135848938E+02
  -.805046170962E+02  -.794683496812E+02  -.784052057147E+02  -.773159306962E+02  -.762015689104E+02
  -.750634350168E+02  -.739030826194E+02  -.727222713575E+02  -.715229330450E+02  -.703071374144E+02
  -.690770577969E+02  -.678349366580E+02
 core charge-density
   .378166384757E-05   .401938221399E-05   .427204066085E-05   .454057784405E-05   .482599136570E-05
   .512934147321E-05   .545175499020E-05   .579442949387E-05   .615863775415E-05   .654573245093E-05
   .695715118702E-05   .739442181501E-05   .785916809796E-05   .835311572453E-05   .887809870087E-05
   .943606614281E-05   .100290894932E-04   .106593701912E-04   .113292478214E-04   .120412087736E-04
   .127978954431E-04   .136021160083E-04   .144568548188E-04   .153652834335E-04   .163307723491E-04
   .173569034617E-04   .184474833077E-04   .196065571320E-04   .208384238353E-04   .221476518555E-04
   .235390960405E-04   .250179155760E-04   .265895930308E-04   .282599545926E-04   .300351915660E-04
   .319218832115E-04   .339270210099E-04   .360580344392E-04   .383228183591E-04   .407297621019E-04
   .432877803764E-04   .460063460970E-04   .488955252567E-04   .519660139717E-04   .552291778313E-04
   .586970936959E-04   .623825940948E-04   .662993143841E-04   .704617428360E-04   .748852738393E-04
   .795862644046E-04   .845820941769E-04   .898912291720E-04   .955332894673E-04   .101529121088E-03
   .107900872352E-03   .114672074936E-03   .121867729970E-03   .129514399458E-03   .137640303344E-03
   .146275422593E-03   .155451608631E-03   .165202699543E-03   .175564643455E-03   .186575629507E-03
   .198276226915E-03   .210709532591E-03   .223921327859E-03   .237960244800E-03   .252877942839E-03
   .268729296164E-03   .285572592666E-03   .303469745067E-03   .322486515002E-03   .342692750813E-03
   .364162639902E-03   .386974976500E-03   .411213445807E-03   .436966925455E-03   .464329805358E-03
   .493402327040E-03   .524290943604E-03   .557108701578E-03   .591975645945E-03   .629019249726E-03
   .668374869583E-03   .710186228981E-03   .754605930542E-03   .801795999301E-03   .851928458704E-03
   .905185941259E-03   .961762335868E-03   .102186347400E-02   .108570785696E-02   .115352742663E-02
   .122556838226E-02   .130209204591E-02   .138337577935E-02   .146971395547E-02   .156141898719E-02
   .165882241729E-02   .176227607249E-02   .187215328560E-02   .198885018939E-02   .211278708638E-02
   .224440989875E-02   .238419170285E-02   .253263435297E-02   .269027019941E-02   .285766390598E-02
   .303541437236E-02   .322415676715E-02   .342456467750E-02   .363735238163E-02   .386327725094E-02
   .410314228842E-02   .435779881085E-02   .462814928203E-02   .491515030523E-02   .521981578291E-02
   .554322025240E-02   .588650240652E-02   .625086880843E-02   .663759781052E-02   .704804368736E-02
   .748364099335E-02   .794590915589E-02   .843645731536E-02   .895698942371E-02   .950930961369E-02
   .100953278512E-01   .107170658839E-01   .113766634985E-01   .120763851020E-01   .128186266388E-01
   .136059228594E-01   .144409549552E-01   .153265585731E-01   .162657322265E-01   .172616461172E-01
   .183176513830E-01   .194372897880E-01   .206243038695E-01   .218826475581E-01   .232164972855E-01
   .246302635953E-01   .261286032715E-01   .277164319986E-01   .293989375669E-01   .311815936358E-01
   .330701740666E-01   .350707678356E-01   .371897945364E-01   .394340204794E-01   .418105753938E-01
   .443269697359E-01   .469911126043E-01   .498113302613E-01   .527963852542E-01   .559554961287E-01
   .592983577222E-01   .628351620189E-01   .665766195451E-01   .705339812770E-01   .747190610268E-01
   .791442582658E-01   .838225813376E-01   .887676710020E-01   .939938242464E-01   .995160182871E-01
   .105349934674E+00   .111511983402E+00   .118019326912E+00   .124889903864E+00   .132142452534E+00
   .139796533688E+00   .147872552742E+00   .156391781033E+00   .165376375983E+00   .174849399906E+00
   .184834837227E+00   .195357609811E+00   .206443590098E+00   .218119611727E+00   .230413477255E+00
   .243353962607E+00   .256970817822E+00   .271294763636E+00   .286357483419E+00   .302191609933E+00
   .318830706372E+00   .336309241058E+00   .354662555192E+00   .373926822969E+00   .394139003372E+00
   .415336782889E+00   .437558508392E+00   .460843109360E+00   .485230008624E+00   .510759020751E+00
   .537470237197E+00   .565403897303E+00   .594600244233E+00   .625099364900E+00   .656941012977E+00
   .690164414050E+00   .724808052028E+00   .760909435932E+00   .798504846243E+00   .837629060032E+00
   .878315054192E+00   .920593686163E+00   .964493351671E+00   .101003961913E+01   .105725484051E+01
   .110615773869E+01   .115676297144E+01   .120908067261E+01   .126311597105E+01   .131886848851E+01
   .137633181772E+01   .143549298248E+01   .149633188186E+01   .155882072117E+01   .162292343267E+01
   .168859508975E+01   .175578131859E+01   .182441771210E+01   .189442925138E+01   .196572974067E+01
   .203822126243E+01   .211179365968E+01   .218632405344E+01   .226167640400E+01   .233770112491E+01
   .241423475950E+01   .249109973027E+01   .256810417178E+01   .264504185819E+01   .272169223696E+01
   .279782058021E+01   .287317826544E+01   .294750319715E+01   .302052038044E+01   .309194265750E+01
   .316147161666E+01   .322879868312E+01   .329360639899E+01   .335556989863E+01   .341435858370E+01
   .346963799983E+01   .352107191457E+01   .356832459326E+01   .361106326663E+01   .364896078013E+01
   .368169841153E+01   .370896883948E+01   .373047924128E+01   .374595449408E+01   .375514044920E+01
   .375780724509E+01   .375375261983E+01   .374280518040E+01   .372482758171E+01   .369971956525E+01
   .366742080426E+01   .362791350021E+01   .358122467382E+01   .352742809355E+01   .346664578522E+01
   .339904906800E+01   .332485906545E+01   .324434664489E+01   .315783174432E+01   .306568205413E+01
   .296831102995E+01   .286617522395E+01   .275977093447E+01   .264963018743E+01   .253631607809E+01
   .242041751766E+01   .230254344544E+01   .218331658354E+01   .206336682733E+01   .194332437785E+01
   .182381274100E+01   .170544171472E+01   .158880050993E+01   .147445114069E+01   .136292222279E+01
   .125470331188E+01   .115023989871E+01   .104992915545E+01   .954116492060E+00   .863092930985E+00
   .777093246588E+00   .696294757090E+00   .620816638218E+00   .550719698696E+00   .486006745643E+00
   .426623916802E+00   .372463504183E+00   .323368663209E+00   .279139964416E+00   .239543195086E+00
   .204317468497E+00   .173182769327E+00   .145846494262E+00   .122009020820E+00   .101368570213E+00
   .836255977702E-01   .684868026748E-01   .556687339940E-01   .449009229172E-01   .359284740988E-01
   .285140746905E-01   .224394102278E-01   .175060040292E-01   .135355187265E-01   .103695748506E-01
   .786915260934E-02   .591364975020E-02   .439967123087E-02   .323962578827E-02   .236020085325E-02
   .170078111056E-02   .121186792537E-02   .853547471704E-03   .594045345389E-03   .408395332007E-03
   .277240368983E-03   .185775024687E-03   .122831330663E-03   .801037312383E-04   .515043216509E-04
   .326363884425E-04   .203724167859E-04
 kinetic energy-density
   .532955807213E-01   .540205706616E-01   .547722478392E-01   .555517135887E-01   .563601491850E-01
   .571988017377E-01   .580689880635E-01   .589720973273E-01   .599095940565E-01   .608830213004E-01
   .618940040930E-01   .629442529804E-01   .640355679050E-01   .651698423542E-01   .663490677411E-01
   .675753381164E-01   .688508552289E-01   .701779339175E-01   .715590078974E-01   .729966359175E-01
   .744935083777E-01   .760524543607E-01   .776764491609E-01   .793686222735E-01   .811322659457E-01
   .829708442599E-01   .848880027939E-01   .868875788931E-01   .889736126049E-01   .911503582530E-01
   .934222967647E-01   .957941487592E-01   .982708883705E-01   .100857758005E+00   .103560283916E+00
   .106384292764E+00   .109335929155E+00   .112421674248E+00   .115648365476E+00   .119023217450E+00
   .122553844137E+00   .126248282351E+00   .130115016669E+00   .134163005840E+00   .138401710779E+00
   .142841124290E+00   .147491802475E+00   .152364898191E+00   .157472196329E+00   .162826151454E+00
   .168439927448E+00   .174327439850E+00   .180503400465E+00   .186983364828E+00   .193783782582E+00
   .200922050681E+00   .208416570161E+00   .216286805914E+00   .224553350521E+00   .233237991550E+00
   .242363783296E+00   .251955122523E+00   .262037829078E+00   .272639231179E+00   .283788255980E+00
   .295515525606E+00   .307853458954E+00   .320836379704E+00   .334500630828E+00   .348884696090E+00
   .364029328800E+00   .379977688433E+00   .396775485459E+00   .414471134974E+00   .433115919557E+00
   .452764161922E+00   .473473408160E+00   .495304621791E+00   .518322389680E+00   .542595140329E+00
   .568195375209E+00   .595199914122E+00   .623690155173E+00   .653752350630E+00   .685477898834E+00
   .718963654119E+00   .754312254945E+00   .791632471980E+00   .831039576244E+00   .872655730526E+00
   .916610402562E+00   .963040804090E+00   .101209235531E+01   .106391917711E+01   .111868461243E+01
   .117656177861E+01   .123773415216E+01   .130239618820E+01   .137075397625E+01   .144302593472E+01
   .151944354598E+01   .160025213461E+01   .168571169098E+01   .177609774301E+01   .187170227860E+01
   .197283472144E+01   .207982296365E+01   .219301445770E+01   .231277737157E+01   .243950180997E+01
   .257360110572E+01   .271551318482E+01   .286570200926E+01   .302465910161E+01   .319290515605E+01
   .337099173998E+01   .355950309131E+01   .375905801630E+01   .397031189301E+01   .419395878612E+01
   .443073367828E+01   .468141482455E+01   .494682623529E+01   .522784029453E+01   .552538052014E+01
   .584042447259E+01   .617400681977E+01   .652722256462E+01   .690123044424E+01   .729725650680E+01
   .771659787607E+01   .816062671058E+01   .863079436651E+01   .912863577327E+01   .965577403014E+01
   .102139252338E+02   .108049035457E+02   .114306265083E+02   .120931206211E+02   .127945271843E+02
   .135371084210E+02   .143232538877E+02   .151554871811E+02   .160364729531E+02   .169690242410E+02
   .179561101239E+02   .190008637122E+02   .201065904795E+02   .212767769455E+02   .225150997148E+02
   .238254348796E+02   .252118677913E+02   .266787032057E+02   .282304758039E+02   .298719610918E+02
   .316081866777E+02   .334444439258E+02   .353862999836E+02   .374396101739E+02   .396105307455E+02
   .419055319696E+02   .443314115657E+02   .468953084409E+02   .496047167162E+02   .524675000169E+02
   .554919059887E+02   .586865810095E+02   .620605850458E+02   .656234066089E+02   .693849777495E+02
   .733556890302E+02   .775464043971E+02   .819684758736E+02   .866337579780E+02   .915546217685E+02
   .967439683954E+02   .102215242038E+03   .107982442083E+03   .114060134397E+03   .120463461516E+03
   .127208151572E+03   .134310525764E+03   .141787504137E+03   .149656609450E+03   .157935968866E+03
   .166644313191E+03   .175800973371E+03   .185425873917E+03   .195539522925E+03   .206162998326E+03
   .217317929985E+03   .229026477228E+03   .241311301375E+03   .254195532823E+03   .267702732198E+03
   .281856845083E+03   .296682149797E+03   .312203197701E+03   .328444745462E+03   .345431678732E+03
   .363188926639E+03   .381741366540E+03   .401113718424E+03   .421330428409E+03   .442415540748E+03
   .464392557808E+03   .487284287484E+03   .511112677568E+03   .535898636616E+03   .561661840940E+03
   .588420527387E+03   .616191271692E+03   .644988752230E+03   .674825499185E+03   .705711629200E+03
   .737654565797E+03   .770658745967E+03   .804725313553E+03   .839851800254E+03   .876031795293E+03
   .913254605067E+03   .951504904362E+03   .990762381008E+03   .103100137618E+04   .107219052287E+04
   .111429238545E+04   .115726310350E+04   .120105204370E+04   .124560146359E+04   .129084619189E+04
   .133671332989E+04   .138312197938E+04   .142998300250E+04   .147719881949E+04   .152466325047E+04
   .157226140789E+04   .161986964607E+04   .166735557495E+04   .171457814473E+04   .176138780835E+04
   .180762676863E+04   .185312931642E+04   .189772226607E+04   .194122549371E+04   .198345258349E+04
   .202421158569E+04   .206330589018E+04   .210053521700E+04   .213569672495E+04   .216858623732E+04
   .219899958226E+04   .222673404372E+04   .225158991653E+04   .227337215748E+04   .229189212179E+04
   .230696937243E+04   .231843354711E+04   .232612626573E+04   .232990305882E+04   .232963529517E+04
   .232521208521E+04   .231654213438E+04   .230355551986E+04   .228620536203E+04   .226446936184E+04
   .223835117417E+04   .220788158781E+04   .217311948251E+04   .213415253506E+04   .209109764743E+04
   .204410107233E+04   .199333821376E+04   .193901308358E+04   .188135739848E+04   .182062930602E+04
   .175711173286E+04   .169111035384E+04   .162295118589E+04   .155297781738E+04   .148154829067E+04
   .140903166324E+04   .133580428167E+04   .126224581224E+04   .118873507723E+04   .111564580054E+04
   .104334219459E+04   .972174747616E+03   .902475983529E+03   .834556504451E+03   .768701335191E+03
   .705166689134E+03   .644177277570E+03   .585924312584E+03   .530564394027E+03   .478219504178E+03
   .428978305256E+03   .382898750697E+03   .340011596025E+03   .300323789355E+03   .263820298345E+03
   .230463266369E+03   .200188731532E+03   .172902844909E+03   .148480362653E+03   .126767390522E+03
   .107588271142E+03   .907544509077E+02   .760726014073E+02   .633504173410E+02   .524001100015E+02
   .430404409556E+02   .350980932873E+02   .284087987970E+02   .228183342126E+02   .181833598131E+02
   .143720450906E+02   .112644434187E+02   .875260471254E+01   .674043770626E+01   .514334865856E+01
   .388769191001E+01   .291007156436E+01   .215653420246E+01   .158169104272E+01   .114780500860E+01
   .823874180193E+00   .584738414580E+00   .410230804412E+00   .284390384711E+00   .194747360857E+00
   .131687353469E+00   .878969294607E-01   .578891464484E-01   .376050503557E-01   .240850449435E-01
   .152027566505E-01   .945336870830E-02
 pspotential
  -.106455265800E+03  -.106454371816E+03  -.106453504716E+03  -.106452663691E+03  -.106451847958E+03
  -.106451056756E+03  -.106450289347E+03  -.106449545015E+03  -.106448823067E+03  -.106448122828E+03
  -.106447443648E+03  -.106446784891E+03  -.106446145944E+03  -.106445526212E+03  -.106444925115E+03
  -.106444342094E+03  -.106443776604E+03  -.106443228120E+03  -.106442696128E+03  -.106442180134E+03
  -.106441679655E+03  -.106441194226E+03  -.106440723392E+03  -.106440266717E+03  -.106439823773E+03
  -.106439394147E+03  -.106438977440E+03  -.106438573262E+03  -.106438181236E+03  -.106437800996E+03
  -.106437432189E+03  -.106437074469E+03  -.106436727505E+03  -.106436390970E+03  -.106436064553E+03
  -.106435747949E+03  -.106435440861E+03  -.106435143004E+03  -.106434854100E+03  -.106434573879E+03
  -.106434302080E+03  -.106434038449E+03  -.106433782740E+03  -.106433534715E+03  -.106433294142E+03
  -.106433060796E+03  -.106432834460E+03  -.106432614923E+03  -.106432401979E+03  -.106432195430E+03
  -.106431995083E+03  -.106431800751E+03  -.106431612252E+03  -.106431429410E+03  -.106431252054E+03
  -.106431080018E+03  -.106430913143E+03  -.106430751270E+03  -.106430594250E+03  -.106430441936E+03
  -.106430294184E+03  -.106430150856E+03  -.106430011819E+03  -.106429876941E+03  -.106429746096E+03
  -.106429619163E+03  -.106429496021E+03  -.106429376554E+03  -.106429260652E+03  -.106429148204E+03
  -.106429039105E+03  -.106428933252E+03  -.106428830545E+03  -.106428730887E+03  -.106428634184E+03
  -.106428540345E+03  -.106428449281E+03  -.106428360904E+03  -.106428275132E+03  -.106428191883E+03
  -.106428111076E+03  -.106428032635E+03  -.106427956485E+03  -.106427882552E+03  -.106427810766E+03
  -.106427741056E+03  -.106427673355E+03  -.106427607597E+03  -.106427543719E+03  -.106427481656E+03
  -.106427421349E+03  -.106427362736E+03  -.106427305761E+03  -.106427250365E+03  -.106427196493E+03
  -.106427144089E+03  -.106427093101E+03  -.106427043476E+03  -.106426995161E+03  -.106426948106E+03
  -.106426902261E+03  -.106426857576E+03  -.106426814004E+03  -.106426771495E+03  -.106426730003E+03
  -.106426689480E+03  -.106426649880E+03  -.106426611156E+03  -.106426573262E+03  -.106426536152E+03
  -.106426499781E+03  -.106426464101E+03  -.106426429068E+03  -.106426394634E+03  -.106426360753E+03
  -.106426327378E+03  -.106426294462E+03  -.106426261956E+03  -.106426229812E+03  -.106426197980E+03
  -.106426166409E+03  -.106426135048E+03  -.106426103843E+03  -.106426072741E+03  -.106426041686E+03
  -.106426010620E+03  -.106425979485E+03  -.106425948218E+03  -.106425916758E+03  -.106425885038E+03
  -.106425852990E+03  -.106425820543E+03  -.106425787624E+03  -.106425754155E+03  -.106425720057E+03
  -.106425685244E+03  -.106425649630E+03  -.106425613121E+03  -.106425575620E+03  -.106425537027E+03
  -.106425497234E+03  -.106425456128E+03  -.106425413592E+03  -.106425369499E+03  -.106425323719E+03
  -.106425276112E+03  -.106425226531E+03  -.106425174822E+03  -.106425120820E+03  -.106425064352E+03
  -.106425005235E+03  -.106424943275E+03  -.106424878266E+03  -.106424809991E+03  -.106424738219E+03
  -.106424662705E+03  -.106424583191E+03  -.106424499402E+03  -.106424411047E+03  -.106424317818E+03
  -.106424219385E+03  -.106424115403E+03  -.106424005501E+03  -.106423889288E+03  -.106423766348E+03
  -.106423636241E+03  -.106423498497E+03  -.106423352619E+03  -.106423198079E+03  -.106423034316E+03
  -.106422860732E+03  -.106422676697E+03  -.106422481536E+03  -.106422274535E+03  -.106422054937E+03
  -.106421821933E+03  -.106421574669E+03  -.106421312233E+03  -.106421033658E+03  -.106420737917E+03
  -.106420423919E+03  -.106420090501E+03  -.106419736432E+03  -.106419360401E+03  -.106418961016E+03
  -.106418536797E+03  -.106418086171E+03  -.106417607468E+03  -.106417098910E+03  -.106416558610E+03
  -.106415984562E+03  -.106415374635E+03  -.106414726561E+03  -.106414037933E+03  -.106413306191E+03
  -.106412528615E+03  -.106411702313E+03  -.106410824214E+03  -.106409891051E+03  -.106408899354E+03
  -.106407845433E+03  -.106406725368E+03  -.106405534993E+03  -.106404269878E+03  -.106402925319E+03
  -.106401496312E+03  -.106399977541E+03  -.106398363358E+03  -.106396647757E+03  -.106394824358E+03
  -.106392886378E+03  -.106390826612E+03  -.106388637400E+03  -.106386310602E+03  -.106383837569E+03
  -.106381209110E+03  -.106378415456E+03  -.106375446228E+03  -.106372290396E+03  -.106368936240E+03
  -.106365371305E+03  -.106361582359E+03  -.106357555341E+03  -.106353275312E+03  -.106348726398E+03
  -.106343891735E+03  -.106338753406E+03  -.106333292377E+03  -.106327488425E+03  -.106321320069E+03
  -.106314764489E+03  -.106307797447E+03  -.106300393197E+03  -.106292524392E+03  -.106284161990E+03
  -.106275275145E+03  -.106265831104E+03  -.106255795084E+03  -.106245130152E+03  -.106233797096E+03
  -.106221754286E+03  -.106208957525E+03  -.106195359903E+03  -.106180911627E+03  -.106165559852E+03
  -.106149248500E+03  -.106131918067E+03  -.106113505422E+03  -.106093943594E+03  -.106073161548E+03
  -.106051083944E+03  -.106027630896E+03  -.106002717701E+03  -.105976254569E+03  -.105948146332E+03
  -.105918292138E+03  -.105886585131E+03  -.105852912117E+03  -.105817153212E+03  -.105779181469E+03
  -.105738862498E+03  -.105696054053E+03  -.105650605611E+03  -.105602357929E+03  -.105551142575E+03
  -.105496781442E+03  -.105439086237E+03  -.105377857946E+03  -.105312886269E+03  -.105243949031E+03
  -.105170811563E+03  -.105093226043E+03  -.105010930807E+03  -.104923649617E+03  -.104831090880E+03
  -.104732946827E+03  -.104628892621E+03  -.104518585419E+03  -.104401663349E+03  -.104277744424E+03
  -.104146425359E+03  -.104007280303E+03  -.103859859475E+03  -.103703687686E+03  -.103538262773E+03
  -.103363053917E+03  -.103177499884E+03  -.102981007186E+03  -.102772948213E+03  -.102552659371E+03
  -.102319439311E+03  -.102072547329E+03  -.101811202079E+03  -.101534580754E+03  -.101241818940E+03
  -.100932011391E+03  -.100604214002E+03  -.100257447322E+03  -.998907019350E+02  -.995029460926E+02
  -.990931359308E+02  -.986602285648E+02  -.982031982611E+02  -.977210557282E+02  -.972128703619E+02
  -.966777950135E+02  -.961150925380E+02  -.955241630360E+02  -.949045703672E+02  -.942560662127E+02
  -.935786097511E+02  -.928723809220E+02  -.921377853161E+02  -.913754489634E+02  -.905862016826E+02
  -.897710481657E+02  -.889311265601E+02  -.880676549190E+02  -.871818664833E+02  -.862749353370E+02
  -.853478945798E+02  -.844015498812E+02  -.834363922279E+02  -.824525149645E+02  -.814495419356E+02
  -.804265756856E+02  -.793821773395E+02  -.783143932711E+02  -.772084941674E+02  -.761164814644E+02
  -.750111727854E+02  -.738685641877E+02  -.726911930086E+02  -.715228356567E+02  -.703252371373E+02
  -.690945353045E+02  -.678379967399E+02
 core charge-density (pseudized)
   .000000000000E+00   .000000000000E+00   .000000000000E+00   .000000000000E+00   .000000000000E+00
   .000000000000E+00   .000000000000E+00   .000000000000E+00   .000000000000E+00   .000000000000E+00
   .000000000000E+00   .000000000000E+00   .000000000000E+00   .000000000000E+00   .000000000000E+00
   .000000000000E+00   .000000000000E+00   .000000000000E+00   .000000000000E+00   .000000000000E+00
   .000000000000E+00   .000000000000E+00   .000000000000E+00   .000000000000E+00   .000000000000E+00
   .000000000000E+00   .000000000000E+00   .000000000000E+00   .000000000000E+00   .000000000000E+00
   .000000000000E+00   .000000000000E+00   .000000000000E+00   .000000000000E+00   .000000000000E+00
   .000000000000E+00   .000000000000E+00   .000000000000E+00   .000000000000E+00   .000000000000E+00
   .000000000000E+00   .000000000000E+00   .000000000000E+00   .000000000000E+00   .000000000000E+00
   .000000000000E+00   .000000000000E+00   .000000000000E+00   .000000000000E+00   .000000000000E+00
   .000000000000E+00   .000000000000E+00   .000000000000E+00   .000000000000E+00   .000000000000E+00
   .000000000000E+00   .000000000000E+00   .000000000000E+00   .000000000000E+00   .000000000000E+00
   .000000000000E+00   .000000000000E+00   .000000000000E+00   .000000000000E+00   .000000000000E+00
   .000000000000E+00   .000000000000E+00   .000000000000E+00   .000000000000E+00   .000000000000E+00
   .000000000000E+00   .000000000000E+00   .000000000000E+00   .000000000000E+00   .000000000000E+00
   .000000000000E+00   .000000000000E+00   .000000000000E+00   .000000000000E+00   .000000000000E+00
   .000000000000E+00   .000000000000E+00   .000000000000E+00   .000000000000E+00   .000000000000E+00
   .000000000000E+00   .000000000000E+00   .000000000000E+00   .000000000000E+00   .000000000000E+00
   .000000000000E+00   .000000000000E+00   .000000000000E+00   .000000000000E+00   .000000000000E+00
   .000000000000E+00   .000000000000E+00   .000000000000E+00   .000000000000E+00   .000000000000E+00
   .000000000000E+00   .000000000000E+00   .000000000000E+00   .000000000000E+00   .000000000000E+00
   .000000000000E+00   .000000000000E+00   .000000000000E+00   .000000000000E+00   .000000000000E+00
   .000000000000E+00   .000000000000E+00   .000000000000E+00   .000000000000E+00   .000000000000E+00
   .000000000000E+00   .000000000000E+00   .000000000000E+00   .000000000000E+00   .000000000000E+00
   .000000000000E+00   .000000000000E+00   .000000000000E+00   .000000000000E+00   .000000000000E+00
   .000000000000E+00   .000000000000E+00   .000000000000E+00   .000000000000E+00   .000000000000E+00
   .000000000000E+00   .000000000000E+00   .000000000000E+00   .000000000000E+00   .000000000000E+00
   .000000000000E+00   .000000000000E+00   .000000000000E+00   .000000000000E+00   .000000000000E+00
   .000000000000E+00   .000000000000E+00   .000000000000E+00   .000000000000E+00   .000000000000E+00
   .000000000000E+00   .000000000000E+00   .000000000000E+00   .000000000000E+00   .000000000000E+00
   .000000000000E+00   .000000000000E+00   .000000000000E+00   .000000000000E+00   .000000000000E+00
   .000000000000E+00   .000000000000E+00   .000000000000E+00   .000000000000E+00   .000000000000E+00
   .000000000000E+00   .000000000000E+00   .000000000000E+00   .000000000000E+00   .000000000000E+00
   .000000000000E+00   .000000000000E+00   .000000000000E+00   .000000000000E+00   .000000000000E+00
   .000000000000E+00   .000000000000E+00   .000000000000E+00   .000000000000E+00   .000000000000E+00
   .000000000000E+00   .000000000000E+00   .000000000000E+00   .000000000000E+00   .000000000000E+00
   .000000000000E+00   .000000000000E+00   .000000000000E+00   .000000000000E+00   .000000000000E+00
   .000000000000E+00   .000000000000E+00   .000000000000E+00   .000000000000E+00   .000000000000E+00
   .000000000000E+00   .000000000000E+00   .000000000000E+00   .000000000000E+00   .000000000000E+00
   .000000000000E+00   .000000000000E+00   .000000000000E+00   .000000000000E+00   .000000000000E+00
   .000000000000E+00   .000000000000E+00   .000000000000E+00   .000000000000E+00   .000000000000E+00
   .000000000000E+00   .000000000000E+00   .000000000000E+00   .000000000000E+00   .000000000000E+00
   .000000000000E+00   .000000000000E+00   .000000000000E+00   .000000000000E+00   .000000000000E+00
   .000000000000E+00   .000000000000E+00   .000000000000E+00   .000000000000E+00   .000000000000E+00
   .000000000000E+00   .000000000000E+00   .000000000000E+00   .000000000000E+00   .000000000000E+00
   .000000000000E+00   .000000000000E+00   .000000000000E+00   .000000000000E+00   .000000000000E+00
   .000000000000E+00   .000000000000E+00   .000000000000E+00   .000000000000E+00   .000000000000E+00
   .000000000000E+00   .000000000000E+00   .000000000000E+00   .000000000000E+00   .000000000000E+00
   .000000000000E+00   .000000000000E+00   .000000000000E+00   .000000000000E+00   .000000000000E+00
   .000000000000E+00   .000000000000E+00   .000000000000E+00   .000000000000E+00   .000000000000E+00
   .000000000000E+00   .000000000000E+00   .000000000000E+00   .000000000000E+00   .000000000000E+00
   .000000000000E+00   .000000000000E+00   .000000000000E+00   .000000000000E+00   .000000000000E+00
   .000000000000E+00   .000000000000E+00   .000000000000E+00   .000000000000E+00   .000000000000E+00
   .000000000000E+00   .000000000000E+00   .000000000000E+00   .000000000000E+00   .000000000000E+00
   .000000000000E+00   .000000000000E+00   .000000000000E+00   .000000000000E+00   .000000000000E+00
   .000000000000E+00   .000000000000E+00   .000000000000E+00   .000000000000E+00   .000000000000E+00
   .000000000000E+00   .000000000000E+00   .000000000000E+00   .000000000000E+00   .000000000000E+00
   .000000000000E+00   .000000000000E+00   .000000000000E+00   .000000000000E+00   .000000000000E+00
   .000000000000E+00   .000000000000E+00   .000000000000E+00   .000000000000E+00   .000000000000E+00
   .000000000000E+00   .000000000000E+00   .000000000000E+00   .000000000000E+00   .000000000000E+00
   .000000000000E+00   .000000000000E+00   .000000000000E+00   .000000000000E+00   .000000000000E+00
   .000000000000E+00   .000000000000E+00   .000000000000E+00   .000000000000E+00   .000000000000E+00
   .000000000000E+00   .000000000000E+00   .000000000000E+00   .000000000000E+00   .000000000000E+00
   .000000000000E+00   .000000000000E+00   .000000000000E+00   .000000000000E+00   .000000000000E+00
   .000000000000E+00   .000000000000E+00   .000000000000E+00   .000000000000E+00   .000000000000E+00
   .000000000000E+00   .000000000000E+00   .000000000000E+00   .000000000000E+00   .000000000000E+00
   .000000000000E+00   .000000000000E+00   .000000000000E+00   .000000000000E+00   .000000000000E+00
   .000000000000E+00   .000000000000E+00
 pseudo wavefunction
   .121052324510E-03   .124805588816E-03   .128675224228E-03   .132664838866E-03   .136778152724E-03
   .141019001134E-03   .145391338342E-03   .149899241200E-03   .154546912961E-03   .159338687203E-03
   .164279031867E-03   .169372553424E-03   .174624001169E-03   .180038271653E-03   .185620413244E-03
   .191375630836E-03   .197309290704E-03   .203426925503E-03   .209734239432E-03   .216237113551E-03
   .222941611262E-03   .229853983965E-03   .236980676887E-03   .244328335092E-03   .251903809673E-03
   .259714164147E-03   .267766681036E-03   .276068868657E-03   .284628468127E-03   .293453460577E-03
   .302552074596E-03   .311932793903E-03   .321604365255E-03   .331575806608E-03   .341856415520E-03
   .352455777823E-03   .363383776561E-03   .374650601203E-03   .386266757146E-03   .398243075510E-03
   .410590723238E-03   .423321213505E-03   .436446416455E-03   .449978570271E-03   .463930292582E-03
   .478314592231E-03   .493144881404E-03   .508434988134E-03   .524199169195E-03   .540452123399E-03
   .557209005294E-03   .574485439302E-03   .592297534281E-03   .610661898551E-03   .629595655373E-03
   .649116458921E-03   .669242510741E-03   .689992576719E-03   .711386004584E-03   .733442741942E-03
   .756183354882E-03   .779629047145E-03   .803801679901E-03   .828723792125E-03   .854418621621E-03
   .880910126681E-03   .908223008428E-03   .936382733849E-03   .965415559534E-03   .995348556165E-03
   .102620963375E-02   .105802756765E-02   .109083202541E-02   .112465359441E-02   .115952381041E-02
   .119547518692E-02   .123254124554E-02   .127075654720E-02   .131015672439E-02   .135077851440E-02
   .139265979354E-02   .143583961247E-02   .148035823261E-02   .152625716370E-02   .157357920245E-02
   .162236847248E-02   .167267046548E-02   .172453208356E-02   .177800168303E-02   .183312911947E-02
   .188996579420E-02   .194856470224E-02   .200898048166E-02   .207126946458E-02   .213548972965E-02
   .220170115620E-02   .226996548009E-02   .234034635125E-02   .241290939301E-02   .248772226330E-02
   .256485471770E-02   .264437867450E-02   .272636828172E-02   .281089998625E-02   .289805260509E-02
   .298790739888E-02   .308054814757E-02   .317606122860E-02   .327453569736E-02   .337606337021E-02
   .348073891012E-02   .358865991482E-02   .369992700786E-02   .381464393232E-02   .393291764756E-02
   .405485842889E-02   .418057997033E-02   .431019949062E-02   .444383784240E-02   .458161962490E-02
   .472367330000E-02   .487013131196E-02   .502113021085E-02   .517681077977E-02   .533731816603E-02
   .550280201637E-02   .567341661641E-02   .584932103437E-02   .603067926924E-02   .621766040359E-02
   .641043876100E-02   .660919406849E-02   .681411162386E-02   .702538246826E-02   .724320356412E-02
   .746777797850E-02   .769931507218E-02   .793803069454E-02   .818414738453E-02   .843789457774E-02
   .869950881997E-02   .896923398734E-02   .924732151315E-02   .953403062187E-02   .982962857020E-02
   .101343908956E-01   .104486016727E-01   .107725537769E-01   .111065491575E-01   .114508991172E-01
   .118059246024E-01   .121719565005E-01   .125493359479E-01   .129384146463E-01   .133395551893E-01
   .137531313988E-01   .141795286721E-01   .146191443389E-01   .150723880302E-01   .155396820573E-01
   .160214618035E-01   .165181761272E-01   .170302877774E-01   .175582738216E-01   .181026260872E-01
   .186638516162E-01   .192424731332E-01   .198390295283E-01   .204540763545E-01   .210881863391E-01
   .217419499126E-01   .224159757510E-01   .231108913370E-01   .238273435357E-01   .245659991892E-01
   .253275457284E-01   .261126918025E-01   .269221679286E-01   .277567271587E-01   .286171457681E-01
   .295042239634E-01   .304187866110E-01   .313616839872E-01   .323337925507E-01   .333360157366E-01
   .343692847737E-01   .354345595261E-01   .365328293572E-01   .376651140203E-01   .388324645728E-01
   .400359643169E-01   .412767297665E-01   .425559116408E-01   .438746958854E-01   .452343047211E-01
   .466359977212E-01   .480810729174E-01   .495708679356E-01   .511067611610E-01   .526901729330E-01
   .543225667715E-01   .560054506335E-01   .577403782008E-01   .595289501989E-01   .613728157481E-01
   .632736737450E-01   .652332742765E-01   .672534200650E-01   .693359679442E-01   .714828303671E-01
   .736959769429E-01   .759774360049E-01   .783292962072E-01   .807537081490E-01   .832528860266E-01
   .858291093106E-01   .884847244467E-01   .912221465794E-01   .940438612944E-01   .969524263790E-01
   .999504735966E-01   .103040710471E+00   .106225922082E+00   .109508972853E+00   .112892808354E+00
   .116380457078E+00   .119975032217E+00   .123679733410E+00   .127497848466E+00   .131432755049E+00
   .135487922315E+00   .139666912491E+00   .143973382387E+00   .148411084826E+00   .152983869971E+00
   .157695686545E+00   .162550582918E+00   .167552708043E+00   .172706312216E+00   .178015747650E+00
   .183485468814E+00   .189120032532E+00   .194924097791E+00   .200902425238E+00   .207059876319E+00
   .213401412022E+00   .219932091181E+00   .226657068280E+00   .233581590726E+00   .240710995507E+00
   .248050705184E+00   .255606223149E+00   .263383128070E+00   .271387067434E+00   .279623750111E+00
   .288098937841E+00   .296818435529E+00   .305788080245E+00   .315013728810E+00   .324501243831E+00
   .334256478046E+00   .344285256835E+00   .354593358731E+00   .365186493763E+00   .376070279443E+00
   .387250214214E+00   .398731648148E+00   .410519750679E+00   .422619475139E+00   .435035519877E+00
   .447772285693E+00   .460833829349E+00   .474223812884E+00   .487945448468E+00   .502001438532E+00
   .516393910884E+00   .531124348571E+00   .546193514201E+00   .561601368496E+00   .577346982847E+00
   .593428445668E+00   .609842762392E+00   .626585748984E+00   .643651918930E+00   .661034363690E+00
   .678724626742E+00   .696712571408E+00   .714986242788E+00   .733531724292E+00   .752332989392E+00
   .771371749455E+00   .790627298695E+00   .810076357567E+00   .829692916186E+00   .849448079667E+00
   .869309917625E+00   .889243320424E+00   .909209865158E+00   .929167694744E+00   .949071413897E+00
   .968872006174E+00   .988516776605E+00   .100794932478E+01   .102710955349E+01   .104593371802E+01
   .106435452146E+01   .108230126065E+01   .109970002722E+01   .111647396719E+01   .113254360088E+01
   .114782720355E+01   .116224124402E+01   .117570087540E+01   .118812046806E+01   .119941416901E+01
   .120949646640E+01   .121828272955E+01   .122568968673E+01   .123163579299E+01   .123604142967E+01
   .123882886587E+01   .123992190088E+01   .123924509600E+01   .123672249502E+01   .123227572715E+01
   .122582138576E+01   .121726758276E+01   .120650959616E+01   .119342455898E+01   .117785650617E+01
   .115980407378E+01   .113935785774E+01   .111664160802E+01   .109179088500E+01   .106495196327E+01
   .103628065227E+01   .100594104726E+01
 ae wavefunction
  -.597520737029E-03  -.616014834872E-03  -.635081121050E-03  -.654737284352E-03  -.675001559522E-03
  -.695892744057E-03  -.717430215506E-03  -.739633949310E-03  -.762524537174E-03  -.786123206011E-03
  -.810451837452E-03  -.835532987960E-03  -.861389909552E-03  -.888046571153E-03  -.915527680598E-03
  -.943858707309E-03  -.973065905652E-03  -.100317633901E-02  -.103421790460E-02  -.106621935899E-02
  -.109921034448E-02  -.113322141619E-02  -.116828407002E-02  -.120443077147E-02  -.124169498526E-02
  -.128011120594E-02  -.131971498934E-02  -.136054298500E-02  -.140263296964E-02  -.144602388151E-02
  -.149075585586E-02  -.153687026151E-02  -.158440973839E-02  -.163341823634E-02  -.168394105501E-02
  -.173602488491E-02  -.178971784981E-02  -.184506955030E-02  -.190213110868E-02  -.196095521519E-02
  -.202159617565E-02  -.208410996044E-02  -.214855425501E-02  -.221498851184E-02  -.228347400396E-02
  -.235407388005E-02  -.242685322113E-02  -.250187909902E-02  -.257922063635E-02  -.265894906854E-02
  -.274113780742E-02  -.282586250679E-02  -.291320112992E-02  -.300323401895E-02  -.309604396638E-02
  -.319171628853E-02  -.329033890128E-02  -.339200239787E-02  -.349680012897E-02  -.360482828512E-02
  -.371618598146E-02  -.383097534491E-02  -.394930160383E-02  -.407127318028E-02  -.419700178481E-02
  -.432660251403E-02  -.446019395083E-02  -.459789826753E-02  -.473984133181E-02  -.488615281566E-02
  -.503696630737E-02  -.519241942658E-02  -.535265394253E-02  -.551781589555E-02  -.568805572191E-02
  -.586352838201E-02  -.604439349209E-02  -.623081545952E-02  -.642296362162E-02  -.662101238832E-02
  -.682514138853E-02  -.703553562035E-02  -.725238560533E-02  -.747588754666E-02  -.770624349147E-02
  -.794366149740E-02  -.818835580325E-02  -.844054700419E-02  -.870046223115E-02  -.896833533485E-02
  -.924440707431E-02  -.952892531003E-02  -.982214520178E-02  -.101243294112E-01  -.104357483093E-01
  -.107566801887E-01  -.110874114808E-01  -.114282369781E-01  -.117794600613E-01  -.121413929319E-01
  -.125143568493E-01  -.128986823738E-01  -.132947096139E-01  -.137027884795E-01  -.141232789401E-01
  -.145565512880E-01  -.150029864066E-01  -.154629760445E-01  -.159369230941E-01  -.164252418753E-01
  -.169283584247E-01  -.174467107893E-01  -.179807493252E-01  -.185309370012E-01  -.190977497066E-01
  -.196816765642E-01  -.202832202471E-01  -.209028972994E-01  -.215412384616E-01  -.221987889989E-01
  -.228761090336E-01  -.235737738797E-01  -.242923743814E-01  -.250325172529E-01  -.257948254211E-01
  -.265799383690E-01  -.273885124812E-01  -.282212213885E-01  -.290787563142E-01  -.299618264178E-01
  -.308711591389E-01  -.318075005381E-01  -.327716156348E-01  -.337642887420E-01  -.347863237951E-01
  -.358385446760E-01  -.369217955294E-01  -.380369410714E-01  -.391848668884E-01  -.403664797251E-01
  -.415827077607E-01  -.428345008702E-01  -.441228308711E-01  -.454486917519E-01  -.468130998811E-01
  -.482170941953E-01  -.496617363628E-01  -.511481109214E-01  -.526773253869E-01  -.542505103313E-01
  -.558688194249E-01  -.575334294425E-01  -.592455402279E-01  -.610063746141E-01  -.628171782964E-01
  -.646792196524E-01  -.665937895071E-01  -.685622008361E-01  -.705857884052E-01  -.726659083384E-01
  -.748039376113E-01  -.770012734632E-01  -.792593327228E-01  -.815795510400E-01  -.839633820196E-01
  -.864122962467E-01  -.889277802005E-01  -.915113350453E-01  -.941644752932E-01  -.968887273285E-01
  -.996856277863E-01  -.102556721775E+00  -.105503560933E+00  -.108527701313E+00  -.111630701071E+00
  -.114814117975E+00  -.118079506685E+00  -.121428415828E+00  -.124862384832E+00  -.128382940516E+00
  -.131991593419E+00  -.135689833858E+00  -.139479127696E+00  -.143360911804E+00  -.147336589214E+00
  -.151407523923E+00  -.155575035361E+00  -.159840392479E+00  -.164204807465E+00  -.168669429044E+00
  -.173235335369E+00  -.177903526470E+00  -.182674916242E+00  -.187550323970E+00  -.192530465345E+00
  -.197615942984E+00  -.202807236404E+00  -.208104691461E+00  -.213508509213E+00  -.219018734201E+00
  -.224635242131E+00  -.230357726938E+00  -.236185687210E+00  -.242118411975E+00  -.248154965819E+00
  -.254294173335E+00  -.260534602895E+00  -.266874549721E+00  -.273312018268E+00  -.279844703909E+00
  -.286469973921E+00  -.293184847772E+00  -.299985976721E+00  -.306869622745E+00  -.313831636798E+00
  -.320867436428E+00  -.327971982785E+00  -.335139757031E+00  -.342364736213E+00  -.349640368627E+00
  -.356959548737E+00  -.364314591695E+00  -.371697207546E+00  -.379098475184E+00  -.386508816155E+00
  -.393917968397E+00  -.401314960036E+00  -.408688083349E+00  -.416024869035E+00  -.423312060933E+00
  -.430535591355E+00  -.437680557200E+00  -.444731197039E+00  -.451670869384E+00  -.458482032335E+00
  -.465146224877E+00  -.471644050039E+00  -.477955160211E+00  -.484058244892E+00  -.489931021166E+00
  -.495550227230E+00  -.500891619310E+00  -.505929972305E+00  -.510639084533E+00  -.514991786958E+00
  -.518959957286E+00  -.522514539352E+00  -.525625568199E+00  -.528262201296E+00  -.530392756321E+00
  -.531984755958E+00  -.533004980157E+00  -.533419526305E+00  -.533193877757E+00  -.532292981162E+00
  -.530681333023E+00  -.528323075905E+00  -.525182104684E+00  -.521222183211E+00  -.516407071726E+00
  -.510700665319E+00  -.504067143693E+00  -.496471132405E+00  -.487877875730E+00  -.478253421166E+00
  -.467564815560E+00  -.455780312685E+00  -.442869592018E+00  -.428803988313E+00  -.413556731446E+00
  -.397103195830E+00  -.379421158553E+00  -.360491065208E+00  -.340296302214E+00  -.318823474239E+00
  -.296062685183E+00  -.272007821000E+00  -.246656832508E+00  -.220012016240E+00  -.192080291270E+00
  -.162873469927E+00  -.132408520268E+00  -.100707818152E+00  -.677993867027E-01  -.337171208218E-01
   .149900587593E-02   .378027548766E-01   .751414614371E-01   .113455903761E+00   .152680210710E+00
   .192741819571E+00   .233561500197E+00   .275053467550E+00   .317125609833E+00   .359679859700E+00
   .402612723554E+00   .445815947236E+00   .489177227382E+00   .532580786825E+00   .575907566566E+00
   .619034824821E+00   .661835133970E+00   .704175088578E+00   .745914315462E+00   .786905395754E+00
   .826994971469E+00   .866025783091E+00   .903839034545E+00   .940276532166E+00   .975182362464E+00
   .100840416780E+01   .103979419983E+01   .106921031168E+01   .109651698096E+01   .112158639312E+01
   .114429957418E+01   .116454754177E+01   .118223243614E+01   .119726859418E+01   .120958353433E+01
   .121911882731E+01   .122583083392E+01   .122969129705E+01   .123068777947E+01   .122882394266E+01
   .122411966470E+01   .121661099761E+01   .120634996663E+01   .119340421583E+01   .117785650617E+01
   .115980407378E+01   .113935785774E+01   .111664160802E+01   .109179088500E+01   .106495196327E+01
   .103628065227E+01   .100594104726E+01
 pseudo wavefunction
   .749153966334E-05   .772381713833E-05   .796329644722E-05   .821020088506E-05   .846476067022E-05
   .872721315907E-05   .899780306726E-05   .927678269795E-05   .956441217700E-05   .986095969559E-05
   .101667017602E-04   .104819234506E-04   .108069186852E-04   .111419904960E-04   .114874513100E-04
   .118436232415E-04   .122108383919E-04   .125894391595E-04   .129797785587E-04   .133822205493E-04
   .137971403759E-04   .142249249173E-04   .146659730479E-04   .151206960093E-04   .155895177936E-04
   .160728755389E-04   .165712199370E-04   .170850156536E-04   .176147417612E-04   .181608921864E-04
   .187239761697E-04   .193045187413E-04   .199030612096E-04   .205201616666E-04   .211563955081E-04
   .218123559703E-04   .224886546825E-04   .231859222381E-04   .239048087820E-04   .246459846169E-04
   .254101408286E-04   .261979899301E-04   .270102665259E-04   .278477279973E-04   .287111552082E-04
   .296013532334E-04   .305191521091E-04   .314654076072E-04   .324410020326E-04   .334468450465E-04
   .344838745142E-04   .355530573796E-04   .366553905671E-04   .377919019105E-04   .389636511120E-04
   .401717307298E-04   .414172671973E-04   .427014218727E-04   .440253921224E-04   .453904124372E-04
   .467977555834E-04   .482487337894E-04   .497446999692E-04   .512870489841E-04   .528772189429E-04
   .545166925430E-04   .562069984526E-04   .579497127362E-04   .597464603242E-04   .615989165274E-04
   .635088085997E-04   .654779173479E-04   .675080787925E-04   .696011858792E-04   .717591902442E-04
   .739841040332E-04   .762780017779E-04   .786430223302E-04   .810813708558E-04   .835953208906E-04
   .861872164603E-04   .888594742657E-04   .916145859356E-04   .944551203501E-04   .973837260355E-04
   .100403133633E-03   .103516158446E-03   .106725703061E-03   .110034760059E-03   .113446414800E-03
   .116963848304E-03   .120590340212E-03   .124329271847E-03   .128184129363E-03   .132158506998E-03
   .136256110421E-03   .140480760189E-03   .144836395307E-03   .149327076901E-03   .153956992000E-03
   .158730457444E-03   .163651923901E-03   .168725980022E-03   .173957356712E-03   .179350931544E-03
   .184911733300E-03   .190644946661E-03   .196555917039E-03   .202650155553E-03   .208933344172E-03
   .215411341003E-03   .222090185754E-03   .228976105359E-03   .236075519779E-03   .243395047985E-03
   .250941514122E-03   .258721953868E-03   .266743620986E-03   .275013994082E-03   .283540783567E-03
   .292331938842E-03   .301395655696E-03   .310740383941E-03   .320374835278E-03   .330307991406E-03
   .340549112385E-03   .351107745255E-03   .361993732919E-03   .373217223305E-03   .384788678806E-03
   .396718886016E-03   .409018965761E-03   .421700383446E-03   .434774959710E-03   .448254881425E-03
   .462152713016E-03   .476481408146E-03   .491254321747E-03   .506485222429E-03   .522188305272E-03
   .538378205000E-03   .555070009572E-03   .572279274183E-03   .590022035697E-03   .608314827520E-03
   .627174694929E-03   .646619210875E-03   .666666492260E-03   .687335216717E-03   .708644639903E-03
   .730614613314E-03   .753265602647E-03   .776618706718E-03   .800695676956E-03   .825518937487E-03
   .851111605826E-03   .877497514199E-03   .904701231500E-03   .932748085921E-03   .961664188254E-03
   .991476455895E-03   .102221263757E-02   .105390133881E-02   .108657204815E-02   .112025516414E-02
   .115498202318E-02   .119078492810E-02   .122769717767E-02   .126575309691E-02   .130498806835E-02
   .134543856412E-02   .138714217909E-02   .143013766484E-02   .147446496470E-02   .152016524975E-02
   .156728095587E-02   .161585582184E-02   .166593492849E-02   .171756473894E-02   .177079314004E-02
   .182566948483E-02   .188224463625E-02   .194057101199E-02   .200070263058E-02   .206269515869E-02
   .212660595962E-02   .219249414316E-02   .226042061662E-02   .233044813717E-02   .240264136555E-02
   .247706692101E-02   .255379343757E-02   .263289162165E-02   .271443431098E-02   .279849653486E-02
   .288515557564E-02   .297449103161E-02   .306658488112E-02   .316152154787E-02   .325938796757E-02
   .336027365564E-02   .346427077614E-02   .357147421169E-02   .368198163445E-02   .379589357801E-02
   .391331351007E-02   .403434790594E-02   .415910632249E-02   .428770147268E-02   .442024930032E-02
   .455686905494E-02   .469768336658E-02   .484281832021E-02   .499240352958E-02   .514657221014E-02
   .530546125076E-02   .546921128382E-02   .563796675327E-02   .581187598023E-02   .599109122560E-02
   .617576874901E-02   .636606886367E-02   .656215598618E-02   .676419868077E-02   .697236969677E-02
   .718684599872E-02   .740780878775E-02   .763544351321E-02   .786993987324E-02   .811149180272E-02
   .836029744722E-02   .861655912101E-02   .888048324732E-02   .915228027866E-02   .943216459493E-02
   .972035437665E-02   .100170714506E-01   .103225411047E-01   .106369918686E-01   .109606552563E-01
   .112937654671E-01   .116365590391E-01   .119892744520E-01   .123521516718E-01   .127254316337E-01
   .131093556539E-01   .135041647654E-01   .139100989685E-01   .143273963880E-01   .147562923274E-01
   .151970182087E-01   .156498003886E-01   .161148588359E-01   .165924056589E-01   .170826434653E-01
   .175857635404E-01   .181019438244E-01   .186313466694E-01   .191741163544E-01   .197303763356E-01
   .203002262054E-01   .208837383323E-01   .214809541521E-01   .220918800752E-01   .227164829750E-01
   .233546852175E-01   .240063591882E-01   .246713212690E-01   .253493252149E-01   .260400548731E-01
   .267431161845E-01   .274580284010E-01   .281842144471E-01   .289209903469E-01   .296675536323E-01
   .304229706408E-01   .311861626020E-01   .319558904069E-01   .327307379410E-01   .335090938577E-01
   .342891316546E-01   .350687879062E-01   .358457384962E-01   .366173726801E-01   .373807647954E-01
   .381326434266E-01   .388693578164E-01   .395868413023E-01   .402805715446E-01   .409455272961E-01
   .415761414522E-01   .421662501060E-01   .427090373221E-01   .431969753302E-01   .436217598326E-01
   .439742401142E-01   .442443436401E-01   .444209948310E-01   .444920277162E-01   .444440921827E-01
   .442625535694E-01   .439313854003E-01   .434330551140E-01   .427484027319E-01   .418565125243E-01
   .407345778846E-01   .393577598199E-01   .376990397196E-01   .357290673897E-01   .334160057514E-01
   .307253741230E-01   .276198926529E-01   .240593312867E-01   .200003676562E-01   .153964595246E-01
   .101977389494E-01   .435093719214E-02  -.220064832746E-02  -.951713100264E-02  -.176619386281E-01
  -.267016224118E-01  -.367055456440E-01  -.477454209460E-01  -.598946589318E-01  -.732274842538E-01
  -.878177674327E-01  -.103737512745E+00  -.121054934038E+00  -.139832042132E+00  -.160091921596E+00
  -.181957508501E+00  -.205476527333E+00  -.230732902009E+00  -.257815937118E+00  -.286821237265E+00
  -.317851796637E+00  -.351019286889E+00
 ae wavefunction
  -.233161820193E-04  -.240378502020E-04  -.247818460439E-04  -.255488597881E-04  -.263396029812E-04
  -.271548091294E-04  -.279952343735E-04  -.288616581846E-04  -.297548840814E-04  -.306757403692E-04
  -.316250809016E-04  -.326037858646E-04  -.336127625859E-04  -.346529463681E-04  -.357253013467E-04
  -.368308213754E-04  -.379705309378E-04  -.391454860860E-04  -.403567754093E-04  -.416055210306E-04
  -.428928796345E-04  -.442200435254E-04  -.455882417183E-04  -.469987410623E-04  -.484528473984E-04
  -.499519067518E-04  -.514973065608E-04  -.530904769420E-04  -.547328919944E-04  -.564260711422E-04
  -.581715805184E-04  -.599710343899E-04  -.618260966250E-04  -.637384822053E-04  -.657099587833E-04
  -.677423482853E-04  -.698375285641E-04  -.719974350991E-04  -.742240627489E-04  -.765194675546E-04
  -.788857685980E-04  -.813251499143E-04  -.838398624616E-04  -.864322261493E-04  -.891046319258E-04
  -.918595439285E-04  -.946995016970E-04  -.976271224513E-04  -.100645103438E-03  -.103756224343E-03
  -.106963349778E-03  -.110269431839E-03  -.113677512736E-03  -.117190727505E-03  -.120812306794E-03
  -.124545579733E-03  -.128393976885E-03  -.132361033285E-03  -.136450391565E-03  -.140665805164E-03
  -.145011141642E-03  -.149490386076E-03  -.154107644561E-03  -.158867147809E-03  -.163773254845E-03
  -.168830456819E-03  -.174043380910E-03  -.179416794355E-03  -.184955608578E-03  -.190664883447E-03
  -.196549831633E-03  -.202615823108E-03  -.208868389754E-03  -.215313230103E-03  -.221956214206E-03
  -.228803388637E-03  -.235860981630E-03  -.243135408355E-03  -.250633276334E-03  -.258361391007E-03
  -.266326761441E-03  -.274536606189E-03  -.282998359305E-03  -.291719676517E-03  -.300708441557E-03
  -.309972772656E-03  -.319521029201E-03  -.329361818567E-03  -.339504003113E-03  -.349956707359E-03
  -.360729325339E-03  -.371831528128E-03  -.383273271562E-03  -.395064804132E-03  -.407216675073E-03
  -.419739742641E-03  -.432645182581E-03  -.445944496789E-03  -.459649522169E-03  -.473772439687E-03
  -.488325783630E-03  -.503322451051E-03  -.518775711430E-03  -.534699216525E-03  -.551107010426E-03
  -.568013539818E-03  -.585433664431E-03  -.603382667704E-03  -.621876267634E-03  -.640930627833E-03
  -.660562368767E-03  -.680788579195E-03  -.701626827793E-03  -.723095174954E-03  -.745212184772E-03
  -.767996937198E-03  -.791469040354E-03  -.815648643010E-03  -.840556447203E-03  -.866213721001E-03
  -.892642311389E-03  -.919864657269E-03  -.947903802565E-03  -.976783409411E-03  -.100652777141E-02
  -.103716182694E-02  -.106871117250E-02  -.110120207607E-02  -.113466149040E-02  -.116911706637E-02
  -.120459716617E-02  -.124113087644E-02  -.127874802127E-02  -.131747917501E-02  -.135735567488E-02
  -.139840963337E-02  -.144067395027E-02  -.148418232442E-02  -.152896926501E-02  -.157507010248E-02
  -.162252099886E-02  -.167135895753E-02  -.172162183238E-02  -.177334833617E-02  -.182657804812E-02
  -.188135142062E-02  -.193770978492E-02  -.199569535573E-02  -.205535123470E-02  -.211672141248E-02
  -.217985076946E-02  -.224478507488E-02  -.231157098432E-02  -.238025603528E-02  -.245088864086E-02
  -.252351808119E-02  -.259819449261E-02  -.267496885429E-02  -.275389297217E-02  -.283501945998E-02
  -.291840171708E-02  -.300409390297E-02  -.309215090817E-02  -.318262832124E-02  -.327558239157E-02
  -.337106998778E-02  -.346914855138E-02  -.356987604524E-02  -.367331089677E-02  -.377951193516E-02
  -.388853832260E-02  -.400044947881E-02  -.411530499863E-02  -.423316456214E-02  -.435408783697E-02
  -.447813437207E-02  -.460536348276E-02  -.473583412622E-02  -.486960476702E-02  -.500673323218E-02
  -.514727655491E-02  -.529129080665E-02  -.543883091657E-02  -.558995047800E-02  -.574470154092E-02
  -.590313438987E-02  -.606529730653E-02  -.623123631611E-02  -.640099491677E-02  -.657461379124E-02
  -.675213049979E-02  -.693357915358E-02  -.711899006763E-02  -.730838939228E-02  -.750179872245E-02
  -.769923468346E-02  -.790070849270E-02  -.810622549597E-02  -.831578467760E-02  -.852937814338E-02
  -.874699057524E-02  -.896859865676E-02  -.919417046853E-02  -.942366485247E-02  -.965703074412E-02
  -.989420647213E-02  -.101351190240E-01  -.103796832776E-01  -.106278011971E-01  -.108793609939E-01
  -.111342362507E-01  -.113922850092E-01  -.116533488208E-01  -.119172517605E-01  -.121837994037E-01
  -.124527777658E-01  -.127239522065E-01  -.129970662976E-01  -.132718406561E-01  -.135479717448E-01
  -.138251306395E-01  -.141029617675E-01  -.143810816174E-01  -.146590774244E-01  -.149365058337E-01
  -.152128915449E-01  -.154877259436E-01  -.157604657230E-01  -.160305315018E-01  -.162973064446E-01
  -.165601348920E-01  -.168183210067E-01  -.170711274464E-01  -.173177740706E-01  -.175574366933E-01
  -.177892458935E-01  -.180122858940E-01  -.182255935250E-01  -.184281572858E-01  -.186189165218E-01
  -.187967607349E-01  -.189605290465E-01  -.191090098337E-01  -.192409405620E-01  -.193550078400E-01
  -.194498477191E-01  -.195240462713E-01  -.195761404705E-01  -.196046194138E-01  -.196079259150E-01
  -.195844585071E-01  -.195325738956E-01  -.194505898999E-01  -.193367889311E-01  -.191894220497E-01
  -.190067136528E-01  -.187868668432E-01  -.185280695320E-01  -.182285013331E-01  -.178863413056E-01
  -.174997766060E-01  -.170670121108E-01  -.165862810746E-01  -.160558568871E-01  -.154740659960E-01
  -.148393020603E-01  -.141500414011E-01  -.134048598147E-01  -.126024508112E-01  -.117416453405E-01
  -.108214330651E-01  -.984098523443E-02  -.879967921215E-02  -.769712470357E-02  -.653319172454E-02
  -.530804034818E-02  -.402215226051E-02  -.267636415028E-02  -.127190295294E-02   .189577036845E-03
   .170595517641E-02   .327460360998E-02   .489234453840E-02   .655540565163E-02   .825937377700E-02
   .999914683509E-02   .117688842523E-01   .135619560639E-01   .153708910600E-01   .171873244954E-01
   .190019461006E-01   .208044494041E-01   .225834836440E-01   .243266097053E-01   .260202612761E-01
   .276497113365E-01   .291990416525E-01   .306511090152E-01   .319874976759E-01   .331884458190E-01
   .342327390239E-01   .350975771110E-01   .357584379706E-01   .361889726067E-01   .363609597453E-01
   .362443252137E-01   .358072040621E-01   .350160110352E-01   .338354941862E-01   .322287655203E-01
   .301573162355E-01   .275810273720E-01   .244581834381E-01   .207454919725E-01   .163981085274E-01
   .113696645545E-01   .561229480389E-02  -.923339411683E-03  -.828803470968E-02  -.165340414114E-01
  -.257150741010E-01  -.358863405838E-01  -.471045931267E-01  -.594282062717E-01  -.729172860652E-01
  -.876338162163E-01  -.103641847499E+00  -.121007737659E+00  -.139800450182E+00  -.160091921596E+00
  -.181957508501E+00  -.205476527333E+00  -.230732902009E+00  -.257815937118E+00  -.286821237265E+00
  -.317851796637E+00  -.351019286889E+00
 pseudo wavefunction
   .752962849494E-08   .800378380950E-08   .850779760403E-08   .904355012493E-08   .961304002135E-08
   .102183918013E-07   .108618637570E-07   .115458563900E-07   .122729213658E-07   .130457710335E-07
   .138672885438E-07   .147405386052E-07   .156687789167E-07   .166554723209E-07   .177042997225E-07
   .188191738197E-07   .200042537009E-07   .212639603606E-07   .226029931915E-07   .240263475165E-07
   .255393332233E-07   .271475945739E-07   .288571312602E-07   .306743207862E-07   .326059422599E-07
   .346592016826E-07   .368417588318E-07   .391617558355E-07   .416278475477E-07   .442492338350E-07
   .470356938975E-07   .499976227504E-07   .531460700032E-07   .564927810803E-07   .600502410384E-07
   .638317211424E-07   .678513283742E-07   .721240580595E-07   .766658498087E-07   .814936469801E-07
   .866254598878E-07   .920804329903E-07   .978789163093E-07   .104042541346E-06   .110594301781E-06
   .117558639247E-06   .124961534518E-06   .132830604423E-06   .141195204878E-06   .150086540398E-06
   .159537780503E-06   .169584183463E-06   .180263227829E-06   .191614752248E-06   .203681104080E-06
   .216507297382E-06   .230141180831E-06   .244633616223E-06   .260038668222E-06   .276413806045E-06
   .293820117852E-06   .312322538643E-06   .331990092494E-06   .352896150061E-06   .375118702284E-06
   .398740651339E-06   .423850119911E-06   .450540779929E-06   .478912202021E-06   .509070226962E-06
   .541127360516E-06   .575203193140E-06   .611424846125E-06   .649927445821E-06   .690854627730E-06
   .734359072343E-06   .780603074718E-06   .829759149925E-06   .882010676615E-06   .937552581122E-06
   .996592064635E-06   .105934937617E-05   .112605863420E-05   .119696870005E-05   .127234410628E-05
   .135246604351E-05   .143763340941E-05   .152816392374E-05   .162439531360E-05   .172668657333E-05
   .183541930371E-05   .195099913557E-05   .207385724293E-05   .220445195151E-05   .234327044852E-05
   .249083060010E-05   .264768288317E-05   .281441243900E-05   .299164125605E-05   .318003049024E-05
   .338028293142E-05   .359314562503E-05   .381941265892E-05   .405992812567E-05   .431558927138E-05
   .458734984277E-05   .487622364507E-05   .518328832389E-05   .550968938529E-05   .585664446892E-05
   .622544789026E-05   .661747546894E-05   .703418966094E-05   .747714501410E-05   .794799396706E-05
   .844849301337E-05   .898050925371E-05   .954602736069E-05   .101471569822E-04   .107861406109E-04
   .114653619492E-04   .121873548010E-04   .129548125231E-04   .137705980721E-04   .146377546832E-04
   .155595172221E-04   .165393242513E-04   .175808308560E-04   .186879222776E-04   .198647284056E-04
   .211156391818E-04   .224453209747E-04   .238587339841E-04   .253611507419E-04   .269581757775E-04
   .286557665213E-04   .304602555238E-04   .323783740737E-04   .344172773031E-04   .365845708721E-04
   .388883393339E-04   .413371762851E-04   .439402164139E-04   .467071695654E-04   .496483569506E-04
   .527747496351E-04   .560980094497E-04   .596305324753E-04   .633854952653E-04   .673769039757E-04
   .716196465876E-04   .761295484152E-04   .809234311067E-04   .860191753568E-04   .914357875658E-04
   .971934706909E-04   .103313699555E-03   .109819300894E-03   .116734538435E-03   .124085203330E-03
   .131898710274E-03   .140204199667E-03   .149032646202E-03   .158416974276E-03   .168392180663E-03
   .178995464887E-03   .190266367804E-03   .202246918876E-03   .214981792713E-03   .228518475445E-03
   .242907441539E-03   .258202341731E-03   .274460202753E-03   .291741639604E-03   .310111081142E-03
   .329637009839E-03   .350392216575E-03   .372454071420E-03   .395904811398E-03   .420831846295E-03
   .447328083635E-03   .475492274024E-03   .505429378130E-03   .537250956638E-03   .571075584631E-03
   .607029291898E-03   .645246030781E-03   .685868173292E-03   .729047039286E-03   .774943457647E-03
   .823728362502E-03   .875583426652E-03   .930701734520E-03   .989288497028E-03   .105156181103E-02
   .111775346601E-02   .118810980096E-02   .126289261453E-02   .134238013171E-02   .142686803046E-02
   .151667053205E-02   .161212155885E-02   .171357596382E-02   .182141083589E-02   .193602688603E-02
   .205784991863E-02   .218733239350E-02   .232495508390E-02   .247122883631E-02   .262669643795E-02
   .279193459857E-02   .296755605321E-02   .315421179296E-02   .335259343139E-02   .356343571443E-02
   .378751918209E-02   .402567299071E-02   .427877790498E-02   .454776946944E-02   .483364136951E-02
   .513744899269E-02   .546031320115E-02   .580342432722E-02   .616804640409E-02   .655552164419E-02
   .696727517872E-02   .740482007182E-02   .786976262382E-02   .836380797821E-02   .888876604762E-02
   .944655777455E-02   .100392217429E-01   .106689211572E-01   .113379512054E-01   .120487468240E-01
   .128038908815E-01   .136061227976E-01   .144583476164E-01   .153636455503E-01   .163252820110E-01
   .173467181450E-01   .184316218873E-01   .195838795501E-01   .208076079573E-01   .221071671380E-01
   .234871735866E-01   .249525140974E-01   .265083601762E-01   .281601830290E-01   .299137691223E-01
   .317752363052E-01   .337510504763E-01   .358480427721E-01   .380734272434E-01   .404348189791E-01
   .429402526213E-01   .455982012083E-01   .484175952612E-01   .514078420169E-01   .545788446896E-01
   .579410216205E-01   .615053251516E-01   .652832600301E-01   .692869011200E-01   .735289101605E-01
   .780225512728E-01   .827817048703E-01   .878208795808E-01   .931552217322E-01   .988005218952E-01
   .104773217906E+00   .111090393723E+00   .117769773392E+00   .124829709298E+00   .132289163800E+00
   .140167683236E+00   .148485363176E+00   .157262803684E+00   .166521053231E+00   .176281539773E+00
   .186565987354E+00   .197396316506E+00   .208794526515E+00   .220782557550E+00   .233382130485E+00
   .246614562130E+00   .260500553521E+00   .275059948784E+00   .290311462107E+00   .306272370309E+00
   .322958168582E+00   .340382187095E+00   .358555166379E+00   .377484789739E+00   .397175171407E+00
   .417626299759E+00   .438833435755E+00   .460786467780E+00   .483469225366E+00   .506858755849E+00
   .530924569958E+00   .555627864597E+00   .580920733798E+00   .606745381926E+00   .633033356825E+00
   .659704824618E+00   .686667912352E+00   .713818149588E+00   .741038045207E+00   .768196841104E+00
   .795150489813E+00   .821741908171E+00   .847801563580E+00   .873148452661E+00   .897591533610E+00
   .920931672497E+00   .942964159203E+00   .963481839520E+00   .982278894877E+00   .999155278756E+00
   .101392178757E+01   .102640570207E+01   .103645688164E+01   .104395412710E+01   .104881154724E+01
   .105098456981E+01   .105047513218E+01   .104733547152E+01   .104166981715E+01   .103363317636E+01
   .102342631295E+01   .101128596290E+01   .997469337037E+00   .982232053788E+00   .965798861574E+00
   .948326885166E+00   .929857739347E+00
 ae wavefunction
   .638386667376E-07   .677120719962E-07   .717878148162E-07   .760781692450E-07   .805960852755E-07
   .853552309281E-07   .903700368932E-07   .956557437996E-07   .101228452275E-06   .107105175975E-06
   .113303897768E-06   .119843629279E-06   .126744473999E-06   .134027694187E-06   .141715781809E-06
   .149832533758E-06   .158403131636E-06   .167454226371E-06   .177014027992E-06   .187112400866E-06
   .197780964760E-06   .209053202074E-06   .220964571654E-06   .233552629579E-06   .246857157378E-06
   .260920298125E-06   .275786700924E-06   .291503674301E-06   .308121349062E-06   .325692851214E-06
   .344274485579E-06   .363925930776E-06   .384710446267E-06   .406695092253E-06   .429950963189E-06
   .454553435806E-06   .480582432520E-06   .508122701213E-06   .537264112393E-06   .568101974841E-06
   .600737370883E-06   .635277512523E-06   .671836119748E-06   .710533822382E-06   .751498586969E-06
   .794866170246E-06   .840780600873E-06   .889394691184E-06   .940870580833E-06   .995380314344E-06
   .105310645465E-05   .111424273492E-05   .117899475101E-05   .124758069715E-05   .132023214744E-05
   .139719488621E-05   .147872979008E-05   .156511376512E-05   .165664074249E-05   .175362273610E-05
   .185639096640E-05   .196529705422E-05   .208071428910E-05   .220303897678E-05   .233269187073E-05
   .247011969307E-05   .261579675027E-05   .277022664977E-05   .293394412359E-05   .310751696575E-05
   .329154809048E-05   .348667771889E-05   .369358570193E-05   .391299398818E-05   .414566924562E-05
   .439242564673E-05   .465412782724E-05   .493169402933E-05   .522609944062E-05   .553837974126E-05
   .586963487198E-05   .622103303687E-05   .659381495531E-05   .698929837885E-05   .740888288904E-05
   .785405499401E-05   .832639354216E-05   .882757547256E-05   .935938192307E-05   .992370471820E-05
   .105225532603E-04   .111580618490E-04   .118324974554E-04   .125482679788E-04   .133079310169E-04
   .141142031792E-04   .149699699792E-04   .158782963398E-04   .168424377503E-04   .178658521140E-04
   .189522123315E-04   .201054196616E-04   .213296179102E-04   .226292084970E-04   .240088664536E-04
   .254735574115E-04   .270285556389E-04   .286794631912E-04   .304322302449E-04   .322931766840E-04
   .342690150189E-04   .363668747166E-04   .385943280294E-04   .409594174132E-04   .434706846320E-04
   .461372016512E-04   .489686034280E-04   .519751227146E-04   .551676269955E-04   .585576576880E-04
   .621574717438E-04   .659800857943E-04   .700393229956E-04   .743498627336E-04   .789272933620E-04
   .837881681551E-04   .889500646678E-04   .944316477064E-04   .100252736127E-03   .106434373689E-03
   .112998904200E-03   .119970051221E-03   .127373002584E-03   .135234500022E-03   .143582934202E-03
   .152448445488E-03   .161863030762E-03   .171860656675E-03   .182477379676E-03   .193751473245E-03
   .205723562729E-03   .218436768227E-03   .231936856004E-03   .246272398895E-03   .261494946258E-03
   .277659203982E-03   .294823225160E-03   .313048612011E-03   .332400729706E-03   .352948932759E-03
   .374766804705E-03   .397932411798E-03   .422528571522E-03   .448643136741E-03   .476369296349E-03
   .505805893338E-03   .537057761236E-03   .570236079922E-03   .605458751875E-03   .642850799952E-03
   .682544787871E-03   .724681264595E-03   .769409233900E-03   .816886650448E-03   .867280943766E-03
   .920769571575E-03   .977540603989E-03   .103779334017E-02   .110173895909E-02   .116960120612E-02
   .124161711723E-02   .131803778267E-02   .139912915210E-02   .148517288306E-02   .157646723507E-02
   .167332801131E-02   .177608955018E-02   .188510576920E-02   .200075126331E-02   .212342246037E-02
   .225353883612E-02   .239154419130E-02   .253790799365E-02   .269312678730E-02   .285772567255E-02
   .303225985866E-02   .321731629273E-02   .341351536733E-02   .362151270999E-02   .384200105741E-02
   .407571221735E-02   .432341912122E-02   .458593797008E-02   .486413047725E-02   .515890621002E-02
   .547122503343E-02   .580209965875E-02   .615259829894E-02   .652384743386E-02   .691703468697E-02
   .733341181578E-02   .777429781760E-02   .824108215208E-02   .873522808145E-02   .925827612928E-02
   .981184765789E-02   .103976485641E-01   .110174730928E-01   .116732077659E-01   .123668354262E-01
   .131004393914E-01   .138762077157E-01   .146964375537E-01   .155635396211E-01   .164800427450E-01
   .174485984965E-01   .184719858945E-01   .195531161717E-01   .206950375890E-01   .219009402849E-01
   .231741611430E-01   .245181886607E-01   .259366677978E-01   .274334047841E-01   .290123718602E-01
   .306777119238E-01   .324337430530E-01   .342849628725E-01   .362360527272E-01   .382918816234E-01
   .404575098967E-01   .427381925586E-01   .451393822735E-01   .476667319122E-01   .503260966243E-01
   .531235353679E-01   .560653118313E-01   .591578946758E-01   .624079570260E-01   .658223751276E-01
   .694082260906E-01   .731727846277E-01   .771235186983E-01   .812680839588E-01   .856143169185E-01
   .901702266971E-01   .949439852730E-01   .999439161104E-01   .105178481049E+00   .110656265340E+00
   .116385960702E+00   .122376346281E+00   .128636267393E+00   .135174611916E+00   .142000284232E+00
   .149122176577E+00   .156549137709E+00   .164289938775E+00   .172353236286E+00   .180747532104E+00
   .189481130385E+00   .198562091398E+00   .207998182192E+00   .217796824093E+00   .227965037026E+00
   .238509380698E+00   .249435892702E+00   .260750023621E+00   .272456569271E+00   .284559600216E+00
   .297062388746E+00   .309967333537E+00   .323275882213E+00   .336988452081E+00   .351104349291E+00
   .365621686691E+00   .380537300641E+00   .395846667028E+00   .411543816721E+00   .427621250673E+00
   .444069854932E+00   .460878815830E+00   .478035535801E+00   .495525550466E+00   .513332448110E+00
   .531437793276E+00   .549821057247E+00   .568459559656E+00   .587328427601E+00   .606400581552E+00
   .625646761242E+00   .645035609268E+00   .664533834316E+00   .684106476974E+00   .703717293083E+00
   .723329243608E+00   .742905026222E+00   .762407502025E+00   .781799786725E+00   .801044752505E+00
   .820103803160E+00   .838935065448E+00   .857491485850E+00   .875719528735E+00   .893559046860E+00
   .910944422795E+00   .927806518361E+00   .944074703498E+00   .959678416184E+00   .974548104615E+00
   .988615703182E+00   .100181487992E+01   .101408123971E+01   .102535257998E+01   .103556922786E+01
   .104467444950E+01   .105261490576E+01   .105934112503E+01   .106480796684E+01   .106897505609E+01
   .107180717351E+01   .107327459381E+01   .107335336666E+01   .107202553894E+01   .106927931812E+01
   .106510917804E+01   .105951590919E+01   .105250661580E+01   .104409466290E+01   .103429957658E+01
   .102314690122E+01   .101066801785E+01   .996899927778E+00   .981885006015E+00   .965670728910E+00
   .948309380191E+00   .929857739347E+00
 pseudo wavefunction
   .220510726003E-08   .234396714184E-08   .249157129973E-08   .264847037770E-08   .281524969489E-08
   .299253142912E-08   .318097693794E-08   .338128922588E-08   .359421556701E-08   .382055029271E-08
   .406113775494E-08   .431687547612E-08   .458871749742E-08   .487767793782E-08   .518483477731E-08
   .551133387839E-08   .585839326073E-08   .622730764505E-08   .661945328313E-08   .703629309200E-08
   .747938211139E-08   .795037330487E-08   .845102372634E-08   .898320107475E-08   .954889066168E-08
   .101502028176E-07   .107893807645E-07   .114688089845E-07   .121910221150E-07   .129587144045E-07
   .137747497635E-07   .146421724485E-07   .155642184184E-07   .165443274070E-07   .175861557546E-07
   .186935900482E-07   .198707616207E-07   .211220619629E-07   .224521591061E-07   .238660150366E-07
   .253689042064E-07   .269664332098E-07   .286645616989E-07   .304696246166E-07   .323883558291E-07
   .344279132469E-07   .365959055278E-07   .389004204610E-07   .413500551392E-07   .439539480303E-07
   .467218130685E-07   .496639758928E-07   .527914123670E-07   .561157895256E-07   .596495090982E-07
   .634057537739E-07   .673985363808E-07   .716427521603E-07   .761542343347E-07   .809498131736E-07
   .860473787793E-07   .914659478266E-07   .972257345048E-07   .103348225928E-06   .109856262290E-06
   .116774122077E-06   .124127612632E-06   .131944166431E-06   .140252943424E-06   .149084939813E-06
   .158473103685E-06   .168452457925E-06   .179060230869E-06   .190335995185E-06   .202321815498E-06
   .215062405314E-06   .228605293820E-06   .243001003196E-06   .258303237085E-06   .274569080933E-06
   .291859214946E-06   .310238140460E-06   .329774420555E-06   .350540935831E-06   .372615156290E-06
   .396079430329E-06   .421021291941E-06   .447533787255E-06   .475715821638E-06   .505672528661E-06
   .537515662286E-06   .571364013758E-06   .607343854751E-06   .645589408404E-06   .686243350034E-06
   .729457339371E-06   .775392586301E-06   .824220452246E-06   .876123089399E-06   .931294120217E-06
   .989939359700E-06   .105227758314E-05   .111854134224E-05   .118897783258E-05   .126384981572E-05
   .134343659941E-05   .142803507943E-05   .151796084710E-05   .161354936651E-05   .171515722584E-05
   .182316346750E-05   .193797100205E-05   .206000811101E-05   .218973004449E-05   .232762071924E-05
   .247419452368E-05   .262999823655E-05   .279561306643E-05   .297165681954E-05   .315878620412E-05
   .335769927981E-05   .356913806133E-05   .379389128594E-05   .403279735525E-05   .428674746213E-05
   .455668891448E-05   .484362866829E-05   .514863708299E-05   .547285191328E-05   .581748255219E-05
   .618381454116E-05   .657321436410E-05   .698713454305E-05   .742711905465E-05   .789480908748E-05
   .839194916163E-05   .892039363349E-05   .948211360980E-05   .100792042968E-04   .107138928117E-04
   .113885464859E-04   .121056816902E-04   .128679732154E-04   .136782642435E-04   .145395769448E-04
   .154551237435E-04   .164283192895E-04   .174627931856E-04   .185624035128E-04   .197312512075E-04
   .209736953421E-04   .222943693661E-04   .236981983688E-04   .251904174259E-04   .267765911001E-04
   .284626341667E-04   .302548336411E-04   .321598721905E-04   .341848530158E-04   .363373262963E-04
   .386253172944E-04   .410573562252E-04   .436425100008E-04   .463904159659E-04   .493113177508E-04
   .524161033729E-04   .557163457273E-04   .592243456159E-04   .629531774733E-04   .669167379579E-04
   .711297975857E-04   .756080555980E-04   .803681982623E-04   .854279608221E-04   .908061933196E-04
   .965229305343E-04   .102599466291E-03   .109058432410E-03   .115923882582E-03   .123221381479E-03
   .130978099420E-03   .139222912934E-03   .147986511589E-03   .157301511458E-03   .167202575652E-03
   .177726542333E-03   .188912560676E-03   .200802235257E-03   .213439779394E-03   .226872177969E-03
   .241149360323E-03   .256324383817E-03   .272453628720E-03   .289597005090E-03   .307818172383E-03
   .327184772542E-03   .347768677368E-03   .369646251032E-03   .392898628619E-03   .417612011640E-03
   .443877981522E-03   .471793832121E-03   .501462922350E-03   .532995050108E-03   .566506848703E-03
   .602122207080E-03   .639972715179E-03   .680198135845E-03   .722946904766E-03   .768376659988E-03
   .816654802617E-03   .867959090402E-03   .922478265944E-03   .980412721369E-03   .104197520135E-02
   .110739154646E-02   .117690147884E-02   .125075943232E-02   .132923542916E-02   .141261600551E-02
   .150120518793E-02   .159532552324E-02   .169531916395E-02   .180154901165E-02   .191439992059E-02
   .203427996383E-02   .216162176413E-02   .229688389172E-02   .244055233108E-02   .259314201851E-02
   .275519845236E-02   .292729937728E-02   .311005654364E-02   .330411754306E-02   .351016772027E-02
   .372893216124E-02   .396117775669E-02   .420771533949E-02   .446940189342E-02   .474714282991E-02
   .504189432797E-02   .535466573127E-02   .568652199462E-02   .603858617020E-02   .641204192184E-02
   .680813605302E-02   .722818103151E-02   .767355749028E-02   .814571668061E-02   .864618284913E-02
   .917655550567E-02   .973851154343E-02   .103338071668E-01   .109642795754E-01   .116318483444E-01
   .123385164336E-01   .130863707472E-01   .138775821536E-01   .147144048664E-01   .155991750686E-01
   .165343086507E-01   .175222979146E-01   .185657070761E-01   .196671663784E-01   .208293646057E-01
   .220550397596E-01   .233469676356E-01   .247079480019E-01   .261407880547E-01   .276482827843E-01
   .292331918489E-01   .308982125097E-01   .326459481392E-01   .344788717627E-01   .363992840476E-01
   .384092650983E-01   .405106193650E-01   .427048129169E-01   .449929022760E-01   .473754539542E-01
   .498524537863E-01   .524232051000E-01   .550862147310E-01   .578390658537E-01   .606782765856E-01
   .635991433185E-01   .665955677558E-01   .696598666785E-01   .727825635484E-01   .759521611798E-01
   .791548948835E-01   .823744657204E-01   .855917538030E-01   .887845119637E-01   .919270405844E-01
   .949898449578E-01   .979392772425E-01   .100737165893E+00   .103340436400E+00   .105700728264E+00
   .107764014369E+00   .109470230293E+00   .110752922566E+00   .111538926523E+00   .111748085992E+00
   .111293028748E+00   .110079013189E+00   .108003863095E+00   .104958008324E+00   .100824649867E+00
   .954800674807E-01   .887940869666E-01   .806307217945E-01   .708489998265E-01   .593039801334E-01
   .458479569870E-01   .303318378497E-01   .126066694681E-01  -.747472889487E-02  -.300560830704E-01
  -.552760085309E-01  -.832664757191E-01  -.114151505139E+00  -.148046210450E+00  -.185056306696E+00
  -.225278183433E+00  -.268799601434E+00  -.315700997901E+00  -.366057268444E+00  -.419939723556E+00
  -.477417682425E+00  -.538558859393E+00  -.603427314804E+00  -.672077287878E+00  -.744540723763E+00
  -.820805789414E+00  -.900776501472E+00
 ae wavefunction
   .214439324468E-07   .227450538540E-07   .241141425464E-07   .255553215359E-07   .270729408934E-07
   .286715918845E-07   .303561219660E-07   .321316506638E-07   .340035863888E-07   .359776442506E-07
   .380598649309E-07   .402566346844E-07   .425747065390E-07   .450212227694E-07   .476037387257E-07
   .503302481017E-07   .532092097343E-07   .562495760287E-07   .594608231140E-07   .628529828359E-07
   .664366767039E-07   .702231519137E-07   .742243195777E-07   .784527953005E-07   .829219422474E-07
   .876459168625E-07   .926397174026E-07   .979192354641E-07   .103501310689E-06   .109403788854E-06
   .115645583547E-06   .122246741665E-06   .129228512966E-06   .136613423932E-06   .144425356216E-06
   .152689629950E-06   .161433092233E-06   .170684211113E-06   .180473175406E-06   .190832000729E-06
   .201794642122E-06   .213397113679E-06   .225677615626E-06   .238676669314E-06   .252437260609E-06
   .267004992228E-06   .282428245553E-06   .298758352543E-06   .316049778347E-06   .334360315319E-06
   .353751289108E-06   .374287777622E-06   .396038843636E-06   .419077781907E-06   .443482381714E-06
   .469335205763E-06   .496723886508E-06   .525741440943E-06   .556486605049E-06   .589064189100E-06
   .623585455143E-06   .660168518030E-06   .698938771473E-06   .740029340684E-06   .783581563255E-06
   .829745500044E-06   .878680477931E-06   .930555666438E-06   .985550690318E-06   .104385628036E-05
   .110567496478E-05   .117122180374E-05   .124072516967E-05   .131442757625E-05   .139258655907E-05
   .147547561121E-05   .156338517713E-05   .165662370847E-05   .175551878572E-05   .186041830969E-05
   .197169176730E-05   .208973157610E-05   .221495451260E-05   .234780322953E-05   .248874786749E-05
   .263828776697E-05   .279695328683E-05   .296530773601E-05   .314394942522E-05   .333351384636E-05
   .353467598730E-05   .374815279061E-05   .397470576490E-05   .421514375848E-05   .447032590518E-05
   .474116475297E-05   .502862958673E-05   .533374995717E-05   .565761942839E-05   .600139955791E-05
   .636632412310E-05   .675370360942E-05   .716492997652E-05   .760148171913E-05   .806492924106E-05
   .855694056130E-05   .907928737274E-05   .963385147499E-05   .102226316042E-04   .108477506844E-04
   .115114635256E-04   .122161649961E-04   .129643986989E-04   .137588661807E-04   .146024367084E-04
   .154981576454E-04   .164492654665E-04   .174591974469E-04   .185316040699E-04   .196703621932E-04
   .208795890225E-04   .221636569392E-04   .235272092347E-04   .249751768050E-04   .265127958644E-04
   .281456267386E-04   .298795738018E-04   .317209066269E-04   .336762824202E-04   .357527698187E-04
   .379578741288E-04   .402995640943E-04   .427863002831E-04   .454270651878E-04   .482313951430E-04
   .512094141643E-04   .543718698245E-04   .577301712826E-04   .612964295958E-04   .650835004444E-04
   .691050294115E-04   .733754999652E-04   .779102843005E-04   .827256972036E-04   .878390531163E-04
   .932687265796E-04   .990342162528E-04   .105156212710E-03   .111656670231E-03   .118558882805E-03
   .125887564598E-03   .133668935117E-03   .141930809350E-03   .150702693148E-03   .160015884140E-03
   .169903578489E-03   .180400983817E-03   .191545438610E-03   .203376538487E-03   .215936269682E-03
   .229269150132E-03   .243422378573E-03   .258445992080E-03   .274393032481E-03   .291319722113E-03
   .309285649411E-03   .328353964828E-03   .348591587618E-03   .370069424026E-03   .392862597465E-03
   .417050691270E-03   .442718004648E-03   .469953822468E-03   .498852699551E-03   .529514760160E-03
   .562046013391E-03   .596558685214E-03   .633171567909E-03   .672010387694E-03   .713208191344E-03
   .756905752623E-03   .803251999378E-03   .852404462168E-03   .904529745287E-03   .959804021106E-03
   .101841354862E-02   .108055521714E-02   .114643711603E-02   .121627913145E-02   .129031357097E-02
   .136878581715E-02   .145195501068E-02   .154009476437E-02   .163349390850E-02   .173245726865E-02
   .183730647660E-02   .194838081521E-02   .206603809788E-02   .219065558326E-02   .232263092570E-02
   .246238316195E-02   .261035373437E-02   .276700755094E-02   .293283408200E-02   .310834849374E-02
   .329409281805E-02   .349063715825E-02   .369858092996E-02   .391855413602E-02   .415121867429E-02
   .439726967653E-02   .465743687645E-02   .493248600457E-02   .522322020686E-02   .553048148404E-02
   .585515214761E-02   .619815628810E-02   .656046125054E-02   .694307911142E-02   .734706815053E-02
   .777353431052E-02   .822363263580E-02   .869856868174E-02   .919959988409E-02   .972803687712E-02
   .102852447482E-01   .108726442153E-01   .114917127113E-01   .121439853606E-01   .128310558276E-01
   .135545770185E-01   .143162616155E-01   .151178824187E-01   .159612724706E-01   .168483249369E-01
   .177809927124E-01   .187612877206E-01   .197912798728E-01   .208730956493E-01   .220089162627E-01
   .232009753609E-01   .244515562249E-01   .257629884113E-01   .271376437897E-01   .285779319179E-01
   .300862946983E-01   .316652002526E-01   .333171359502E-01   .350446005212E-01   .368500951812E-01
   .387361136932E-01   .407051312866E-01   .427595923495E-01   .449018968114E-01   .471343851229E-01
   .494593217451E-01   .518788770501E-01   .543951075386E-01   .570099342762E-01   .597251194464E-01
   .625422409228E-01   .654626647589E-01   .684875154961E-01   .716176441914E-01   .748535940699E-01
   .781955637092E-01   .816433676648E-01   .851963944552E-01   .888535618226E-01   .926132691984E-01
   .964733472999E-01   .100431004795E+00   .104482771969E+00   .108624441341E+00   .112851005159E+00
   .117156589719E+00   .121534386451E+00   .125976579684E+00   .130474271047E+00   .135017400422E+00
   .139594663400E+00   .144193425222E+00   .148799631235E+00   .153397713984E+00   .157970497238E+00
   .162499097421E+00   .166962823315E+00   .171339075291E+00   .175603245994E+00   .179728625222E+00
   .183686312757E+00   .187445144036E+00   .190971634403E+00   .194229947418E+00   .197181889733E+00
   .199786927052E+00   .202002200592E+00   .203782502383E+00   .205080149019E+00   .205844694814E+00
   .206022465227E+00   .205555970546E+00   .204383344904E+00   .202437991072E+00   .199648555399E+00
   .195939222511E+00   .191230184790E+00   .185438099866E+00   .178476417697E+00   .170255565060E+00
   .160683042132E+00   .149663496034E+00   .137098815911E+00   .122888270227E+00   .106928691054E+00
   .891147026474E-01   .693389897809E-01   .474926025024E-01   .234652964071E-01  -.285408970561E-02
  -.315772144015E-01  -.628157659007E-01  -.966809378721E-01  -.133282839129E+00  -.172729826433E+00
  -.215127748539E+00  -.260579088603E+00  -.309181991105E+00  -.361029158548E+00  -.416206602397E+00
  -.474792232115E+00  -.536854265697E+00  -.602449445015E+00  -.671621039432E+00  -.744396621747E+00
  -.820785601421E+00  -.900776501472E+00
 End of Dataset
  PAW_PBE Li 17Jan2003                   
 1.00000000000000000
 parameters from PSCTR are:
   VRHFIN =Li: s1p0
   LEXCH  = PE
   EATOM  =     5.3001 eV,     .3895 Ry

   TITEL  = PAW_PBE Li 17Jan2003
   LULTRA =        F    use ultrasoft PP ?
   IUNSCR =        1    unscreen: 0-lin 1-nonlin 2-no
   RPACOR =    1.500    partial core radius
   POMASS =    7.010; ZVAL   =    1.000    mass and valenz
   RCORE  =    2.050    outmost cutoff radius
   RWIGS  =    2.600; RWIGS  =    1.376    wigner-seitz radius (au A)
   ENMAX  =  140.000; ENMIN  =  100.000 eV
   ICORE  =        2    local potential
   LCOR   =        T    correct aug charges
   LPAW   =        T    paw PP
   EAUG   =  331.638
   DEXC   =    -.010
   RMAX   =    4.263    core radius for proj-oper
   RAUG   =    1.300    factor for augmentation sphere
   RDEP   =    2.094    radius for radial grids
   QCUT   =   -2.932; QGAM   =    5.865    optimization parameters
 
   Description
     l     E      TYP  RCUT    TYP  RCUT
     0   .000     23  2.050
     0  2.000     23  2.050
     1   .000     23  2.050
     2   .000     23  2.050
   Error from kinetic energy argument (eV)
   NDATA  =      100
   STEP   =   20.000   1.050
  .267      .259      .254      .244      .239      .227      .215      .209
  .196      .183      .176      .163      .150      .138      .126      .115
  .105      .947E-01  .853E-01  .726E-01  .648E-01  .577E-01  .481E-01  .424E-01
  .373E-01  .304E-01  .246E-01  .212E-01  .169E-01  .132E-01  .103E-01  .784E-02
  .590E-02  .438E-02  .319E-02  .229E-02  .143E-02  .989E-03  .600E-03  .417E-03
  .274E-03  .204E-03  .176E-03  .169E-03  .168E-03  .167E-03  .161E-03  .146E-03
  .130E-03  .106E-03  .827E-04  .653E-04  .470E-04  .333E-04  .227E-04  .179E-04
  .157E-04  .150E-04  .149E-04  .146E-04  .136E-04  .119E-04  .984E-05  .735E-05
  .553E-05  .401E-05  .317E-05  .284E-05  .279E-05  .276E-05  .259E-05  .223E-05
  .177E-05  .133E-05  .979E-06  .819E-06  .766E-06  .763E-06  .727E-06  .637E-06
  .500E-06  .375E-06  .299E-06  .272E-06  .270E-06  .257E-06  .220E-06  .169E-06
  .132E-06  .118E-06  .117E-06  .111E-06  .927E-07  .731E-07  .614E-07  .594E-07
  .578E-07  .508E-07  .406E-07  .358E-07
END of PSCTR-controll parameters
 local part
 90.7068474517883203
   .26197235E+01   .26201361E+01   .26229277E+01   .26275712E+01   .26340528E+01
   .26423522E+01   .26524428E+01   .26642906E+01   .26778542E+01   .26930845E+01
   .27099248E+01   .27283107E+01   .27481708E+01   .27694272E+01   .27919963E+01
   .28157896E+01   .28407143E+01   .28666746E+01   .28935717E+01   .29213048E+01
   .29497715E+01   .29788681E+01   .30084898E+01   .30385312E+01   .30688867E+01
   .30994504E+01   .31301170E+01   .31607816E+01   .31913410E+01   .32216935E+01
   .32517396E+01   .32813826E+01   .33105288E+01   .33390878E+01   .33669731E+01
   .33941020E+01   .34203957E+01   .34457798E+01   .34701842E+01   .34935431E+01
   .35157954E+01   .35368846E+01   .35567587E+01   .35753708E+01   .35926785E+01
   .36086444E+01   .36232359E+01   .36364250E+01   .36481882E+01   .36585066E+01
   .36673654E+01   .36747539E+01   .36806654E+01   .36850965E+01   .36880477E+01
   .36895226E+01   .36895278E+01   .36880728E+01   .36851698E+01   .36808332E+01
   .36750799E+01   .36679284E+01   .36593990E+01   .36495131E+01   .36382937E+01
   .36257643E+01   .36119493E+01   .35968736E+01   .35805625E+01   .35630412E+01
   .35443351E+01   .35244697E+01   .35034698E+01   .34813602E+01   .34581653E+01
   .34339087E+01   .34086135E+01   .33823023E+01   .33549969E+01   .33267185E+01
   .32974875E+01   .32673238E+01   .32362469E+01   .32042757E+01   .31714286E+01
   .31377238E+01   .31031796E+01   .30678137E+01   .30316442E+01   .29946894E+01
   .29569676E+01   .29184979E+01   .28792998E+01   .28393935E+01   .27988003E+01
   .27575423E+01   .27156432E+01   .26731276E+01   .26300219E+01   .25863540E+01
   .25421536E+01   .24974521E+01   .24522830E+01   .24066815E+01   .23606851E+01
   .23143333E+01   .22676676E+01   .22207318E+01   .21735718E+01   .21262354E+01
   .20787729E+01   .20312362E+01   .19836794E+01   .19361582E+01   .18887300E+01
   .18414540E+01   .17943904E+01   .17476008E+01   .17011478E+01   .16550948E+01
   .16095056E+01   .15644445E+01   .15199759E+01   .14761638E+01   .14330720E+01
   .13907635E+01   .13493002E+01   .13087428E+01   .12691503E+01   .12305799E+01
   .11930866E+01   .11567228E+01   .11215384E+01   .10875802E+01   .10548915E+01
   .10235125E+01   .99347936E+00   .96482440E+00   .93757574E+00   .91175715E+00
   .88738785E+00   .86448242E+00   .84305061E+00   .82309729E+00   .80462237E+00
   .78762071E+00   .77208216E+00   .75799153E+00   .74532863E+00   .73406832E+00
   .72418062E+00   .71563076E+00   .70837939E+00   .70238265E+00   .69759242E+00
   .69395652E+00   .69141891E+00   .68991998E+00   .68939679E+00   .68978341E+00
   .69101121E+00   .69300917E+00   .69570426E+00   .69902176E+00   .70288564E+00
   .70721889E+00   .71194395E+00   .71698302E+00   .72225852E+00   .72769338E+00
   .73321148E+00   .73873800E+00   .74419980E+00   .74952573E+00   .75464703E+00
   .75949761E+00   .76401441E+00   .76813764E+00   .77181108E+00   .77498233E+00
   .77760303E+00   .77962910E+00   .78102087E+00   .78174330E+00   .78176607E+00
   .78106368E+00   .77961558E+00   .77740617E+00   .77442482E+00   .77066591E+00
   .76612871E+00   .76081740E+00   .75474090E+00   .74791282E+00   .74035124E+00
   .73207862E+00   .72312154E+00   .71351055E+00   .70327986E+00   .69246716E+00
   .68111331E+00   .66926205E+00   .65695970E+00   .64425487E+00   .63119809E+00
   .61784149E+00   .60423851E+00   .59044347E+00   .57651130E+00   .56249718E+00
   .54845618E+00   .53444295E+00   .52051139E+00   .50671431E+00   .49310316E+00
   .47972768E+00   .46663566E+00   .45387267E+00   .44148177E+00   .42950333E+00
   .41797478E+00   .40693046E+00   .39640141E+00   .38641526E+00   .37699610E+00
   .36816439E+00   .35993686E+00   .35232651E+00   .34534255E+00   .33899039E+00
   .33327171E+00   .32818446E+00   .32372296E+00   .31987800E+00   .31663690E+00
   .31398375E+00   .31189945E+00   .31036198E+00   .30934652E+00   .30882570E+00
   .30876981E+00   .30914701E+00   .30992358E+00   .31106418E+00   .31253209E+00
   .31428948E+00   .31629765E+00   .31851736E+00   .32090902E+00   .32343299E+00
   .32604987E+00   .32872069E+00   .33140721E+00   .33407213E+00   .33667933E+00
   .33919408E+00   .34158325E+00   .34381549E+00   .34586140E+00   .34769369E+00
   .34928737E+00   .35061978E+00   .35167079E+00   .35242283E+00   .35286098E+00
   .35297303E+00   .35274946E+00   .35218353E+00   .35127117E+00   .35001106E+00
   .34840451E+00   .34645539E+00   .34417014E+00   .34155755E+00   .33862877E+00
   .33539711E+00   .33187791E+00   .32808842E+00   .32404763E+00   .31977609E+00
   .31529572E+00   .31062967E+00   .30580207E+00   .30083788E+00   .29576270E+00
   .29060252E+00   .28538359E+00   .28013218E+00   .27487440E+00   .26963605E+00
   .26444237E+00   .25931793E+00   .25428641E+00   .24937051E+00   .24459172E+00
   .23997024E+00   .23552484E+00   .23127275E+00   .22722956E+00   .22340913E+00
   .21982353E+00   .21648297E+00   .21339578E+00   .21056835E+00   .20800516E+00
   .20570872E+00   .20367965E+00   .20191667E+00   .20041663E+00   .19917459E+00
   .19818391E+00   .19743627E+00   .19692178E+00   .19662913E+00   .19654563E+00
   .19665736E+00   .19694930E+00   .19740544E+00   .19800893E+00   .19874221E+00
   .19958716E+00   .20052522E+00   .20153756E+00   .20260523E+00   .20370928E+00
   .20483090E+00   .20595158E+00   .20705322E+00   .20811827E+00   .20912986E+00
   .21007189E+00   .21092914E+00   .21168740E+00   .21233350E+00   .21285544E+00
   .21324245E+00   .21348503E+00   .21357499E+00   .21350556E+00   .21327131E+00
   .21286825E+00   .21229382E+00   .21154685E+00   .21062756E+00   .20953758E+00
   .20827982E+00   .20685851E+00   .20527911E+00   .20354823E+00   .20167361E+00
   .19966398E+00   .19752903E+00   .19527929E+00   .19292605E+00   .19048126E+00
   .18795741E+00   .18536745E+00   .18272467E+00   .18004260E+00   .17733489E+00
   .17461521E+00   .17189715E+00   .16919411E+00   .16651921E+00   .16388520E+00
   .16130434E+00   .15878835E+00   .15634832E+00   .15399461E+00   .15173681E+00
   .14958369E+00   .14754311E+00   .14562199E+00   .14382629E+00   .14216096E+00
   .14062993E+00   .13923608E+00   .13798127E+00   .13686630E+00   .13589097E+00
   .13505404E+00   .13435332E+00   .13378565E+00   .13334696E+00   .13303235E+00
   .13283605E+00   .13275160E+00   .13277179E+00   .13288882E+00   .13309433E+00
   .13337948E+00   .13373501E+00   .13415136E+00   .13461869E+00   .13512702E+00
   .13566625E+00   .13622630E+00   .13679712E+00   .13736884E+00   .13793176E+00
   .13847649E+00   .13899399E+00   .13947563E+00   .13991325E+00   .14029921E+00
   .14062648E+00   .14088861E+00   .14107982E+00   .14119504E+00   .14122990E+00
   .14118076E+00   .14104474E+00   .14081973E+00   .14050435E+00   .14009801E+00
   .13960086E+00   .13901378E+00   .13833837E+00   .13757691E+00   .13673235E+00
   .13580825E+00   .13480876E+00   .13373857E+00   .13260286E+00   .13140726E+00
   .13015776E+00   .12886073E+00   .12752278E+00   .12615078E+00   .12475174E+00
   .12333279E+00   .12190110E+00   .12046384E+00   .11902811E+00   .11760090E+00
   .11618903E+00   .11479908E+00   .11343737E+00   .11210990E+00   .11082233E+00
   .10957990E+00   .10838745E+00   .10724933E+00   .10616943E+00   .10515114E+00
   .10419731E+00   .10331026E+00   .10249176E+00   .10174305E+00   .10106480E+00
   .10045714E+00   .99919689E-01   .99451513E-01   .99051192E-01   .98716822E-01
   .98446039E-01   .98236046E-01   .98083648E-01   .97985281E-01   .97937046E-01
   .97934750E-01   .97973939E-01   .98049941E-01   .98157908E-01   .98292857E-01
   .98449711E-01   .98623342E-01   .98808613E-01   .99000421E-01   .99193732E-01
   .99383623E-01   .99565319E-01   .99734224E-01   .99885959E-01   .10001638E+00
   .10012164E+00   .10019815E+00   .10024268E+00   .10025232E+00   .10022451E+00
   .10015707E+00   .10004820E+00   .99896492E-01   .99700911E-01   .99460824E-01
   .99175979E-01   .98846507E-01   .98472910E-01   .98056048E-01   .97597126E-01
   .97097680E-01   .96559555E-01   .95984883E-01   .95376065E-01   .94735741E-01
   .94066768E-01   .93372188E-01   .92655203E-01   .91919146E-01   .91167446E-01
   .90403606E-01   .89631167E-01   .88853679E-01   .88074678E-01   .87297651E-01
   .86526013E-01   .85763082E-01   .85012051E-01   .84275967E-01   .83557708E-01
   .82859964E-01   .82185220E-01   .81535737E-01   .80913541E-01   .80320411E-01
   .79757867E-01   .79227171E-01   .78729312E-01   .78265014E-01   .77834730E-01
   .77438645E-01   .77076683E-01   .76748510E-01   .76453542E-01   .76190959E-01
   .75959712E-01   .75758536E-01   .75585971E-01   .75440372E-01   .75319929E-01
   .75222687E-01   .75146560E-01   .75089360E-01   .75048807E-01   .75022556E-01
   .75008214E-01   .75003363E-01   .75005578E-01   .75012444E-01   .75021583E-01
   .75030663E-01   .75037424E-01   .75039687E-01   .75035380E-01   .75022541E-01
   .74999339E-01   .74964086E-01   .74915240E-01   .74851423E-01   .74771419E-01
   .74674188E-01   .74558863E-01   .74424757E-01   .74271362E-01   .74098351E-01
   .73905572E-01   .73693050E-01   .73460979E-01   .73209718E-01   .72939782E-01
   .72651833E-01   .72346675E-01   .72025237E-01   .71688568E-01   .71337819E-01
   .70974236E-01   .70599143E-01   .70213934E-01   .69820054E-01   .69418988E-01
   .69012252E-01   .68601371E-01   .68187875E-01   .67773280E-01   .67359076E-01
   .66946719E-01   .66537615E-01   .66133112E-01   .65734492E-01   .65342958E-01
   .64959629E-01   .64585533E-01   .64221601E-01   .63868662E-01   .63527439E-01
   .63198547E-01   .62882488E-01   .62579655E-01   .62290325E-01   .62014666E-01
   .61752736E-01   .61504486E-01   .61269765E-01   .61048323E-01   .60839817E-01
   .60643817E-01   .60459813E-01   .60287223E-01   .60125395E-01   .59973623E-01
   .59831148E-01   .59697166E-01   .59570841E-01   .59451311E-01   .59337693E-01
   .59229098E-01   .59124633E-01   .59023412E-01   .58924563E-01   .58827235E-01
   .58730606E-01   .58633887E-01   .58536328E-01   .58437224E-01   .58335919E-01
   .58231809E-01   .58124347E-01   .58013044E-01   .57897472E-01   .57777266E-01
   .57652123E-01   .57521805E-01   .57386139E-01   .57245013E-01   .57098375E-01
   .56946232E-01   .56788649E-01   .56625742E-01   .56457677E-01   .56284665E-01
   .56106960E-01   .55924853E-01   .55738667E-01   .55548758E-01   .55355501E-01
   .55159295E-01   .54960552E-01   .54759693E-01   .54557145E-01   .54353336E-01
   .54148689E-01   .53943619E-01   .53738527E-01   .53533803E-01   .53329813E-01
   .53126904E-01   .52925399E-01   .52725595E-01   .52527758E-01   .52332129E-01
   .52138914E-01   .51948289E-01   .51760398E-01   .51575352E-01   .51393231E-01
   .51214083E-01   .51037924E-01   .50864746E-01   .50694510E-01   .50527155E-01
   .50362594E-01   .50200724E-01   .50041420E-01   .49884544E-01   .49729943E-01
   .49577456E-01   .49426911E-01   .49278134E-01   .49130944E-01   .48985166E-01
   .48840622E-01   .48697144E-01   .48554568E-01   .48412744E-01   .48271529E-01
   .48130796E-01   .47990433E-01   .47850343E-01   .47710443E-01   .47570672E-01
   .47430982E-01   .47291344E-01   .47151748E-01   .47012201E-01   .46872725E-01
   .46733362E-01   .46594168E-01   .46455211E-01   .46316576E-01   .46178357E-01
   .46040656E-01   .45903586E-01   .45767262E-01   .45631805E-01   .45497337E-01
   .45363979E-01   .45231850E-01   .45101065E-01   .44971736E-01   .44843963E-01
   .44717840E-01   .44593448E-01   .44470857E-01   .44350123E-01   .44231284E-01
   .44114365E-01   .43999372E-01   .43886294E-01   .43775104E-01   .43665754E-01
   .43558181E-01   .43452304E-01   .43348025E-01   .43245233E-01   .43143798E-01
   .43043579E-01   .42944420E-01   .42846156E-01   .42748609E-01   .42651595E-01
   .42554924E-01   .42458400E-01   .42361826E-01   .42265005E-01   .42167743E-01
   .42069850E-01   .41971140E-01   .41871439E-01   .41770580E-01   .41668409E-01
   .41564785E-01   .41459582E-01   .41352692E-01   .41244022E-01   .41133502E-01
   .41021078E-01   .40906720E-01   .40790419E-01   .40672188E-01   .40552062E-01
   .40430098E-01   .40306374E-01   .40180989E-01   .40054063E-01   .39925734E-01
   .39796157E-01   .39665505E-01   .39533966E-01   .39401741E-01   .39269044E-01
   .39136098E-01   .39003133E-01   .38870389E-01   .38738104E-01   .38606522E-01
   .38475882E-01   .38346421E-01   .38218371E-01   .38091955E-01   .37967387E-01
   .37844867E-01   .37724586E-01   .37606713E-01   .37491407E-01   .37378803E-01
   .37269018E-01   .37162150E-01   .37058271E-01   .36957432E-01   .36859662E-01
   .36764962E-01   .36673312E-01   .36584668E-01   .36498963E-01   .36416106E-01
   .36335987E-01   .36258472E-01   .36183411E-01   .36110633E-01   .36039952E-01
   .35971166E-01   .35904061E-01   .35838410E-01   .35773978E-01   .35710521E-01
   .35647793E-01   .35585544E-01   .35523522E-01   .35461482E-01   .35399179E-01
   .35336377E-01   .35272848E-01   .35208375E-01   .35142753E-01   .35075791E-01
   .35007314E-01   .34937165E-01   .34865206E-01   .34791317E-01   .34715403E-01
   .34637386E-01   .34557215E-01   .34474860E-01   .34390315E-01   .34303594E-01
   .34214738E-01   .34123807E-01   .34030883E-01   .33936068E-01   .33839484E-01
   .33741270E-01   .33641582E-01   .33540592E-01   .33438486E-01   .33335459E-01
   .33231720E-01   .33127483E-01   .33022968E-01   .32918399E-01   .32814002E-01
   .32710000E-01   .32606616E-01   .32504064E-01   .32402555E-01   .32302288E-01
   .32203453E-01   .32106229E-01   .32010777E-01   .31917248E-01   .31825771E-01
   .31736461E-01   .31649413E-01   .31564701E-01   .31482379E-01   .31402483E-01
   .31325023E-01   .31249992E-01   .31177361E-01   .31107081E-01   .31039084E-01
   .30973284E-01   .30909575E-01   .30847836E-01   .30787931E-01   .30729709E-01
   .30673006E-01   .30617648E-01   .30563450E-01   .30510223E-01   .30457768E-01
   .30405885E-01   .30354374E-01   .30303032E-01   .30251662E-01   .30200069E-01
   .30148064E-01   .30095468E-01   .30042110E-01   .29987830E-01   .29932480E-01
   .29875926E-01   .29818051E-01   .29758751E-01   .29697942E-01   .29635555E-01
   .29571543E-01   .29505876E-01   .29438542E-01   .29369549E-01   .29298925E-01
   .29226714E-01   .29152978E-01   .29077798E-01   .29001268E-01   .28923499E-01
   .28844616E-01   .28764756E-01   .28684068E-01   .28602710E-01   .28520850E-01
   .28438661E-01   .28356321E-01   .28274012E-01   .28191916E-01   .28110214E-01
   .28029086E-01   .27948707E-01   .27869246E-01   .27790863E-01   .27713712E-01
   .27637936E-01   .27563664E-01   .27491014E-01   .27420091E-01   .27350982E-01
   .27283759E-01   .27218479E-01   .27155180E-01   .27093883E-01   .27034590E-01
   .26977287E-01   .26921942E-01   .26868507E-01   .26816914E-01   .26767084E-01
   .26718921E-01   .26672313E-01   .26627138E-01   .26583260E-01   .26540534E-01
   .26498805E-01   .26457910E-01   .26417680E-01   .26377942E-01   .26338520E-01
   .26299238E-01   .26259920E-01   .26220392E-01   .26180485E-01   .26140035E-01
   .26098885E-01   .26056888E-01   .26013904E-01   .25969808E-01   .25924483E-01
   .25877829E-01   .25829758E-01   .25780198E-01   .25729095E-01   .25676407E-01
   .25622112E-01   .25566204E-01   .25508694E-01   .25449610E-01   .25388994E-01
   .25326908E-01   .25263425E-01   .25198634E-01   .25132639E-01   .25065554E-01
   .24997506E-01   .24928634E-01   .24859082E-01   .24789007E-01   .24718568E-01
   .24647929E-01   .24577260E-01   .24506730E-01   .24436507E-01   .24366760E-01
   .24297652E-01   .24229343E-01   .24161985E-01   .24095725E-01   .24030698E-01
   .23967031E-01   .23904839E-01   .23844226E-01   .23785280E-01   .23728077E-01
   .23672678E-01   .23619127E-01   .23567456E-01   .23517676E-01   .23469786E-01
   .23423768E-01   .23379589E-01   .23337200E-01   .23296537E-01   .23257525E-01
   .23220072E-01   .23184077E-01   .23149424E-01   .23115991E-01   .23083642E-01
   .23052238E-01   .23021629E-01   .22991664E-01   .22962184E-01   .22933031E-01
   .22904045E-01   .22875069E-01   .22845944E-01   .22816518E-01   .22786644E-01
   .22756179E-01   .22724988E-01   .22692946E-01   .22659937E-01   .22625855E-01
   .22590606E-01   .22554108E-01   .22516295E-01   .22477110E-01   .22436514E-01
   .22394481E-01   .22350999E-01   .22306071E-01   .22259714E-01   .22211959E-01
 gradient corrections used for XC
 5
 core charge-density (partial)
   .57875812E+00   .57853660E+00   .57787261E+00   .57676779E+00   .57522487E+00
   .57324766E+00   .57084101E+00   .56801082E+00   .56476399E+00   .56110839E+00
   .55705283E+00   .55260701E+00   .54778149E+00   .54258763E+00   .53703752E+00
   .53114399E+00   .52492049E+00   .51838105E+00   .51154025E+00   .50441311E+00
   .49701509E+00   .48936197E+00   .48146983E+00   .47335498E+00   .46503388E+00
   .45652311E+00   .44783931E+00   .43899911E+00   .43001907E+00   .42091566E+00
   .41170519E+00   .40240375E+00   .39302722E+00   .38359115E+00   .37411080E+00
   .36460105E+00   .35507638E+00   .34555086E+00   .33603811E+00   .32655128E+00
   .31710302E+00   .30770546E+00   .29837023E+00   .28910840E+00   .27993049E+00
   .27084649E+00   .26186580E+00   .25299728E+00   .24424921E+00   .23562932E+00
   .22714478E+00   .21880220E+00   .21060765E+00   .20256668E+00   .19468427E+00
   .18696493E+00   .17941264E+00   .17203088E+00   .16482269E+00   .15779060E+00
   .15093672E+00   .14426274E+00   .13776991E+00   .13145910E+00   .12533078E+00
   .11938508E+00   .11362177E+00   .10804030E+00   .10263980E+00   .97419109E-01
   .92376795E-01   .87511163E-01   .82820278E-01   .78301978E-01   .73953893E-01
   .69773460E-01   .65757937E-01   .61904424E-01   .58209868E-01   .54671087E-01
   .51284778E-01   .48047535E-01   .44955856E-01   .42006162E-01   .39194803E-01
   .36518075E-01   .33972227E-01   .31553473E-01   .29258003E-01   .27081990E-01
   .25021601E-01   .23073006E-01   .21232383E-01   .19495930E-01   .17859868E-01
   .16320450E-01   .14873966E-01   .13516751E-01   .12245185E-01   .11055707E-01
   .99448092E-02   .89090491E-02   .79450488E-02   .70495005E-02   .62191685E-02
   .54508925E-02   .47415894E-02   .40882562E-02   .34879708E-02   .29378942E-02
   .24352712E-02   .19774318E-02   .15617915E-02   .11858519E-02   .84720092E-03
   .54351281E-03   .27254799E-03   .32152609E-04  -.17974196E-03  -.36511984E-03
  -.52588156E-03  -.66384502E-03  -.78074667E-03  -.87824279E-03  -.95791083E-03
  -.10212510E-02  -.10696876E-02  -.11045710E-02  -.11271793E-02  -.11387199E-02
  -.11403317E-02  -.11330867E-02  -.11179923E-02  -.10959930E-02  -.10679726E-02
  -.10347561E-02  -.99711195E-03  -.95575406E-03  -.91134377E-03  -.86449209E-03
  -.81576167E-03  -.76566890E-03  -.71468597E-03  -.66324288E-03  -.61172946E-03
  -.56049735E-03  -.50986195E-03  -.46010432E-03  -.41147308E-03  -.36418625E-03
  -.31843304E-03  -.27437563E-03  -.23215083E-03  -.19187180E-03  -.15362964E-03
  -.11749496E-03  -.83519387E-04  -.51737035E-04  -.22165910E-04   .51907291E-05
   .30343072E-04   .53313507E-04   .74135423E-04   .92852073E-04   .10951548E-03
   .12418542E-03   .13692841E-03   .14781680E-03   .15692790E-03   .16434314E-03
   .17014729E-03   .17442775E-03   .17727383E-03   .17877618E-03   .17902615E-03
   .17811523E-03   .17613463E-03   .17317473E-03   .16932471E-03   .16467217E-03
   .15930276E-03   .15329990E-03   .14674448E-03   .13971466E-03   .13228561E-03
   .12452937E-03   .11651471E-03   .10830695E-03   .99967923E-04   .91555880E-04
   .83125430E-04   .74727521E-04   .66409431E-04   .58214771E-04   .50183519E-04
   .42352056E-04   .34753224E-04   .27416394E-04   .20367552E-04   .13629385E-04
   .72213872E-05   .11599688E-05  -.45414259E-05  -.98721943E-05  -.14824446E-04
  -.19392867E-04  -.23574586E-04  -.27369026E-04  -.30777770E-04  -.33804412E-04
  -.36454414E-04  -.38734960E-04  -.40654814E-04  -.42224180E-04  -.43454557E-04
  -.44358603E-04  -.44950002E-04  -.45243328E-04  -.45253923E-04  -.44997768E-04
  -.44491363E-04  -.43751616E-04  -.42795729E-04  -.41641096E-04  -.40305200E-04
  -.38805520E-04  -.37159440E-04  -.35384169E-04  -.33496661E-04  -.31513539E-04
  -.29451035E-04  -.27324925E-04  -.25150474E-04  -.22942384E-04  -.20714755E-04
  -.18481039E-04  -.16254011E-04  -.14045738E-04  -.11867555E-04  -.97300452E-05
  -.76430287E-05  -.56155484E-05  -.36558665E-05  -.17714620E-05   .30967072E-07
   .17454978E-05   .33669732E-05   .48909900E-05   .63138830E-05   .76327069E-05
   .88452154E-05   .99498383E-05   .10945656E-04   .11832372E-04   .12610286E-04
   .13280260E-04   .13843691E-04   .14302473E-04   .14658970E-04   .14915975E-04
   .15076682E-04   .15144646E-04   .15123749E-04   .15018167E-04   .14832332E-04
   .14570902E-04   .14238720E-04   .13840789E-04   .13382232E-04   .12868266E-04
   .12304166E-04   .11695240E-04   .11046798E-04   .10364124E-04   .96524530E-05
   .89169426E-05   .81626534E-05   .73945252E-05   .66173578E-05   .58357922E-05
   .50542935E-05   .42771357E-05   .35083880E-05   .27519022E-05   .20113027E-05
   .12899768E-05   .59106762E-06  -.82531773E-07  -.72818322E-06  -.13435062E-05
  -.19263797E-05  -.24749422E-05  -.29875909E-05  -.34629793E-05  -.39000138E-05
  -.42978490E-05  -.46558824E-05  -.49737472E-05  -.52513054E-05  -.54886389E-05
  -.56860406E-05  -.58440045E-05  -.59632151E-05  -.60445367E-05  -.60890014E-05
  -.60977976E-05  -.60722577E-05  -.60138452E-05  -.59241428E-05  -.58048389E-05
  -.56577151E-05  -.54846335E-05  -.52875234E-05  -.50683693E-05  -.48291984E-05
  -.45720679E-05  -.42990539E-05  -.40122393E-05  -.37137028E-05  -.34055084E-05
  -.30896950E-05  -.27682668E-05  -.24431840E-05  -.21163540E-05  -.17896238E-05
  -.14647722E-05  -.11435029E-05  -.82743877E-06  -.51811570E-06  -.21697809E-06
   .74625598E-07   .35544643E-06   .62433799E-06   .88025874E-06   .11222738E-05
   .13495559E-05   .15613862E-05   .17571541E-05   .19363563E-05   .20985965E-05
   .22435828E-05   .23711263E-05   .24811380E-05   .25736262E-05   .26486928E-05
   .27065296E-05   .27474143E-05   .27717060E-05   .27798403E-05   .27723248E-05
   .27497335E-05   .27127019E-05   .26619213E-05   .25981333E-05   .25221244E-05
   .24347198E-05   .23367783E-05   .22291865E-05   .21128527E-05   .19887021E-05
   .18576706E-05   .17207004E-05   .15787336E-05   .14327085E-05   .12835536E-05
   .11321840E-05   .97949624E-06   .82636456E-06   .67363687E-06   .52213117E-06
   .37263215E-06   .22588813E-06   .82608306E-07  -.56539785E-07  -.19093241E-06
  -.31999156E-06  -.44318652E-06  -.56003514E-06  -.67010490E-06  -.77301350E-06
  -.86842937E-06  -.95607177E-06  -.10357106E-05  -.11071662E-05  -.11703084E-05
  -.12250559E-05  -.12713749E-05  -.13092781E-05  -.13388228E-05  -.13601095E-05
  -.13732799E-05  -.13785147E-05  -.13760315E-05  -.13660828E-05  -.13489530E-05
  -.13249563E-05  -.12944341E-05  -.12577521E-05  -.12152977E-05  -.11674774E-05
  -.11147140E-05  -.10574438E-05  -.99611383E-06  -.93117915E-06  -.86310036E-06
  -.79234081E-06  -.71936412E-06  -.64463171E-06  -.56860042E-06  -.49172022E-06
  -.41443204E-06  -.33716571E-06  -.26033801E-06  -.18435085E-06  -.10958963E-06
  -.36421634E-07   .34805329E-07   .10376419E-06   .17014972E-06   .23367953E-06
   .29409484E-06   .35116115E-06   .40466878E-06   .45443324E-06   .50029543E-06
   .54212175E-06   .57980404E-06   .61325942E-06   .64242997E-06   .66728229E-06
   .68780698E-06   .70401796E-06   .71595174E-06   .72366655E-06   .72724140E-06
   .72677505E-06   .72238494E-06   .71420601E-06   .70238949E-06   .68710160E-06
   .66852230E-06   .64684390E-06   .62226970E-06   .59501262E-06   .56529378E-06
   .53334113E-06   .49938802E-06   .46367185E-06   .42643270E-06   .38791199E-06
   .34835115E-06   .30799038E-06   .26706743E-06   .22581639E-06   .18446659E-06
   .14324151E-06   .10235779E-06   .62024272E-07   .22441140E-07  -.16200907E-07
  -.53721381E-07  -.89950666E-07  -.12473061E-06  -.15791502E-06  -.18937012E-06
  -.21897489E-06  -.24662137E-06  -.27221483E-06  -.29567392E-06  -.31693077E-06
  -.33593089E-06  -.35263318E-06  -.36700971E-06  -.37904556E-06  -.38873851E-06
  -.39609873E-06  -.40114838E-06  -.40392118E-06  -.40446194E-06  -.40282598E-06
  -.39907863E-06  -.39329454E-06  -.38555714E-06  -.37595790E-06  -.36459565E-06
  -.35157592E-06  -.33701016E-06  -.32101503E-06  -.30371166E-06  -.28522491E-06
  -.26568259E-06  -.24521477E-06  -.22395301E-06  -.20202965E-06  -.17957710E-06
  -.15672718E-06  -.13361041E-06  -.11035540E-06  -.87088225E-07  -.63931822E-07
  -.41005460E-07  -.18424200E-07   .37015847E-08   .25266665E-07   .46171364E-07
   .66321937E-07   .85630901E-07   .10401733E-06   .12140711E-06   .13773315E-06
   .15293555E-06   .16696174E-06   .17976654E-06   .19131226E-06   .20156867E-06
   .21051296E-06   .21812973E-06   .22441084E-06   .22935528E-06   .23296903E-06
   .23526481E-06   .23626192E-06   .23598589E-06   .23446829E-06   .23174638E-06
   .22786275E-06   .22286503E-06   .21680551E-06   .20974074E-06   .20173115E-06
   .19284065E-06   .18313621E-06   .17268746E-06   .16156628E-06   .14984632E-06
   .13760266E-06   .12491133E-06   .11184893E-06   .98492227E-07   .84917723E-07
   .71201309E-07   .57417873E-07   .43640937E-07   .29942320E-07   .16391802E-07
   .30568171E-08  -.99978374E-08  -.22710276E-07  -.35021772E-07  -.46876992E-07
  -.58224195E-07  -.69015425E-07  -.79206663E-07  -.88757970E-07  -.97633600E-07
  -.10580209E-06  -.11323631E-06  -.11991354E-06  -.12581546E-06  -.13092815E-06
  -.13524208E-06  -.13875205E-06  -.14145712E-06  -.14336054E-06  -.14446960E-06
  -.14479558E-06  -.14435352E-06  -.14316213E-06  -.14124357E-06  -.13862329E-06
  -.13532982E-06  -.13139456E-06  -.12685157E-06  -.12173729E-06  -.11609038E-06
  -.10995142E-06  -.10336268E-06  -.96367867E-07  -.89011866E-07  -.81340498E-07
  -.73400256E-07  -.65238058E-07  -.56900995E-07  -.48436091E-07  -.39890059E-07
  -.31309073E-07  -.22738538E-07  -.14222878E-07  -.58053272E-08   .24722676E-08
   .10569633E-07   .18448241E-07   .26071474E-07   .33404773E-07   .40415768E-07
   .47074409E-07   .53353065E-07   .59226622E-07   .64672558E-07   .69671011E-07
   .74204823E-07   .78259578E-07   .81823622E-07   .84888064E-07   .87446772E-07
   .89496348E-07   .91036092E-07   .92067954E-07   .92596470E-07   .92628692E-07
   .92174099E-07   .91244506E-07   .89853953E-07   .88018595E-07   .85756576E-07
   .83087897E-07   .80034280E-07   .76619023E-07   .72866848E-07   .68803750E-07
   .64456840E-07   .59854178E-07   .55024622E-07   .49997652E-07   .44803219E-07
   .39471572E-07   .34033104E-07   .28518190E-07   .22957030E-07   .17379501E-07
   .11815005E-07   .62923288E-08   .83950776E-09  -.45163062E-08  -.97489671E-08
  -.14833451E-07  -.19745965E-07  -.24464044E-07  -.28966649E-07  -.33234240E-07
  -.37248858E-07  -.40994183E-07  -.44455592E-07  -.47620199E-07  -.50476895E-07
  -.53016371E-07  -.55231132E-07  -.57115507E-07  -.58665639E-07  -.59879479E-07
  -.60756760E-07  -.61298968E-07  -.61509303E-07  -.61392631E-07  -.60955431E-07
  -.60205729E-07  -.59153035E-07  -.57808261E-07  -.56183645E-07  -.54292662E-07
  -.52149932E-07  -.49771126E-07  -.47172864E-07  -.44372617E-07  -.41388595E-07
  -.38239646E-07  -.34945143E-07  -.31524877E-07  -.27998948E-07  -.24387653E-07
  -.20711377E-07  -.16990492E-07  -.13245243E-07  -.94956522E-08  -.57614163E-08
  -.20618102E-08   .15844054E-08   .51590721E-08   .86447177E-08   .12024635E-07
   .15282956E-07   .18404718E-07   .21375927E-07   .24183615E-07   .26815886E-07
   .29261963E-07   .31512224E-07   .33558231E-07   .35392755E-07   .37009792E-07
   .38404575E-07   .39573577E-07   .40514507E-07   .41226303E-07   .41709115E-07
   .41964287E-07   .41994326E-07   .41802872E-07   .41394659E-07   .40775474E-07
   .39952105E-07   .38932293E-07   .37724676E-07   .36338726E-07   .34784689E-07
   .33073515E-07   .31216796E-07   .29226686E-07   .27115838E-07   .24897322E-07
   .22584556E-07   .20191225E-07   .17731212E-07   .15218515E-07   .12667180E-07
   .10091220E-07   .75045467E-08   .49209007E-08   .23537793E-08  -.18362747E-09
  -.26785010E-08  -.51184548E-08  -.74915919E-08  -.97865586E-08  -.11992595E-07
  -.14099582E-07  -.16098080E-07  -.17979375E-07  -.19735501E-07  -.21359280E-07
  -.22844340E-07  -.24185137E-07  -.25376971E-07  -.26415997E-07  -.27299231E-07
  -.28024549E-07  -.28590689E-07  -.28997241E-07  -.29244634E-07  -.29334125E-07
  -.29267773E-07  -.29048422E-07  -.28679668E-07  -.28165830E-07  -.27511918E-07
  -.26723595E-07  -.25807134E-07  -.24769380E-07  -.23617703E-07  -.22359950E-07
  -.21004400E-07  -.19559710E-07  -.18034869E-07  -.16439139E-07  -.14782010E-07
  -.13073141E-07  -.11322309E-07  -.95393581E-08  -.77341433E-08  -.59164828E-08
  -.40961048E-08  -.22825997E-08  -.48537124E-09   .12864089E-08   .30238455E-08
   .47183619E-08   .63617395E-08   .79461552E-08   .94642160E-08   .10908991E-07
   .12274039E-07   .13553437E-07   .14741801E-07   .15834306E-07   .16826702E-07
   .17715330E-07   .18497129E-07   .19169642E-07   .19731023E-07   .20180035E-07
   .20516046E-07   .20739026E-07   .20849536E-07   .20848714E-07   .20738266E-07
   .20520441E-07   .20198018E-07   .19774278E-07   .19252983E-07   .18638346E-07
   .17935004E-07   .17147988E-07   .16282689E-07   .15344824E-07   .14340406E-07
   .13275702E-07   .12157199E-07   .10991569E-07   .97856270E-08   .85462984E-08
   .72805774E-08   .59954912E-08   .46980624E-08   .33952729E-08   .20940281E-08
   .80112152E-09  -.47679812E-09  -.17332598E-08  -.29620012E-08  -.41569980E-08
  -.53124918E-08  -.64230162E-08  -.74834207E-08  -.84888931E-08  -.94349792E-08
  -.10317601E-07  -.11133072E-07  -.11878110E-07  -.12549850E-07  -.13145853E-07
  -.13664108E-07  -.14103041E-07  -.14461517E-07  -.14738834E-07  -.14934727E-07
  -.15049358E-07  -.15083312E-07  -.15037584E-07  -.14913574E-07  -.14713067E-07
  -.14438222E-07  -.14091555E-07  -.13675919E-07  -.13194488E-07  -.12650729E-07
  -.12048389E-07  -.11391462E-07  -.10684171E-07  -.99309401E-08  -.91363707E-08
  -.83052120E-08  -.74423362E-08  -.65527110E-08  -.56413722E-08  -.47133968E-08
  -.37738757E-08  -.28278873E-08  -.18804711E-08  -.93660221E-09  -.11664019E-11
   .92106417E-09   .18254540E-08   .27075265E-08   .35629847E-08   .43877315E-08
   .51778877E-08   .59298093E-08   .66401031E-08   .73056406E-08   .79235705E-08
   .84913302E-08   .90066540E-08   .94675816E-08   .98724635E-08   .10219966E-07
   .10509071E-07   .10739082E-07   .10909617E-07   .11020612E-07   .11072311E-07
   .11065267E-07   .11000330E-07   .10878637E-07   .10701609E-07   .10470934E-07
   .10188555E-07   .98566597E-08   .94776615E-08   .90541870E-08   .85890580E-08
   .80852745E-08   .75459967E-08   .69745263E-08   .63742874E-08   .57488072E-08
   .51016960E-08   .44366277E-08   .37573194E-08   .30675120E-08   .23709501E-08
   .16713626E-08   .97244367E-09   .27783400E-09  -.40889750E-09  -.10842711E-08
  -.17449131E-08  -.23875721E-08  -.30091340E-08  -.36066363E-08  -.41772818E-08
  -.47184502E-08  -.52277100E-08  -.57028285E-08  -.61417801E-08  -.65427548E-08
  -.69041643E-08  -.72246474E-08  -.75030740E-08  -.77385478E-08  -.79304080E-08
  -.80782296E-08  -.81818224E-08  -.82412287E-08  -.82567204E-08  -.82287942E-08
  -.81581663E-08  -.80457656E-08  -.78927262E-08  -.77003788E-08  -.74702411E-08
  -.72040076E-08  -.69035385E-08  -.65708479E-08  -.62080911E-08  -.58175519E-08
  -.54016287E-08  -.49628211E-08  -.45037152E-08  -.40269690E-08  -.35352979E-08
  -.30314601E-08  -.25182411E-08  -.19984395E-08  -.14748518E-08  -.95025836E-09
  -.42740906E-09   .90990720E-10   .60229345E-09   .11039225E-08   .15933843E-08
   .20682809E-08   .25263204E-08   .29653280E-08   .33832554E-08   .37781904E-08
   .41483643E-08   .44921600E-08   .48081179E-08   .50949419E-08   .53515037E-08
   .55768467E-08   .57701889E-08   .59309245E-08   .60586249E-08   .61530390E-08
   .62140917E-08   .62418826E-08   .62366829E-08   .61989322E-08   .61292338E-08
   .60283497E-08   .58971946E-08   .57368294E-08   .55484534E-08   .53333971E-08
   .50931129E-08   .48291668E-08   .45432281E-08   .42370601E-08   .39125093E-08
   .35714954E-08   .32159996E-08   .28480543E-08   .24697316E-08   .20831320E-08
   .16903735E-08   .12935799E-08   .89487003E-09   .49634683E-09   .10008650E-09
  -.29187187E-09  -.67753646E-09  -.10549725E-08  -.14223114E-08  -.17777601E-08
  -.21196090E-08  -.24462401E-08  -.27561339E-08  -.30478767E-08  -.33201662E-08
  -.35718170E-08  -.38017654E-08  -.40090735E-08  -.41929324E-08  -.43526648E-08
  -.44877274E-08  -.45977115E-08  -.46823437E-08  -.47414861E-08  -.47751348E-08
 atomic pseudo charge-density
   .10000000E+01   .99303308E+00   .97245396E+00   .93919837E+00   .89473331E+00
   .84093234E+00   .77992619E+00   .71394735E+00   .64518610E+00   .57567063E+00
   .50717917E+00   .44118613E+00   .37884015E+00   .32096871E+00   .26810263E+00
   .22051334E+00   .17825680E+00   .14121884E+00   .10915839E+00   .81746123E-01
   .58597381E-01   .39298974E-01   .23430066E-01   .10577753E-01   .34809552E-03
  -.76265979E-02  -.13683433E-01  -.18126861E-01  -.21228285E-01  -.23226848E-01
  -.24331033E-01  -.24720776E-01  -.24549865E-01  -.23948470E-01  -.23025684E-01
  -.21871991E-01  -.20561615E-01  -.19154700E-01  -.17699320E-01  -.16233289E-01
  -.14785792E-01  -.13378816E-01  -.12028418E-01  -.10745810E-01  -.95383042E-02
  -.84101083E-02  -.73629987E-02  -.63968811E-02  -.55102535E-02  -.47005835E-02
  -.39646127E-02  -.32985995E-02  -.26985093E-02  -.21601622E-02  -.16793444E-02
  -.12518913E-02  -.87374772E-03  -.54100897E-03  -.24994852E-03   .29657438E-05
   .22106342E-03   .40746954E-03   .56510696E-03   .69670173E-03   .80479044E-03
   .89172885E-03   .95970107E-03   .10107290E-02   .10466816E-02   .10692841E-02
   .10801267E-02   .10806729E-02   .10722669E-02   .10561415E-02   .10334249E-02
   .10051467E-02   .97224468E-03   .93557013E-03   .89589349E-03   .85390950E-03
   .81024211E-03   .76544920E-03   .72002707E-03   .67441472E-03   .62899795E-03
   .58411327E-03   .54005165E-03   .49706209E-03   .45535503E-03   .41510559E-03
   .37645660E-03   .33952158E-03   .30438743E-03   .27111705E-03   .23975175E-03
   .21031356E-03   .18280735E-03   .15722283E-03   .13353638E-03   .11171279E-03
   .91706841E-04   .73464776E-04   .56925650E-04   .42022572E-04   .28683841E-04
   .16833985E-04   .63947039E-05  -.27142677E-05  -.10574389E-04  -.17267614E-04
  -.22875759E-04  -.27479953E-04  -.31160132E-04  -.33994605E-04  -.36059677E-04
  -.37429308E-04  -.38174839E-04  -.38364752E-04  -.38064469E-04  -.37336202E-04
  -.36238823E-04  -.34827782E-04  -.33155048E-04  -.31269074E-04  -.29214802E-04
  -.27033674E-04  -.24763681E-04  -.22439418E-04  -.20092165E-04  -.17749978E-04
  -.15437799E-04  -.13177572E-04  -.10988371E-04  -.88865378E-05  -.68858261E-05
  -.49975482E-05  -.32307290E-05  -.15922603E-05  -.87057187E-07   .12817853E-05
   .25128370E-05   .36061790E-05   .45632525E-05   .53867121E-05   .60802825E-05
   .66486205E-05   .70971826E-05   .74320985E-05   .76600507E-05   .77881606E-05
   .78238823E-05   .77749027E-05   .76490491E-05   .74542041E-05   .71982275E-05
   .68888862E-05   .65337899E-05   .61403354E-05   .57156564E-05   .52665808E-05
   .47995940E-05   .43208086E-05   .38359396E-05   .33502855E-05   .28687147E-05
   .23956564E-05   .19350965E-05   .14905774E-05   .10652021E-05   .66164155E-06
   .28214482E-06  -.71447015E-07  -.39768521E-06  -.69549526E-06  -.96415700E-06
  -.12032831E-05  -.14127966E-05  -.15929070E-05  -.17440863E-05  -.18670438E-05
  -.19627021E-05  -.20321711E-05  -.20767245E-05  -.20977749E-05  -.20968508E-05
  -.20755733E-05  -.20356346E-05  -.19787770E-05  -.19067734E-05  -.18214083E-05
  -.17244610E-05  -.16176893E-05  -.15028153E-05  -.13815118E-05  -.12553911E-05
  -.11259939E-05  -.99478109E-06  -.86312558E-06  -.73230627E-06  -.60350304E-06
  -.47779301E-06  -.35614798E-06  -.23943305E-06  -.12840624E-06  -.23719111E-07
   .74081656E-07   .16455191E-06   .24734689E-06   .32221741E-06   .38900545E-06
   .44763923E-06   .49812787E-06   .54055567E-06   .57507608E-06   .60190553E-06
   .62131706E-06   .63363389E-06   .63922296E-06   .63848858E-06   .63186611E-06
   .61981578E-06   .60281678E-06   .58136153E-06   .55595020E-06   .52708559E-06
   .49526829E-06   .46099219E-06   .42474038E-06   .38698143E-06   .34816601E-06
   .30872394E-06   .26906162E-06   .22955988E-06   .19057216E-06   .15242306E-06
   .11540736E-06   .79789225E-07   .45801878E-07   .13647512E-07  -.16502478E-07
  -.44506999E-07  -.70254514E-07  -.93662071E-07  -.11467413E-06  -.13326119E-06
  -.14941835E-06  -.16316357E-06  -.17453604E-06  -.18359427E-06  -.19041429E-06
  -.19508765E-06  -.19771955E-06  -.19842685E-06  -.19733621E-06  -.19458216E-06
  -.19030532E-06  -.18465060E-06  -.17776555E-06  -.16979876E-06  -.16089836E-06
  -.15121063E-06  -.14087877E-06  -.13004168E-06  -.11883299E-06  -.10738010E-06
  -.95803422E-07  -.84215721E-07  -.72721558E-07  -.61416878E-07  -.50388701E-07
  -.39714929E-07  -.29464250E-07  -.19696152E-07  -.10461018E-07  -.18003122E-08
   .62531549E-08   .13674899E-07   .20448366E-07   .26564491E-07   .32021200E-07
   .36822892E-07   .40979874E-07   .44507793E-07   .47427040E-07   .49762155E-07
   .51541236E-07   .52795345E-07   .53557937E-07   .53864298E-07   .53751018E-07
   .53255478E-07   .52415377E-07   .51268288E-07   .49851257E-07   .48200435E-07
   .46350749E-07   .44335621E-07   .42186723E-07   .39933773E-07   .37604374E-07
   .35223895E-07   .32815381E-07   .30399514E-07   .27994595E-07   .25616564E-07
   .23279053E-07   .20993461E-07   .18769053E-07   .16613083E-07   .14530936E-07
   .12526278E-07   .10601224E-07   .87565157E-08   .69916967E-08   .53053001E-08
   .36950300E-08   .21579422E-08   .69062019E-09  -.71065691E-09  -.20497550E-08
  -.33305373E-08  -.45567285E-08  -.57317940E-08  -.68588327E-08  -.79404868E-08
  -.89788671E-08  -.99754953E-08  -.10931263E-07  -.11846406E-07  -.12720497E-07
  -.13552455E-07  -.14340559E-07  -.15082495E-07  -.15775395E-07  -.16415901E-07
  -.17000236E-07  -.17524281E-07  -.17983663E-07  -.18373844E-07  -.18690220E-07
  -.18928219E-07  -.19083401E-07  -.19151554E-07  -.19128796E-07  -.19011664E-07
  -.18797207E-07  -.18483064E-07  -.18067543E-07  -.17549686E-07  -.16929330E-07
  -.16207149E-07  -.15384697E-07  -.14464431E-07  -.13449727E-07  -.12344884E-07
  -.11155110E-07  -.98865079E-08  -.85460419E-08  -.71414928E-08  -.56814061E-08
  -.41750288E-08  -.26322365E-08  -.10634526E-08   .52043974E-09   .21081926E-08
   .36882933E-08   .52490690E-08   .67787943E-08   .82658004E-08   .96985853E-08
   .11065924E-07   .12356976E-07   .13561390E-07   .14669409E-07   .15671958E-07
   .16560745E-07   .17328336E-07   .17968235E-07   .18474946E-07   .18844037E-07
   .19072182E-07   .19157200E-07   .19098083E-07   .18895009E-07   .18549349E-07
   .18063657E-07   .17441654E-07   .16688200E-07   .15809254E-07   .14811823E-07
   .13703907E-07   .12494425E-07   .11193142E-07   .98105861E-08   .83579538E-08
   .68470150E-08   .52900103E-08   .36995454E-08   .20884812E-08   .46982314E-09
  -.11433915E-08  -.27382055E-08  -.43018527E-08  -.58218674E-08  -.72861901E-08
  -.86832695E-08  -.10002159E-07  -.11232609E-07  -.12365152E-07  -.13391176E-07
  -.14302999E-07  -.15093928E-07  -.15758309E-07  -.16291574E-07  -.16690269E-07
  -.16952078E-07  -.17075839E-07  -.17061542E-07  -.16910325E-07  -.16624455E-07
  -.16207302E-07  -.15663301E-07  -.14997909E-07  -.14217550E-07  -.13329552E-07
  -.12342082E-07  -.11264064E-07  -.10105105E-07  -.88754027E-08  -.75856559E-08
  -.62469713E-08  -.48707648E-08  -.34686636E-08  -.20524055E-08  -.63373957E-09
   .77567292E-09   .21643560E-08   .35211139E-08   .48351223E-08   .60960158E-08
   .72939712E-08   .84197837E-08   .94649392E-08   .10421678E-07   .11283054E-07
   .12042982E-07   .12696282E-07   .13238713E-07   .13667000E-07   .13978847E-07
   .14172952E-07   .14249002E-07   .14207667E-07   .14050587E-07   .13780340E-07
   .13400418E-07   .12915184E-07   .12329825E-07   .11650300E-07   .10883284E-07
   .10036101E-07   .91166556E-08   .81333620E-08   .70950666E-08   .60109692E-08
   .48905426E-08   .37434497E-08   .25794609E-08   .14083715E-08   .23991955E-09
  -.91629454E-09  -.20508864E-08  -.31547634E-08  -.42191965E-08  -.52358889E-08
  -.61970394E-08  -.70954016E-08  -.79243376E-08  -.86778649E-08  -.93506989E-08
  -.99382880E-08  -.10436842E-07  -.10843355E-07  -.11155619E-07  -.11372234E-07
  -.11492609E-07  -.11516956E-07  -.11446279E-07  -.11282356E-07  -.11027714E-07
  -.10685597E-07  -.10259932E-07  -.97552891E-08  -.91768310E-08  -.85302665E-08
  -.78217942E-08  -.70580456E-08  -.62460245E-08  -.53930437E-08  -.45066608E-08
  -.35946125E-08  -.26647477E-08  -.17249617E-08  -.78312949E-09   .15295853E-09
   .10756603E-08   .19775434E-08   .28514435E-08   .36905203E-08   .44883101E-08
   .52387736E-08   .59363410E-08   .65759514E-08   .71530878E-08   .76638077E-08
   .81047679E-08   .84732437E-08   .87671442E-08   .89850205E-08   .91260691E-08
   .91901309E-08   .91776829E-08   .90898267E-08   .89282709E-08   .86953091E-08
   .83937932E-08   .80271025E-08   .75991091E-08   .71141396E-08   .65769330E-08
   .59925968E-08   .53665594E-08   .47045219E-08   .40124071E-08   .32963078E-08
   .25624346E-08   .18170629E-08   .10664806E-08   .31693619E-09  -.42541247E-09
  -.11545473E-08  -.18646381E-08  -.25500875E-08  -.32055746E-08  -.38260944E-08
  -.44069957E-08  -.49440136E-08  -.54333006E-08  -.58714518E-08  -.62555277E-08
  -.65830718E-08  -.68521247E-08  -.70612335E-08  -.72094573E-08  -.72963680E-08
  -.73220470E-08  -.72870782E-08  -.71925364E-08  -.70399720E-08  -.68313923E-08
  -.65692390E-08  -.62563623E-08  -.58959926E-08  -.54917087E-08  -.50474042E-08
  -.45672513E-08  -.40556633E-08  -.35172548E-08  -.29568016E-08  -.23791993E-08
  -.17894219E-08  -.11924795E-08  -.59337698E-09   .29268509E-11   .59155965E-09
   .11677742E-08   .17269861E-08   .22648087E-08   .27770874E-08   .32599300E-08
   .37097361E-08   .41232223E-08   .44974454E-08   .48298222E-08   .51181464E-08
   .53606015E-08   .55557710E-08   .57026450E-08   .58006234E-08   .58495154E-08
   .58495363E-08   .58013001E-08   .57058102E-08   .55644455E-08   .53789449E-08
   .51513885E-08   .48841760E-08   .45800034E-08   .42418370E-08   .38728859E-08
   .34765724E-08   .30565018E-08   .26164300E-08   .21602315E-08   .16918655E-08
   .12153431E-08   .73469305E-09   .25392919E-09  -.22298280E-09  -.69215718E-09
  -.11498191E-08  -.15923342E-08  -.20162369E-08  -.24182567E-08  -.27953427E-08
  -.31446863E-08  -.34637412E-08  -.37502409E-08  -.40022149E-08  -.42180003E-08
  -.43962526E-08  -.45359529E-08  -.46364120E-08  -.46972726E-08  -.47185082E-08
  -.47004193E-08  -.46436273E-08  -.45490653E-08  -.44179670E-08  -.42518530E-08
  -.40525147E-08  -.38219969E-08  -.35625771E-08  -.32767449E-08  -.29671787E-08
  -.26367213E-08  -.22883549E-08  -.19251746E-08  -.15503618E-08  -.11671571E-08
  -.77883269E-09  -.38866526E-09   .91252187E-13   .38423208E-09   .76062751E-09
   .11262478E-08   .14781871E-08   .18136861E-08   .21301529E-08   .24251827E-08
   .26965757E-08   .29423526E-08   .31607689E-08   .33503266E-08   .35097837E-08
   .36381619E-08   .37347517E-08   .37991151E-08   .38310866E-08   .38307715E-08
   .37985417E-08   .37350303E-08   .36411230E-08   .35179482E-08   .33668650E-08
   .31894491E-08   .29874780E-08   .27629132E-08   .25178826E-08   .22546607E-08
   .19756482E-08   .16833502E-08   .13803552E-08   .10693118E-08   .75290656E-09
   .43384086E-09   .11480858E-09  -.20152637E-09  -.51255178E-09  -.81572838E-09
  -.11086102E-08  -.13888638E-08  -.16542868E-08  -.19028245E-08  -.21325854E-08
  -.23418555E-08  -.25291106E-08  -.26930268E-08  -.28324898E-08  -.29466019E-08
  -.30346870E-08  -.30962940E-08  -.31311986E-08  -.31394026E-08  -.31211315E-08
  -.30768301E-08  -.30071569E-08  -.29129765E-08  -.27953496E-08  -.26555228E-08
  -.24949158E-08  -.23151076E-08  -.21178221E-08  -.19049118E-08  -.16783408E-08
  -.14401674E-08  -.11925257E-08  -.93760673E-09  -.67763949E-09  -.41487198E-09
  -.15155188E-09   .11009243E-09   .36787044E-09   .61964752E-09   .86336230E-09
   .10970433E-08   .13188247E-08   .15269611E-08   .17198407E-08   .18959979E-08
   .20541237E-08   .21930756E-08   .23118850E-08   .24097644E-08   .24861116E-08
   .25405129E-08   .25727449E-08   .25827743E-08   .25707564E-08   .25370320E-08
   .24821225E-08   .24067236E-08   .23116976E-08   .21980646E-08   .20669925E-08
   .19197852E-08   .17578704E-08   .15827862E-08   .13961667E-08   .11997273E-08
   .99524954E-09   .78456494E-09   .56953899E-09   .35205473E-09   .13399649E-09
  -.82766132E-10  -.29639401E-09  -.50509397E-09  -.70713376E-09  -.90085642E-09
  -.10846936E-08  -.12571783E-08  -.14169557E-08  -.15627945E-08  -.16935956E-08
  -.18084008E-08  -.19063992E-08  -.19869328E-08  -.20495002E-08  -.20937598E-08
  -.21195307E-08  -.21267928E-08  -.21156858E-08  -.20865055E-08  -.20397001E-08
  -.19758647E-08  -.18957347E-08  -.18001782E-08  -.16901872E-08  -.15668677E-08
  -.14314290E-08  -.12851721E-08  -.11294778E-08  -.96579394E-09  -.79562250E-09
  -.62050591E-09  -.44201311E-09  -.26172573E-09  -.81224328E-10   .97925054E-10
   .27418431E-09   .44605641E-09   .61209820E-09   .77093250E-09   .92125933E-09
   .10618663E-08   .11916382E-08   .13095657E-08   .14147536E-08   .15064272E-08
   .15839381E-08   .16467685E-08   .16945338E-08   .17269851E-08   .17440099E-08
   .17456317E-08   .17320090E-08   .17034316E-08   .16603169E-08   .16032050E-08
   .15327523E-08   .14497251E-08   .13549918E-08   .12495141E-08   .11343373E-08
   .10105799E-08   .87942358E-09   .74210195E-09   .59988961E-09   .45409043E-09
   .30602566E-09   .15702185E-09   .83991866E-11  -.13853991E-09  -.28252175E-09
  -.42231218E-09  -.55672719E-09  -.68464309E-09  -.80500595E-09  -.91684010E-09
  -.10192557E-08  -.11114554E-08  -.11927408E-08  -.12625173E-08  -.13202993E-08
  -.13657128E-08  -.13984978E-08  -.14185091E-08  -.14257163E-08  -.14202028E-08
  -.14021644E-08  -.13719067E-08  -.13298410E-08  -.12764791E-08  -.12124280E-08
  -.11383827E-08  -.10551197E-08  -.96348914E-09  -.86440705E-09  -.75884584E-09
  -.64782477E-09  -.53240003E-09  -.41365489E-09  -.29269001E-09  -.17061367E-09
  -.48531781E-10   .72462202E-10   .19129738E-09   .30693492E-09   .41837695E-09
   .52467462E-09   .62493579E-09   .71833246E-09   .80410773E-09   .88158222E-09
   .95015944E-09   .10093300E-08   .10586750E-08   .10978682E-08   .11266783E-08
   .11449703E-08   .11527059E-08   .11499433E-08   .11368348E-08   .11136245E-08
   .10806448E-08   .10383121E-08   .98712318E-09   .92765003E-09   .86053372E-09
   .78647777E-09   .70624051E-09   .62062742E-09   .53048334E-09   .43668485E-09
   .34013227E-09   .24174123E-09   .14243370E-09   .43129062E-10  -.55264682E-10
  -.15185891E-09  -.24579192E-09  -.33623614E-09  -.42240529E-09  -.50356160E-09
  -.57902251E-09  -.64816670E-09  -.71043898E-09  -.76535411E-09  -.81250006E-09
  -.85154084E-09  -.88221906E-09  -.90435794E-09  -.91786235E-09  -.92271862E-09
  -.91899318E-09  -.90683051E-09  -.88645072E-09  -.85814691E-09  -.82228218E-09
  -.77928591E-09  -.72964898E-09  -.67391804E-09  -.61268920E-09  -.54660175E-09
  -.47633189E-09  -.40258671E-09  -.32609779E-09  -.24761419E-09  -.16789491E-09
  -.87701104E-10  -.77885429E-11   .71099234E-10   .14823717E-09   .22292464E-09
   .29449154E-09   .36230449E-09   .42577309E-09   .48435550E-09   .53756310E-09
   .58496407E-09   .62618610E-09   .66091895E-09   .68891675E-09   .71000031E-09
   .72405874E-09   .73105000E-09   .73100029E-09   .72400226E-09   .71021287E-09
   .68985102E-09   .66319526E-09   .63058117E-09   .59239806E-09   .54908449E-09
   .50112296E-09   .44903399E-09   .39337037E-09   .33471165E-09   .27365909E-09
   .21083024E-09   .14685317E-09   .82359837E-10   .17979265E-10  -.45669152E-10
  -.10798155E-09  -.16837467E-09  -.22629044E-09  -.28120043E-09  -.33261070E-09
  -.38006679E-09  -.42315846E-09  -.46152365E-09  -.49485117E-09  -.52288244E-09
  -.54541254E-09  -.56229130E-09  -.57342445E-09  -.57877477E-09  -.57836265E-09
  -.57226547E-09  -.56061585E-09  -.54359885E-09  -.52144891E-09  -.49444692E-09
  -.46291759E-09  -.42722671E-09  -.38777786E-09  -.34500812E-09  -.29938280E-09
  -.25138962E-09  -.20153307E-09  -.15032941E-09  -.98302147E-10  -.45977833E-10
   .61186175E-11   .57469231E-10   .10756883E-09   .15593086E-09   .20209255E-09
   .24561899E-09   .28610632E-09   .32318446E-09   .35651994E-09   .38581922E-09
   .41083207E-09   .43135469E-09   .44723165E-09   .45835666E-09   .46467218E-09
   .46616857E-09   .46288331E-09   .45490062E-09   .44235118E-09   .42541140E-09
   .40430157E-09   .37928284E-09   .35065323E-09   .31874326E-09   .28391202E-09
 18.3303420892155593 T
 Non local Part
 0 2 2.25569453687051436
 1.26390785666839300 -0.197896699663111769 -0.197896699663111769 -0.400951871531517526E-02
 Reciprocal Space Part
   .30666480E+02   .30601164E+02   .30405895E+02   .30082708E+02   .29634960E+02
   .29067282E+02   .28385510E+02   .27596600E+02   .26708529E+02   .25730176E+02
   .24671198E+02   .23541895E+02   .22353060E+02   .21115837E+02   .19841564E+02
   .18541627E+02   .17227308E+02   .15909643E+02   .14599287E+02   .13306387E+02
   .12040467E+02   .10810324E+02   .96239460E+01   .84884333E+01   .74099460E+01
   .63936631E+01   .54437599E+01   .45634013E+01   .37547509E+01   .30189965E+01
   .23563878E+01   .17662887E+01   .12472402E+01   .79703340E+00   .41279020E+00
   .91050808E-01  -.17213473E+00  -.38111233E+00  -.54052895E+00  -.65523878E+00
  -.73021207E+00  -.77044818E+00  -.78089428E+00  -.76637072E+00  -.73150415E+00
  -.68066923E+00  -.61793932E+00  -.54704660E+00  -.47135181E+00  -.39382335E+00
  -.31702567E+00  -.24311641E+00  -.17385164E+00  -.11059866E+00  -.54355282E-01
  -.57748275E-02   .34804175E-01   .67324673E-01   .91975119E-01   .10915189E+00
   .11942106E+00   .12348044E+00   .12212277E+00   .11620070E+00   .10659440E+00
   .94182088E-01   .79814137E-01   .64290901E-01   .48344515E-01   .32624720E-01
   .17688681E-01   .39946741E-02  -.81006024E-02  -.18341365E-01  -.26569106E-01
  -.32716375E-01  -.36798431E-01  -.38903214E-01  -.39180110E-01  -.37827955E-01
  -.35082729E-01  -.31205340E-01  -.26469853E-01  -.21152514E-01  -.15521809E-01
  -.98297879E-02  -.43048102E-02   .85420039E-03   .54819336E-02   .94493208E-02
   .12664666E-01   .15073382E-01   .16656457E-01   .17427835E-01   .17430866E-01
   .16734056E-01   .15426301E-01   .13611820E-01   .11404986E-01   .89252349E-02
 Real Space Part
   .24761730E+02   .24750523E+02   .24716612E+02   .24659137E+02   .24576704E+02
   .24467436E+02   .24329054E+02   .24158964E+02   .23954363E+02   .23712360E+02
   .23430093E+02   .23104856E+02   .22734230E+02   .22316189E+02   .21849223E+02
   .21332422E+02   .20765566E+02   .20149179E+02   .19484574E+02   .18773870E+02
   .18019991E+02   .17226633E+02   .16398224E+02   .15539850E+02   .14657172E+02
   .13756320E+02   .12843782E+02   .11926280E+02   .11010639E+02   .10103654E+02
   .92119666E+01   .83419329E+01   .74995134E+01   .66901661E+01   .59187561E+01
   .51894820E+01   .45058179E+01   .38704758E+01   .32853851E+01   .27516918E+01
   .22697753E+01   .18392814E+01   .14591706E+01   .11277801E+01   .84289480E+00
   .60182861E+00   .40150976E+00   .23857003E+00   .10943432E+00   .10408235E-01
  -.62238261E-01  -.11219331E+00  -.14303320E+00  -.15816133E+00  -.16075705E+00
  -.15373488E+00  -.13971445E+00  -.12100079E+00  -.99574843E-01  -.77093284E-01
  -.54896769E-01  -.34025556E-01  -.15241209E-01   .94688215E-03   .14251518E-01
   .24575542E-01   .31978766E-01   .36645124E-01   .38851042E-01   .38935909E-01
   .37275306E-01   .34257541E-01   .30263788E-01   .25652042E-01   .20744864E-01
   .15820819E-01   .11109337E-01   .67886722E-02   .29865352E-02  -.21705590E-03
  -.27851951E-02  -.47182603E-02  -.60473051E-02  -.68271016E-02  -.71292140E-02
  -.70354293E-02  -.66317995E-02  -.60034893E-02  -.52305507E-02  -.43846872E-02
  -.35270097E-02  -.27067385E-02  -.19607659E-02  -.13139607E-02  -.78007962E-03
  -.36313550E-03  -.59074329E-04   .14238327E-03   .25586641E-03   .29855668E-03
 Reciprocal Space Part
   .20375078E+02   .20473499E+02   .20766749E+02   .21248830E+02   .21909878E+02
   .22736360E+02   .23711341E+02   .24814824E+02   .26024141E+02   .27314406E+02
   .28658997E+02   .30030081E+02   .31399150E+02   .32737578E+02   .34017160E+02
   .35210651E+02   .36292278E+02   .37238206E+02   .38026980E+02   .38639894E+02
   .39061320E+02   .39278955E+02   .39284008E+02   .39071318E+02   .38639389E+02
   .37990361E+02   .37129909E+02   .36067069E+02   .34814015E+02   .33385766E+02
   .31799852E+02   .30075942E+02   .28235435E+02   .26301028E+02   .24296279E+02
   .22245154E+02   .20171595E+02   .18099090E+02   .16050273E+02   .14046553E+02
   .12107781E+02   .10251957E+02   .84949935E+01   .68505182E+01   .53297382E+01
   .39413550E+01   .26915328E+01   .15839196E+01   .61971685E+00  -.20220526E+00
  -.88515145E+00  -.14344094E+01  -.18570277E+01  -.21615705E+01  -.23578553E+01
  -.24566792E+01  -.24695427E+01  -.24083750E+01  -.22852678E+01  -.21122232E+01
  -.19009199E+01  -.16625027E+01  -.14073979E+01  -.11451580E+01  -.88433642E+00
  -.63239475E+00  -.39564090E+00  -.17919888E+00   .12991902E-01   .17814953E+00
   .31459732E+00   .42168949E+00   .49971800E+00   .54980450E+00   .57378087E+00
   .57406246E+00   .55351767E+00   .51533759E+00   .46290897E+00   .39969375E+00
   .32911768E+00   .25447042E+00   .17881875E+00   .10493447E+00   .35237425E-01
  -.28245565E-01  -.83906382E-01  -.13056618E+00  -.16747192E+00  -.19428004E+00
  -.21102886E+00  -.21810152E+00  -.21618119E+00  -.20620072E+00  -.18928862E+00
  -.16671341E+00  -.13982811E+00  -.11001676E+00  -.78644321E-01  -.47011423E-01
 Real Space Part
   .22104696E+03   .22039328E+03   .21844135E+03   .21521832E+03   .21076884E+03
   .20515419E+03   .19845106E+03   .19075012E+03   .18215421E+03   .17277641E+03
   .16273792E+03   .15216582E+03   .14119072E+03   .12994447E+03   .11855785E+03
   .10715837E+03   .95868221E+02   .84802355E+02   .74066814E+02   .63757290E+02
   .53957955E+02   .44740565E+02   .36163860E+02   .28273258E+02   .21100827E+02
   .14665543E+02   .89737827E+01   .40200668E+01  -.21201234E+00  -.37486876E+01
  -.66247831E+01  -.88823848E+01  -.10569451E+02  -.11738401E+02  -.12444717E+02
  -.12745585E+02  -.12698618E+02  -.12360671E+02  -.11786778E+02  -.11029227E+02
  -.10136777E+02  -.91540399E+01  -.81210104E+01  -.70727531E+01  -.60392402E+01
  -.50453263E+01  -.41108505E+01  -.32508488E+01  -.24758619E+01  -.17923186E+01
  -.12029784E+01  -.70741255E+00  -.30250903E+00   .17018447E-01   .25812968E+00
   .42898018E+00   .53847675E+00   .59587561E+00   .61042939E+00   .59108752E+00
   .54625202E+00   .48358895E+00   .40989370E+00   .33100716E+00   .25177802E+00
   .17606598E+00   .10677961E+00   .45942463E-01  -.52193037E-02  -.46174135E-01
  -.76973368E-01  -.98136123E-01  -.11053576E+00  -.11529207E+00  -.11367249E+00
  -.10700491E+00  -.96603686E-01  -.83709757E-01  -.69445067E-01  -.54780805E-01
  -.40518544E-01  -.27282898E-01  -.15524063E-01  -.55283998E-02   .25648104E-02
   .87423351E-02   .13093435E-01   .15785392E-01   .17039509E-01   .17108707E-01
   .16257600E-01   .14745652E-01   .12813749E-01   .10674326E-01   .85049403E-02
   .64450400E-02   .45955451E-02   .30207619E-02   .17521089E-02   .79311337E-03
 Non local Part
 1 1 2.25569453687051436
 0.274471180546746296
 Reciprocal Space Part
   .00000000E+00   .47358978E+00   .94094922E+00   .13959524E+01   .18326805E+01
   .22455197E+01   .26292543E+01   .29791511E+01   .32910346E+01   .35613524E+01
   .37872271E+01   .39664970E+01   .40977420E+01   .41802963E+01   .42142471E+01
   .42004194E+01   .41403475E+01   .40362344E+01   .38908992E+01   .37077146E+01
   .34905355E+01   .32436204E+01   .29715471E+01   .26791247E+01   .23713038E+01
   .20530865E+01   .17294379E+01   .14052015E+01   .10850190E+01   .77325713E+00
   .47394160E+00   .19070040E+00  -.73283490E-01  -.31530910E+00  -.53318364E+00
  -.72523795E+00  -.89033107E+00  -.10278445E+01  -.11376662E+01  -.12201662E+01
  -.12761625E+01  -.13068815E+01  -.13139106E+01  -.12991471E+01  -.12647433E+01
  -.12130491E+01  -.11465538E+01  -.10678288E+01  -.97947119E+00  -.88405051E+00
  -.78405930E+00  -.68186811E+00  -.57968604E+00  -.47952714E+00  -.38318327E+00
  -.29220352E+00  -.20788033E+00  -.13124223E+00  -.63052951E-01  -.38165227E-02
   .46212105E-01   .87011534E-01   .11877416E+00   .14188291E+00   .15688534E+00
   .16446573E+00   .16541620E+00   .16060740E+00   .15095977E+00   .13741574E+00
   .12091383E+00   .10236484E+00   .82630904E-01   .62507416E-01   .42708354E-01
   .23854953E-01   .64678502E-02  -.90373735E-02  -.22351400E-01  -.33269341E-01
  -.41686154E-01  -.47589657E-01  -.51051505E-01  -.52216570E-01  -.51291126E-01
  -.48530287E-01  -.44225111E-01  -.38689779E-01  -.32249207E-01  -.25227440E-01
  -.17937085E-01  -.10670049E-01  -.36897294E-02   .27752024E-02   .85353674E-02
   .13443584E-01   .17396153E-01   .20332605E-01   .22234051E-01   .23120279E-01
 Real Space Part
   .00000000E+00  -.25176648E+00  -.49574044E+00  -.72434102E+00  -.93040450E+00
  -.11073775E+01  -.12494924E+01  -.13519197E+01  -.14108937E+01  -.14238065E+01
  -.13892699E+01  -.13071416E+01  -.11785175E+01  -.10056885E+01  -.79206545E+00
  -.54207373E+00  -.26102160E+00   .45053546E-01   .36955614E+00   .70551519E+00
   .10457734E+01   .13831769E+01   .17107598E+01   .20219192E+01   .23105749E+01
   .25713096E+01   .27994874E+01   .29913463E+01   .31440637E+01   .32557938E+01
   .33256772E+01   .33538227E+01   .33412636E+01   .32898908E+01   .32023653E+01
   .30820141E+01   .29327126E+01   .27587582E+01   .25647394E+01   .23554036E+01
   .21355285E+01   .19097998E+01   .16826999E+01   .14584079E+01   .12407160E+01
   .10329611E+01   .83797484E+00   .65805067E+00   .49492907E+00   .34979916E+00
   .22331596E+00   .11563153E+00   .26437811E-01  -.44980782E-01  -.99687712E-01
  -.13902984E+00  -.16457064E+00  -.17802338E+00  -.18118636E+00  -.17588216E+00
  -.16390238E+00  -.14695924E+00  -.12664486E+00  -.10439886E+00  -.81484523E-01
  -.58973348E-01  -.37737755E-01  -.18451214E-01  -.15950305E-02   .12529210E-01
   .23782615E-01   .32168519E-01   .37809716E-01   .40924502E-01   .41802555E-01
   .40781576E-01   .38225475E-01   .34504751E-01   .29979532E-01   .24985598E-01
   .19823548E-01   .14751121E-01   .99785537E-02   .56667460E-02   .19279133E-02
  -.11716515E-02  -.36071385E-02  -.53895424E-02  -.65591850E-02  -.71788579E-02
  -.73269601E-02  -.70909609E-02  -.65614543E-02  -.58270072E-02  -.49699401E-02
  -.40631108E-02  -.31677147E-02  -.23320618E-02  -.15912461E-02  -.96758980E-03
 PAW radial sets
 339 0.974843199995423126
(5E20.12)                                
 augmentation charges (non sperical)
   .367530337710E-02  -.592143745695E-02  -.345236382944E-01  -.592143745695E-02   .186492245632E-02
   .765120590333E-02  -.345236382944E-01   .765120590333E-02   .250261613212E-01
 uccopancies in atom
   .100000000040E+01   .000000000000E+00   .000000000000E+00   .000000000000E+00   .000000000000E+00
   .000000000000E+00   .000000000000E+00   .000000000000E+00   .000000000000E+00
 grid
   .222431015208E-04   .229663916925E-04   .237132014562E-04   .244842956104E-04   .252804638228E-04
   .261025214392E-04   .269513103186E-04   .278276996949E-04   .287325870673E-04   .296668991197E-04
   .306315926692E-04   .316276556464E-04   .326561081066E-04   .337180032752E-04   .348144286256E-04
   .359465069931E-04   .371153977250E-04   .383222978674E-04   .395684433916E-04   .408551104595E-04
   .421836167306E-04   .435553227115E-04   .449716331488E-04   .464339984683E-04   .479439162598E-04
   .495029328111E-04   .511126446914E-04   .527747003864E-04   .544908019861E-04   .562627069288E-04
   .580922297998E-04   .599812441906E-04   .619316846167E-04   .639455484998E-04   .660248982124E-04
   .681718631903E-04   .703886421132E-04   .726775051566E-04   .750407963161E-04   .774809358084E-04
   .800004225496E-04   .826018367142E-04   .852878423778E-04   .880611902448E-04   .909247204657E-04
   .938813655458E-04   .969341533480E-04   .100086210194E-03   .103340764065E-03   .106701147908E-03
   .110170803052E-03   .113753282724E-03   .117452255699E-03   .121271510047E-03   .125214957018E-03
   .129286635047E-03   .133490713888E-03   .137831498885E-03   .142313435381E-03   .146941113271E-03
   .151719271702E-03   .156652803924E-03   .161746762307E-03   .167006363508E-03   .172436993819E-03
   .178044214681E-03   .183833768376E-03   .189811583915E-03   .195983783102E-03   .202356686808E-03
   .208936821445E-03   .215730925645E-03   .222745957164E-03   .229989100008E-03   .237467771787E-03
   .245189631316E-03   .253162586453E-03   .261394802201E-03   .269894709069E-03   .278671011703E-03
   .287732697804E-03   .297089047331E-03   .306749642004E-03   .316724375115E-03   .327023461663E-03
   .337657448813E-03   .348637226696E-03   .359974039565E-03   .371679497306E-03   .383765587331E-03
   .396244686853E-03   .409129575560E-03   .422433448704E-03   .436169930613E-03   .450353088646E-03
   .464997447595E-03   .480118004564E-03   .495730244325E-03   .511850155174E-03   .528494245311E-03
   .545679559736E-03   .563423697715E-03   .581744830794E-03   .600661721416E-03   .620193742129E-03
   .640360895429E-03   .661183834243E-03   .682683883080E-03   .704883059870E-03   .727804098509E-03
   .751470472143E-03   .775906417208E-03   .801136958246E-03   .827187933536E-03   .854086021553E-03
   .881858768290E-03   .910534615466E-03   .940142929655E-03   .970714032357E-03   .100227923105E-02
   .103487085127E-02   .106852226966E-02   .110326794824E-02   .113914346960E-02   .117618557341E-02
   .121443219403E-02   .125392249935E-02   .129469693087E-02   .133679724519E-02   .138026655670E-02
   .142514938178E-02   .147149168436E-02   .151934092302E-02   .156874609954E-02   .161975780916E-02
   .167242829231E-02   .172681148818E-02   .178296308990E-02   .184094060164E-02   .190080339742E-02
   .196261278198E-02   .202643205353E-02   .209232656858E-02   .216036380887E-02   .223061345049E-02
   .230314743520E-02   .237804004414E-02   .245536797389E-02   .253521041501E-02   .261764913313E-02
   .270276855270E-02   .279065584345E-02   .288140100965E-02   .297509698227E-02   .307183971417E-02
   .317172827837E-02   .327486496949E-02   .338135540851E-02   .349130865094E-02   .360483729852E-02
   .372205761450E-02   .384308964273E-02   .396805733057E-02   .409708865587E-02   .423031575797E-02
   .436787507308E-02   .450990747394E-02   .465655841415E-02   .480797807708E-02   .496432152971E-02
   .512574888139E-02   .529242544783E-02   .546452192041E-02   .564221454095E-02   .582568528221E-02
   .601512203428E-02   .621071879694E-02   .641267587837E-02   .662120010027E-02   .683650500965E-02
   .705881109757E-02   .728834602489E-02   .752534485542E-02   .777005029668E-02   .802271294842E-02
   .828359155928E-02   .855295329176E-02   .883107399579E-02   .911823849130E-02   .941474085982E-02
   .972088474567E-02   .100369836670E-01   .103633613366E-01   .107003519938E-01   .110483007466E-01
   .114075639247E-01   .117785094451E-01   .121615171885E-01   .125569793882E-01   .129653010321E-01
   .133869002772E-01   .138222088780E-01   .142716726285E-01   .147357518189E-01   .152149217068E-01
   .157096730041E-01   .162205123794E-01   .167479629768E-01   .172925649517E-01   .178548760243E-01
   .184354720501E-01   .190349476103E-01   .196539166202E-01   .202930129581E-01   .209528911147E-01
   .216342268627E-01   .223377179494E-01   .230640848114E-01   .238140713116E-01   .245884455018E-01
   .253880004088E-01   .262135548468E-01   .270659542556E-01   .279460715667E-01   .288548080971E-01
   .297930944725E-01   .307618915801E-01   .317621915527E-01   .327950187850E-01   .338614309824E-01
   .349625202440E-01   .360994141815E-01   .372732770736E-01   .384853110586E-01   .397367573651E-01
   .410288975836E-01   .423630549784E-01   .437405958434E-01   .451629309008E-01   .466315167460E-01
   .481478573391E-01   .497135055456E-01   .513300647259E-01   .529991903779E-01   .547225918322E-01
   .565020340024E-01   .583393391928E-01   .602363889645E-01   .621951260623E-01   .642175564039E-01
   .663057511350E-01   .684618487493E-01   .706880572792E-01   .729866565568E-01   .753600005486E-01
   .778105197662E-01   .803407237555E-01   .829532036664E-01   .856506349067E-01   .884357798817E-01
   .913114908232E-01   .942807127104E-01   .973464862861E-01   .100511951170E+00   .103780349076E+00
   .107155027127E+00   .110639441291E+00   .114237159910E+00   .117951867363E+00   .121787367836E+00
   .125747589215E+00   .129836587115E+00   .134058549025E+00   .138417798604E+00   .142918800105E+00
   .147566162945E+00   .152364646432E+00   .157319164630E+00   .162434791401E+00   .167716765592E+00
   .173170496407E+00   .178801568943E+00   .184615749909E+00   .190618993536E+00   .196817447670E+00
   .203217460069E+00   .209825584904E+00   .216648589475E+00   .223693461132E+00   .230967414441E+00
   .238477898566E+00   .246232604898E+00   .254239474934E+00   .262506708409E+00   .271042771692E+00
   .279856406458E+00   .288956638640E+00   .298352787670E+00   .308054476026E+00   .318071639084E+00
   .328414535295E+00   .339093756689E+00   .350120239721E+00   .361505276474E+00   .373260526219E+00
   .385398027361E+00   .397930209760E+00   .410869907467E+00   .424230371863E+00   .438025285231E+00
   .452268774767E+00   .466975427050E+00   .482160302976E+00   .497838953186E+00   .514027433987E+00
   .530742323799E+00   .548000740129E+00   .565820357103E+00   .584219423567E+00   .603216781772E+00
   .622831886674E+00   .643084825853E+00   .663996340089E+00   .685587844601E+00   .707881450975E+00
   .730899989812E+00   .754667034108E+00   .779206923393E+00   .804544788659E+00   .830706578092E+00
   .857719083652E+00   .885609968505E+00   .914407795354E+00   .944142055691E+00   .974843199995E+00
   .100654266892E+01   .103927292550E+01   .107306748837E+01   .110796096611E+01
 aepotential
   .398478649727E+05   .380906134440E+05   .363959337370E+05   .347641869041E+05   .331953075608E+05
   .316888892537E+05   .302442247708E+05   .288603407968E+05   .275360456194E+05   .262699529082E+05
   .250605210043E+05   .239060927508E+05   .228048976733E+05   .217551135314E+05   .207548601474E+05
   .198022154018E+05   .188952853861E+05   .180321398229E+05   .172108955844E+05   .164296480091E+05
   .156866873792E+05   .149800179024E+05   .143081531885E+05   .136691968359E+05   .130617087413E+05
   .124839824318E+05   .119346410758E+05   .114121651920E+05   .109152310649E+05   .104425237927E+05
   .999275132679E+04   .956480645979E+04   .915746090909E+04   .876974934339E+04   .840053479157E+04
   .804896741619E+04   .771403713201E+04   .739494135011E+04   .709079811125E+04   .680090787948E+04
   .652445033587E+04   .626078856122E+04   .600924727540E+04   .576919537132E+04   .554006187172E+04
   .532127306218E+04   .511232090614E+04   .491269491459E+04   .472193623230E+04   .453959532416E+04
   .436525568407E+04   .419852149965E+04   .403901286119E+04   .388638571508E+04   .374029330610E+04
   .360042874770E+04   .346648496045E+04   .333817762349E+04   .321525261137E+04   .309743465028E+04
   .298448724295E+04   .287621049494E+04   .277233873755E+04   .267271420564E+04   .257711143924E+04
   .248535984789E+04   .239728404963E+04   .231271395939E+04   .223149704366E+04   .215348104155E+04
   .207852553654E+04   .200649350183E+04   .193726170769E+04   .187070231023E+04   .180670582228E+04
   .174515567642E+04   .168595431787E+04   .162899699483E+04   .157419000298E+04   .152144508233E+04
   .147067339047E+04   .142179399672E+04   .137473019171E+04   .132940509839E+04   .128575003047E+04
   .124369488155E+04   .120317728429E+04   .116413359339E+04   .112650621571E+04   .109023799546E+04
   .105527566242E+04   .102156754376E+04   .989064728797E+03   .957719860063E+03   .927488722560E+03
   .898327652519E+03   .870195844444E+03   .843053436580E+03   .816863759491E+03   .791589971016E+03
   .767197349333E+03   .743653548209E+03   .720925869920E+03   .698984558322E+03   .677800284813E+03
   .657344924506E+03   .637591696212E+03   .618514944964E+03   .600089765304E+03   .582292557317E+03
   .565100555211E+03   .548491771889E+03   .532445371160E+03   .516940933663E+03   .501959244016E+03
   .487481605933E+03   .473490049290E+03   .459967421062E+03   .446897071350E+03   .434263168339E+03
   .422050251845E+03   .410243677394E+03   .398829183761E+03   .387793172655E+03   .377122407466E+03
   .366804293650E+03   .356826623558E+03   .347177607740E+03   .337846062499E+03   .328820877406E+03
   .320091735108E+03   .311648475759E+03   .303481272472E+03   .295580815614E+03   .287937987998E+03
   .280544057667E+03   .273390621075E+03   .266469502323E+03   .259772918880E+03   .253293269417E+03
   .247023265366E+03   .240955859369E+03   .235084279899E+03   .229401941973E+03   .223902513958E+03
   .218579910252E+03   .213428210355E+03   .208441713597E+03   .203614935373E+03   .198942545797E+03
   .194419419995E+03   .190040598011E+03   .185801294292E+03   .181696871783E+03   .177722866574E+03
   .173874958455E+03   .170148964319E+03   .166540853056E+03   .163046719384E+03   .159662794378E+03
   .156385427183E+03   .153211094323E+03   .150136383520E+03   .147157998075E+03   .144272748703E+03
   .141477542415E+03   .138769412726E+03   .136145449419E+03   .133602874082E+03   .131138973425E+03
   .128751136390E+03   .126436829885E+03   .124193598619E+03   .122019072280E+03   .119910952716E+03
   .117867013796E+03   .115885104051E+03   .113963128392E+03   .112099079339E+03   .110290984505E+03
   .108536956574E+03   .106835152975E+03   .105183792115E+03   .103581149700E+03   .102025548964E+03
   .100515369184E+03   .990490362901E+02   .976250224298E+02   .962418510241E+02   .948980818650E+02
   .935923247136E+02   .923232256391E+02   .910894731967E+02   .898897922097E+02   .887229465282E+02
   .875877336537E+02   .864829871056E+02   .854075723598E+02   .843603878965E+02   .833403619082E+02
   .823464534825E+02   .813776497125E+02   .804329647616E+02   .795114422802E+02   .786121466007E+02
   .777341718825E+02   .768766337643E+02   .760386705321E+02   .752194438574E+02   .744181363528E+02
   .736339513041E+02   .728661115697E+02   .721138599925E+02   .713764574267E+02   .706531823095E+02
   .699433309248E+02   .692462160873E+02   .685611660778E+02   .678875259816E+02   .672246540991E+02
   .665719250435E+02   .659287261461E+02   .652944591881E+02   .646685383501E+02   .640503914130E+02
   .634394578150E+02   .628351895751E+02   .622370501285E+02   .616445145918E+02   .610570689727E+02
   .604742104378E+02   .598954466921E+02   .593202960353E+02   .587482870096E+02   .581789583563E+02
   .576118589117E+02   .570465474031E+02   .564825924295E+02   .559195725292E+02   .553570758960E+02
   .547947006833E+02   .542320547635E+02   .536687560155E+02   .531044321942E+02   .525387211962E+02
   .519712710628E+02   .514017403392E+02   .508297977818E+02   .502551232242E+02   .496774072598E+02
   .490963516174E+02   .485116696019E+02   .479230861668E+02   .473303381993E+02   .467331750667E+02
   .461313586475E+02   .455246639075E+02   .449128790536E+02   .442958060584E+02   .436732609414E+02
   .430450740842E+02   .424110907634E+02   .417711712894E+02   .411251916107E+02   .404730434657E+02
   .398146348479E+02   .391498902661E+02   .384787511321E+02   .378011759269E+02   .371171406038E+02
   .364266387561E+02   .357296818110E+02   .350262992721E+02   .343165387947E+02   .336004664070E+02
   .328781664452E+02   .321497417613E+02   .314153136478E+02   .306750218762E+02   .299290247072E+02
   .291774988792E+02   .284206395855E+02   .276586606095E+02   .268917943332E+02   .261202920610E+02
   .253444243134E+02   .245644814398E+02   .237807744531E+02   .229936362347E+02   .222034232353E+02
   .214105177251E+02   .206153308245E+02   .198183064535E+02   .190199263618E+02   .182207165234E+02
   .174212550525E+02   .166221818728E+02   .158242103040E+02   .150281406500E+02   .142348757131E+02
   .134454379835E+02   .126609878946E+02   .118828421522E+02   .111124906179E+02   .103516096308E+02
   .960206889379E+01   .886592987568E+01   .814542751119E+01   .744294035189E+01   .676093626378E+01
   .610189833823E+01   .546822920076E+01   .486213758788E+01   .428551456905E+01   .373981100931E+01
   .322593187720E+01   .274416594485E+01   .229417020584E+01   .187502563642E+01   .148537320654E+01
   .112362436528E+01   .788215571484E+00   .477836036972E+00   .191489895736E+00  -.718631958773E-01
  -.314540011307E+00  -.542958710986E+00  -.772935207685E+00  -.103761875665E+01  -.139475976401E+01
  -.192110808639E+01  -.266883750826E+01  -.356242906850E+01  -.429814249230E+01  -.449511847528E+01
  -.414768690332E+01  -.363939092068E+01  -.324893142519E+01  -.301266282150E+01
 core charge-density
   .163894277759E-06   .174722190913E-06   .186265415271E-06   .198571200594E-06   .211689917216E-06
   .225675262092E-06   .240584478440E-06   .256478589882E-06   .273422650040E-06   .291486008599E-06
   .310742594935E-06   .331271220452E-06   .353155900877E-06   .376486199814E-06   .401357594975E-06
   .427871868565E-06   .456137523429E-06   .486270226652E-06   .518393282423E-06   .552638136088E-06
   .589144911455E-06   .628062983538E-06   .669551589078E-06   .713780477319E-06   .760930603712E-06
   .811194869355E-06   .864778909194E-06   .921901932191E-06   .982797616880E-06   .104771506597E-05
   .111691982387E-05   .119069496125E-05   .126934223119E-05   .135318330135E-05   .144256106751E-05
   .153784105354E-05   .163941290370E-05   .174769197314E-05   .186312102329E-05   .198617202884E-05
   .211734810373E-05   .225718555404E-05   .240625606598E-05   .256516903792E-05   .273457406606E-05
   .291516359351E-05   .310767573393E-05   .331289728081E-05   .353166691488E-05   .376487862239E-05
   .401348533837E-05   .427850282939E-05   .456101383175E-05   .486217246163E-05   .518320891521E-05
   .552543447775E-05   .589024686173E-05   .627913589581E-05   .669368958748E-05   .713560058384E-05
   .760667305669E-05   .810883003963E-05   .864412124661E-05   .921473140387E-05   .982298912810E-05
   .104713763874E-04   .111625385821E-04   .118992952873E-04   .126846516985E-04   .135218108281E-04
   .144141865006E-04   .153654171985E-04   .163793808150E-04   .174602103726E-04   .186123107696E-04
   .198403766220E-04   .211494112730E-04   .225447470433E-04   .240320668064E-04   .256174269721E-04
   .273072819709E-04   .291085103360E-04   .310284424883E-04   .330748903313E-04   .352561787769E-04
   .375811793242E-04   .400593458256E-04   .427007525811E-04   .455161349105E-04   .485169323646E-04
   .517153347447E-04   .551243311107E-04   .587577619722E-04   .626303748645E-04   .667578835295E-04
   .711570309306E-04   .758456563496E-04   .808427668249E-04   .861686132105E-04   .918447711501E-04
   .978942272801E-04   .104341470996E-03   .111212592133E-03   .118535384944E-03   .126339458768E-03
   .134656355812E-03   .143519676510E-03   .152965212920E-03   .163031090680E-03   .173757920059E-03
   .185188956676E-03   .197370272486E-03   .210350937696E-03   .224183214274E-03   .238922761794E-03
   .254628856369E-03   .271364623508E-03   .289197285737E-03   .308198425924E-03   .328444267255E-03
   .350015970915E-03   .372999952536E-03   .397488218585E-03   .423578723903E-03   .451375751690E-03
   .480990317300E-03   .512540597289E-03   .546152385255E-03   .581959576073E-03   .620104680235E-03
   .660739370106E-03   .704025059989E-03   .750133522020E-03   .799247540004E-03   .851561603434E-03
   .907282644060E-03   .966630817472E-03   .102984033234E-02   .109716033007E-02   .116885581773E-02
   .124520865735E-02   .132651861483E-02   .141310447171E-02   .150530520347E-02   .160348122801E-02
   .170801572816E-02   .181931605246E-02   .193781519825E-02   .206397338176E-02   .219827969969E-02
   .234125388734E-02   .249344817816E-02   .265544927023E-02   .282788040507E-02   .301140356455E-02
   .320672179187E-02   .341458164282E-02   .363577577362E-02   .387114567213E-02   .412158453911E-02
   .438804032667E-02   .467151894112E-02   .497308761765E-02   .529387847450E-02   .563509225430E-02
   .599800226063E-02   .638395849769E-02   .679439202130E-02   .723081950945E-02   .769484806043E-02
   .818818022702E-02   .871261929454E-02   .927007481105E-02   .986256837734E-02   .104922397044E-01
   .111613529453E-01   .118723033090E-01   .126276239615E-01   .134299932202E-01   .142822420474E-01
   .151873618449E-01   .161485125548E-01   .171690310670E-01   .182524399336E-01   .194024563901E-01
   .206230016786E-01   .219182106702E-01   .232924417766E-01   .247502871425E-01   .262965831056E-01
   .279364209072E-01   .296751576348E-01   .315184273712E-01   .334721525236E-01   .355425552985E-01
   .377361692833E-01   .400598510922E-01   .425207920240E-01   .451265296736E-01   .478849594346E-01
   .508043458156E-01   .538933334911E-01   .571609579932E-01   .606166559418E-01   .642702747012E-01
   .681320813359E-01   .722127707301E-01   .765234727181E-01   .810757580615E-01   .858816430923E-01
   .909535928265E-01   .963045223367E-01   .101947796154E+00   .107897225450E+00   .114167062743E+00
   .120771993831E+00   .127727126658E+00   .135047976796E+00   .142750449192E+00   .150850815823E+00
   .159365688891E+00   .168311989152E+00   .177706908966E+00   .187567869656E+00   .197912472717E+00
   .208758444438E+00   .220123573471E+00   .232025640889E+00   .244482342257E+00   .257511201276E+00
   .271129474525E+00   .285354046887E+00   .300201317236E+00   .315687074003E+00   .331826360284E+00
   .348633328195E+00   .366121082244E+00   .384301511555E+00   .403185110875E+00   .422780790390E+00
   .443095674473E+00   .464134889649E+00   .485901342180E+00   .508395485844E+00   .531615080664E+00
   .555554943543E+00   .580206691963E+00   .605558482159E+00   .631594743411E+00   .658295910364E+00
   .685638155582E+00   .713593124801E+00   .742127677676E+00   .771203637116E+00   .800777550583E+00
   .830800467081E+00   .861217733820E+00   .891968816843E+00   .922987150160E+00   .954200018174E+00
   .985528476367E+00   .101688731539E+01   .104818507374E+01   .107932410440E+01   .111020070042E+01
   .114070528485E+01   .117072266958E+01   .120013238783E+01   .122880910431E+01   .125662310652E+01
   .128344088026E+01   .130912577105E+01   .133353873287E+01   .135653916394E+01   .137798582853E+01
   .139773786203E+01   .141565585539E+01   .143160301332E+01   .144544637889E+01   .145705811585E+01
   .146631683760E+01   .147310897080E+01   .147733013906E+01   .147888655108E+01   .147769637578E+01
   .147369108549E+01   .146681674716E+01   .145703524044E+01   .144432538071E+01   .142868392473E+01
   .141012643649E+01   .138868799112E+01   .136442369540E+01   .133740900468E+01   .130773981746E+01
   .127553233133E+01   .124092264617E+01   .120406610407E+01   .116513635871E+01   .112432417126E+01
   .108183593434E+01   .103789193079E+01   .992724339102E+00   .946575003667E+00   .899692993750E+00
   .852331981696E+00   .804747484775E+00   .757193979095E+00   .709921996606E+00   .663175212418E+00
   .617187591048E+00   .572180660323E+00   .528360972610E+00   .485917814054E+00   .445021217637E+00
   .405820327813E+00   .368442153496E+00   .332990732707E+00   .299546717258E+00   .268167370772E+00
   .238886959671E+00   .211717506100E+00   .186649865497E+00   .163655090681E+00   .142686049386E+00
   .123679273447E+00   .106557034487E+00   .912296600377E-01   .775981132590E-01   .655568253069E-01
   .549966245656E-01   .458072780313E-01   .378787142664E-01   .310999620080E-01   .253564175923E-01
   .205293748939E-01   .165012991724E-01   .131628830046E-01   .104161275710E-01
 kinetic energy-density
   .180546526687E-03   .184493244337E-03   .188607971661E-03   .192899582321E-03   .197377420552E-03
   .202051326265E-03   .206931686900E-03   .212029428338E-03   .217356088161E-03   .222923831733E-03
   .228745472781E-03   .234834574958E-03   .241205390396E-03   .247873028987E-03   .254853429298E-03
   .262163393781E-03   .269820724094E-03   .277844226348E-03   .286253769271E-03   .295070351694E-03
   .304316254109E-03   .314015018261E-03   .324191550651E-03   .334872111185E-03   .346084815779E-03
   .357859051446E-03   .370226326105E-03   .383219646806E-03   .396874352247E-03   .411227653815E-03
   .426319172361E-03   .442190666059E-03   .458886698943E-03   .476454508253E-03   .494943810399E-03
   .514407987337E-03   .534903185342E-03   .556489210550E-03   .579229365234E-03   .603191218779E-03
   .628445969258E-03   .655069714623E-03   .683142885463E-03   .712751141961E-03   .743985396976E-03
   .776942123932E-03   .811723946500E-03   .848439790982E-03   .887205478699E-03   .928144000686E-03
   .971386106752E-03   .101707080838E-02   .106534566356E-02   .111636782198E-02   .117030406832E-02
   .122733180035E-02   .128763983829E-02   .135142843637E-02   .141891118276E-02   .149031475751E-02
   .156588015440E-02   .164586431892E-02   .173053969502E-02   .182019668819E-02   .191514419301E-02
   .201570999312E-02   .212224424123E-02   .223511788549E-02   .235472685860E-02   .248149170318E-02
   .261586007989E-02   .275830846106E-02   .290934363795E-02   .306950517012E-02   .323936700616E-02
   .341954011249E-02   .361067466527E-02   .381346279299E-02   .402864077810E-02   .425699288808E-02
   .449935326823E-02   .475661023017E-02   .502970917286E-02   .531965635568E-02   .562752329132E-02
   .595445014931E-02   .630165105132E-02   .667041833327E-02   .706212782345E-02   .747824418543E-02
   .792032675502E-02   .839003555699E-02   .888913812770E-02   .941951553169E-02   .998317168816E-02
   .105822389682E-01   .112189878932E-01   .118958362054E-01   .126153574030E-01   .133802920293E-01
   .141935572214E-01   .150582593494E-01   .159777049284E-01   .169554152432E-01   .179951382293E-01
   .191008647089E-01   .202768434235E-01   .215275975846E-01   .228579424702E-01   .242730048010E-01
   .257782423221E-01   .273794650164E-01   .290828579418E-01   .308950058709E-01   .328229172636E-01
   .348740538575E-01   .370563572890E-01   .393782818878E-01   .418488258238E-01   .444775672972E-01
   .472747001618E-01   .502510747145E-01   .534182382597E-01   .567884801028E-01   .603748790900E-01
   .641913525310E-01   .682527112652E-01   .725747143412E-01   .771741305684E-01   .820688020214E-01
   .872777105033E-01   .928210513184E-01   .987203091276E-01   .104998337855E+00   .111679447892E+00
   .118789497073E+00   .126355987174E+00   .134408166060E+00   .142977139446E+00   .152095980297E+00
   .161799859270E+00   .172126166154E+00   .183114654581E+00   .194807581104E+00   .207249865221E+00
   .220489248017E+00   .234576467503E+00   .249565441913E+00   .265513460167E+00   .282481391409E+00
   .300533896879E+00   .319739661872E+00   .340171637478E+00   .361907293900E+00   .385028893690E+00
   .409623775161E+00   .435784652876E+00   .463609936601E+00   .493204065319E+00   .524677860266E+00
   .558148897308E+00   .593741898275E+00   .631589144397E+00   .671830909010E+00   .714615916440E+00
   .760101817410E+00   .808455699434E+00   .859854612225E+00   .914486121261E+00   .972548895032E+00
   .103425331264E+01   .109982210336E+01   .116949101195E+01   .124350950361E+01   .132214149102E+01
   .140566609091E+01   .149437842905E+01   .158859045686E+01   .168863181733E+01   .179485073953E+01
   .190761496038E+01   .202731269670E+01   .215435362693E+01   .228916993321E+01   .243221735300E+01
   .258397627423E+01   .274495286033E+01   .291568020256E+01   .309671949297E+01   .328866123830E+01
   .349212647723E+01   .370776802831E+01   .393627174736E+01   .417835780132E+01   .443478193208E+01
   .470633674226E+01   .499385294891E+01   .529820064283E+01   .562029050609E+01   .596107501104E+01
   .632154956430E+01   .670275359764E+01   .710577159201E+01   .753173401121E+01   .798181814480E+01
   .845724881045E+01   .895929896122E+01   .948929007625E+01   .100485924189E+02   .106386250745E+02
   .112608557215E+02   .119168002075E+02   .126080217474E+02   .133361298803E+02   .141027789925E+02
   .149096664745E+02   .157585304507E+02   .166511469704E+02   .175893267659E+02   .185749113077E+02
   .196097683927E+02   .206957869085E+02   .218348710083E+02   .230289334029E+02   .242798879194E+02
   .255896411075E+02   .269600829533E+02   .283930766024E+02   .298904470502E+02   .314539687281E+02
   .330853520204E+02   .347862285342E+02   .365581352678E+02   .384024974680E+02   .403206102923E+02
   .423136192222E+02   .443824991918E+02   .465280325244E+02   .487507856478E+02   .510510846722E+02
   .534289898624E+02   .558842691654E+02   .584163708058E+02   .610243951807E+02   .637070661834E+02
   .664627021119E+02   .692891865002E+02   .721839390173E+02   .751438867040E+02   .781654362206E+02
   .812444467826E+02   .843762049871E+02   .875554014183E+02   .907761095460E+02   .940317678032E+02
   .973151648807E+02   .100618429079E+03   .103933022185E+03   .107249738520E+03   .110558709661E+03
   .113849415340E+03   .117110701410E+03   .120330804816E+03   .123497386814E+03   .126597574022E+03
   .129618008522E+03   .132544906545E+03   .135364126430E+03   .138061245677E+03   .140621647135E+03
   .143030614004E+03   .145273433472E+03   .147335508302E+03   .149202475718E+03   .150860332812E+03
   .152295567221E+03   .153495292077E+03   .154447383571E+03   .155140619805E+03   .155564819061E+03
   .155710975571E+03   .155571391239E+03   .155139800664E+03   .154411488028E+03   .153383393448E+03
   .152054206769E+03   .150424447079E+03   .148496525916E+03   .146274792619E+03   .143765560408E+03
   .140977111901E+03   .137919683292E+03   .134605426461E+03   .131048348806E+03   .127264230869E+03
   .123270522128E+03   .119086215732E+03   .114731703257E+03   .110228610813E+03   .105599618173E+03
   .100868262666E+03   .960587299095E+02   .911956333656E+02   .863037849038E+02   .814079584980E+02
   .765326503862E+02   .717018147640E+02   .669386925851E+02   .622654659721E+02   .577030909985E+02
   .532710537113E+02   .489871566104E+02   .448673236373E+02   .409254296440E+02   .371731608706E+02
   .336199130785E+02   .302727334383E+02   .271363109262E+02   .242130177610E+02   .215030014359E+02
   .190043233810E+02   .167131366294E+02   .146238914671E+02   .127295552861E+02   .110218309258E+02
   .949135674473E+01   .812787205719E+01   .692033610479E+01   .585700554401E+01   .492552040447E+01
   .411313530594E+01   .340732843818E+01   .279696051460E+01   .227359259842E+01   .183139577881E+01
   .146434266892E+01   .116363176118E+01   .918901031906E+00   .720600035550E+00
 pspotential
   .858992271499E+01   .859026350835E+01   .859059356949E+01   .859091323580E+01   .859122283476E+01
   .859152268337E+01   .859181308876E+01   .859209434830E+01   .859236674992E+01   .859263057267E+01
   .859288608672E+01   .859313355380E+01   .859337322729E+01   .859360535264E+01   .859383016762E+01
   .859404790242E+01   .859425877997E+01   .859446301631E+01   .859466082053E+01   .859485239521E+01
   .859503793649E+01   .859521763448E+01   .859539167320E+01   .859556023083E+01   .859572347999E+01
   .859588158787E+01   .859603471643E+01   .859618302244E+01   .859632665774E+01   .859646576951E+01
   .859660050017E+01   .859673098769E+01   .859685736576E+01   .859697976371E+01   .859709830694E+01
   .859721311686E+01   .859732431098E+01   .859743200326E+01   .859753630394E+01   .859763731981E+01
   .859773515437E+01   .859782990777E+01   .859792167710E+01   .859801055628E+01   .859809663636E+01
   .859818000546E+01   .859826074899E+01   .859833894965E+01   .859841468750E+01   .859848804012E+01
   .859855908261E+01   .859862788775E+01   .859869452596E+01   .859875906552E+01   .859882157251E+01
   .859888211093E+01   .859894074281E+01   .859899752818E+01   .859905252520E+01   .859910579016E+01
   .859915737764E+01   .859920734047E+01   .859925572980E+01   .859930259519E+01   .859934798464E+01
   .859939194464E+01   .859943452017E+01   .859947575490E+01   .859951569101E+01   .859955436939E+01
   .859959182966E+01   .859962811021E+01   .859966324819E+01   .859969727955E+01   .859973023917E+01
   .859976216079E+01   .859979307712E+01   .859982301978E+01   .859985201948E+01   .859988010590E+01
   .859990730781E+01   .859993365307E+01   .859995916864E+01   .859998388067E+01   .860000781447E+01
   .860003099453E+01   .860005344461E+01   .860007518771E+01   .860009624608E+01   .860011664131E+01
   .860013639423E+01   .860015552514E+01   .860017405360E+01   .860019199858E+01   .860020937847E+01
   .860022621107E+01   .860024251363E+01   .860025830282E+01   .860027359483E+01   .860028840534E+01
   .860030274950E+01   .860031664199E+01   .860033009706E+01   .860034312848E+01   .860035574962E+01
   .860036797338E+01   .860037981230E+01   .860039127851E+01   .860040238375E+01   .860041313939E+01
   .860042355646E+01   .860043364564E+01   .860044341725E+01   .860045288132E+01   .860046204754E+01
   .860047092531E+01   .860047952372E+01   .860048785158E+01   .860049591744E+01   .860050372956E+01
   .860051129595E+01   .860051862439E+01   .860052572237E+01   .860053259716E+01   .860053925585E+01
   .860054570526E+01   .860055195198E+01   .860055800245E+01   .860056386287E+01   .860056953928E+01
   .860057503747E+01   .860058036312E+01   .860058552172E+01   .860059051852E+01   .860059535871E+01
   .860060004725E+01   .860060458895E+01   .860060898854E+01   .860061325050E+01   .860061737925E+01
   .860062137905E+01   .860062525402E+01   .860062900817E+01   .860063264541E+01   .860063616948E+01
   .860063958403E+01   .860064289260E+01   .860064609865E+01   .860064920550E+01   .860065221639E+01
   .860065513446E+01   .860065796276E+01   .860066070426E+01   .860066336183E+01   .860066593826E+01
   .860066843627E+01   .860067085851E+01   .860067320752E+01   .860067548582E+01   .860067769584E+01
   .860067983991E+01   .860068192036E+01   .860068393943E+01   .860068589927E+01   .860068780202E+01
   .860068964979E+01   .860069144455E+01   .860069318830E+01   .860069488294E+01   .860069653036E+01
   .860069813239E+01   .860069969083E+01   .860070120741E+01   .860070268383E+01   .860070412177E+01
   .860070552285E+01   .860070688865E+01   .860070822073E+01   .860070952058E+01   .860071078967E+01
   .860071202940E+01   .860071324117E+01   .860071442630E+01   .860071558605E+01   .860071672165E+01
   .860071783426E+01   .860071892497E+01   .860071999480E+01   .860072104466E+01   .860072207540E+01
   .860072308774E+01   .860072408229E+01   .860072505951E+01   .860072601969E+01   .860072696296E+01
   .860072788922E+01   .860072879810E+01   .860072968900E+01   .860073056094E+01   .860073141264E+01
   .860073224231E+01   .860073304771E+01   .860073382604E+01   .860073457381E+01   .860073528680E+01
   .860073595995E+01   .860073658713E+01   .860073716119E+01   .860073767356E+01   .860073811427E+01
   .860073847156E+01   .860073873179E+01   .860073887898E+01   .860073889465E+01   .860073875735E+01
   .860073844228E+01   .860073792077E+01   .860073715978E+01   .860073612124E+01   .860073476136E+01
   .860073302981E+01   .860073086877E+01   .860072821193E+01   .860072498321E+01   .860072109552E+01
   .860071644910E+01   .860071092976E+01   .860070440692E+01   .860069673130E+01   .860068773229E+01
   .860067721503E+01   .860066495697E+01   .860065070412E+01   .860063416665E+01   .860061501391E+01
   .860059286881E+01   .860056730140E+01   .860053782161E+01   .860050387092E+01   .860046481296E+01
   .860041992281E+01   .860036837479E+01   .860030922867E+01   .860024141394E+01   .860016371190E+01
   .860007473546E+01   .859997290597E+01   .859985642709E+01   .859972325503E+01   .859957106474E+01
   .859939721149E+01   .859919868732E+01   .859897207149E+01   .859871347432E+01   .859841847329E+01
   .859808204067E+01   .859769846120E+01   .859726123882E+01   .859676299066E+01   .859619532688E+01
   .859554871432E+01   .859481232167E+01   .859397384405E+01   .859301930391E+01   .859193282528E+01
   .859069637792E+01   .858928948696E+01   .858768890416E+01   .858586823490E+01   .858379751589E+01
   .858144273631E+01   .857876529552E+01   .857572138861E+01   .857226131053E+01   .856832866784E+01
   .856385948603E+01   .855878119855E+01   .855301150193E+01   .854645705886E+01   .853901202947E+01
   .853055640697E+01   .852095413157E+01   .851005095208E+01   .849767200000E+01   .848361903572E+01
   .846766731944E+01   .844956205221E+01   .842901432219E+01   .840569648053E+01   .837923685673E+01
   .834921370670E+01   .831514826638E+01   .827649675923E+01   .823264117723E+01   .818287862275E+01
   .812640896361E+01   .806232051944E+01   .798957347303E+01   .790698069815E+01   .781318574306E+01
   .770663785142E+01   .758556421479E+01   .744794025610E+01   .729145982814E+01   .711350905216E+01
   .691115049082E+01   .668112889165E+01   .641991624864E+01   .612382246535E+01   .578920757338E+01
   .541283945045E+01   .499244128513E+01   .452745558137E+01   .402000327212E+01   .347592717750E+01
   .290568293962E+01   .232471254314E+01   .175287923698E+01   .121265262037E+01   .726068853441E+00
   .311004917424E+00  -.221986759020E-01  -.272552983512E+00  -.447872708711E+00  -.562219131797E+00
  -.633640199093E+00  -.687221393057E+00  -.769933069216E+00  -.964040969436E+00  -.127036060788E+01
  -.175911535838E+01  -.252892025480E+01  -.351639595012E+01  -.433602513953E+01  -.453707678942E+01
  -.417898648805E+01  -.365794135620E+01  -.324663198511E+01  -.301058707858E+01
 core charge-density (pseudized)
   .219911892471E-08   .234446396924E-08   .249941521637E-08   .266460756306E-08   .284071786814E-08
   .302846772565E-08   .322862642153E-08   .344201408566E-08   .366950505228E-08   .391203144246E-08
   .417058698338E-08   .444623108007E-08   .474009315614E-08   .505337728152E-08   .538736710601E-08
   .574343111891E-08   .612302825624E-08   .652771387860E-08   .695914614412E-08   .741909280253E-08
   .790943843841E-08   .843219219303E-08   .898949599662E-08   .958363334471E-08   .102170386545E-07
   .108923072397E-07   .116122059445E-07   .123796844803E-07   .131978875121E-07   .140701675435E-07
   .150000986528E-07   .159914911377E-07   .170484071279E-07   .181751772285E-07   .193764182650E-07
   .206570521998E-07   .220223262994E-07   .234778346350E-07   .250295410029E-07   .266838033613E-07
   .284473998809E-07   .303275567176E-07   .323319776216E-07   .344688755020E-07   .367470060786E-07
   .391757037577E-07   .417649198786E-07   .445252634884E-07   .474680448111E-07   .506053215904E-07
   .539499484949E-07   .575156297886E-07   .613169754828E-07   .653695611990E-07   .696899919884E-07
   .742959703692E-07   .792063688607E-07   .844413073116E-07   .900222353387E-07   .959720202143E-07
   .102315040563E-06   .109077286248E-06   .116286464866E-06   .123972115272E-06   .132165728612E-06
   .140900877358E-06   .150213352861E-06   .160141312007E-06   .170725433561E-06   .182009084837E-06
   .194038499399E-06   .206862966490E-06   .220535032993E-06   .235110718735E-06   .250649746020E-06
   .267215784334E-06   .284876711224E-06   .303704890414E-06   .323777468311E-06   .345176690098E-06
   .367990236726E-06   .392311584170E-06   .418240386440E-06   .445882883893E-06   .475352338543E-06
   .506769498132E-06   .540263090877E-06   .575970352914E-06   .614037590602E-06   .654620779992E-06
   .697886205907E-06   .744011143273E-06   .793184583472E-06   .845608008694E-06   .901496217482E-06
   .961078204825E-06   .102459810042E-05   .109231616895E-05   .116450987647E-05   .124147502722E-05
   .132352697571E-05   .141100191873E-05   .150425827285E-05   .160367814300E-05   .170966888799E-05
   .182266478956E-05   .194312883179E-05   .207155459795E-05   .220846829291E-05   .235443089903E-05
   .251004047462E-05   .267593460432E-05   .285279301132E-05   .304134034231E-05   .324234913644E-05
   .345664299048E-05   .368509993313E-05   .392865602238E-05   .418830918057E-05   .446512328286E-05
   .476023251590E-05   .507484602457E-05   .541025286572E-05   .576782728929E-05   .614903436845E-05
   .655543600170E-05   .698869731164E-05   .745059346657E-05   .794301695277E-05   .846798532739E-05
   .902764948358E-05   .962430246169E-05   .102603888428E-04   .109385147625E-04   .116614585870E-04
   .124321822939E-04   .132538436051E-04   .141298089214E-04   .150636671114E-04   .160592442117E-04
   .171206190975E-04   .182521401892E-04   .194584432619E-04   .207444704317E-04   .221154903956E-04
   .235771200088E-04   .251353472865E-04   .267965559251E-04   .285675514427E-04   .304555890457E-04
   .324684033353E-04   .346142399759E-04   .369018894538E-04   .393407230647E-04   .419407312774E-04
   .447125646287E-04   .476675773185E-04   .508178736811E-04   .541763577242E-04   .577567859355E-04
   .615738235736E-04   .656431046730E-04   .699812960057E-04   .746061652622E-04   .795366537279E-04
   .847929537513E-04   .903965913189E-04   .963705140723E-04   .102739185126E-03   .109528683066E-03
   .116766808535E-03   .124483197836E-03   .132709444018E-03   .141479225932E-03   .150828445772E-03
   .160795375680E-03   .171420813973E-03   .182748251658E-03   .194824049880E-03   .207697629031E-03
   .221421670283E-03   .236052330338E-03   .251649470278E-03   .268276899425E-03   .286002635172E-03
   .304899179851E-03   .325043815715E-03   .346518919231E-03   .369412295916E-03   .393817537053E-03
   .419834399698E-03   .447569211473E-03   .477135301745E-03   .508653460882E-03   .542252429379E-03
   .578069418778E-03   .616250666387E-03   .656952025966E-03   .700339596659E-03   .746590392580E-03
   .795893055627E-03   .848448614238E-03   .904471290967E-03   .964189361920E-03   .102784607128E-02
   .109570060433E-02   .116802912256E-02   .124512586469E-02   .132730431756E-02   .141489846122E-02
   .150826409260E-02   .160778023243E-02   .171385062045E-02   .182690530401E-02   .194740232553E-02
   .207582951451E-02   .221270639005E-02   .235858618013E-02   .251405796419E-02   .267974894559E-02
   .285632686126E-02   .304450253551E-02   .324503258582E-02   .345872228804E-02   .368642860920E-02
   .392906341594E-02   .418759686680E-02   .446306099677E-02   .475655350255E-02   .506924173674E-02
   .540236691949E-02   .575724857552E-02   .613528920435E-02   .653797919123E-02   .696690196543E-02
   .742373941204E-02   .791027754234E-02   .842841242662E-02   .898015639197E-02   .956764448554E-02
   .101931412019E-01   .108590474701E-01   .115679078942E-01   .123224182348E-01   .131254331184E-01
   .139799739538E-01   .148892370291E-01   .158566017592E-01   .168856390402E-01   .179801196656E-01
   .191440227421E-01   .203815440349E-01   .216971041596E-01   .230953565187E-01   .245811948685E-01
   .261597603777E-01   .278364480211E-01   .296169121235E-01   .315070708427E-01   .335131093489E-01
   .356414814216E-01   .378989091469E-01   .402923803541E-01   .428291433821E-01   .455166987128E-01
   .483627869516E-01   .513753725683E-01   .545626227454E-01   .579328806034E-01   .614946319915E-01
   .652564649490E-01   .692270208465E-01   .734149361249E-01   .778287734493E-01   .824769409951E-01
   .873675984831E-01   .925085484854E-01   .979071114314E-01   .103569982665E+00   .109503069844E+00
   .115711308924E+00   .122198456984E+00   .128966860154E+00   .136017195031E+00   .143348182104E+00
   .150956269963E+00   .158835289443E+00   .166976077302E+00   .175366069721E+00   .183988866725E+00
   .192823769685E+00   .201845295399E+00   .211022671853E+00   .220319322735E+00   .229692350128E+00
   .239092027560E+00   .248461318826E+00   .257735441691E+00   .266841499767E+00   .275698210501E+00
   .284215762273E+00   .292295838983E+00   .299831856030E+00   .306709457025E+00   .312807325621E+00
   .317998370920E+00   .322151347570E+00   .325132971925E+00   .326810592615E+00   .327055466258E+00
   .325746675421E+00   .322775704436E+00   .318051657523E+00   .311507060569E+00   .303104130800E+00
   .292841325348E+00   .280759888791E+00   .266950010175E+00   .251556072484E+00   .234780334409E+00
   .216884231220E+00   .198186328093E+00   .179055820349E+00   .159900372230E+00   .141147048781E+00
   .123215162799E+00   .106480078802E+00   .912274458344E-01   .775981132590E-01   .655568253069E-01
   .549966245656E-01   .458072780313E-01   .378787142664E-01   .310999620080E-01   .253564175923E-01
   .205293748939E-01   .165012991724E-01   .131628830046E-01   .104161275710E-01
 pseudo wavefunction
   .513302233514E-05   .529993541670E-05   .547227609533E-05   .565022086295E-05   .583395195057E-05
   .602365751487E-05   .621953183095E-05   .642177549123E-05   .663059561090E-05   .684620604003E-05
   .706882758254E-05   .729868822238E-05   .753602335694E-05   .778107603816E-05   .803409722141E-05
   .829534602252E-05   .856508998311E-05   .884360534461E-05   .913117733110E-05   .942810044148E-05
   .973467875098E-05   .100512262226E-04   .103780670287E-04   .107155358829E-04   .110639783828E-04
   .114237513640E-04   .117952232656E-04   .121787745073E-04   .125747978792E-04   .129836989440E-04
   .134058964521E-04   .138418227708E-04   .142919243269E-04   .147566620638E-04   .152365119137E-04
   .157319652849E-04   .162435295652E-04   .167717286413E-04   .173171034354E-04   .178802124592E-04
   .184616323857E-04   .190619586401E-04   .196818060092E-04   .203218092713E-04   .209826238459E-04
   .216649264653E-04   .223694158676E-04   .230968135118E-04   .238478643174E-04   .246233374265E-04
   .254240269921E-04   .262507529909E-04   .271043620634E-04   .279857283809E-04   .288957545403E-04
   .298353724891E-04   .308055444793E-04   .318072640532E-04   .328415570605E-04   .339094827092E-04
   .350121346502E-04   .361506420974E-04   .373261709840E-04   .385399251566E-04   .397931476080E-04
   .410871217504E-04   .424231727294E-04   .438026687814E-04   .452270226346E-04   .466976929559E-04
   .482161858447E-04   .497840563755E-04   .514029101901E-04   .530744051422E-04   .548002529955E-04
   .565822211763E-04   .584221345836E-04   .603218774585E-04   .622833953134E-04   .643086969246E-04
   .663998563899E-04   .685590152521E-04   .707883846930E-04   .730902477974E-04   .754669618915E-04
   .779209609574E-04   .804547581254E-04   .830709482484E-04   .857722105591E-04   .885613114140E-04
   .914411071271E-04   .944145468946E-04   .974846758160E-04   .100654638013E-03   .103927679848E-03
   .107307153253E-03   .110796519158E-03   .114399351039E-03   .118119338577E-03   .121960291437E-03
   .125926143172E-03   .130020955248E-03   .134248921209E-03   .138614370968E-03   .143121775245E-03
   .147775750146E-03   .152581061890E-03   .157542631696E-03   .162665540816E-03   .167955035749E-03
   .173416533609E-03   .179055627679E-03   .184878093137E-03   .190889892979E-03   .197097184119E-03
   .203506323707E-03   .210123875634E-03   .216956617264E-03   .224011546373E-03   .231295888324E-03
   .238817103467E-03   .246582894789E-03   .254601215802E-03   .262880278699E-03   .271428562769E-03
   .280254823089E-03   .289368099496E-03   .298777725855E-03   .308493339629E-03   .318524891755E-03
   .328882656852E-03   .339577243753E-03   .350619606386E-03   .362021055004E-03   .373793267791E-03
   .385948302836E-03   .398498610505E-03   .411457046214E-03   .424836883622E-03   .438651828249E-03
   .452916031546E-03   .467644105423E-03   .482851137245E-03   .498552705333E-03   .514764894955E-03
   .531504314856E-03   .548788114319E-03   .566634000791E-03   .585060258081E-03   .604085765162E-03
   .623730015587E-03   .644013137537E-03   .664955914540E-03   .686579806860E-03   .708906973596E-03
   .731960295505E-03   .755763398584E-03   .780340678419E-03   .805717325350E-03   .831919350461E-03
   .858973612431E-03   .886907845273E-03   .915750686997E-03   .945531709225E-03   .976281447784E-03
   .100803143433E-02   .104081422900E-02   .107466345421E-02   .110961382952E-02   .114570120770E-02
   .118296261201E-02   .122143627474E-02   .126116167701E-02   .130217958997E-02   .134453211739E-02
   .138826273962E-02   .143341635919E-02   .148003934780E-02   .152817959510E-02   .157788655898E-02
   .162921131773E-02   .168220662393E-02   .173692696025E-02   .179342859716E-02   .185176965274E-02
   .191201015453E-02   .197421210357E-02   .203843954081E-02   .210475861578E-02   .217323765780E-02
   .224394724978E-02   .231696030468E-02   .239235214477E-02   .247020058389E-02   .255058601267E-02
   .263359148701E-02   .271930281996E-02   .280780867696E-02   .289920067492E-02   .299357348498E-02
   .309102493948E-02   .319165614301E-02   .329557158800E-02   .340287927497E-02   .351369083769E-02
   .362812167355E-02   .374629107939E-02   .386832239306E-02   .399434314113E-02   .412448519301E-02
   .425888492187E-02   .439768337281E-02   .454102643862E-02   .468906504373E-02   .484195533672E-02
   .499985889199E-02   .516294292126E-02   .533138049533E-02   .550535077704E-02   .568503926599E-02
   .587063805591E-02   .606234610553E-02   .626036952393E-02   .646492187137E-02   .667622447679E-02
   .689450677308E-02   .712000665158E-02   .735297083720E-02   .759365528568E-02   .784232560485E-02
   .809925750159E-02   .836473725661E-02   .863906222931E-02   .892254139506E-02   .921549591754E-02
   .951825975910E-02   .983118033218E-02   .101546191953E-01   .104889527973E-01   .108345732740E-01
   .111918893014E-01   .115613270111E-01   .119433309720E-01   .123383652454E-01   .127469145187E-01
   .131694853257E-01   .136066073593E-01   .140588348876E-01   .145267482789E-01   .150109556484E-01
   .155120946355E-01   .160308343237E-01   .165678773162E-01   .171239619798E-01   .176998648739E-01
   .182964033783E-01   .189144385404E-01   .195548781586E-01   .202186801234E-01   .209068560400E-01
   .216204751547E-01   .223606686131E-01   .231286340782E-01   .239256407390E-01   .247530347429E-01
   .256122450876E-01   .265047900113E-01   .274322839211E-01   .283964449044E-01   .293991028705E-01
   .304422083709E-01   .315278421515E-01   .326582254939E-01   .338357314013E-01   .350628966938E-01
   .363424350742E-01   .376772512316E-01   .390704560501E-01   .405253829915E-01   .420456057210E-01
   .436349570442E-01   .452975492220E-01   .470377957265E-01   .488604344948E-01   .507705527315E-01
   .527736132984E-01   .548754827171E-01   .570824607925E-01   .594013118413E-01   .618392974830E-01
   .644042109150E-01   .671044125516E-01   .699488668552E-01   .729471801267E-01   .761096389483E-01
   .794472488867E-01   .829717729608E-01   .866957692611E-01   .906326269681E-01   .947965998590E-01
   .992028362076E-01   .103867403776E+00   .108807308357E+00   .114040504066E+00   .119585893288E+00
   .125463313838E+00   .131693510583E+00   .138298088331E+00   .145299442444E+00   .152720663150E+00
   .160585409142E+00   .168917745590E+00   .177741941300E+00   .187082219388E+00   .196962455550E+00
   .207405817865E+00   .218434342038E+00   .230068436256E+00   .242326310354E+00   .255223324911E+00
   .268771257366E+00   .282977484251E+00   .297844081485E+00   .313366848395E+00   .329534265907E+00
   .346326405389E+00   .363713812052E+00   .381656395762E+00   .400102372668E+00   .418987313304E+00
   .438233366531E+00   .457748743839E+00   .477427564431E+00   .497150177625E+00   .516784094244E+00
   .536185671332E+00   .555202702619E+00   .573678068107E+00   .591450336836E+00
 ae wavefunction
  -.945662117948E-04  -.976400808474E-04  -.100813852341E-03  -.104090772285E-03  -.107474192098E-03
  -.110967572027E-03  -.114574484677E-03  -.118298618655E-03  -.122143782331E-03  -.126113907724E-03
  -.130213054507E-03  -.134445414149E-03  -.138815314185E-03  -.143327222631E-03  -.147985752532E-03
  -.152795666664E-03  -.157761882388E-03  -.162889476656E-03  -.168183691185E-03  -.173649937790E-03
  -.179293803898E-03  -.185121058233E-03  -.191137656687E-03  -.197349748382E-03  -.203763681926E-03
  -.210386011868E-03  -.217223505366E-03  -.224283149065E-03  -.231572156202E-03  -.239097973933E-03
  -.246868290903E-03  -.254891045054E-03  -.263174431685E-03  -.271726911777E-03  -.280557220576E-03
  -.289674376458E-03  -.299087690080E-03  -.308806773820E-03  -.318841551522E-03  -.329202268555E-03
  -.339899502193E-03  -.350944172328E-03  -.362347552526E-03  -.374121281437E-03  -.386277374574E-03
  -.398828236458E-03  -.411786673166E-03  -.425165905266E-03  -.438979581178E-03  -.453241790950E-03
  -.467967080477E-03  -.483170466182E-03  -.498867450148E-03  -.515074035749E-03  -.531806743762E-03
  -.549082629008E-03  -.566919297502E-03  -.585334924170E-03  -.604348271107E-03  -.623978706426E-03
  -.644246223697E-03  -.665171462012E-03  -.686775726665E-03  -.709081010504E-03  -.732110015946E-03
  -.755886177686E-03  -.780433686128E-03  -.805777511541E-03  -.831943428984E-03  -.858958044009E-03
  -.886848819166E-03  -.915644101344E-03  -.945373149961E-03  -.976066166035E-03  -.100775432216E-02
  -.104046979343E-02  -.107424578928E-02  -.110911658637E-02  -.114511756247E-02  -.118228523134E-02
  -.122065727879E-02  -.126027259976E-02  -.130117133656E-02  -.134339491833E-02  -.138698610165E-02
  -.143198901243E-02  -.147844918908E-02  -.152641362692E-02  -.157593082407E-02  -.162705082861E-02
  -.167982528722E-02  -.173430749529E-02  -.179055244852E-02  -.184861689604E-02  -.190855939521E-02
  -.197044036792E-02  -.203432215869E-02  -.210026909436E-02  -.216834754570E-02  -.223862599069E-02
  -.231117507968E-02  -.238606770254E-02  -.246337905766E-02  -.254318672298E-02  -.262557072908E-02
  -.271061363434E-02  -.279840060229E-02  -.288901948107E-02  -.298256088526E-02  -.307911827986E-02
  -.317878806677E-02  -.328166967353E-02  -.338786564461E-02  -.349748173516E-02  -.361062700732E-02
  -.372741392911E-02  -.384795847602E-02  -.397238023529E-02  -.410080251289E-02  -.423335244338E-02
  -.437016110259E-02  -.451136362313E-02  -.465709931296E-02  -.480751177685E-02  -.496274904086E-02
  -.512296367995E-02  -.528831294861E-02  -.545895891466E-02  -.563506859623E-02  -.581681410181E-02
  -.600437277367E-02  -.619792733440E-02  -.639766603665E-02  -.660378281627E-02  -.681647744850E-02
  -.703595570753E-02  -.726242952927E-02  -.749611717725E-02  -.773724341181E-02  -.798603966233E-02
  -.824274420260E-02  -.850760232923E-02  -.878086654298E-02  -.906279673302E-02  -.935366036393E-02
  -.965373266536E-02  -.996329682429E-02  -.102826441796E-01  -.106120744190E-01  -.109518957779E-01
  -.113024252399E-01  -.116639887394E-01  -.120369213654E-01  -.124215675658E-01  -.128182813535E-01
  -.132274265116E-01  -.136493768003E-01  -.140845161618E-01  -.145332389254E-01  -.149959500111E-01
  -.154730651313E-01  -.159650109899E-01  -.164722254789E-01  -.169951578705E-01  -.175342690061E-01
  -.180900314785E-01  -.186629298089E-01  -.192534606172E-01  -.198621327836E-01  -.204894676017E-01
  -.211359989210E-01  -.218022732784E-01  -.224888500168E-01  -.231963013895E-01  -.239252126494E-01
  -.246761821202E-01  -.254498212497E-01  -.262467546409E-01  -.270676200622E-01  -.279130684310E-01
  -.287837637712E-01  -.296803831413E-01  -.306036165303E-01  -.315541667190E-01  -.325327491042E-01
  -.335400914821E-01  -.345769337881E-01  -.356440277904E-01  -.367421367318E-01  -.378720349182E-01
  -.390345072487E-01  -.402303486827E-01  -.414603636406E-01  -.427253653333E-01  -.440261750142E-01
  -.453636211508E-01  -.467385385091E-01  -.481517671447E-01  -.496041512965E-01  -.510965381747E-01
  -.526297766388E-01  -.542047157564E-01  -.558222032384E-01  -.574830837412E-01  -.591881970294E-01
  -.609383759909E-01  -.627344444962E-01  -.645772150939E-01  -.664674865329E-01  -.684060411033E-01
  -.703936417863E-01  -.724310292044E-01  -.745189183614E-01  -.766579951632E-01  -.788489127095E-01
  -.810922873464E-01  -.833886944697E-01  -.857386640691E-01  -.881426760029E-01  -.906011549945E-01
  -.931144653389E-01  -.956829053118E-01  -.983067012706E-01  -.100986001439E+00  -.103720869367E+00
  -.106511277060E+00  -.109357097763E+00  -.112258098405E+00  -.115213931694E+00  -.118224127845E+00
  -.121288085964E+00  -.124405065067E+00  -.127574174738E+00  -.130794365431E+00  -.134064418424E+00
  -.137382935417E+00  -.140748327800E+00  -.144158805595E+00  -.147612366075E+00  -.151106782102E+00
  -.154639590186E+00  -.158208078286E+00  -.161809273406E+00  -.165439928992E+00  -.169096512179E+00
  -.172775190934E+00  -.176471821127E+00  -.180181933604E+00  -.183900721291E+00  -.187623026418E+00
  -.191343327918E+00  -.195055729069E+00  -.198753945480E+00  -.202431293479E+00  -.206080679024E+00
  -.209694587208E+00  -.213265072480E+00  -.216783749687E+00  -.220241786041E+00  -.223629894149E+00
  -.226938326216E+00  -.230156869556E+00  -.233274843540E+00  -.236281098130E+00  -.239164014117E+00
  -.241911505226E+00  -.244511022216E+00  -.246949559127E+00  -.249213661811E+00  -.251289438898E+00
  -.253162575327E+00  -.254818348594E+00  -.256241647837E+00  -.257416995900E+00  -.258328574495E+00
  -.258960252592E+00  -.259295618130E+00  -.259318013181E+00  -.259010572645E+00  -.258356266576E+00
  -.257337946215E+00  -.255938393811E+00  -.254140376266E+00  -.251926702685E+00  -.249280285839E+00
  -.246184207570E+00  -.242621788153E+00  -.238576659576E+00  -.234032842722E+00  -.228974828374E+00
  -.223387661950E+00  -.217257031834E+00  -.210569361112E+00  -.203311902498E+00  -.195472836130E+00
  -.187041369881E+00  -.178007841735E+00  -.168363823670E+00  -.158102226434E+00  -.147217404458E+00
  -.135705260092E+00  -.123563346246E+00  -.110790966479E+00  -.973892715618E-01  -.833613515939E-01
  -.687123228637E-01  -.534494088864E-01  -.375820153549E-01  -.211217991733E-01  -.408273224140E-02
   .135188388105E-01   .316641352523E-01   .503318892337E-01   .694982850402E-01   .891368968911E-01
   .109218622363E+00   .129711611822E+00   .150581195888E+00   .171789814630E+00   .193296953393E+00
   .215059090243E+00   .237029658426E+00   .259159023857E+00   .281394473799E+00   .303680213093E+00
   .325957380018E+00   .348164149862E+00   .370236137257E+00   .392107604918E+00   .413714463954E+00
   .435000470512E+00   .455927378470E+00   .476485911210E+00   .496695752053E+00   .516577582147E+00
   .536104106122E+00   .555179890286E+00   .573672489238E+00   .591450336836E+00
 pseudo wavefunction
   .378485662501E-05   .390793072017E-05   .403500687784E-05   .416621523512E-05   .430169016082E-05
   .444157039311E-05   .458599918156E-05   .473512443386E-05   .488909886731E-05   .504808016517E-05
   .521223113817E-05   .538171989126E-05   .555671999571E-05   .573741066692E-05   .592397694792E-05
   .611660989887E-05   .631550679273E-05   .652087131730E-05   .673291378378E-05   .695185134216E-05
   .717790820364E-05   .741131587016E-05   .765231337155E-05   .790114751031E-05   .815807311429E-05
   .842335329776E-05   .869725973077E-05   .898007291741E-05   .927208248307E-05   .957358747102E-05
   .988489664867E-05   .102063288238E-04   .105382131709E-04   .108808895687E-04   .112347089475E-04
   .116000336492E-04   .119772377983E-04   .123667076847E-04   .127688421594E-04   .131840530432E-04
   .136127655483E-04   .140554187135E-04   .145124658543E-04   .149843750267E-04   .154716295068E-04
   .159747282857E-04   .164941865802E-04   .170305363607E-04   .175843268962E-04   .181561253162E-04
   .187465171921E-04   .193561071364E-04   .199855194221E-04   .206353986220E-04   .213064102689E-04
   .219992415368E-04   .227146019449E-04   .234532240844E-04   .242158643682E-04   .250033038060E-04
   .258163488037E-04   .266558319899E-04   .275226130676E-04   .284175796955E-04   .293416483965E-04
   .302957654966E-04   .312809080938E-04   .322980850587E-04   .333483380679E-04   .344327426704E-04
   .355524093895E-04   .367084848596E-04   .379021530007E-04   .391346362308E-04   .404071967175E-04
   .417211376710E-04   .430778046781E-04   .444785870808E-04   .459249193985E-04   .474182827973E-04
   .489602066070E-04   .505522698867E-04   .521961030423E-04   .538933894960E-04   .556458674101E-04
   .574553314671E-04   .593236347075E-04   .612526904272E-04   .632444741372E-04   .653010255862E-04
   .674244508496E-04   .696169244862E-04   .718806917647E-04   .742180709633E-04   .766314557435E-04
   .791233176012E-04   .816962083975E-04   .843527629719E-04   .870957018405E-04   .899278339815E-04
   .928520597118E-04   .958713736565E-04   .989888678160E-04   .102207734731E-03   .105531270753E-03
   .108962879419E-03   .112506074935E-03   .116164485776E-03   .119941858402E-03   .123842061091E-03
   .127869087904E-03   .132027062769E-03   .136320243710E-03   .140753027201E-03   .145329952667E-03
   .150055707139E-03   .154935130044E-03   .159973218163E-03   .165175130748E-03   .170546194801E-03
   .176091910530E-03   .181817956977E-03   .187730197833E-03   .193834687440E-03   .200137676990E-03
   .206645620920E-03   .213365183521E-03   .220303245759E-03   .227466912316E-03   .234863518863E-03
   .242500639567E-03   .250386094840E-03   .258527959345E-03   .266934570255E-03   .275614535787E-03
   .284576744005E-03   .293830371918E-03   .303384894864E-03   .313250096206E-03   .323436077336E-03
   .333953268008E-03   .344812437006E-03   .356024703153E-03   .367601546681E-03   .379554820970E-03
   .391896764663E-03   .404640014177E-03   .417797616621E-03   .431383043121E-03   .445410202592E-03
   .459893455944E-03   .474847630751E-03   .490288036394E-03   .506230479692E-03   .522691281041E-03
   .539687291070E-03   .557235907836E-03   .575355094573E-03   .594063398017E-03   .613379967312E-03
   .633324573532E-03   .653917629832E-03   .675180212238E-03   .697134081116E-03   .719801703319E-03
   .743206275051E-03   .767371745461E-03   .792322840995E-03   .818085090516E-03   .844684851241E-03
   .872149335494E-03   .900506638313E-03   .929785765937E-03   .960016665197E-03   .991230253836E-03
   .102345845179E-02   .105673421346E-02   .109109156099E-02   .112656561862E-02   .116319264806E-02
   .120101008504E-02   .124005657696E-02   .128037202173E-02   .132199760778E-02   .136497585536E-02
   .140935065907E-02   .145516733173E-02   .150247264957E-02   .155131489880E-02   .160174392360E-02
   .165381117556E-02   .170756976456E-02   .176307451126E-02   .182038200106E-02   .187955063967E-02
   .194064071034E-02   .200371443272E-02   .206883602340E-02   .213607175823E-02   .220549003634E-02
   .227716144595E-02   .235115883206E-02   .242755736592E-02   .250643461637E-02   .258787062310E-02
   .267194797179E-02   .275875187116E-02   .284837023198E-02   .294089374797E-02   .303641597866E-02
   .313503343415E-02   .323684566178E-02   .334195533470E-02   .345046834224E-02   .356249388208E-02
   .367814455426E-02   .379753645670E-02   .392078928244E-02   .404802641827E-02   .417937504477E-02
   .431496623755E-02   .445493506946E-02   .459942071377E-02   .474856654786E-02   .490252025727E-02
   .506143393992E-02   .522546420986E-02   .539477230051E-02   .556952416671E-02   .574989058517E-02
   .593604725273E-02   .612817488188E-02   .632645929267E-02   .653109150034E-02   .674226779774E-02
   .696018983146E-02   .718506467058E-02   .741710486683E-02   .765652850460E-02   .790355923929E-02
   .815842632221E-02   .842136461001E-02   .869261455639E-02   .897242218369E-02   .926103903137E-02
   .955872207859E-02   .986573363700E-02   .101823412103E-01   .105088173157E-01   .108454392632E-01
   .111924888862E-01   .115502522186E-01   .119190191106E-01   .122990827761E-01   .126907392634E-01
   .130942868396E-01   .135100252775E-01   .139382550342E-01   .143792763079E-01   .148333879569E-01
   .153008862657E-01   .157820635392E-01   .162772065025E-01   .167865944852E-01   .173104973625E-01
   .178491732228E-01   .184028657304E-01   .189718011441E-01   .195561849506E-01   .201561980652E-01
   .207719925456E-01   .214036867605E-01   .220513599432E-01   .227150460561E-01   .233947268781E-01
   .240903242198E-01   .248016911557E-01   .255286021516E-01   .262707419464E-01   .270276930333E-01
   .277989215626E-01   .285837614662E-01   .293813965807E-01   .301908405142E-01   .310109139731E-01
   .318402192271E-01   .326771113530E-01   .335196658524E-01   .343656421883E-01   .352124427347E-01
   .360570665703E-01   .368960574827E-01   .377254454811E-01   .385406810344E-01   .393365611735E-01
   .401071465055E-01   .408456681011E-01   .415444231168E-01   .421946579250E-01   .427864374295E-01
   .433084991578E-01   .437480906513E-01   .440907886109E-01   .443202982335E-01   .444182311756E-01
   .443638606437E-01   .441338522358E-01   .437019693757E-01   .430387525121E-01   .421111717302E-01
   .408822530805E-01   .393106798090E-01   .373503708267E-01   .349500402368E-01   .320527436085E-01
   .285954190163E-01   .245084337238E-01   .197151508520E-01   .141315345040E-01   .766581668760E-02
   .218255006752E-03  -.831898348486E-02  -.180617697210E-01  -.291337410098E-01  -.416657518062E-01
  -.557949799784E-01  -.716636137428E-01  -.894170375981E-01  -.109201430795E+00  -.131160690393E+00
  -.155432594375E+00  -.182144130594E+00  -.211405936873E+00  -.243305829055E+00  -.277901440162E+00
  -.315212058076E+00  -.355209834040E+00  -.397810641820E+00  -.442860295812E+00
 ae wavefunction
   .241425048433E-04   .249272555279E-04   .257375110445E-04   .265741000909E-04   .274378782757E-04
   .283297289911E-04   .292505643138E-04   .302013259357E-04   .311829861240E-04   .321965487128E-04
   .332430501264E-04   .343235604359E-04   .354391844505E-04   .365910628425E-04   .377803733109E-04
   .390083317804E-04   .402761936405E-04   .415852550245E-04   .429368541291E-04   .443323725772E-04
   .457732368248E-04   .472609196124E-04   .487969414647E-04   .503828722370E-04   .520203327129E-04
   .537109962525E-04   .554565904944E-04   .572588991118E-04   .591197636262E-04   .610410852783E-04
   .630248269603E-04   .650730152093E-04   .671877422655E-04   .693711681964E-04   .716255230893E-04
   .739531093143E-04   .763563038595E-04   .788375607423E-04   .813994134964E-04   .840444777406E-04
   .867754538283E-04   .895951295823E-04   .925063831184E-04   .955121857573E-04   .986156050317E-04
   .101819807788E-03   .105128063390E-03   .108543747019E-03   .112070343086E-03   .115711448751E-03
   .119470777549E-03   .123352163142E-03   .127359563179E-03   .131497063289E-03   .135768881193E-03
   .140179370952E-03   .144733027349E-03   .149434490407E-03   .154288550054E-03   .159300150933E-03
   .164474397369E-03   .169816558485E-03   .175332073486E-03   .181026557112E-03   .186905805254E-03
   .192975800755E-03   .199242719388E-03   .205712936031E-03   .212393031021E-03   .219289796725E-03
   .226410244299E-03   .233761610675E-03   .241351365754E-03   .249187219830E-03   .257277131243E-03
   .265629314273E-03   .274252247272E-03   .283154681058E-03   .292345647564E-03   .301834468753E-03
   .311630765809E-03   .321744468618E-03   .332185825528E-03   .342965413419E-03   .354094148080E-03
   .365583294896E-03   .377444479872E-03   .389689700985E-03   .402331339879E-03   .415382173926E-03
   .428855388636E-03   .442764590454E-03   .457123819935E-03   .471947565312E-03   .487250776480E-03
   .503048879384E-03   .519357790842E-03   .536193933807E-03   .553574253076E-03   .571516231461E-03
   .590037906441E-03   .609157887287E-03   .628895372701E-03   .649270168948E-03   .670302708527E-03
   .692014069368E-03   .714425994579E-03   .737560912755E-03   .761441958865E-03   .786092995718E-03
   .811538636039E-03   .837804265149E-03   .864916064283E-03   .892901034537E-03   .921787021478E-03
   .951602740412E-03   .982377802340E-03   .101414274060E-02   .104692903821E-02   .108076915595E-02
   .111569656115E-02   .115174575723E-02   .118895231399E-02   .122735289866E-02   .126698530777E-02
   .130788849972E-02   .135010262823E-02   .139366907654E-02   .143863049247E-02   .148503082421E-02
   .153291535707E-02   .158233075095E-02   .163332507867E-02   .168594786519E-02   .174025012759E-02
   .179628441597E-02   .185410485511E-02   .191376718702E-02   .197532881428E-02   .203884884425E-02
   .210438813401E-02   .217200933616E-02   .224177694540E-02   .231375734579E-02   .238801885889E-02
   .246463179245E-02   .254366848991E-02   .262520338049E-02   .270931302990E-02   .279607619161E-02
   .288557385865E-02   .297788931589E-02   .307310819269E-02   .317131851590E-02   .327261076317E-02
   .337707791637E-02   .348481551517E-02   .359592171061E-02   .371049731858E-02   .382864587301E-02
   .395047367885E-02   .407608986449E-02   .420560643354E-02   .433913831593E-02   .447680341800E-02
   .461872267142E-02   .476502008091E-02   .491582277029E-02   .507126102684E-02   .523146834363E-02
   .539658145955E-02   .556674039682E-02   .574208849563E-02   .592277244558E-02   .610894231365E-02
   .630075156819E-02   .649835709874E-02   .670191923112E-02   .691160173730E-02   .712757183984E-02
   .735000021007E-02   .757906095973E-02   .781493162543E-02   .805779314532E-02   .830782982738E-02
   .856522930863E-02   .883018250466E-02   .910288354866E-02   .938352971919E-02   .967232135600E-02
   .996946176287E-02   .102751570968E-01   .105896162422E-01   .109130506702E-01   .112456742801E-01
   .115877032246E-01   .119393557144E-01   .123008518051E-01   .126724131608E-01   .130542627970E-01
   .134466247992E-01   .138497240168E-01   .142637857308E-01   .146890352946E-01   .151256977446E-01
   .155739973820E-01   .160341573220E-01   .165063990103E-01   .169909417046E-01   .174880019206E-01
   .179977928404E-01   .185205236821E-01   .190563990289E-01   .196056181169E-01   .201683740804E-01
   .207448531523E-01   .213352338199E-01   .219396859345E-01   .225583697733E-01   .231914350540E-01
   .238390199004E-01   .245012497594E-01   .251782362682E-01   .258700760733E-01   .265768495995E-01
   .272986197720E-01   .280354306901E-01   .287873062556E-01   .295542487572E-01   .303362374120E-01
   .311332268695E-01   .319451456778E-01   .327718947188E-01   .336133456159E-01   .344693391183E-01
   .353396834699E-01   .362241527673E-01   .371224853157E-01   .380343819912E-01   .389595046170E-01
   .398974743659E-01   .408478701980E-01   .418102273473E-01   .427840358694E-01   .437687392637E-01
   .447637331865E-01   .457683642690E-01   .467819290587E-01   .478036730999E-01   .488327901727E-01
   .498684217092E-01   .509096564055E-01   .519555300490E-01   .530050255813E-01   .540570734154E-01
   .551105520254E-01   .561642888279E-01   .572170613701E-01   .582675988405E-01   .593145839142E-01
   .603566549415E-01   .613924084875E-01   .624204022217E-01   .634391581565E-01   .644471662224E-01
   .654428881639E-01   .664247617312E-01   .673912051309E-01   .683406216920E-01   .692714046877E-01
   .701819422419E-01   .710706222322E-01   .719358370856E-01   .727759883426E-01   .735894908456E-01
   .743747763833E-01   .751302965985E-01   .758545249384E-01   .765459573983E-01   .772031117756E-01
   .778245251172E-01   .784087490088E-01   .789543423114E-01   .794598609126E-01   .799238440146E-01
   .803447964355E-01   .807211663541E-01   .810513178779E-01   .813334977646E-01   .815657955770E-01
   .817460964997E-01   .818720259955E-01   .819408854312E-01   .819495777561E-01   .818945222727E-01
   .817715575044E-01   .815758311299E-01   .813016759379E-01   .809424707409E-01   .804904851957E-01
   .799367074976E-01   .792706539685E-01   .784801596317E-01   .775511489917E-01   .764673864011E-01
   .752102056406E-01   .737582186575E-01   .720870038458E-01   .701687748191E-01   .679720313706E-01
   .654611952511E-01   .625962345626E-01   .593322819794E-01   .556192536722E-01   .514014777199E-01
   .466173429018E-01   .411989810276E-01   .350719983160E-01   .281552737374E-01   .203608447057E-01
   .115939031528E-01   .175292809341E-02  -.927001535083E-02  -.215887755934E-01  -.353223725051E-01
  -.505939698807E-01  -.675295263167E-01  -.862561289298E-01  -.106900132311E+00  -.129585481625E+00
  -.154432988280E+00  -.181561488535E+00  -.211090523890E+00  -.243139584880E+00  -.277813242673E+00
  -.315169412567E+00  -.355194395044E+00  -.397805029331E+00  -.442860295812E+00
 pseudo wavefunction
   .150810069090E-08   .160777468307E-08   .171403636847E-08   .182732114354E-08   .194809318113E-08
   .207684733238E-08   .221411115431E-08   .236044707149E-08   .251645468044E-08   .268277320646E-08
   .286008412281E-08   .304911394291E-08   .325063719723E-08   .346547960680E-08   .369452146653E-08
   .393870125215E-08   .419901946547E-08   .447654273389E-08   .477240818076E-08   .508782808465E-08
   .542409484652E-08   .578258628521E-08   .616477128290E-08   .657221580372E-08   .700658931015E-08
   .746967160340E-08   .796336011606E-08   .848967768654E-08   .905078084751E-08   .964896866207E-08
   .102866921439E-07   .109665643000E-07   .116913708374E-07   .124640815770E-07   .132878626223E-07
   .141660893325E-07   .151023601518E-07   .161005113548E-07   .171646327642E-07   .182990845091E-07
   .195085148900E-07   .207978794246E-07   .221724611527E-07   .236378922828E-07   .252001772696E-07
   .268657174166E-07   .286413371047E-07   .305343117545E-07   .325523976365E-07   .347038636518E-07
   .369975252128E-07   .394427803636E-07   .420496482877E-07   .448288103601E-07   .477916539136E-07
   .509503188969E-07   .543177476171E-07   .579077377690E-07   .617349989702E-07   .658152130319E-07
   .701650982137E-07   .748024777247E-07   .797463527526E-07   .850169803187E-07   .906359562790E-07
   .966263038112E-07   .103012567750E-06   .109820915155E-06   .117079242530E-06   .124817290127E-06
   .133066763797E-06   .141861464912E-06   .151237428850E-06   .161233072659E-06   .171889352455E-06
   .183249931245E-06   .195361357824E-06   .208273257509E-06   .222038535469E-06   .236713593501E-06
   .252358561131E-06   .269037541983E-06   .286818876442E-06   .305775421670E-06   .325984850127E-06
   .347529967826E-06   .370499053626E-06   .394986220937E-06   .421091803345E-06   .448922765712E-06
   .478593142458E-06   .510224504796E-06   .543946458863E-06   .579897176760E-06   .618223962698E-06
   .659083856556E-06   .702644277337E-06   .749083709140E-06   .798592432482E-06   .851373303943E-06
   .907642587344E-06   .967630839864E-06   .103158385671E-05   .109976367823E-05   .117244966359E-05
   .124993963541E-05   .133255110004E-05   .142062254850E-05   .151451484339E-05   .161461269749E-05
   .172132625001E-05   .183509274714E-05   .195637833351E-05   .208567996222E-05   .222352743096E-05
   .237048555277E-05   .252715647028E-05   .269418212284E-05   .287224687677E-05   .306208032940E-05
   .326446029841E-05   .348021600884E-05   .371023149056E-05   .395544920044E-05   .421687388384E-05
   .449557669124E-05   .479269956705E-05   .510945992841E-05   .544715565319E-05   .580717039765E-05
   .619097926559E-05   .660015485205E-05   .703637368653E-05   .750142310194E-05   .799720855757E-05
   .852576144594E-05   .908924741561E-05   .968997524399E-05   .103304062965E-04   .110131646110E-04
   .117410476481E-04   .125170377528E-04   .133443143726E-04   .142262670837E-04   .151665094773E-04
   .161688939647E-04   .172375275590E-04   .183767887015E-04   .195913451983E-04   .208861733433E-04
   .222665783042E-04   .237382158557E-04   .253071155486E-04   .269797054095E-04   .287628382734E-04
   .306638198546E-04   .326904386740E-04   .348509979615E-04   .371543496683E-04   .396099307243E-04
   .422278016921E-04   .450186879731E-04   .479940237372E-04   .511659987529E-04   .545476083114E-04
   .581527064479E-04   .619960626781E-04   .660934224821E-04   .704615717822E-04   .751184056790E-04
   .800830017268E-04   .853756980463E-04   .910181765963E-04   .970335519418E-04   .103446465883E-03
   .110283188331E-03   .117571724843E-03   .125341931250E-03   .133625635859E-03   .142456769710E-03
   .151871505430E-03   .161908405251E-03   .172608578792E-03   .184015851242E-03   .196176942643E-03
   .209141658988E-03   .222963095924E-03   .237697855878E-03   .253406279498E-03   .270152692341E-03
   .288005667814E-03   .307038307441E-03   .327328539577E-03   .348959437797E-03   .372019560234E-03
   .396603311261E-03   .422811326945E-03   .450750885871E-03   .480536346963E-03   .512289616080E-03
   .546140643264E-03   .582227952650E-03   .620699207148E-03   .661711810177E-03   .705433546868E-03
   .752043267283E-03   .801731614393E-03   .854701799724E-03   .911170429738E-03   .971368386256E-03
   .103554176440E-02   .110395287177E-02   .117688129278E-02   .125462502244E-02   .133750167381E-02
   .142584976416E-02   .152003008461E-02   .162042715867E-02   .172745079536E-02   .184153774286E-02
   .196315344903E-02   .209279393569E-02   .223098779353E-02   .237829830549E-02   .253532570649E-02
   .270270958791E-02   .288113145597E-02   .307131745331E-02   .327404125383E-02   .349012714133E-02
   .372045328318E-02   .396595521050E-02   .422762951754E-02   .450653779289E-02   .480381079645E-02
   .512065289632E-02   .545834678064E-02   .581825846011E-02   .620184257758E-02   .661064804185E-02
   .704632400350E-02   .751062619118E-02   .800542362776E-02   .853270574600E-02   .909458992426E-02
   .969332946334E-02   .103313220259E-01   .110111185604E-01   .117354327318E-01   .125071508817E-01
   .133293425397E-01   .142052715088E-01   .151384075473E-01   .161324386667E-01   .171912840679E-01
   .183191077337E-01   .195203326944E-01   .207996559831E-01   .221620642912E-01   .236128503349E-01
   .251576299350E-01   .268023598124E-01   .285533560911E-01   .304173134957E-01   .324013252230E-01
   .345129034543E-01   .367600004680E-01   .391510302946E-01   .416948908454E-01   .444009864253E-01
   .472792505229E-01   .503401687472E-01   .535948017561E-01   .570548079915E-01   .607324660048E-01
   .646406961201E-01   .687930811422E-01   .732038857703E-01   .778880743316E-01   .828613263903E-01
   .881400497314E-01   .937413901515E-01   .996832374185E-01   .105984226687E+00   .112663734577E+00
   .119741869029E+00   .127239451986E+00   .135177993813E+00   .143579658343E+00   .152467217267E+00
   .161863992571E+00   .171793785600E+00   .182280791266E+00   .193349495891E+00   .205024557121E+00
   .217330664370E+00   .230292378286E+00   .243933947850E+00   .258279103864E+00   .273350827835E+00
   .289171095617E+00   .305760595624E+00   .323138422010E+00   .341321744017E+00   .360325453578E+00
   .380161794453E+00   .400839977543E+00   .422365788639E+00   .444741196777E+00   .467963973489E+00
   .492027335674E+00   .516919627410E+00   .542624058829E+00   .569118523050E+00   .596375514951E+00
   .624362178096E+00   .653040508144E+00   .682367742203E+00   .712296963362E+00   .742777947517E+00
   .773758274894E+00   .805184720483E+00   .837004925036E+00   .869169330244E+00   .901633336995E+00
   .934359613161E+00   .967320436029E+00   .100049990347E+01   .103389578703E+01   .106752072960E+01
   .110140241202E+01   .113558223001E+01   .117011194076E+01   .120504766593E+01   .124044058579E+01
   .127632364491E+01   .131269363203E+01   .134948812161E+01   .138655919216E+01
 ae wavefunction
   .474144406783E-08   .506985340286E-08   .541575132233E-08   .578031972443E-08   .616480878721E-08
   .657054163659E-08   .699891930664E-08   .745142600451E-08   .792963470580E-08   .843521310050E-08
   .896992991191E-08   .953566161847E-08   .101343995967E-07   .107682577284E-07   .114394804843E-07
   .121504515358E-07   .129037029083E-07   .137019247405E-07   .145479756528E-07   .154448938278E-07
   .163959086988E-07   .174044536378E-07   .184741790988E-07   .196089670056E-07   .208129457877E-07
   .220905065702E-07   .234463203072E-07   .248853561032E-07   .264129007330E-07   .280345793667E-07
   .297563777954E-07   .315846658484E-07   .335262227424E-07   .355882636614E-07   .377784683997E-07
   .401050117229E-07   .425765958073E-07   .452024846808E-07   .479925411257E-07   .509572657856E-07
   .541078390158E-07   .574561654004E-07   .610149211498E-07   .647976047704E-07   .688185908872E-07
   .730931877234E-07   .776376982947E-07   .824694856848E-07   .876070425585E-07   .930700652763E-07
   .988795328859E-07   .105057791310E-06   .111628643045E-06   .118617442811E-06   .126051199462E-06
   .133958684567E-06   .142370548303E-06   .151319442688E-06   .160840153175E-06   .170969738869E-06
   .181747681881E-06   .193216046408E-06   .205419648799E-06   .218406238005E-06   .232226688808E-06
   .246935206820E-06   .262589548000E-06   .279251251619E-06   .296985889375E-06   .315863330384E-06
   .335958023832E-06   .357349300293E-06   .380121692594E-06   .404365278232E-06   .430176043840E-06
   .457656274142E-06   .486914966006E-06   .518068270226E-06   .551239961991E-06   .586561942570E-06
   .624174773862E-06   .664228248241E-06   .706881995725E-06   .752306131298E-06   .800681944681E-06
   .852202635532E-06   .907074096936E-06   .965515750589E-06   .102776143670E-05   .109406036261E-05
   .116467811364E-05   .123989773049E-05   .132002085746E-05   .140536896604E-05   .149628465918E-05
   .159313306096E-05   .169630329773E-05   .180621007674E-05   .192329536798E-05   .204803019711E-05
   .218091655564E-05   .232248943678E-05   .247331900484E-05   .263401290722E-05   .280521873775E-05
   .298762666209E-05   .318197221510E-05   .338903928177E-05   .360966327357E-05   .384473451313E-05
   .409520184071E-05   .436207645702E-05   .464643601774E-05   .494942899643E-05   .527227933274E-05
   .561629138536E-05   .598285520870E-05   .637345217511E-05   .678966096458E-05   .723316394621E-05
   .770575397677E-05   .820934164341E-05   .874596297957E-05   .931778768449E-05   .992712787948E-05
   .105764474352E-04   .112683719074E-04   .120056991204E-04   .127914104402E-04   .136286827816E-04
   .145209013976E-04   .154716735000E-04   .164848427674E-04   .175645047951E-04   .187150235488E-04
   .199410488879E-04   .212475352246E-04   .226397613947E-04   .241233518151E-04   .257042990132E-04
   .273889876139E-04   .291842198792E-04   .310972428984E-04   .331357775355E-04   .353080492451E-04
   .376228208762E-04   .400894275907E-04   .427178140305E-04   .455185738763E-04   .485029919504E-04
   .516830890234E-04   .550716694964E-04   .586823721406E-04   .625297240862E-04   .666291982665E-04
   .709972745320E-04   .756515046676E-04   .806105815553E-04   .858944127412E-04   .915241986838E-04
   .975225159727E-04   .103913405828E-03   .110722468205E-03   .117976961858E-03   .125705910720E-03
   .133940216999E-03   .142712781389E-03   .152058630855E-03   .162015054420E-03   .172621747481E-03
   .183920965137E-03   .195957685097E-03   .208779780743E-03   .222438204946E-03   .236987185298E-03
   .252484431429E-03   .268991355140E-03   .286573304093E-03   .305299809890E-03   .325244851352E-03
   .346487133920E-03   .369110386095E-03   .393203673926E-03   .418861734571E-03   .446185330045E-03
   .475281622290E-03   .506264570802E-03   .539255354073E-03   .574382816198E-03   .611783940048E-03
   .651604348484E-03   .693998835162E-03   .739131926544E-03   .787178476819E-03   .838324297496E-03
   .892766823535E-03   .950715817954E-03   .101239411692E-02   .107803841743E-02   .114790010986E-02
   .122224615746E-02   .130136002546E-02   .138554266199E-02   .147511353356E-02   .157041171758E-02
   .167179705489E-02   .177965136484E-02   .189437972614E-02   .201641182627E-02   .214620338263E-02
   .228423763858E-02   .243102693768E-02   .258711437936E-02   .275307555945E-02   .292952039902E-02
   .311709506503E-02   .331648398625E-02   .352841196812E-02   .375364641003E-02   .399299962861E-02
   .424733129063E-02   .451755095898E-02   .480462075526E-02   .510955814226E-02   .543343882975E-02
   .577739980668E-02   .614264250278E-02   .653043608243E-02   .694212087335E-02   .737911193249E-02
   .784290275118E-02   .833506910116E-02   .885727302291E-02   .941126695715E-02   .999889801985E-02
   .106221124208E-01   .112829600246E-01   .119835990537E-01   .127263009300E-01   .135134552534E-01
   .143475749131E-01   .152313013271E-01   .161674098047E-01   .171588150250E-01   .182085766240E-01
   .193199048814E-01   .204961664974E-01   .217408904475E-01   .230577739031E-01   .244506882032E-01
   .259236848622E-01   .274810015961E-01   .291270683481E-01   .308665132932E-01   .327041687996E-01
   .346450773224E-01   .366944972042E-01   .388579083543E-01   .411410177757E-01   .435497649108E-01
   .460903267684E-01   .487691227990E-01   .515928194779E-01   .545683345575E-01   .577028409455E-01
   .610037701633E-01   .644788153390E-01   .681359336836E-01   .719833483993E-01   .760295499644E-01
   .802832967375E-01   .847536148213E-01   .894497971225E-01   .943814015418E-01   .995582482273E-01
   .104990415818E+00   .110688236605E+00   .116662290534E+00   .122923397972E+00   .129482611162E+00
   .136351204268E+00   .143540661968E+00   .151062666468E+00   .158929082910E+00   .167151943062E+00
   .175743427265E+00   .184715844554E+00   .194081610937E+00   .203853225800E+00   .214043246447E+00
   .224664260803E+00   .235728858334E+00   .247249599290E+00   .259238982395E+00   .271709411171E+00
   .284673159098E+00   .298142333865E+00   .312128840978E+00   .326644347001E+00   .341700242677E+00
   .357307606097E+00   .373477165975E+00   .390219264876E+00   .407543821956E+00   .425460294384E+00
   .443977636131E+00   .463104252230E+00   .482847945939E+00   .503215855638E+00   .524214377695E+00
   .545849071207E+00   .568124540542E+00   .591044292134E+00   .614610563211E+00   .638824122019E+00
   .663684041700E+00   .689187452915E+00   .715329283067E+00   .742101991784E+00   .769495312006E+00
   .797496002658E+00   .826087611754E+00   .855250238953E+00   .884960278595E+00   .915190130643E+00
   .945907916680E+00   .977077391064E+00   .100865860194E+01   .104061057781E+01   .107289842090E+01
   .110550804064E+01   .113846991326E+01   .117188365419E+01   .120591486961E+01   .124072521428E+01
   .127635545327E+01   .131268071596E+01   .134948681218E+01   .138655919216E+01
 End of Dataset
