       N       E                     dE             d eps       ncg     rms          rms(c)
DAV:   1    -0.484106234824E+03   -0.48411E+03   -0.20962E+02  8192   0.145E+01    0.381E+01
DAV:   2    -0.477967165998E+03    0.61391E+01   -0.54045E+02  5376   0.156E+01    0.517E+01
DAV:   3    -0.452937789014E+03    0.25029E+02   -0.51849E+02  6912   0.477E+01    0.217E+01
DAV:   4    -0.440987284717E+03    0.11951E+02   -0.25807E+01  6144   0.565E+00    0.841E+00
DAV:   5    -0.443369155687E+03   -0.23819E+01   -0.22271E+01  6912   0.302E+00    0.957E+00
DAV:   6    -0.443609092628E+03   -0.23994E+00   -0.53166E+00  6144   0.198E+00    0.500E+00
DAV:   7    -0.444017644935E+03   -0.40855E+00   -0.16266E+00  7424   0.189E+00    0.273E+00
DAV:   8    -0.444178415999E+03   -0.16077E+00   -0.75609E-01  5376   0.117E+00    0.138E+00
DAV:   9    -0.444130322491E+03    0.48094E-01   -0.11372E+00  6144   0.118E+00    0.964E-01
DAV:  10    -0.444131096047E+03   -0.77356E-03   -0.12991E-01  6400   0.355E-01    0.816E-01
DAV:  11    -0.444296688407E+03   -0.16559E+00   -0.11767E-01  5888   0.458E-01    0.507E-01
DAV:  12    -0.444341838292E+03   -0.45150E-01   -0.46067E-02  5120   0.189E-01    0.207E-01
DAV:  13    -0.444358790618E+03   -0.16952E-01   -0.15086E-02  5120   0.115E-01    0.137E-01
DAV:  14    -0.444382045512E+03   -0.23255E-01   -0.98448E-03  5120   0.960E-02    0.115E-01
DAV:  15    -0.444387451552E+03   -0.54060E-02   -0.27103E-03  6656   0.493E-02    0.466E-02
DAV:  16    -0.444390860737E+03   -0.34092E-02   -0.76283E-04  5120   0.261E-02    0.271E-02
DAV:  17    -0.444394315838E+03   -0.34551E-02   -0.22052E-04  7168   0.147E-02    0.165E-02
DAV:  18    -0.444396526717E+03   -0.22109E-02   -0.17541E-04  5120   0.109E-02    0.102E-02
DAV:  19    -0.444397984812E+03   -0.14581E-02   -0.82008E-05  6912   0.646E-03    0.834E-03
DAV:  20    -0.444399250242E+03   -0.12654E-02   -0.89659E-05  5120   0.615E-03    0.346E-03
DAV:  21    -0.444399500064E+03   -0.24982E-03   -0.89090E-06  5376   0.234E-03    0.296E-03
DAV:  22    -0.444399679182E+03   -0.17912E-03   -0.82761E-06  4864   0.217E-03    0.129E-03
DAV:  23    -0.444399747325E+03   -0.68142E-04   -0.20327E-06  6912   0.122E-03    0.856E-04
DAV:  24    -0.444399789023E+03   -0.41699E-04   -0.11684E-06  7424   0.958E-04    0.631E-04
DAV:  25    -0.444399809239E+03   -0.20216E-04   -0.32183E-07  6656   0.616E-04    0.432E-04
DAV:  26    -0.444399820739E+03   -0.11500E-04   -0.13774E-07  6912   0.444E-04    0.338E-04
DAV:  27    -0.444399827835E+03   -0.70968E-05   -0.84076E-08  6400   0.299E-04
   1 F= -.44613465E+03 E0= -.44613422E+03  d E =-.446135E+03  mag=     2.9989
       N       E                     dE             d eps       ncg     rms          rms(c)
DAV:   1    -0.444400127191E+03   -0.30645E-03   -0.42912E-02  6400   0.328E-01    0.454E-02
DAV:   2    -0.444400094425E+03    0.32766E-04   -0.45457E-04  6144   0.363E-02    0.248E-02
DAV:   3    -0.444400086277E+03    0.81482E-05   -0.50628E-05  7680   0.115E-02
   2 F= -.44613491E+03 E0= -.44613449E+03  d E =-.265587E-03  mag=     2.9990
       N       E                     dE             d eps       ncg     rms          rms(c)
DAV:   1    -0.444400245516E+03   -0.15109E-03   -0.98842E-03  7424   0.160E-01    0.217E-02
DAV:   2    -0.444400239302E+03    0.62149E-05   -0.99982E-05  6400   0.174E-02
   3 F= -.44613507E+03 E0= -.44613464E+03  d E =-.158009E-03  mag=     2.9990
