 vasp.5.4.4.18Apr17-6-g9f103f2a35 (build Nov 21 2023 15:34:30) complex          
  
 executed on             LinuxIFC date 2026.09.23  06:11:31
 running on  256 total cores
 distrk:  each k-point on  256 cores,    1 groups
 distr:  one band on NCORES_PER_BAND=   1 cores,  256 groups


--------------------------------------------------------------------------------------------------------


 INCAR:
 POTCAR:   PAW_PBE C 08Apr2002                    
 POTCAR:   PAW_PBE N 08Apr2002                    
 POTCAR:   PAW_PBE V_sv 07Sep2000                 

 ----------------------------------------------------------------------------- 
|                                                                             |
|           W    W    AA    RRRRR   N    N  II  N    N   GGGG   !!!           |
|           W    W   A  A   R    R  NN   N  II  NN   N  G    G  !!!           |
|           W    W  A    A  R    R  N N  N  II  N N  N  G       !!!           |
|           W WW W  AAAAAA  RRRRR   N  N N  II  N  N N  G  GGG   !            |
|           WW  WW  A    A  R   R   N   NN  II  N   NN  G    G                |
|           W    W  A    A  R    R  N    N  II  N    N   GGGG   !!!           |
|                                                                             |
|      For optimal performance we recommend to set                            |
|        NCORE= 4 - approx SQRT( number of cores)                             |
|      NCORE specifies how many cores store one orbital (NPAR=cpu/NCORE).     |
|      This setting can  greatly improve the performance of VASP for DFT.     |
|      The default,   NCORE=1            might be grossly inefficient         |
|      on modern multi-core architectures or massively parallel machines.     |
|      Do your own testing !!!!                                               |
|      Unfortunately you need to use the default for GW and RPA calculations. |
|      (for HF NCORE is supported but not extensively tested yet)             |
|                                                                             |
 ----------------------------------------------------------------------------- 

 POTCAR:   PAW_PBE C 08Apr2002                    
   VRHFIN =C: s2p2                                                              
   LEXCH  = PE                                                                  
   EATOM  =   147.1560 eV,   10.8157 Ry                                         
                                                                                
   TITEL  = PAW_PBE C 08Apr2002                                                 
   LULTRA =        F    use ultrasoft PP ?                                      
   IUNSCR =        0    unscreen: 0-lin 1-nonlin 2-no                           
   RPACOR =     .000    partial core radius                                     
   POMASS =   12.011; ZVAL   =    4.000    mass and valenz                      
   RCORE  =    1.500    outmost cutoff radius                                   
   RWIGS  =    1.630; RWIGS  =     .863    wigner-seitz radius (au A)           
   ENMAX  =  400.000; ENMIN  =  300.000 eV                                      
   ICORE  =        2    local potential                                         
   LCOR   =        T    correct aug charges                                     
   LPAW   =        T    paw PP                                                  
   EAUG   =  644.873                                                            
   DEXC   =     .000                                                            
   RMAX   =    2.266    core radius for proj-oper                               
   RAUG   =    1.300    factor for augmentation sphere                          
   RDEP   =    1.501    radius for radial grids                                 
   RDEPT  =    1.300    core radius for aug-charge                              
   QCUT   =   -5.516; QGAM   =   11.032    optimization parameters              
                                                                                
   Description                                                                  
     l     E      TYP  RCUT    TYP  RCUT                                        
     0   .000     23  1.200                                                     
     0   .000     23  1.200                                                     
     1   .000     23  1.500                                                     
     1  2.500     23  1.500                                                     
     2   .000      7  1.500                                                     
  local pseudopotential read in
  atomic valenz-charges read in
  non local Contribution for L=           0  read in
    real space projection operators read in
  non local Contribution for L=           0  read in
    real space projection operators read in
  non local Contribution for L=           1  read in
    real space projection operators read in
  non local Contribution for L=           1  read in
    real space projection operators read in
    PAW grid and wavefunctions read in
 
   number of l-projection  operators is LMAX  =           4
   number of lm-projection operators is LMMAX =           8
 
 POTCAR:   PAW_PBE N 08Apr2002                    
   VRHFIN =N: s2p3                                                              
   LEXCH  = PE                                                                  
   EATOM  =   264.5486 eV,   19.4438 Ry                                         
                                                                                
   TITEL  = PAW_PBE N 08Apr2002                                                 
   LULTRA =        F    use ultrasoft PP ?                                      
   IUNSCR =        0    unscreen: 0-lin 1-nonlin 2-no                           
   RPACOR =     .000    partial core radius                                     
   POMASS =   14.001; ZVAL   =    5.000    mass and valenz                      
   RCORE  =    1.500    outmost cutoff radius                                   
   RWIGS  =    1.400; RWIGS  =     .741    wigner-seitz radius (au A)           
   ENMAX  =  400.000; ENMIN  =  300.000 eV                                      
   ICORE  =        2    local potential                                         
   LCOR   =        T    correct aug charges                                     
   LPAW   =        T    paw PP                                                  
   EAUG   =  627.112                                                            
   DEXC   =     .000                                                            
   RMAX   =    2.247    core radius for proj-oper                               
   RAUG   =    1.300    factor for augmentation sphere                          
   RDEP   =    1.514    radius for radial grids                                 
   QCUT   =   -5.562; QGAM   =   11.124    optimization parameters              
                                                                                
   Description                                                                  
     l     E      TYP  RCUT    TYP  RCUT                                        
     0   .000     23  1.200                                                     
     0   .000     23  1.200                                                     
     1   .000     23  1.500                                                     
     1   .700     23  1.500                                                     
     2   .000      7  1.500                                                     
  local pseudopotential read in
  atomic valenz-charges read in
  non local Contribution for L=           0  read in
    real space projection operators read in
  non local Contribution for L=           0  read in
    real space projection operators read in
  non local Contribution for L=           1  read in
    real space projection operators read in
  non local Contribution for L=           1  read in
    real space projection operators read in
    PAW grid and wavefunctions read in
 
   number of l-projection  operators is LMAX  =           4
   number of lm-projection operators is LMMAX =           8
 
 POTCAR:   PAW_PBE V_sv 07Sep2000                 
   VRHFIN =V: p6 d4 s1                                                          
   LEXCH  = PE                                                                  
   EATOM  =  1951.3925 eV,  143.4233 Ry                                         
                                                                                
   TITEL  = PAW_PBE V_sv 07Sep2000                                              
   LULTRA =        F    use ultrasoft PP ?                                      
   IUNSCR =        1    unscreen: 0-lin 1-nonlin 2-no                           
   RPACOR =    2.000    partial core radius                                     
   POMASS =   50.941; ZVAL   =   13.000    mass and valenz                      
   RCORE  =    2.300    outmost cutoff radius                                   
   RWIGS  =    2.300; RWIGS  =    1.217    wigner-seitz radius (au A)           
   ENMAX  =  263.675; ENMIN  =  197.756 eV                                      
   RCLOC  =    1.779    cutoff for local pot                                    
   LCOR   =        T    correct aug charges                                     
   LPAW   =        T    paw PP                                                  
   EAUG   =  526.568                                                            
   DEXC   =     .000                                                            
   RMAX   =    2.839    core radius for proj-oper                               
   RAUG   =    1.300    factor for augmentation sphere                          
   RDEP   =    2.430    radius for radial grids                                 
   QCUT   =   -4.402; QGAM   =    8.804    optimization parameters              
                                                                                
   Description                                                                  
     l     E      TYP  RCUT    TYP  RCUT                                        
     0   .000     23  1.800                                                     
     0   .000     23  2.300                                                     
     0   .000     23  1.800                                                     
     0   .000     23  2.300                                                     
     1   .000     23  2.000                                                     
     1   .400     23  2.000                                                     
     2   .000     23  2.300                                                     
     2   .000     23  2.300                                                     
     3   .000      7   .000                                                     
  local pseudopotential read in
  partial core-charges read in
  atomic valenz-charges read in
  non local Contribution for L=           0  read in
    real space projection operators read in
  non local Contribution for L=           0  read in
    real space projection operators read in
  non local Contribution for L=           1  read in
    real space projection operators read in
  non local Contribution for L=           1  read in
    real space projection operators read in
  non local Contribution for L=           2  read in
    real space projection operators read in
  non local Contribution for L=           2  read in
    real space projection operators read in
    PAW grid and wavefunctions read in
 
   number of l-projection  operators is LMAX  =           6
   number of lm-projection operators is LMMAX =          18
 
 Optimization of the real space projectors (new method)

 maximal supplied QI-value         = 25.13
 optimisation between [QCUT,QGAM] = [ 11.56, 23.12] = [ 37.43,149.72] Ry 
 Optimized for a Real-space Cutoff    1.04 Angstroem

   l    n(q)    QCUT    max X(q) W(low)/X(q) W(high)/X(q)  e(spline) 
   0      7    11.561     5.582    0.47E-04    0.94E-04    0.17E-07
   0      7    11.561    69.432    0.20E-03    0.59E-03    0.21E-06
   1      7    11.561     2.780    0.24E-04    0.70E-04    0.44E-07
   1      7    11.561     4.549    0.18E-03    0.25E-03    0.12E-06
 Optimization of the real space projectors (new method)

 maximal supplied QI-value         = 25.13
 optimisation between [QCUT,QGAM] = [ 11.56, 23.12] = [ 37.43,149.72] Ry 
 Optimized for a Real-space Cutoff    1.40 Angstroem

   l    n(q)    QCUT    max X(q) W(low)/X(q) W(high)/X(q)  e(spline) 
   0     10    11.561     4.511    0.22E-04    0.14E-04    0.74E-07
   0     10    11.561    37.799    0.45E-04    0.77E-04    0.61E-06
   1      9    11.561     2.478    0.97E-05    0.16E-04    0.10E-06
   1      9    11.561    11.620    0.23E-03    0.13E-03    0.12E-05
 Optimization of the real space projectors (new method)

 maximal supplied QI-value         = 16.25
 optimisation between [QCUT,QGAM] = [ 11.54, 23.24] = [ 37.28,151.24] Ry 
 Optimized for a Real-space Cutoff    1.53 Angstroem

   l    n(q)    QCUT    max X(q) W(low)/X(q) W(high)/X(q)  e(spline) 
   0     11    11.539     4.355    0.92E-05    0.38E-06    0.15E-07
   0     11    11.539    21.234    0.35E-04    0.41E-05    0.54E-07
   1     10    11.539     3.437    0.10E-05    0.12E-05    0.36E-07
   1     10    11.539     4.664    0.39E-04    0.25E-04    0.17E-06
   2     10    11.539     3.939    0.93E-05    0.16E-04    0.47E-07
   2     10    11.539    36.707    0.10E-03    0.13E-03    0.23E-06
 PAW_PBE C 08Apr2002                    :
 energy of atom  1       EATOM= -147.1560
 kinetic energy error for atom=    0.0071 (will be added to EATOM!!)
 PAW_PBE N 08Apr2002                    :
 energy of atom  2       EATOM= -264.5486
 kinetic energy error for atom=    0.0125 (will be added to EATOM!!)
 PAW_PBE V_sv 07Sep2000                 :
 energy of atom  3       EATOM=-1951.3925
 kinetic energy error for atom=    0.0065 (will be added to EATOM!!)
 
 
 POSCAR: C  N  V                                 
  positions in direct lattice
  velocities in cartesian coordinates
 exchange correlation table for  LEXCH =        8
   RHO(1)=    0.500       N(1)  =     2000
   RHO(2)=  100.500       N(2)  =     4000

 VTST: version 3.2, (02/03/18)

 CHAIN: initializing optimizer
 
 OPT: Using VASP QUASI-newton optimizer
 CHAIN: Read ICHAIN            0
 
 POSCAR: C  N  V                                 
  positions in direct lattice
  velocities in cartesian coordinates
 


--------------------------------------------------------------------------------------------------------


 ion  position               nearest neighbor table
   1  0.999  0.001  0.742-   2 1.41  44 1.41  10 1.42
   2  0.131  0.065  0.742-   1 1.41  13 1.41   3 1.42
   3  0.198  0.998  0.742-  36 1.41   4 1.41   2 1.42
   4  0.330  0.063  0.746-  15 1.40   3 1.41   5 1.43
   5  0.399  0.998  0.747-  38 1.42   6 1.42   4 1.43
   6  0.532  0.066  0.750-   5 1.42   7 1.42  16 1.43
   7  0.599  0.000  0.749-   8 1.42   6 1.42  40 1.43
   8  0.732  0.069  0.749-   7 1.42  18 1.43   9 1.43
   9  0.800  0.002  0.746-  10 1.42  42 1.42   8 1.43
  10  0.932  0.068  0.744-  11 1.42   9 1.42   1 1.42
  11  0.998  0.200  0.746-  10 1.42  12 1.42  19 1.43
  12  0.131  0.265  0.747-  11 1.42  22 1.42  13 1.42
  13  0.197  0.197  0.746-  14 1.40   2 1.41  12 1.42
  14  0.328  0.262  0.752-  46 1.38  13 1.40  15 1.44
  15  0.395  0.194  0.752-  45 1.38   4 1.40  14 1.44
  16  0.594  0.200  0.755-  45 1.37   6 1.43  17 1.44
  17  0.729  0.271  0.755-  24 1.44  16 1.44  18 1.44
  18  0.797  0.203  0.750-  19 1.43   8 1.43  17 1.44
  19  0.931  0.268  0.749-  20 1.42  18 1.43  11 1.43
  20  1.000  0.401  0.749-  19 1.42  25 1.42  21 1.43
  21  0.134  0.466  0.749-  28 1.42  22 1.42  20 1.43
  22  0.200  0.398  0.750-  12 1.42  21 1.42  23 1.43
  23  0.333  0.460  0.755-  46 1.37  22 1.43  30 1.44
  24  0.800  0.406  0.755-  47 1.37  25 1.43  17 1.44
  25  0.934  0.468  0.750-  26 1.42  20 1.42  24 1.43
  26  0.002  0.601  0.747-  27 1.42  25 1.42  34 1.43
  27  0.135  0.666  0.746-  37 1.42  26 1.42  28 1.43
  28  0.202  0.599  0.748-  21 1.42  29 1.43  27 1.43
  29  0.336  0.664  0.750-  39 1.43  28 1.43  30 1.44
  30  0.404  0.596  0.755-  23 1.44  31 1.44  29 1.44
  31  0.540  0.667  0.755-  48 1.37  41 1.43  30 1.44
  32  0.738  0.672  0.752-  48 1.38  43 1.40  33 1.44
  33  0.806  0.605  0.752-  47 1.38  34 1.40  32 1.44
  34  0.937  0.670  0.746-  33 1.40  35 1.41  26 1.43
  35  0.002  0.802  0.742-  36 1.41  34 1.41  44 1.42
  36  0.134  0.866  0.742-   3 1.41  35 1.41  37 1.42
  37  0.201  0.799  0.744-  38 1.42  27 1.42  36 1.42
  38  0.334  0.865  0.746-  37 1.42   5 1.42  39 1.43
  39  0.401  0.798  0.748-  40 1.42  29 1.43  38 1.43
  40  0.534  0.866  0.749-  39 1.42  41 1.42   7 1.43
  41  0.602  0.800  0.750-  42 1.42  40 1.42  31 1.43
  42  0.735  0.869  0.747-   9 1.42  41 1.42  43 1.42
  43  0.803  0.803  0.746-  32 1.40  44 1.41  42 1.42
  44  0.935  0.869  0.742-   1 1.41  43 1.41  35 1.42
  45  0.524  0.258  0.761-  16 1.37  15 1.38  49 2.01
  46  0.391  0.390  0.760-  23 1.37  14 1.38  49 2.01
  47  0.742  0.476  0.761-  24 1.37  33 1.38  49 2.01
  48  0.610  0.609  0.760-  31 1.37  32 1.38  49 2.01
  49  0.567  0.433  0.785-  47 2.01  45 2.01  48 2.01  46 2.01
 

IMPORTANT INFORMATION: All symmetrisations will be switched off!
NOSYMM: (Re-)initialisation of all symmetry stuff for point group C_1.

 
 
 KPOINTS: K-POINTS                                

Automatic generation of k-mesh.
Space group operators:
 irot       det(A)        alpha          n_x          n_y          n_z        tau_x        tau_y        tau_z
    1     1.000000     0.000000     1.000000     0.000000     0.000000     0.000000     0.000000     0.000000
 
 Subroutine IBZKPT returns following result:
 ===========================================
 
 Found      4 irreducible k-points:
 
 Following reciprocal coordinates:
            Coordinates               Weight
  0.000000  0.000000  0.000000      1.000000
  0.500000 -0.000000  0.000000      1.000000
  0.000000  0.500000  0.000000      1.000000
  0.500000  0.500000  0.000000      1.000000
 
 Following cartesian coordinates:
            Coordinates               Weight
  0.000000  0.000000  0.000000      1.000000
  0.040650  0.023470  0.000000      1.000000
  0.000000  0.046939  0.000000      1.000000
  0.040650  0.070409  0.000000      1.000000
 


--------------------------------------------------------------------------------------------------------




 Dimension of arrays:
   k-points           NKPTS =      4   k-points in BZ     NKDIM =      4   number of bands    NBANDS=    256
   number of dos      NEDOS =    301   number of ions     NIONS =     49
   non local maximal  LDIM  =      6   non local SUM 2l+1 LMDIM =     18
   total plane-waves  NPLWV = ******
   max r-space proj   IRMAX =   8023   max aug-charges    IRDMAX=  18182
   dimension x,y,z NGX =    96 NGY =   96 NGZ =  150
   dimension x,y,z NGXF=   192 NGYF=  192 NGZF=  300
   support grid    NGXF=   192 NGYF=  192 NGZF=  300
   ions per type =              44   4   1
   NGX,Y,Z   is equivalent  to a cutoff of  12.98, 12.98, 12.47 a.u.
   NGXF,Y,Z  is equivalent  to a cutoff of  25.95, 25.95, 24.94 a.u.

 SYSTEM =  V-N-C                                   
 POSCAR =  C  N  V                                 

 Startparameter for this run:
   NWRITE =      2    write-flag & timer
   PREC   = accura    normal or accurate (medium, high low for compatibility)
   ISTART =      1    job   : 0-new  1-cont  2-samecut
   ICHARG =      1    charge: 1-file 2-atom 10-const
   ISPIN  =      2    spin polarized calculation?
   LNONCOLLINEAR =      F non collinear calculations
   LSORBIT =      F    spin-orbit coupling
   INIWAV =      1    electr: 0-lowe 1-rand  2-diag
   LASPH  =      T    aspherical Exc in radial PAW
   METAGGA=      F    non-selfconsistent MetaGGA calc.

 Electronic Relaxation 1
   ENCUT  =  520.0 eV  38.22 Ry    6.18 a.u.  22.87 22.87 37.19*2*pi/ulx,y,z
   ENINI  =  520.0     initial cutoff
   ENAUG  =  644.9 eV  augmentation charge cutoff
   NELM   =     80;   NELMIN=  2; NELMDL=  0     # of ELM steps 
   EDIFF  = 0.1E-04   stopping-criterion for ELM
   LREAL  =      T    real-space projection
   NLSPLINE    = F    spline interpolate recip. space projectors
   LCOMPAT=      F    compatible to vasp.4.4
   GGA_COMPAT  = T    GGA compatible to vasp.4.4-vasp.4.6
   LMAXPAW     = -100 max onsite density
   LMAXMIX     =    4 max onsite mixed and CHGCAR
   VOSKOWN=      0    Vosko Wilk Nusair interpolation
   ROPT   =   -0.00025  -0.00025  -0.00025
 Ionic relaxation
   EDIFFG = -.3E-01   stopping-criterion for IOM
   NSW    =    300    number of steps for IOM
   NBLOCK =      1;   KBLOCK =    300    inner block; outer block 
   IBRION =      1    ionic relax: 0-MD 1-quasi-New 2-CG
   NFREE  =      0    steps in history (QN), initial steepest desc. (CG)
   ISIF   =      2    stress and relaxation
   IWAVPR =     11    prediction:  0-non 1-charg 2-wave 3-comb
   ISYM   =      0    0-nonsym 1-usesym 2-fastsym
   LCORR  =      T    Harris-Foulkes like correction to forces

   POTIM  = 0.2000    time-step for ionic-motion
   TEIN   =    0.0    initial temperature
   TEBEG  =    0.0;   TEEND  =   0.0 temperature during run
   SMASS  =  -3.00    Nose mass-parameter (am)
   estimated Nose-frequenzy (Omega)   =  0.10E-29 period in steps =****** mass=  -0.346E-26a.u.
   SCALEE = 1.0000    scale energy and forces
   NPACO  =    256;   APACO  = 16.0  distance and # of slots for P.C.
   PSTRESS=    0.0 pullay stress

  Mass of Ions in am
   POMASS =  12.01 14.00 50.94
  Ionic Valenz
   ZVAL   =   4.00  5.00 13.00
  Atomic Wigner-Seitz radii
   RWIGS  =  -1.00 -1.00 -1.00
  virtual crystal weights 
   VCA    =   1.00  1.00  1.00
   NELECT =     209.0000    total number of electrons
   NUPDOWN=      -1.0000    fix difference up-down

 DOS related values:
   EMIN   =  10.00;   EMAX   =-10.00  energy-range for DOS
   EFERMI =   0.00
   ISMEAR =     0;   SIGMA  =   0.10  broadening in eV -4-tet -1-fermi 0-gaus

 Electronic relaxation 2 (details)
   IALGO  =     38    algorithm
   LDIAG  =      T    sub-space diagonalisation (order eigenvalues)
   LSUBROT=      F    optimize rotation matrix (better conditioning)
   TURBO    =      0    0=normal 1=particle mesh
   IRESTART =      0    0=no restart 2=restart with 2 vectors
   NREBOOT  =      0    no. of reboots
   NMIN     =      0    reboot dimension
   EREF     =   0.00    reference energy to select bands
   IMIX   =      4    mixing-type and parameters
     AMIX     =   0.40;   BMIX     =  1.00
     AMIX_MAG =   1.60;   BMIX_MAG =  1.00
     AMIN     =   0.10
     WC   =   100.;   INIMIX=   1;  MIXPRE=   1;  MAXMIX= -45

 Intra band minimization:
   WEIMIN = 0.0010     energy-eigenvalue tresh-hold
   EBREAK =  0.98E-08  absolut break condition
   DEPER  =   0.30     relativ break condition  

   TIME   =   0.40     timestep for ELM

  volume/ion in A,a.u.               =      53.48       360.89
  Fermi-wavevector in a.u.,A,eV,Ry     =   0.704693  1.331677  6.756548  0.496592
  Thomas-Fermi vector in A             =   1.790004
 
 Write flags
   LWAVE        =      T    write WAVECAR
   LDOWNSAMPLE  =      F    k-point downsampling of WAVECAR
   LCHARG       =      T    write CHGCAR
   LVTOT        =      F    write LOCPOT, total local potential
   LVHAR        =      F    write LOCPOT, Hartree potential only
   LELF         =      F    write electronic localiz. function (ELF)
   LORBIT       =      0    0 simple, 1 ext, 2 COOP (PROOUT), +10 PAW based schemes


 Dipole corrections
   LMONO  =      F    monopole corrections only (constant potential shift)
   LDIPOL =      F    correct potential (dipole corrections)
   IDIPOL =      0    1-x, 2-y, 3-z, 4-all directions 
   EPSILON=  1.0000000 bulk dielectric constant

 LDA+U is selected, type is set to LDAUTYPE =  2
   angular momentum for each species LDAUL =    -1   -1    2
   U (eV)           for each species LDAUU =   0.0  0.0  4.0
   J (eV)           for each species LDAUJ =   0.0  0.0  0.0
 Exchange correlation treatment:
   GGA     =    --    GGA type
   LEXCH   =     8    internal setting for exchange type
   VOSKOWN=      0    Vosko Wilk Nusair interpolation
   LHFCALC =     F    Hartree Fock is set to
   LHFONE  =     F    Hartree Fock one center treatment
   AEXX    =    0.0000 exact exchange contribution

 Linear response parameters
   LEPSILON=     F    determine dielectric tensor
   LRPA    =     F    only Hartree local field effects (RPA)
   LNABLA  =     F    use nabla operator in PAW spheres
   LVEL    =     F    velocity operator in full k-point grid
   LINTERFAST=   F  fast interpolation
   KINTER  =     0    interpolate to denser k-point grid
   CSHIFT  =0.1000    complex shift for real part using Kramers Kronig
   OMEGAMAX=  -1.0    maximum frequency
   DEG_THRESHOLD= 0.2000000E-02 threshold for treating states as degnerate
   RTIME   =   -0.100 relaxation time in fs
  (WPLASMAI=    0.000 imaginary part of plasma frequency in eV, 0.658/RTIME)
   DFIELD  = 0.0000000 0.0000000 0.0000000 field for delta impulse in time
 
 Orbital magnetization related:
   ORBITALMAG=     F  switch on orbital magnetization
   LCHIMAG   =     F  perturbation theory with respect to B field
   DQ        =  0.001000  dq finite difference perturbation B field
   LLRAUG    =     F  two centre corrections for induced B field



--------------------------------------------------------------------------------------------------------


 quasi-Newton-method for relaxation of ions
 charge density and potential will be updated during run
 spin polarized calculation
 Variant of blocked Davidson
 Davidson routine will perform the subspace rotation
 perform sub-space diagonalisation
    after iterative eigenvector-optimisation
 modified Broyden-mixing scheme, WC =      100.0
 initial mixing is a Kerker type mixing with AMIX =  0.4000 and BMIX =      1.0000
 Hartree-type preconditioning will be used
 using additional bands          151
 real space projection scheme for non local part
 use partial core corrections
 calculate Harris-corrections to forces 
   (improved forces if not selfconsistent)
 use gradient corrections 
 use of overlap-Matrix (Vanderbilt PP)
 Gauss-broadening in eV      SIGMA  =   0.10


--------------------------------------------------------------------------------------------------------


  energy-cutoff  :      520.00
  volume of cell :     2620.42
      direct lattice vectors                 reciprocal lattice vectors
    12.300000000  0.000000000  0.000000000     0.081300813  0.046939046  0.000000000
    -6.150000000 10.652112467  0.000000000     0.000000000  0.093878093  0.000000000
     0.000000000  0.000000000 20.000000000     0.000000000  0.000000000  0.050000000

  length of vectors
    12.300000000 12.300000000 20.000000000     0.093878093  0.093878093  0.050000000


 
 old parameters found on file WAVECAR:
  energy-cutoff  :      520.00
  volume of cell :     2620.42
      direct lattice vectors                 reciprocal lattice vectors
    12.300000000  0.000000000  0.000000000     0.081300813  0.046939046  0.000000000
    -6.150000000 10.652112467  0.000000000     0.000000000  0.093878093  0.000000000
     0.000000000  0.000000000 20.000000000     0.000000000  0.000000000  0.050000000

  length of vectors

 
 k-points in units of 2pi/SCALE and weight: K-POINTS                                
   0.00000000  0.00000000  0.00000000       0.250
   0.04065041  0.02346952  0.00000000       0.250
   0.00000000  0.04693905  0.00000000       0.250
   0.04065041  0.07040857  0.00000000       0.250
 
 k-points in reciprocal lattice and weights: K-POINTS                                
   0.00000000  0.00000000  0.00000000       0.250
   0.50000000 -0.00000000  0.00000000       0.250
   0.00000000  0.50000000  0.00000000       0.250
   0.50000000  0.50000000  0.00000000       0.250
 
 position of ions in fractional coordinates (direct lattice) 
   0.99927324  0.00072679  0.74177825
   0.13146207  0.06472388  0.74218633
   0.19804436  0.99811189  0.74226125
   0.33038910  0.06326184  0.74611972
   0.39855672  0.99765616  0.74714135
   0.53167688  0.06627568  0.74969333
   0.59935949  0.00040102  0.74860615
   0.73249155  0.06912762  0.74853278
   0.79960133  0.00214745  0.74605369
   0.93246012  0.06753989  0.74423604
   0.99785254  0.20039868  0.74605369
   0.13100024  0.26524830  0.74706471
   0.19656683  0.19706762  0.74601276
   0.32758943  0.26198802  0.75226816
   0.39527262  0.19422744  0.75233312
   0.59382200  0.19996733  0.75495709
   0.72922492  0.27077508  0.75467813
   0.79688734  0.20311265  0.75047448
   0.93087236  0.26750845  0.74853278
   0.99959896  0.40064051  0.74860615
   0.13370556  0.46603631  0.74857230
   0.19959282  0.39838588  0.74958955
   0.33327911  0.46049044  0.75482773
   0.80003266  0.40617800  0.75495709
   0.93372430  0.46832312  0.74969332
   0.00234383  0.60144329  0.74714133
   0.13547308  0.66623615  0.74614843
   0.20248183  0.59913111  0.74847981
   0.33645427  0.66354572  0.75037344
   0.40413188  0.59586812  0.75454177
   0.53950956  0.66672088  0.75482773
   0.73801198  0.67241056  0.75226815
   0.80577255  0.60472739  0.75233312
   0.93673816  0.66961092  0.74611972
   0.00188814  0.80195567  0.74226125
   0.13408035  0.86591968  0.74189956
   0.20090372  0.79909630  0.74440317
   0.33376386  0.86452692  0.74614844
   0.40086889  0.79751816  0.74847982
   0.53396369  0.86629441  0.74857229
   0.60161412  0.80040716  0.74958955
   0.73475170  0.86899975  0.74706471
   0.80293239  0.80343317  0.74601275
   0.93527615  0.86853796  0.74218632
   0.52357029  0.25761574  0.76053234
   0.39094629  0.39025699  0.76044029
   0.74238425  0.47642971  0.76053234
   0.60974301  0.60905370  0.76044029
   0.56665149  0.43334849  0.78497043
 
 position of ions in cartesian coordinates  (Angst):
  12.28659114  0.00774186 14.83556508
   1.21893162  0.68944605 14.84372652
  -3.70244242 10.63200006 14.84522500
   3.67472555  0.67387225 14.92239445
  -1.23333772 10.62714560 14.94282695
   6.13203019  0.70597599 14.99386651
   7.36965541  0.00427169 14.97212308
   8.58451119  0.73635523 14.97065560
   9.82188946  0.02287493 14.92107372
  11.05388919  0.71944250 14.88472082
  11.04113431  2.13466929 14.92107374
  -0.01997410  2.82545476 14.94129425
   1.20580617  2.09918647 14.92025524
   2.41812374  2.79072583 15.04536326
   3.66735439  2.06893256 15.04666240
   6.07421148  2.13007446 15.09914178
   7.30419976  2.88432661 15.09356268
   8.55257146  2.16357881 15.00948969
   9.80455307  2.84953008 14.97065558
   9.83112801  4.26766780 14.97212300
  -1.22154494  4.96427121 14.97144590
   0.00491852  4.24365122 14.99179110
   1.26731679  4.90519597 15.09655457
   7.34240700  4.32665378 15.09914184
   8.60462170  4.98863056 14.99386643
  -3.67004710  6.40664154 14.94282668
  -2.43103346  7.09682235 14.92296855
  -1.19412988  6.38201198 14.96959630
   0.05758127  7.06816368 15.00746880
   1.30623315  6.34725424 15.09083549
   2.53563414  7.10198580 15.09655453
   4.94222241  7.16259289 15.04536307
   6.19192897  6.44162412 15.04666235
   7.40377220  7.13277087 14.92239441
  -4.90880318  8.54252197 14.84522493
  -3.67621768  9.22387383 14.83799114
  -2.44332653  8.51206365 14.88806343
  -1.21154501  9.20903795 14.92296875
   0.02595065  8.49525311 14.96959636
   1.24004268  9.22786552 14.97144584
   2.47734962  8.52602705 14.99179095
   3.69309748  9.25668302 14.94129416
   4.93495447  8.55826048 14.92025503
   6.16238821  9.25176405 14.84372648
   4.85557776  2.74415180 15.21064678
   2.40855882  4.15706134 15.20880578
   6.20128355  5.07498284 15.21064672
   3.75415873  6.48770850 15.20880575
   4.30472016  4.61607685 15.69940854
 


--------------------------------------------------------------------------------------------------------


 k-point  1 :   0.0000 0.0000 0.0000  plane waves:   70503
 k-point  2 :   0.5000-0.0000 0.0000  plane waves:   70542
 k-point  3 :   0.0000 0.5000 0.0000  plane waves:   70542
 k-point  4 :   0.5000 0.5000 0.0000  plane waves:   70542

 maximum and minimum number of plane-waves per node :     70542    70503

 maximum number of plane-waves:     70542
 maximum index in each direction: 
   IXMAX=   22   IYMAX=   22   IZMAX=   37
   IXMIN=  -23   IYMIN=  -23   IZMIN=  -37


 serial   3D FFT for wavefunctions
 parallel 3D FFT for charge:
    minimum data exchange during FFTs selected (reduces bandwidth)


 total amount of memory used by VASP MPI-rank0   181298. kBytes
=======================================================================

   base      :      30000. kBytes
   nonlr-proj:      17135. kBytes
   fftplans  :       7547. kBytes
   grid      :     115983. kBytes
   one-center:       1524. kBytes
   wavefun   :       9109. kBytes
 
     INWAV:  cpu time   19.1546: real time   19.3827
 Broyden mixing: mesh for mixing (old mesh)
   NGX = 45   NGY = 45   NGZ = 75
  (NGX  =192   NGY  =192   NGZ  =300)
  gives a total of 151875 points

 initial charge density was supplied:
 charge density of overlapping atoms calculated
 number of electron     209.0000000 magnetization       3.0000000
 keeping initial charge density in first step


--------------------------------------------------------------------------------------------------------


 Maximum index for non-local projection operator         7744
 Maximum index for augmentation-charges          361 (set IRDMAX)


--------------------------------------------------------------------------------------------------------


 First call to EWALD:  gamma=   0.129
 Maximum number of real-space cells 3x 3x 2
 Maximum number of reciprocal cells 3x 3x 4

    FEWALD:  cpu time    0.0116: real time    0.0166


--------------------------------------- Iteration      1(   1)  ---------------------------------------


    POTLOK:  cpu time    2.4940: real time    2.5560
    SETDIJ:  cpu time    0.4627: real time    0.4736
     EDDAV:  cpu time   87.0147: real time   87.1470
       DOS:  cpu time    0.0623: real time    0.0785
    CHARGE:  cpu time    1.8445: real time    1.8642
    MIXING:  cpu time    0.0491: real time    0.0764
    --------------------------------------------
      LOOP:  cpu time   91.9274: real time   92.1958

 eigenvalue-minimisations  :  8192
 total energy-change (2. order) :-0.4841062E+03  (-0.2096166E+02)
 number of electron     208.9999994 magnetization       2.5707088
 augmentation part        9.3092450 magnetization       2.6212749

 Broyden mixing:
  rms(total) = 0.38066E+01    rms(broyden)= 0.38061E+01
  rms(prec ) = 0.42015E+01
  weight for this iteration     100.00

 Free energy of the ion-electron system (eV)
  ---------------------------------------------------
  alpha Z        PSCENC =        90.11582226
  Ewald energy   TEWEN  =     34768.09054066
  -Hartree energ DENC   =    -41918.40760738
  -exchange      EXHF   =         0.00000000
  -V(xc)+E(xc)   XCENC  =       758.57850258
  PAW double counting   =      3506.49054591    -3575.69169095
  entropy T*S    EENTRO =        -0.02075302
  eigenvalues    EBANDS =     -3597.34320785
  atomic energy  EATOM  =      9484.08161297
  Solvation  Ediel_sol  =         0.00000000
  ---------------------------------------------------
  free energy    TOTEN  =      -484.10623482 eV

  energy without entropy =     -484.08548180  energy(sigma->0) =     -484.09585831


--------------------------------------------------------------------------------------------------------




--------------------------------------- Iteration      1(   2)  ---------------------------------------


    POTLOK:  cpu time    2.4496: real time    2.4594
    SETDIJ:  cpu time    0.4576: real time    0.4578
     EDDAV:  cpu time   47.5500: real time   47.5995
       DOS:  cpu time    0.0616: real time    0.0616
    CHARGE:  cpu time    2.0727: real time    2.0753
    MIXING:  cpu time    0.0411: real time    0.0530
    --------------------------------------------
      LOOP:  cpu time   52.6327: real time   52.7065

 eigenvalue-minimisations  :  5376
 total energy-change (2. order) : 0.6139069E+01  (-0.5404545E+02)
 number of electron     209.0000000 magnetization       2.4472351
 augmentation part       14.1514978 magnetization       1.9374615

 Broyden mixing:
  rms(total) = 0.51665E+01    rms(broyden)= 0.51663E+01
  rms(prec ) = 0.59497E+01
  weight for this iteration     100.00

 eigenvalues of (default mixing * dielectric matrix)
  average eigenvalue GAMMA=   0.4731
  0.4731

 Free energy of the ion-electron system (eV)
  ---------------------------------------------------
  alpha Z        PSCENC =        90.11582226
  Ewald energy   TEWEN  =     34768.09054066
  -Hartree energ DENC   =    -42114.69009321
  -exchange      EXHF   =         0.00000000
  -V(xc)+E(xc)   XCENC  =       769.80707419
  PAW double counting   =      4017.27299784    -4094.12370389
  entropy T*S    EENTRO =        -0.05952864
  eigenvalues    EBANDS =     -3398.46188817
  atomic energy  EATOM  =      9484.08161297
  Solvation  Ediel_sol  =         0.00000000
  ---------------------------------------------------
  free energy    TOTEN  =      -477.96716600 eV

  energy without entropy =     -477.90763735  energy(sigma->0) =     -477.93740168


--------------------------------------------------------------------------------------------------------




--------------------------------------- Iteration      1(   3)  ---------------------------------------


    POTLOK:  cpu time    2.3071: real time    2.3104
    SETDIJ:  cpu time    0.4479: real time    0.4480
     EDDAV:  cpu time   66.4963: real time   66.5620
       DOS:  cpu time    0.0588: real time    0.0589
    CHARGE:  cpu time    1.8572: real time    1.8596
    MIXING:  cpu time    0.0439: real time    0.0440
    --------------------------------------------
      LOOP:  cpu time   71.2113: real time   71.2829

 eigenvalue-minimisations  :  6912
 total energy-change (2. order) : 0.2502938E+02  (-0.5184906E+02)
 number of electron     208.9999995 magnetization       2.0644865
 augmentation part        8.9364066 magnetization       1.9500001

 Broyden mixing:
  rms(total) = 0.21717E+01    rms(broyden)= 0.21714E+01
  rms(prec ) = 0.25211E+01
  weight for this iteration     100.00

 eigenvalues of (default mixing * dielectric matrix)
  average eigenvalue GAMMA=   0.5909
  0.8998  0.2820

 Free energy of the ion-electron system (eV)
  ---------------------------------------------------
  alpha Z        PSCENC =        90.11582226
  Ewald energy   TEWEN  =     34768.09054066
  -Hartree energ DENC   =    -42270.86906504
  -exchange      EXHF   =         0.00000000
  -V(xc)+E(xc)   XCENC  =       775.33877539
  PAW double counting   =      4378.72064803    -4456.61334148
  entropy T*S    EENTRO =        -0.01712052
  eigenvalues    EBANDS =     -3221.78566128
  atomic energy  EATOM  =      9484.08161297
  Solvation  Ediel_sol  =         0.00000000
  ---------------------------------------------------
  free energy    TOTEN  =      -452.93778901 eV

  energy without entropy =     -452.92066849  energy(sigma->0) =     -452.92922875


--------------------------------------------------------------------------------------------------------




--------------------------------------- Iteration      1(   4)  ---------------------------------------


    POTLOK:  cpu time    2.3483: real time    2.3500
    SETDIJ:  cpu time    0.4449: real time    0.4450
     EDDAV:  cpu time   59.4672: real time   59.5321
       DOS:  cpu time    0.0594: real time    0.0594
    CHARGE:  cpu time    1.8818: real time    1.8845
    MIXING:  cpu time    0.0466: real time    0.0466
    --------------------------------------------
      LOOP:  cpu time   64.2482: real time   64.3176

 eigenvalue-minimisations  :  6144
 total energy-change (2. order) : 0.1195050E+02  (-0.2580737E+01)
 number of electron     208.9999996 magnetization       1.9061480
 augmentation part        9.7384694 magnetization       1.1865758

 Broyden mixing:
  rms(total) = 0.84096E+00    rms(broyden)= 0.84079E+00
  rms(prec ) = 0.91036E+00
  weight for this iteration     100.00

 eigenvalues of (default mixing * dielectric matrix)
  average eigenvalue GAMMA=   0.8478
  0.2835  1.1300  1.1300

 Free energy of the ion-electron system (eV)
  ---------------------------------------------------
  alpha Z        PSCENC =        90.11582226
  Ewald energy   TEWEN  =     34768.09054066
  -Hartree energ DENC   =    -42414.15104546
  -exchange      EXHF   =         0.00000000
  -V(xc)+E(xc)   XCENC  =       781.49399892
  PAW double counting   =      4737.30205197    -4818.53403982
  entropy T*S    EENTRO =        -0.06294499
  eigenvalues    EBANDS =     -3069.32328123
  atomic energy  EATOM  =      9484.08161297
  Solvation  Ediel_sol  =         0.00000000
  ---------------------------------------------------
  free energy    TOTEN  =      -440.98728472 eV

  energy without entropy =     -440.92433972  energy(sigma->0) =     -440.95581222


--------------------------------------------------------------------------------------------------------




--------------------------------------- Iteration      1(   5)  ---------------------------------------


    POTLOK:  cpu time    2.2846: real time    2.2858
    SETDIJ:  cpu time    0.4458: real time    0.4460
     EDDAV:  cpu time   66.3966: real time   66.4622
       DOS:  cpu time    0.0745: real time    0.0745
    CHARGE:  cpu time    1.9410: real time    1.9437
    MIXING:  cpu time    0.0343: real time    0.0343
    --------------------------------------------
      LOOP:  cpu time   71.1767: real time   71.2466

 eigenvalue-minimisations  :  6912
 total energy-change (2. order) :-0.2381871E+01  (-0.2227103E+01)
 number of electron     208.9999997 magnetization       2.0270806
 augmentation part       10.3228169 magnetization       0.5352263

 Broyden mixing:
  rms(total) = 0.95712E+00    rms(broyden)= 0.95664E+00
  rms(prec ) = 0.10096E+01
  weight for this iteration     100.00

 eigenvalues of (default mixing * dielectric matrix)
  average eigenvalue GAMMA=   0.9145
  1.4555  1.4555  0.2868  0.4604

 Free energy of the ion-electron system (eV)
  ---------------------------------------------------
  alpha Z        PSCENC =        90.11582226
  Ewald energy   TEWEN  =     34768.09054066
  -Hartree energ DENC   =    -42505.78736764
  -exchange      EXHF   =         0.00000000
  -V(xc)+E(xc)   XCENC  =       783.77201680
  PAW double counting   =      4949.45696764    -5029.58315522
  entropy T*S    EENTRO =        -0.01943193
  eigenvalues    EBANDS =     -2983.49616124
  atomic energy  EATOM  =      9484.08161297
  Solvation  Ediel_sol  =         0.00000000
  ---------------------------------------------------
  free energy    TOTEN  =      -443.36915569 eV

  energy without entropy =     -443.34972376  energy(sigma->0) =     -443.35943972


--------------------------------------------------------------------------------------------------------




--------------------------------------- Iteration      1(   6)  ---------------------------------------


    POTLOK:  cpu time    2.3049: real time    2.3065
    SETDIJ:  cpu time    0.4471: real time    0.4473
     EDDAV:  cpu time   57.3996: real time   57.4602
       DOS:  cpu time    0.0567: real time    0.0567
    CHARGE:  cpu time    1.8110: real time    1.8132
    MIXING:  cpu time    0.0486: real time    0.0486
    --------------------------------------------
      LOOP:  cpu time   62.0679: real time   62.1326

 eigenvalue-minimisations  :  6144
 total energy-change (2. order) :-0.2399369E+00  (-0.5316588E+00)
 number of electron     208.9999997 magnetization       2.1534378
 augmentation part       10.3226590 magnetization       0.7389502

 Broyden mixing:
  rms(total) = 0.49961E+00    rms(broyden)= 0.49951E+00
  rms(prec ) = 0.56912E+00
  weight for this iteration     100.00

 eigenvalues of (default mixing * dielectric matrix)
  average eigenvalue GAMMA=   0.9939
  1.7745  1.1706  1.1706  0.2853  0.5684

 Free energy of the ion-electron system (eV)
  ---------------------------------------------------
  alpha Z        PSCENC =        90.11582226
  Ewald energy   TEWEN  =     34768.09054066
  -Hartree energ DENC   =    -42539.41270851
  -exchange      EXHF   =         0.00000000
  -V(xc)+E(xc)   XCENC  =       784.94769542
  PAW double counting   =      4999.62892752    -5077.52847641
  entropy T*S    EENTRO =        -0.00321502
  eigenvalues    EBANDS =     -2953.52929152
  atomic energy  EATOM  =      9484.08161297
  Solvation  Ediel_sol  =         0.00000000
  ---------------------------------------------------
  free energy    TOTEN  =      -443.60909263 eV

  energy without entropy =     -443.60587760  energy(sigma->0) =     -443.60748512


--------------------------------------------------------------------------------------------------------




--------------------------------------- Iteration      1(   7)  ---------------------------------------


    POTLOK:  cpu time    2.3626: real time    2.3645
    SETDIJ:  cpu time    0.4499: real time    0.4500
     EDDAV:  cpu time   74.5557: real time   74.6319
       DOS:  cpu time    0.1155: real time    0.1155
    CHARGE:  cpu time    1.8177: real time    1.8199
    MIXING:  cpu time    0.0503: real time    0.0503
    --------------------------------------------
      LOOP:  cpu time   79.3516: real time   79.4321

 eigenvalue-minimisations  :  7424
 total energy-change (2. order) :-0.4085523E+00  (-0.1626617E+00)
 number of electron     208.9999997 magnetization       2.2919838
 augmentation part       10.1562589 magnetization       0.8162519

 Broyden mixing:
  rms(total) = 0.27323E+00    rms(broyden)= 0.27321E+00
  rms(prec ) = 0.32208E+00
  weight for this iteration     100.00

 eigenvalues of (default mixing * dielectric matrix)
  average eigenvalue GAMMA=   1.0278
  2.0172  1.3278  1.3278  0.2855  0.6042  0.6042

 Free energy of the ion-electron system (eV)
  ---------------------------------------------------
  alpha Z        PSCENC =        90.11582226
  Ewald energy   TEWEN  =     34768.09054066
  -Hartree energ DENC   =    -42608.27692798
  -exchange      EXHF   =         0.00000000
  -V(xc)+E(xc)   XCENC  =       786.47422607
  PAW double counting   =      5112.04047630    -5190.94824734
  entropy T*S    EENTRO =        -0.00102253
  eigenvalues    EBANDS =     -2885.59412535
  atomic energy  EATOM  =      9484.08161297
  Solvation  Ediel_sol  =         0.00000000
  ---------------------------------------------------
  free energy    TOTEN  =      -444.01764493 eV

  energy without entropy =     -444.01662241  energy(sigma->0) =     -444.01713367


--------------------------------------------------------------------------------------------------------




--------------------------------------- Iteration      1(   8)  ---------------------------------------


    POTLOK:  cpu time    2.3745: real time    2.3774
    SETDIJ:  cpu time    0.4474: real time    0.4475
     EDDAV:  cpu time   47.3404: real time   47.3892
       DOS:  cpu time    0.0500: real time    0.0500
    CHARGE:  cpu time    1.8306: real time    1.8338
    MIXING:  cpu time    0.0524: real time    0.0524
    --------------------------------------------
      LOOP:  cpu time   52.0953: real time   52.1504

 eigenvalue-minimisations  :  5376
 total energy-change (2. order) :-0.1607711E+00  (-0.7560878E-01)
 number of electron     208.9999997 magnetization       2.4945634
 augmentation part       10.0562357 magnetization       0.9471659

 Broyden mixing:
  rms(total) = 0.13797E+00    rms(broyden)= 0.13796E+00
  rms(prec ) = 0.17180E+00
  weight for this iteration     100.00

 eigenvalues of (default mixing * dielectric matrix)
  average eigenvalue GAMMA=   1.0954
  1.7085  1.7085  0.2855  1.4913  1.1532  0.5485  0.7722

 Free energy of the ion-electron system (eV)
  ---------------------------------------------------
  alpha Z        PSCENC =        90.11582226
  Ewald energy   TEWEN  =     34768.09054066
  -Hartree energ DENC   =    -42638.20224559
  -exchange      EXHF   =         0.00000000
  -V(xc)+E(xc)   XCENC  =       786.82262704
  PAW double counting   =      5132.38560930    -5210.36415240
  entropy T*S    EENTRO =        -0.00087315
  eigenvalues    EBANDS =     -2857.10735710
  atomic energy  EATOM  =      9484.08161297
  Solvation  Ediel_sol  =         0.00000000
  ---------------------------------------------------
  free energy    TOTEN  =      -444.17841600 eV

  energy without entropy =     -444.17754285  energy(sigma->0) =     -444.17797943


--------------------------------------------------------------------------------------------------------




--------------------------------------- Iteration      1(   9)  ---------------------------------------


    POTLOK:  cpu time    2.4945: real time    2.4959
    SETDIJ:  cpu time    0.5180: real time    0.5182
     EDDAV:  cpu time   58.5645: real time   58.6273
       DOS:  cpu time    0.0520: real time    0.0520
    CHARGE:  cpu time    1.8279: real time    1.8304
    MIXING:  cpu time    0.0533: real time    0.0533
    --------------------------------------------
      LOOP:  cpu time   63.5102: real time   63.5771

 eigenvalue-minimisations  :  6144
 total energy-change (2. order) : 0.4809351E-01  (-0.1137163E+00)
 number of electron     208.9999997 magnetization       2.6174700
 augmentation part        9.9374875 magnetization       0.9732862

 Broyden mixing:
  rms(total) = 0.96439E-01    rms(broyden)= 0.96414E-01
  rms(prec ) = 0.11068E+00
  weight for this iteration     100.00

 eigenvalues of (default mixing * dielectric matrix)
  average eigenvalue GAMMA=   1.1711
  2.2302  2.2302  1.3261  1.3261  0.2855  0.7404  0.6616  0.5684

 Free energy of the ion-electron system (eV)
  ---------------------------------------------------
  alpha Z        PSCENC =        90.11582226
  Ewald energy   TEWEN  =     34768.09054066
  -Hartree energ DENC   =    -42672.99400843
  -exchange      EXHF   =         0.00000000
  -V(xc)+E(xc)   XCENC  =       787.23601590
  PAW double counting   =      5143.62179474    -5221.20500874
  entropy T*S    EENTRO =        -0.00110809
  eigenvalues    EBANDS =     -2823.07598376
  atomic energy  EATOM  =      9484.08161297
  Solvation  Ediel_sol  =         0.00000000
  ---------------------------------------------------
  free energy    TOTEN  =      -444.13032249 eV

  energy without entropy =     -444.12921440  energy(sigma->0) =     -444.12976845


--------------------------------------------------------------------------------------------------------




--------------------------------------- Iteration      1(  10)  ---------------------------------------


    POTLOK:  cpu time    2.4234: real time    2.4246
    SETDIJ:  cpu time    0.4455: real time    0.4456
     EDDAV:  cpu time   60.1706: real time   60.2341
       DOS:  cpu time    0.0521: real time    0.0521
    CHARGE:  cpu time    1.8195: real time    1.8217
    MIXING:  cpu time    0.0546: real time    0.0547
    --------------------------------------------
      LOOP:  cpu time   64.9657: real time   65.0328

 eigenvalue-minimisations  :  6400
 total energy-change (2. order) :-0.7735562E-03  (-0.1299132E-01)
 number of electron     208.9999997 magnetization       2.7109445
 augmentation part        9.9235739 magnetization       1.0438761

 Broyden mixing:
  rms(total) = 0.81585E-01    rms(broyden)= 0.81577E-01
  rms(prec ) = 0.97914E-01
  weight for this iteration     100.00

 eigenvalues of (default mixing * dielectric matrix)
  average eigenvalue GAMMA=   1.2129
  2.1780  2.1780  1.9988  1.1382  1.1382  0.2855  0.8077  0.5944  0.5971

 Free energy of the ion-electron system (eV)
  ---------------------------------------------------
  alpha Z        PSCENC =        90.11582226
  Ewald energy   TEWEN  =     34768.09054066
  -Hartree energ DENC   =    -42689.17344330
  -exchange      EXHF   =         0.00000000
  -V(xc)+E(xc)   XCENC  =       787.22386440
  PAW double counting   =      5139.04842041    -5216.38454009
  entropy T*S    EENTRO =        -0.00116464
  eigenvalues    EBANDS =     -2807.13220872
  atomic energy  EATOM  =      9484.08161297
  Solvation  Ediel_sol  =         0.00000000
  ---------------------------------------------------
  free energy    TOTEN  =      -444.13109605 eV

  energy without entropy =     -444.12993141  energy(sigma->0) =     -444.13051373


--------------------------------------------------------------------------------------------------------




--------------------------------------- Iteration      1(  11)  ---------------------------------------


    POTLOK:  cpu time    2.3757: real time    2.3771
    SETDIJ:  cpu time    0.4696: real time    0.4697
     EDDAV:  cpu time   55.4114: real time   55.4686
       DOS:  cpu time    0.0486: real time    0.0486
    CHARGE:  cpu time    1.9750: real time    1.9794
    MIXING:  cpu time    0.0583: real time    0.0583
    --------------------------------------------
      LOOP:  cpu time   60.3387: real time   60.4018

 eigenvalue-minimisations  :  5888
 total energy-change (2. order) :-0.1655924E+00  (-0.1176713E-01)
 number of electron     208.9999997 magnetization       2.7646699
 augmentation part        9.9526573 magnetization       1.1165376

 Broyden mixing:
  rms(total) = 0.50732E-01    rms(broyden)= 0.50729E-01
  rms(prec ) = 0.60594E-01
  weight for this iteration     100.00

 eigenvalues of (default mixing * dielectric matrix)
  average eigenvalue GAMMA=   1.1696
  2.0848  1.9211  1.9211  1.5999  0.2855  0.9859  0.9859  0.5579  0.6771  0.6771

 Free energy of the ion-electron system (eV)
  ---------------------------------------------------
  alpha Z        PSCENC =        90.11582226
  Ewald energy   TEWEN  =     34768.09054066
  -Hartree energ DENC   =    -42701.87160199
  -exchange      EXHF   =         0.00000000
  -V(xc)+E(xc)   XCENC  =       787.13195359
  PAW double counting   =      5134.21061206    -5211.64374703
  entropy T*S    EENTRO =        -0.00097904
  eigenvalues    EBANDS =     -2794.41090189
  atomic energy  EATOM  =      9484.08161297
  Solvation  Ediel_sol  =         0.00000000
  ---------------------------------------------------
  free energy    TOTEN  =      -444.29668841 eV

  energy without entropy =     -444.29570936  energy(sigma->0) =     -444.29619889


--------------------------------------------------------------------------------------------------------




--------------------------------------- Iteration      1(  12)  ---------------------------------------


    POTLOK:  cpu time    2.3511: real time    2.3530
    SETDIJ:  cpu time    0.4472: real time    0.4473
     EDDAV:  cpu time   44.7663: real time   44.8148
       DOS:  cpu time    0.0683: real time    0.0683
    CHARGE:  cpu time    1.8363: real time    1.8389
    MIXING:  cpu time    0.0586: real time    0.0586
    --------------------------------------------
      LOOP:  cpu time   49.5277: real time   49.5810

 eigenvalue-minimisations  :  5120
 total energy-change (2. order) :-0.4514989E-01  (-0.4606742E-02)
 number of electron     208.9999997 magnetization       2.8204353
 augmentation part        9.9714739 magnetization       1.1935196

 Broyden mixing:
  rms(total) = 0.20735E-01    rms(broyden)= 0.20726E-01
  rms(prec ) = 0.31221E-01
  weight for this iteration     100.00

 eigenvalues of (default mixing * dielectric matrix)
  average eigenvalue GAMMA=   1.2181
  2.3606  2.3606  1.7434  1.7434  1.0707  1.0707  0.2855  0.7891  0.7891  0.5714
  0.6148

 Free energy of the ion-electron system (eV)
  ---------------------------------------------------
  alpha Z        PSCENC =        90.11582226
  Ewald energy   TEWEN  =     34768.09054066
  -Hartree energ DENC   =    -42709.99663617
  -exchange      EXHF   =         0.00000000
  -V(xc)+E(xc)   XCENC  =       787.18656608
  PAW double counting   =      5132.31335271    -5209.67167875
  entropy T*S    EENTRO =        -0.00091025
  eigenvalues    EBANDS =     -2786.46050780
  atomic energy  EATOM  =      9484.08161297
  Solvation  Ediel_sol  =         0.00000000
  ---------------------------------------------------
  free energy    TOTEN  =      -444.34183829 eV

  energy without entropy =     -444.34092804  energy(sigma->0) =     -444.34138316


--------------------------------------------------------------------------------------------------------




--------------------------------------- Iteration      1(  13)  ---------------------------------------


    POTLOK:  cpu time    2.3090: real time    2.3104
    SETDIJ:  cpu time    0.4481: real time    0.4482
     EDDAV:  cpu time   46.1436: real time   46.1902
       DOS:  cpu time    0.0550: real time    0.0550
    CHARGE:  cpu time    1.8057: real time    1.8082
    MIXING:  cpu time    0.0576: real time    0.0576
    --------------------------------------------
      LOOP:  cpu time   50.8189: real time   50.8696

 eigenvalue-minimisations  :  5120
 total energy-change (2. order) :-0.1695233E-01  (-0.1508631E-02)
 number of electron     208.9999997 magnetization       2.9330120
 augmentation part        9.9757176 magnetization       1.3128918

 Broyden mixing:
  rms(total) = 0.13714E-01    rms(broyden)= 0.13709E-01
  rms(prec ) = 0.23243E-01
  weight for this iteration     100.00

 eigenvalues of (default mixing * dielectric matrix)
  average eigenvalue GAMMA=   1.2512
  2.4669  2.4669  1.8334  1.8334  1.2407  1.0933  1.0933  0.2855  0.7908  0.7201
  0.5686  0.6210

 Free energy of the ion-electron system (eV)
  ---------------------------------------------------
  alpha Z        PSCENC =        90.11582226
  Ewald energy   TEWEN  =     34768.09054066
  -Hartree energ DENC   =    -42718.77117778
  -exchange      EXHF   =         0.00000000
  -V(xc)+E(xc)   XCENC  =       787.24958808
  PAW double counting   =      5130.62801280    -5208.02042609
  entropy T*S    EENTRO =        -0.00089233
  eigenvalues    EBANDS =     -2777.73187119
  atomic energy  EATOM  =      9484.08161297
  Solvation  Ediel_sol  =         0.00000000
  ---------------------------------------------------
  free energy    TOTEN  =      -444.35879062 eV

  energy without entropy =     -444.35789828  energy(sigma->0) =     -444.35834445


--------------------------------------------------------------------------------------------------------




--------------------------------------- Iteration      1(  14)  ---------------------------------------


    POTLOK:  cpu time    2.2813: real time    2.2825
    SETDIJ:  cpu time    0.4497: real time    0.4499
     EDDAV:  cpu time   46.2244: real time   46.2775
       DOS:  cpu time    0.1190: real time    0.1191
    CHARGE:  cpu time    1.8392: real time    1.8416
    MIXING:  cpu time    0.0602: real time    0.0603
    --------------------------------------------
      LOOP:  cpu time   50.9739: real time   51.0309

 eigenvalue-minimisations  :  5120
 total energy-change (2. order) :-0.2325489E-01  (-0.9844775E-03)
 number of electron     208.9999997 magnetization       2.9961691
 augmentation part        9.9747701 magnetization       1.3767688

 Broyden mixing:
  rms(total) = 0.11530E-01    rms(broyden)= 0.11529E-01
  rms(prec ) = 0.15280E-01
  weight for this iteration     100.00

 eigenvalues of (default mixing * dielectric matrix)
  average eigenvalue GAMMA=   1.3927
  3.9413  2.7008  1.8274  1.8274  1.7998  1.0973  1.0973  0.2855  0.8686  0.8090
  0.5662  0.6425  0.6425

 Free energy of the ion-electron system (eV)
  ---------------------------------------------------
  alpha Z        PSCENC =        90.11582226
  Ewald energy   TEWEN  =     34768.09054066
  -Hartree energ DENC   =    -42736.79207231
  -exchange      EXHF   =         0.00000000
  -V(xc)+E(xc)   XCENC  =       787.34442062
  PAW double counting   =      5127.24697563    -5204.71015235
  entropy T*S    EENTRO =        -0.00087027
  eigenvalues    EBANDS =     -2759.75832272
  atomic energy  EATOM  =      9484.08161297
  Solvation  Ediel_sol  =         0.00000000
  ---------------------------------------------------
  free energy    TOTEN  =      -444.38204551 eV

  energy without entropy =     -444.38117524  energy(sigma->0) =     -444.38161037


--------------------------------------------------------------------------------------------------------




--------------------------------------- Iteration      1(  15)  ---------------------------------------


    POTLOK:  cpu time    2.3540: real time    2.3553
    SETDIJ:  cpu time    0.4461: real time    0.4462
     EDDAV:  cpu time   65.6935: real time   65.7623
       DOS:  cpu time    0.0513: real time    0.0513
    CHARGE:  cpu time    1.8132: real time    1.8158
    MIXING:  cpu time    0.0627: real time    0.0628
    --------------------------------------------
      LOOP:  cpu time   70.4208: real time   70.4936

 eigenvalue-minimisations  :  6656
 total energy-change (2. order) :-0.5406040E-02  (-0.2710299E-03)
 number of electron     208.9999997 magnetization       3.0140548
 augmentation part        9.9716929 magnetization       1.3914521

 Broyden mixing:
  rms(total) = 0.46643E-02    rms(broyden)= 0.46632E-02
  rms(prec ) = 0.69282E-02
  weight for this iteration     100.00

 eigenvalues of (default mixing * dielectric matrix)
  average eigenvalue GAMMA=   1.4584
  5.1612  2.6557  1.8362  1.8362  1.8321  0.2855  1.1131  1.1131  1.0801  0.9097
  0.5674  0.7049  0.7049  0.6175

 Free energy of the ion-electron system (eV)
  ---------------------------------------------------
  alpha Z        PSCENC =        90.11582226
  Ewald energy   TEWEN  =     34768.09054066
  -Hartree energ DENC   =    -42747.35515230
  -exchange      EXHF   =         0.00000000
  -V(xc)+E(xc)   XCENC  =       787.38726441
  PAW double counting   =      5125.70431622    -5203.20883995
  entropy T*S    EENTRO =        -0.00087816
  eigenvalues    EBANDS =     -2749.20213766
  atomic energy  EATOM  =      9484.08161297
  Solvation  Ediel_sol  =         0.00000000
  ---------------------------------------------------
  free energy    TOTEN  =      -444.38745155 eV

  energy without entropy =     -444.38657339  energy(sigma->0) =     -444.38701247


--------------------------------------------------------------------------------------------------------




--------------------------------------- Iteration      1(  16)  ---------------------------------------


    POTLOK:  cpu time    2.3774: real time    2.3788
    SETDIJ:  cpu time    0.5346: real time    0.5349
     EDDAV:  cpu time   46.0490: real time   46.0974
       DOS:  cpu time    0.0466: real time    0.0466
    CHARGE:  cpu time    2.2161: real time    2.2193
    MIXING:  cpu time    0.0633: real time    0.0633
    --------------------------------------------
      LOOP:  cpu time   51.2870: real time   51.3404

 eigenvalue-minimisations  :  5120
 total energy-change (2. order) :-0.3409185E-02  (-0.7628315E-04)
 number of electron     208.9999997 magnetization       3.0175647
 augmentation part        9.9694562 magnetization       1.3926692

 Broyden mixing:
  rms(total) = 0.27141E-02    rms(broyden)= 0.27135E-02
  rms(prec ) = 0.40776E-02
  weight for this iteration     100.00

 eigenvalues of (default mixing * dielectric matrix)
  average eigenvalue GAMMA=   1.5415
  6.2299  2.6061  1.8433  1.8433  1.9398  1.9398  1.0928  1.0928  0.2855  0.8526
  0.8526  0.5674  0.6801  0.6801  0.6162

 Free energy of the ion-electron system (eV)
  ---------------------------------------------------
  alpha Z        PSCENC =        90.11582226
  Ewald energy   TEWEN  =     34768.09054066
  -Hartree energ DENC   =    -42751.58732678
  -exchange      EXHF   =         0.00000000
  -V(xc)+E(xc)   XCENC  =       787.39846509
  PAW double counting   =      5126.17348367    -5203.66928957
  entropy T*S    EENTRO =        -0.00087720
  eigenvalues    EBANDS =     -2744.99329183
  atomic energy  EATOM  =      9484.08161297
  Solvation  Ediel_sol  =         0.00000000
  ---------------------------------------------------
  free energy    TOTEN  =      -444.39086074 eV

  energy without entropy =     -444.38998354  energy(sigma->0) =     -444.39042214


--------------------------------------------------------------------------------------------------------




--------------------------------------- Iteration      1(  17)  ---------------------------------------


    POTLOK:  cpu time    2.3451: real time    2.3462
    SETDIJ:  cpu time    0.4574: real time    0.4576
     EDDAV:  cpu time   70.0117: real time   70.0837
       DOS:  cpu time    0.0516: real time    0.0517
    CHARGE:  cpu time    1.8310: real time    1.8335
    MIXING:  cpu time    0.0660: real time    0.0660
    --------------------------------------------
      LOOP:  cpu time   74.7628: real time   74.8387

 eigenvalue-minimisations  :  7168
 total energy-change (2. order) :-0.3455101E-02  (-0.2205172E-04)
 number of electron     208.9999997 magnetization       3.0139686
 augmentation part        9.9698425 magnetization       1.3893125

 Broyden mixing:
  rms(total) = 0.16525E-02    rms(broyden)= 0.16524E-02
  rms(prec ) = 0.24635E-02
  weight for this iteration     100.00

 eigenvalues of (default mixing * dielectric matrix)
  average eigenvalue GAMMA=   1.5946
  7.0015  2.8303  2.3071  1.8475  1.8475  1.8930  1.0940  1.0940  1.1639  0.2855
  0.8350  0.7840  0.5673  0.6721  0.6721  0.6189

 Free energy of the ion-electron system (eV)
  ---------------------------------------------------
  alpha Z        PSCENC =        90.11582226
  Ewald energy   TEWEN  =     34768.09054066
  -Hartree energ DENC   =    -42753.64030509
  -exchange      EXHF   =         0.00000000
  -V(xc)+E(xc)   XCENC  =       787.39763329
  PAW double counting   =      5126.59495319    -5204.06829822
  entropy T*S    EENTRO =        -0.00086924
  eigenvalues    EBANDS =     -2742.96540567
  atomic energy  EATOM  =      9484.08161297
  Solvation  Ediel_sol  =         0.00000000
  ---------------------------------------------------
  free energy    TOTEN  =      -444.39431584 eV

  energy without entropy =     -444.39344660  energy(sigma->0) =     -444.39388122


--------------------------------------------------------------------------------------------------------




--------------------------------------- Iteration      1(  18)  ---------------------------------------


    POTLOK:  cpu time    2.3049: real time    2.3069
    SETDIJ:  cpu time    0.4471: real time    0.4472
     EDDAV:  cpu time   44.9584: real time   45.0061
       DOS:  cpu time    0.0532: real time    0.0532
    CHARGE:  cpu time    1.9512: real time    1.9538
    MIXING:  cpu time    0.0668: real time    0.0668
    --------------------------------------------
      LOOP:  cpu time   49.7816: real time   49.8341

 eigenvalue-minimisations  :  5120
 total energy-change (2. order) :-0.2210879E-02  (-0.1754090E-04)
 number of electron     208.9999997 magnetization       3.0098300
 augmentation part        9.9697879 magnetization       1.3849822

 Broyden mixing:
  rms(total) = 0.10164E-02    rms(broyden)= 0.10163E-02
  rms(prec ) = 0.14859E-02
  weight for this iteration     100.00

 eigenvalues of (default mixing * dielectric matrix)
  average eigenvalue GAMMA=   1.6018
  7.3081  2.9513  2.5196  1.8375  1.8375  1.8380  1.4302  1.0941  1.0941  0.2855
  0.8834  0.8834  0.5673  0.7118  0.7118  0.6177  0.6601

 Free energy of the ion-electron system (eV)
  ---------------------------------------------------
  alpha Z        PSCENC =        90.11582226
  Ewald energy   TEWEN  =     34768.09054066
  -Hartree energ DENC   =    -42754.41749855
  -exchange      EXHF   =         0.00000000
  -V(xc)+E(xc)   XCENC  =       787.39268574
  PAW double counting   =      5126.76070954    -5204.23840216
  entropy T*S    EENTRO =        -0.00086301
  eigenvalues    EBANDS =     -2742.18113417
  atomic energy  EATOM  =      9484.08161297
  Solvation  Ediel_sol  =         0.00000000
  ---------------------------------------------------
  free energy    TOTEN  =      -444.39652672 eV

  energy without entropy =     -444.39566371  energy(sigma->0) =     -444.39609521


--------------------------------------------------------------------------------------------------------




--------------------------------------- Iteration      1(  19)  ---------------------------------------


    POTLOK:  cpu time    2.2981: real time    2.2997
    SETDIJ:  cpu time    0.4459: real time    0.4461
     EDDAV:  cpu time   68.4899: real time   68.5591
       DOS:  cpu time    0.0460: real time    0.0460
    CHARGE:  cpu time    1.8743: real time    1.8768
    MIXING:  cpu time    0.0649: real time    0.0649
    --------------------------------------------
      LOOP:  cpu time   73.2191: real time   73.2927

 eigenvalue-minimisations  :  6912
 total energy-change (2. order) :-0.1458095E-02  (-0.8200844E-05)
 number of electron     208.9999997 magnetization       3.0048379
 augmentation part        9.9697076 magnetization       1.3799668

 Broyden mixing:
  rms(total) = 0.83427E-03    rms(broyden)= 0.83421E-03
  rms(prec ) = 0.10964E-02
  weight for this iteration     100.00

 eigenvalues of (default mixing * dielectric matrix)
  average eigenvalue GAMMA=   1.6499
  7.5514  3.3869  2.6456  1.8359  1.8359  1.9619  1.9058  0.2855  1.0919  1.0919
  1.1461  0.8539  0.8539  0.5673  0.7078  0.7078  0.6190  0.6488

 Free energy of the ion-electron system (eV)
  ---------------------------------------------------
  alpha Z        PSCENC =        90.11582226
  Ewald energy   TEWEN  =     34768.09054066
  -Hartree energ DENC   =    -42754.77874022
  -exchange      EXHF   =         0.00000000
  -V(xc)+E(xc)   XCENC  =       787.39058131
  PAW double counting   =      5126.76948333    -5204.24668181
  entropy T*S    EENTRO =        -0.00086202
  eigenvalues    EBANDS =     -2741.81974129
  atomic energy  EATOM  =      9484.08161297
  Solvation  Ediel_sol  =         0.00000000
  ---------------------------------------------------
  free energy    TOTEN  =      -444.39798481 eV

  energy without entropy =     -444.39712279  energy(sigma->0) =     -444.39755380


--------------------------------------------------------------------------------------------------------




--------------------------------------- Iteration      1(  20)  ---------------------------------------


    POTLOK:  cpu time    2.3254: real time    2.3274
    SETDIJ:  cpu time    0.4782: real time    0.4784
     EDDAV:  cpu time   43.4436: real time   43.4925
       DOS:  cpu time    0.0512: real time    0.0512
    CHARGE:  cpu time    1.8140: real time    1.8165
    MIXING:  cpu time    0.0685: real time    0.0686
    --------------------------------------------
      LOOP:  cpu time   48.1810: real time   48.2346

 eigenvalue-minimisations  :  5120
 total energy-change (2. order) :-0.1265431E-02  (-0.8965868E-05)
 number of electron     208.9999997 magnetization       3.0030486
 augmentation part        9.9699291 magnetization       1.3784332

 Broyden mixing:
  rms(total) = 0.34609E-03    rms(broyden)= 0.34602E-03
  rms(prec ) = 0.51557E-03
  weight for this iteration     100.00

 eigenvalues of (default mixing * dielectric matrix)
  average eigenvalue GAMMA=   1.6922
  7.8243  4.2496  2.5977  2.4245  1.8415  1.8415  1.8769  1.2381  1.0930  1.0930
  0.2855  0.8859  0.8859  0.5673  0.7527  0.7527  0.6190  0.6744  0.6478

 Free energy of the ion-electron system (eV)
  ---------------------------------------------------
  alpha Z        PSCENC =        90.11582226
  Ewald energy   TEWEN  =     34768.09054066
  -Hartree energ DENC   =    -42755.10632646
  -exchange      EXHF   =         0.00000000
  -V(xc)+E(xc)   XCENC  =       787.38770094
  PAW double counting   =      5126.67388618    -5204.15208831
  entropy T*S    EENTRO =        -0.00086215
  eigenvalues    EBANDS =     -2741.48953634
  atomic energy  EATOM  =      9484.08161297
  Solvation  Ediel_sol  =         0.00000000
  ---------------------------------------------------
  free energy    TOTEN  =      -444.39925024 eV

  energy without entropy =     -444.39838809  energy(sigma->0) =     -444.39881917


--------------------------------------------------------------------------------------------------------




--------------------------------------- Iteration      1(  21)  ---------------------------------------


    POTLOK:  cpu time    2.2847: real time    2.2862
    SETDIJ:  cpu time    0.4494: real time    0.4495
     EDDAV:  cpu time   48.9083: real time   48.9602
       DOS:  cpu time    0.0504: real time    0.0504
    CHARGE:  cpu time    1.8391: real time    1.8415
    MIXING:  cpu time    0.0805: real time    0.0805
    --------------------------------------------
      LOOP:  cpu time   53.6123: real time   53.6684

 eigenvalue-minimisations  :  5376
 total energy-change (2. order) :-0.2498221E-03  (-0.8909012E-06)
 number of electron     208.9999997 magnetization       3.0009020
 augmentation part        9.9700218 magnetization       1.3764081

 Broyden mixing:
  rms(total) = 0.29564E-03    rms(broyden)= 0.29560E-03
  rms(prec ) = 0.42846E-03
  weight for this iteration     100.00

 eigenvalues of (default mixing * dielectric matrix)
  average eigenvalue GAMMA=   1.7354
  7.9456  4.9730  2.6028  2.6028  1.8415  1.8415  2.0022  1.5146  0.2855  1.0967
  1.0967  1.0860  0.9056  0.9056  0.7812  0.5673  0.7129  0.6896  0.6202  0.6366

 Free energy of the ion-electron system (eV)
  ---------------------------------------------------
  alpha Z        PSCENC =        90.11582226
  Ewald energy   TEWEN  =     34768.09054066
  -Hartree energ DENC   =    -42755.22591892
  -exchange      EXHF   =         0.00000000
  -V(xc)+E(xc)   XCENC  =       787.38709713
  PAW double counting   =      5126.64466035    -5204.12228862
  entropy T*S    EENTRO =        -0.00086195
  eigenvalues    EBANDS =     -2741.37016395
  atomic energy  EATOM  =      9484.08161297
  Solvation  Ediel_sol  =         0.00000000
  ---------------------------------------------------
  free energy    TOTEN  =      -444.39950006 eV

  energy without entropy =     -444.39863812  energy(sigma->0) =     -444.39906909


--------------------------------------------------------------------------------------------------------




--------------------------------------- Iteration      1(  22)  ---------------------------------------


    POTLOK:  cpu time    2.2845: real time    2.2857
    SETDIJ:  cpu time    0.4468: real time    0.4469
     EDDAV:  cpu time   41.1451: real time   41.1890
       DOS:  cpu time    0.0536: real time    0.0537
    CHARGE:  cpu time    1.8246: real time    1.8284
    MIXING:  cpu time    0.0716: real time    0.0717
    --------------------------------------------
      LOOP:  cpu time   45.8263: real time   45.8753

 eigenvalue-minimisations  :  4864
 total energy-change (2. order) :-0.1791178E-03  (-0.8276128E-06)
 number of electron     208.9999997 magnetization       2.9997717
 augmentation part        9.9699373 magnetization       1.3752216

 Broyden mixing:
  rms(total) = 0.12894E-03    rms(broyden)= 0.12893E-03
  rms(prec ) = 0.23625E-03
  weight for this iteration     100.00

 eigenvalues of (default mixing * dielectric matrix)
  average eigenvalue GAMMA=   1.7521
  8.0241  5.5311  2.7418  2.7418  1.8425  1.8425  2.0900  1.7147  0.2855  1.0952
  1.0952  1.1808  0.8946  0.8946  0.8730  0.5673  0.7381  0.7006  0.6851  0.6202
  0.6355

 Free energy of the ion-electron system (eV)
  ---------------------------------------------------
  alpha Z        PSCENC =        90.11582226
  Ewald energy   TEWEN  =     34768.09054066
  -Hartree energ DENC   =    -42755.36440323
  -exchange      EXHF   =         0.00000000
  -V(xc)+E(xc)   XCENC  =       787.38670323
  PAW double counting   =      5126.64282260    -5204.12190677
  entropy T*S    EENTRO =        -0.00086271
  eigenvalues    EBANDS =     -2741.23000820
  atomic energy  EATOM  =      9484.08161297
  Solvation  Ediel_sol  =         0.00000000
  ---------------------------------------------------
  free energy    TOTEN  =      -444.39967918 eV

  energy without entropy =     -444.39881647  energy(sigma->0) =     -444.39924783


--------------------------------------------------------------------------------------------------------




--------------------------------------- Iteration      1(  23)  ---------------------------------------


    POTLOK:  cpu time    2.3263: real time    2.3276
    SETDIJ:  cpu time    0.4469: real time    0.4471
     EDDAV:  cpu time   68.5091: real time   68.5851
       DOS:  cpu time    0.0714: real time    0.0714
    CHARGE:  cpu time    1.8552: real time    1.8576
    MIXING:  cpu time    0.0751: real time    0.0752
    --------------------------------------------
      LOOP:  cpu time   73.2841: real time   73.3641

 eigenvalue-minimisations  :  6912
 total energy-change (2. order) :-0.6814242E-04  (-0.2032683E-06)
 number of electron     208.9999997 magnetization       2.9990678
 augmentation part        9.9699158 magnetization       1.3745071

 Broyden mixing:
  rms(total) = 0.85593E-04    rms(broyden)= 0.85584E-04
  rms(prec ) = 0.15971E-03
  weight for this iteration     100.00

 eigenvalues of (default mixing * dielectric matrix)
  average eigenvalue GAMMA=   1.7736
  8.1071  5.9027  3.0911  2.6939  1.8425  1.8425  2.0527  2.0527  1.2249  1.2249
  1.0951  1.0951  0.2855  0.8863  0.8863  0.8248  0.5673  0.7136  0.7136  0.6625
  0.6209  0.6325

 Free energy of the ion-electron system (eV)
  ---------------------------------------------------
  alpha Z        PSCENC =        90.11582226
  Ewald energy   TEWEN  =     34768.09054066
  -Hartree energ DENC   =    -42755.44864310
  -exchange      EXHF   =         0.00000000
  -V(xc)+E(xc)   XCENC  =       787.38657069
  PAW double counting   =      5126.63703001    -5204.11602296
  entropy T*S    EENTRO =        -0.00086311
  eigenvalues    EBANDS =     -2741.14579475
  atomic energy  EATOM  =      9484.08161297
  Solvation  Ediel_sol  =         0.00000000
  ---------------------------------------------------
  free energy    TOTEN  =      -444.39974732 eV

  energy without entropy =     -444.39888422  energy(sigma->0) =     -444.39931577


--------------------------------------------------------------------------------------------------------




--------------------------------------- Iteration      1(  24)  ---------------------------------------


    POTLOK:  cpu time    2.2717: real time    2.2729
    SETDIJ:  cpu time    0.4562: real time    0.4563
     EDDAV:  cpu time   72.7758: real time   72.8510
       DOS:  cpu time    0.0487: real time    0.0487
    CHARGE:  cpu time    1.7841: real time    1.7865
    MIXING:  cpu time    0.0645: real time    0.0645
    --------------------------------------------
      LOOP:  cpu time   77.4009: real time   77.4800

 eigenvalue-minimisations  :  7424
 total energy-change (2. order) :-0.4169863E-04  (-0.1168384E-06)
 number of electron     208.9999997 magnetization       2.9987575
 augmentation part        9.9699053 magnetization       1.3741991

 Broyden mixing:
  rms(total) = 0.63148E-04    rms(broyden)= 0.63142E-04
  rms(prec ) = 0.10284E-03
  weight for this iteration     100.00

 eigenvalues of (default mixing * dielectric matrix)
  average eigenvalue GAMMA=   1.7970
  8.1699  6.2484  3.5582  2.5989  2.2349  2.2349  1.8425  1.8425  0.2855  1.3357
  1.3357  1.0960  1.0960  0.9642  0.9642  0.8214  0.8214  0.5673  0.7019  0.7019
  0.6607  0.6250  0.6250

 Free energy of the ion-electron system (eV)
  ---------------------------------------------------
  alpha Z        PSCENC =        90.11582226
  Ewald energy   TEWEN  =     34768.09054066
  -Hartree energ DENC   =    -42755.53057408
  -exchange      EXHF   =         0.00000000
  -V(xc)+E(xc)   XCENC  =       787.38678921
  PAW double counting   =      5126.64091452    -5204.11952339
  entropy T*S    EENTRO =        -0.00086335
  eigenvalues    EBANDS =     -2741.06450782
  atomic energy  EATOM  =      9484.08161297
  Solvation  Ediel_sol  =         0.00000000
  ---------------------------------------------------
  free energy    TOTEN  =      -444.39978902 eV

  energy without entropy =     -444.39892567  energy(sigma->0) =     -444.39935735


--------------------------------------------------------------------------------------------------------




--------------------------------------- Iteration      1(  25)  ---------------------------------------


    POTLOK:  cpu time    2.3255: real time    2.3269
    SETDIJ:  cpu time    0.4481: real time    0.4482
     EDDAV:  cpu time   65.0142: real time   65.0841
       DOS:  cpu time    0.0450: real time    0.0451
    CHARGE:  cpu time    1.9998: real time    2.0023
    MIXING:  cpu time    0.0778: real time    0.0779
    --------------------------------------------
      LOOP:  cpu time   69.9104: real time   69.9846

 eigenvalue-minimisations  :  6656
 total energy-change (2. order) :-0.2021564E-04  (-0.3218262E-07)
 number of electron     208.9999997 magnetization       2.9987163
 augmentation part        9.9699011 magnetization       1.3741551

 Broyden mixing:
  rms(total) = 0.43225E-04    rms(broyden)= 0.43219E-04
  rms(prec ) = 0.60999E-04
  weight for this iteration     100.00

 eigenvalues of (default mixing * dielectric matrix)
  average eigenvalue GAMMA=   1.8182
  8.2163  6.5951  4.0189  2.7705  2.2938  2.2608  1.8426  1.8426  1.7443  0.2855
  1.0947  1.0947  1.1446  1.1446  0.9135  0.9135  0.8409  0.5673  0.7627  0.6979
  0.6979  0.6443  0.6217  0.6284

 Free energy of the ion-electron system (eV)
  ---------------------------------------------------
  alpha Z        PSCENC =        90.11582226
  Ewald energy   TEWEN  =     34768.09054066
  -Hartree energ DENC   =    -42755.59063891
  -exchange      EXHF   =         0.00000000
  -V(xc)+E(xc)   XCENC  =       787.38700654
  PAW double counting   =      5126.64578281    -5204.12427990
  entropy T*S    EENTRO =        -0.00086328
  eigenvalues    EBANDS =     -2741.00479240
  atomic energy  EATOM  =      9484.08161297
  Solvation  Ediel_sol  =         0.00000000
  ---------------------------------------------------
  free energy    TOTEN  =      -444.39980924 eV

  energy without entropy =     -444.39894596  energy(sigma->0) =     -444.39937760


--------------------------------------------------------------------------------------------------------




--------------------------------------- Iteration      1(  26)  ---------------------------------------


    POTLOK:  cpu time    2.2784: real time    2.2796
    SETDIJ:  cpu time    0.4483: real time    0.4488
     EDDAV:  cpu time   67.3724: real time   67.4433
       DOS:  cpu time    0.0490: real time    0.0490
    CHARGE:  cpu time    1.8380: real time    1.8408
    MIXING:  cpu time    0.0744: real time    0.0745
    --------------------------------------------
      LOOP:  cpu time   72.0605: real time   72.1359

 eigenvalue-minimisations  :  6912
 total energy-change (2. order) :-0.1149963E-04  (-0.1377446E-07)
 number of electron     208.9999997 magnetization       2.9987972
 augmentation part        9.9698938 magnetization       1.3742257

 Broyden mixing:
  rms(total) = 0.33788E-04    rms(broyden)= 0.33785E-04
  rms(prec ) = 0.41311E-04
  weight for this iteration     100.00

 eigenvalues of (default mixing * dielectric matrix)
  average eigenvalue GAMMA=   1.8490
  8.3441  6.9162  4.5234  2.8623  2.3961  2.3961  1.8421  1.8421  1.8400  1.3956
  0.2855  1.0958  1.0958  1.0834  1.0834  0.8985  0.8749  0.8749  0.5673  0.7194
  0.7194  0.6790  0.6446  0.6223  0.6223

 Free energy of the ion-electron system (eV)
  ---------------------------------------------------
  alpha Z        PSCENC =        90.11582226
  Ewald energy   TEWEN  =     34768.09054066
  -Hartree energ DENC   =    -42755.61622956
  -exchange      EXHF   =         0.00000000
  -V(xc)+E(xc)   XCENC  =       787.38702860
  PAW double counting   =      5126.64299940    -5204.12174210
  entropy T*S    EENTRO =        -0.00086321
  eigenvalues    EBANDS =     -2740.97898977
  atomic energy  EATOM  =      9484.08161297
  Solvation  Ediel_sol  =         0.00000000
  ---------------------------------------------------
  free energy    TOTEN  =      -444.39982074 eV

  energy without entropy =     -444.39895753  energy(sigma->0) =     -444.39938913


--------------------------------------------------------------------------------------------------------




--------------------------------------- Iteration      1(  27)  ---------------------------------------


    POTLOK:  cpu time    2.3612: real time    2.3626
    SETDIJ:  cpu time    0.4552: real time    0.4554
     EDDAV:  cpu time   60.2606: real time   60.3240
       DOS:  cpu time    0.0511: real time    0.0511
    --------------------------------------------
      LOOP:  cpu time   63.1279: real time   63.1930

 eigenvalue-minimisations  :  6400
 total energy-change (2. order) :-0.7096836E-05  (-0.8407634E-08)
 number of electron     208.9999997 magnetization       2.9987972
 augmentation part        9.9698938 magnetization       1.3742257

 Free energy of the ion-electron system (eV)
  ---------------------------------------------------
  alpha Z        PSCENC =        90.11582226
  Ewald energy   TEWEN  =     34768.09054066
  -Hartree energ DENC   =    -42755.62936132
  -exchange      EXHF   =         0.00000000
  -V(xc)+E(xc)   XCENC  =       787.38703141
  PAW double counting   =      5126.63928940    -5204.11800713
  entropy T*S    EENTRO =        -0.00086317
  eigenvalues    EBANDS =     -2740.96589292
  atomic energy  EATOM  =      9484.08161297
  Solvation  Ediel_sol  =         0.00000000
  ---------------------------------------------------
  free energy    TOTEN  =      -444.39982784 eV

  energy without entropy =     -444.39896466  energy(sigma->0) =     -444.39939625


--------------------------------------------------------------------------------------------------------




 average (electrostatic) potential at core
  the test charge radii are     0.6991  0.7089  0.9956
  (the norm of the test charge is              1.0000)
       1 -58.0281       2 -58.0033       3 -58.0032       4 -58.0931       5 -58.1615
       6 -58.1647       7 -58.0958       8 -58.0710       9 -58.0468      10 -57.9511
      11 -58.0468      12 -58.1616      13 -58.0933      14 -58.7089      15 -58.7082
      16 -58.9100      17 -58.0200      18 -58.1612      19 -58.0710      20 -58.0958
      21 -58.0957      22 -58.1650      23 -58.9101      24 -58.9100      25 -58.1647
      26 -58.1615      27 -58.0467      28 -58.0710      29 -58.1616      30 -58.0195
      31 -58.9101      32 -58.7089      33 -58.7082      34 -58.0931      35 -58.0032
      36 -58.0283      37 -57.9508      38 -58.0467      39 -58.0710      40 -58.0957
      41 -58.1650      42 -58.1616      43 -58.0933      44 -58.0033      45 -72.5910
      46 -72.5918      47 -72.5910      48 -72.5918      49 -53.0229
 
 
 
 E-fermi :  -2.2007     XC(G=0):  -2.1846     alpha+bet : -1.8940


 spin component 1

 k-point     1 :       0.0000    0.0000    0.0000
  band No.  band energies     occupation 
      1     -67.0067      1.00000
      2     -41.1233      1.00000
      3     -41.0838      1.00000
      4     -40.8472      1.00000
      5     -23.1248      1.00000
      6     -22.7833      1.00000
      7     -22.5162      1.00000
      8     -22.2351      1.00000
      9     -21.7093      1.00000
     10     -21.3287      1.00000
     11     -21.2391      1.00000
     12     -20.8152      1.00000
     13     -20.3037      1.00000
     14     -20.0710      1.00000
     15     -19.6106      1.00000
     16     -19.4943      1.00000
     17     -19.1906      1.00000
     18     -19.1066      1.00000
     19     -18.9196      1.00000
     20     -18.7488      1.00000
     21     -18.7099      1.00000
     22     -18.4806      1.00000
     23     -17.9962      1.00000
     24     -17.1994      1.00000
     25     -17.1303      1.00000
     26     -16.6800      1.00000
     27     -16.5485      1.00000
     28     -16.3817      1.00000
     29     -15.9322      1.00000
     30     -15.6503      1.00000
     31     -15.6125      1.00000
     32     -15.4698      1.00000
     33     -15.4278      1.00000
     34     -15.0817      1.00000
     35     -14.5398      1.00000
     36     -14.4265      1.00000
     37     -14.4077      1.00000
     38     -14.3432      1.00000
     39     -14.0920      1.00000
     40     -13.2587      1.00000
     41     -12.5592      1.00000
     42     -12.4816      1.00000
     43     -12.3303      1.00000
     44     -12.1290      1.00000
     45     -11.7826      1.00000
     46     -11.7213      1.00000
     47     -11.6589      1.00000
     48     -11.6158      1.00000
     49     -11.6030      1.00000
     50     -11.4941      1.00000
     51     -11.1108      1.00000
     52     -10.6711      1.00000
     53     -10.6552      1.00000
     54     -10.5355      1.00000
     55     -10.4077      1.00000
     56     -10.1879      1.00000
     57     -10.0470      1.00000
     58     -10.0440      1.00000
     59      -9.7122      1.00000
     60      -9.7072      1.00000
     61      -9.6432      1.00000
     62      -9.4602      1.00000
     63      -9.3388      1.00000
     64      -9.3386      1.00000
     65      -9.2821      1.00000
     66      -9.1984      1.00000
     67      -9.1343      1.00000
     68      -9.1262      1.00000
     69      -9.0837      1.00000
     70      -8.9911      1.00000
     71      -8.9609      1.00000
     72      -8.9185      1.00000
     73      -8.8169      1.00000
     74      -8.4746      1.00000
     75      -8.4719      1.00000
     76      -7.7696      1.00000
     77      -7.7143      1.00000
     78      -7.6166      1.00000
     79      -7.6070      1.00000
     80      -7.5129      1.00000
     81      -7.3066      1.00000
     82      -7.2962      1.00000
     83      -7.2159      1.00000
     84      -7.1718      1.00000
     85      -7.0544      1.00000
     86      -6.8904      1.00000
     87      -6.7002      1.00000
     88      -6.6938      1.00000
     89      -6.5650      1.00000
     90      -6.3518      1.00000
     91      -6.2988      1.00000
     92      -6.2423      1.00000
     93      -6.1245      1.00000
     94      -6.0449      1.00000
     95      -5.6882      1.00000
     96      -5.5428      1.00000
     97      -5.3365      1.00000
     98      -4.5890      1.00000
     99      -4.5057      1.00000
    100      -4.2497      1.00000
    101      -4.2146      1.00000
    102      -4.1128      1.00000
    103      -4.0271      1.00000
    104      -3.7135      1.00000
    105      -3.0448      1.00000
    106      -2.6988      1.00000
    107      -1.6582      0.00000
    108      -1.5941      0.00000
    109      -1.3568      0.00000
    110      -1.2843      0.00000
    111      -1.1992      0.00000
    112      -0.4530      0.00000
    113      -0.2422      0.00000
    114       0.2718      0.00000
    115       0.3092      0.00000
    116       0.3290      0.00000
    117       0.3880      0.00000
    118       0.4999      0.00000
    119       0.8636      0.00000
    120       1.3195      0.00000
    121       1.4280      0.00000
    122       1.6155      0.00000
    123       1.6648      0.00000
    124       1.6681      0.00000
    125       1.7407      0.00000
    126       1.7837      0.00000
    127       1.8133      0.00000
    128       1.8278      0.00000
    129       1.8580      0.00000
    130       2.0931      0.00000
    131       2.1055      0.00000
    132       2.1373      0.00000
    133       2.1597      0.00000
    134       2.3886      0.00000
    135       2.5042      0.00000
    136       2.5290      0.00000
    137       2.5353      0.00000
    138       2.6213      0.00000
    139       2.6228      0.00000
    140       2.6509      0.00000
    141       2.8603      0.00000
    142       2.9186      0.00000
    143       2.9317      0.00000
    144       2.9512      0.00000
    145       2.9519      0.00000
    146       2.9613      0.00000
    147       2.9849      0.00000
    148       3.3691      0.00000
    149       3.7709      0.00000
    150       3.8419      0.00000
    151       3.8689      0.00000
    152       3.8817      0.00000
    153       3.8936      0.00000
    154       3.8944      0.00000
    155       3.9389      0.00000
    156       3.9955      0.00000
    157       4.1690      0.00000
    158       4.2166      0.00000
    159       4.2506      0.00000
    160       4.2857      0.00000
    161       4.2927      0.00000
    162       4.3124      0.00000
    163       4.3252      0.00000
    164       4.3440      0.00000
    165       4.3508      0.00000
    166       4.3543      0.00000
    167       4.3576      0.00000
    168       4.4885      0.00000
    169       4.5034      0.00000
    170       4.6483      0.00000
    171       4.7914      0.00000
    172       4.8181      0.00000
    173       4.9886      0.00000
    174       5.0271      0.00000
    175       5.0288      0.00000
    176       5.0893      0.00000
    177       5.1302      0.00000
    178       5.1345      0.00000
    179       5.1474      0.00000
    180       5.1618      0.00000
    181       5.3043      0.00000
    182       5.3792      0.00000
    183       5.4049      0.00000
    184       5.4300      0.00000
    185       5.5197      0.00000
    186       5.5283      0.00000
    187       5.5528      0.00000
    188       5.5733      0.00000
    189       5.5762      0.00000
    190       5.5820      0.00000
    191       5.5836      0.00000
    192       5.5847      0.00000
    193       5.5892      0.00000
    194       5.5895      0.00000
    195       5.5986      0.00000
    196       5.6211      0.00000
    197       5.6255      0.00000
    198       5.6549      0.00000
    199       5.7297      0.00000
    200       5.7684      0.00000
    201       5.8470      0.00000
    202       5.8938      0.00000
    203       5.9299      0.00000
    204       5.9422      0.00000
    205       6.0076      0.00000
    206       6.0129      0.00000
    207       6.0148      0.00000
    208       6.1047      0.00000
    209       6.1505      0.00000
    210       6.2279      0.00000
    211       6.2881      0.00000
    212       6.3690      0.00000
    213       6.3742      0.00000
    214       6.3923      0.00000
    215       6.4079      0.00000
    216       6.4352      0.00000
    217       6.4438      0.00000
    218       6.4590      0.00000
    219       6.4633      0.00000
    220       6.4694      0.00000
    221       6.4761      0.00000
    222       6.4784      0.00000
    223       6.4860      0.00000
    224       6.4957      0.00000
    225       6.5981      0.00000
    226       6.6140      0.00000
    227       6.6569      0.00000
    228       6.6625      0.00000
    229       6.6834      0.00000
    230       6.8609      0.00000
    231       6.8669      0.00000
    232       6.8901      0.00000
    233       6.8993      0.00000
    234       6.9047      0.00000
    235       6.9118      0.00000
    236       6.9130      0.00000
    237       6.9169      0.00000
    238       6.9250      0.00000
    239       6.9280      0.00000
    240       6.9283      0.00000
    241       6.9576      0.00000
    242       7.1892      0.00000
    243       7.4811      0.00000
    244       7.6509      0.00000
    245       7.6834      0.00000
    246       7.7036      0.00000
    247       7.7410      0.00000
    248       7.7633      0.00000
    249       7.7740      0.00000
    250       7.7841      0.00000
    251       7.7940      0.00000
    252       7.8970      0.00000
    253       7.9407      0.00000
    254       7.9695      0.00000
    255       8.0161      0.00000
    256       8.0755      0.00000

 k-point     2 :       0.5000   -0.0000    0.0000
  band No.  band energies     occupation 
      1     -67.0067      1.00000
      2     -41.1233      1.00000
      3     -41.0838      1.00000
      4     -40.8472      1.00000
      5     -23.0883      1.00000
      6     -22.8356      1.00000
      7     -22.5465      1.00000
      8     -22.2437      1.00000
      9     -21.5983      1.00000
     10     -21.4169      1.00000
     11     -21.0793      1.00000
     12     -20.6075      1.00000
     13     -20.5311      1.00000
     14     -20.2465      1.00000
     15     -19.7528      1.00000
     16     -19.7152      1.00000
     17     -19.3041      1.00000
     18     -19.2980      1.00000
     19     -18.6890      1.00000
     20     -18.4535      1.00000
     21     -18.0830      1.00000
     22     -17.8371      1.00000
     23     -17.8234      1.00000
     24     -17.6921      1.00000
     25     -17.4977      1.00000
     26     -17.2707      1.00000
     27     -16.8756      1.00000
     28     -16.4524      1.00000
     29     -16.0679      1.00000
     30     -15.9349      1.00000
     31     -15.3469      1.00000
     32     -15.3236      1.00000
     33     -15.1611      1.00000
     34     -15.0938      1.00000
     35     -14.5747      1.00000
     36     -14.2088      1.00000
     37     -13.9240      1.00000
     38     -13.8356      1.00000
     39     -13.4182      1.00000
     40     -13.3252      1.00000
     41     -12.9549      1.00000
     42     -12.8892      1.00000
     43     -12.8299      1.00000
     44     -12.7223      1.00000
     45     -12.2567      1.00000
     46     -11.9098      1.00000
     47     -11.6493      1.00000
     48     -11.4848      1.00000
     49     -11.4823      1.00000
     50     -11.3474      1.00000
     51     -10.8848      1.00000
     52     -10.6527      1.00000
     53     -10.6176      1.00000
     54     -10.3720      1.00000
     55     -10.1821      1.00000
     56     -10.1606      1.00000
     57     -10.0900      1.00000
     58      -9.9980      1.00000
     59      -9.7370      1.00000
     60      -9.6603      1.00000
     61      -9.6451      1.00000
     62      -9.6179      1.00000
     63      -9.5378      1.00000
     64      -9.5088      1.00000
     65      -9.3884      1.00000
     66      -9.1571      1.00000
     67      -9.0781      1.00000
     68      -8.8679      1.00000
     69      -8.7307      1.00000
     70      -8.6435      1.00000
     71      -8.5793      1.00000
     72      -8.5726      1.00000
     73      -8.5491      1.00000
     74      -8.4735      1.00000
     75      -8.4198      1.00000
     76      -8.3026      1.00000
     77      -8.2153      1.00000
     78      -8.0668      1.00000
     79      -7.9507      1.00000
     80      -7.6769      1.00000
     81      -7.5733      1.00000
     82      -7.3422      1.00000
     83      -7.0700      1.00000
     84      -7.0432      1.00000
     85      -6.9135      1.00000
     86      -6.8876      1.00000
     87      -6.8617      1.00000
     88      -6.6600      1.00000
     89      -6.4869      1.00000
     90      -6.1931      1.00000
     91      -6.0858      1.00000
     92      -5.9056      1.00000
     93      -5.6969      1.00000
     94      -5.6819      1.00000
     95      -5.4211      1.00000
     96      -5.3526      1.00000
     97      -5.3049      1.00000
     98      -5.2863      1.00000
     99      -5.1644      1.00000
    100      -5.0956      1.00000
    101      -4.2470      1.00000
    102      -3.9632      1.00000
    103      -3.7682      1.00000
    104      -3.6880      1.00000
    105      -2.9952      1.00000
    106      -2.8932      1.00000
    107      -1.7690      0.00000
    108      -1.2962      0.00000
    109      -0.9835      0.00000
    110      -0.8198      0.00000
    111      -0.7444      0.00000
    112      -0.6151      0.00000
    113      -0.2599      0.00000
    114      -0.2593      0.00000
    115      -0.2320      0.00000
    116      -0.0121      0.00000
    117       0.3053      0.00000
    118       0.7676      0.00000
    119       0.8519      0.00000
    120       0.9511      0.00000
    121       1.1857      0.00000
    122       1.4726      0.00000
    123       1.5573      0.00000
    124       1.6305      0.00000
    125       1.6468      0.00000
    126       1.6489      0.00000
    127       1.9065      0.00000
    128       1.9581      0.00000
    129       1.9825      0.00000
    130       2.0452      0.00000
    131       2.1904      0.00000
    132       2.2641      0.00000
    133       2.4547      0.00000
    134       2.6074      0.00000
    135       2.6170      0.00000
    136       2.6483      0.00000
    137       2.7474      0.00000
    138       2.7624      0.00000
    139       2.7985      0.00000
    140       2.9093      0.00000
    141       2.9108      0.00000
    142       3.1901      0.00000
    143       3.2216      0.00000
    144       3.2865      0.00000
    145       3.3420      0.00000
    146       3.4239      0.00000
    147       3.5018      0.00000
    148       3.5242      0.00000
    149       3.5331      0.00000
    150       3.5518      0.00000
    151       3.5532      0.00000
    152       3.5928      0.00000
    153       3.8450      0.00000
    154       3.9082      0.00000
    155       3.9128      0.00000
    156       3.9296      0.00000
    157       3.9327      0.00000
    158       3.9531      0.00000
    159       3.9769      0.00000
    160       4.1174      0.00000
    161       4.1351      0.00000
    162       4.1406      0.00000
    163       4.1974      0.00000
    164       4.2348      0.00000
    165       4.3500      0.00000
    166       4.4750      0.00000
    167       4.5616      0.00000
    168       4.5930      0.00000
    169       4.5940      0.00000
    170       4.6454      0.00000
    171       4.6904      0.00000
    172       4.7035      0.00000
    173       4.8201      0.00000
    174       4.8398      0.00000
    175       4.8622      0.00000
    176       4.9076      0.00000
    177       5.0122      0.00000
    178       5.0440      0.00000
    179       5.1321      0.00000
    180       5.1827      0.00000
    181       5.2330      0.00000
    182       5.2655      0.00000
    183       5.2794      0.00000
    184       5.3100      0.00000
    185       5.3818      0.00000
    186       5.4614      0.00000
    187       5.4642      0.00000
    188       5.4867      0.00000
    189       5.4878      0.00000
    190       5.5266      0.00000
    191       5.5317      0.00000
    192       5.5589      0.00000
    193       5.5926      0.00000
    194       5.6128      0.00000
    195       5.6528      0.00000
    196       5.7014      0.00000
    197       5.7543      0.00000
    198       5.7794      0.00000
    199       5.8296      0.00000
    200       5.8659      0.00000
    201       5.8943      0.00000
    202       5.9027      0.00000
    203       5.9237      0.00000
    204       5.9309      0.00000
    205       5.9399      0.00000
    206       5.9735      0.00000
    207       6.0274      0.00000
    208       6.0728      0.00000
    209       6.1060      0.00000
    210       6.1723      0.00000
    211       6.1889      0.00000
    212       6.2672      0.00000
    213       6.2721      0.00000
    214       6.3180      0.00000
    215       6.3780      0.00000
    216       6.3840      0.00000
    217       6.4769      0.00000
    218       6.5471      0.00000
    219       6.5624      0.00000
    220       6.5881      0.00000
    221       6.6380      0.00000
    222       6.6911      0.00000
    223       6.7152      0.00000
    224       6.7909      0.00000
    225       6.8150      0.00000
    226       6.8182      0.00000
    227       6.8274      0.00000
    228       6.8831      0.00000
    229       6.9074      0.00000
    230       6.9276      0.00000
    231       7.0309      0.00000
    232       7.0880      0.00000
    233       7.0883      0.00000
    234       7.1263      0.00000
    235       7.1812      0.00000
    236       7.1908      0.00000
    237       7.2110      0.00000
    238       7.2140      0.00000
    239       7.2642      0.00000
    240       7.2661      0.00000
    241       7.2713      0.00000
    242       7.2770      0.00000
    243       7.3279      0.00000
    244       7.4241      0.00000
    245       7.4317      0.00000
    246       7.5180      0.00000
    247       7.5259      0.00000
    248       7.5432      0.00000
    249       7.5826      0.00000
    250       7.5873      0.00000
    251       7.6801      0.00000
    252       7.7352      0.00000
    253       7.7921      0.00000
    254       7.8840      0.00000
    255       7.8893      0.00000
    256       7.8895      0.00000

 k-point     3 :       0.0000    0.5000    0.0000
  band No.  band energies     occupation 
      1     -67.0067      1.00000
      2     -41.1233      1.00000
      3     -41.0838      1.00000
      4     -40.8472      1.00000
      5     -23.0883      1.00000
      6     -22.8356      1.00000
      7     -22.5465      1.00000
      8     -22.2437      1.00000
      9     -21.5983      1.00000
     10     -21.4169      1.00000
     11     -21.0793      1.00000
     12     -20.6075      1.00000
     13     -20.5311      1.00000
     14     -20.2465      1.00000
     15     -19.7528      1.00000
     16     -19.7152      1.00000
     17     -19.3041      1.00000
     18     -19.2980      1.00000
     19     -18.6890      1.00000
     20     -18.4535      1.00000
     21     -18.0830      1.00000
     22     -17.8371      1.00000
     23     -17.8234      1.00000
     24     -17.6921      1.00000
     25     -17.4977      1.00000
     26     -17.2707      1.00000
     27     -16.8756      1.00000
     28     -16.4524      1.00000
     29     -16.0679      1.00000
     30     -15.9349      1.00000
     31     -15.3469      1.00000
     32     -15.3236      1.00000
     33     -15.1611      1.00000
     34     -15.0938      1.00000
     35     -14.5747      1.00000
     36     -14.2088      1.00000
     37     -13.9240      1.00000
     38     -13.8356      1.00000
     39     -13.4182      1.00000
     40     -13.3252      1.00000
     41     -12.9549      1.00000
     42     -12.8892      1.00000
     43     -12.8299      1.00000
     44     -12.7223      1.00000
     45     -12.2567      1.00000
     46     -11.9098      1.00000
     47     -11.6493      1.00000
     48     -11.4848      1.00000
     49     -11.4823      1.00000
     50     -11.3474      1.00000
     51     -10.8848      1.00000
     52     -10.6527      1.00000
     53     -10.6176      1.00000
     54     -10.3720      1.00000
     55     -10.1821      1.00000
     56     -10.1606      1.00000
     57     -10.0900      1.00000
     58      -9.9980      1.00000
     59      -9.7370      1.00000
     60      -9.6603      1.00000
     61      -9.6451      1.00000
     62      -9.6179      1.00000
     63      -9.5378      1.00000
     64      -9.5088      1.00000
     65      -9.3884      1.00000
     66      -9.1571      1.00000
     67      -9.0781      1.00000
     68      -8.8679      1.00000
     69      -8.7307      1.00000
     70      -8.6435      1.00000
     71      -8.5793      1.00000
     72      -8.5726      1.00000
     73      -8.5491      1.00000
     74      -8.4735      1.00000
     75      -8.4198      1.00000
     76      -8.3026      1.00000
     77      -8.2153      1.00000
     78      -8.0668      1.00000
     79      -7.9507      1.00000
     80      -7.6769      1.00000
     81      -7.5733      1.00000
     82      -7.3422      1.00000
     83      -7.0700      1.00000
     84      -7.0432      1.00000
     85      -6.9135      1.00000
     86      -6.8876      1.00000
     87      -6.8617      1.00000
     88      -6.6600      1.00000
     89      -6.4869      1.00000
     90      -6.1931      1.00000
     91      -6.0858      1.00000
     92      -5.9056      1.00000
     93      -5.6969      1.00000
     94      -5.6819      1.00000
     95      -5.4211      1.00000
     96      -5.3526      1.00000
     97      -5.3049      1.00000
     98      -5.2863      1.00000
     99      -5.1644      1.00000
    100      -5.0956      1.00000
    101      -4.2470      1.00000
    102      -3.9632      1.00000
    103      -3.7682      1.00000
    104      -3.6880      1.00000
    105      -2.9952      1.00000
    106      -2.8932      1.00000
    107      -1.7690      0.00000
    108      -1.2962      0.00000
    109      -0.9835      0.00000
    110      -0.8198      0.00000
    111      -0.7444      0.00000
    112      -0.6151      0.00000
    113      -0.2599      0.00000
    114      -0.2593      0.00000
    115      -0.2320      0.00000
    116      -0.0121      0.00000
    117       0.3053      0.00000
    118       0.7676      0.00000
    119       0.8519      0.00000
    120       0.9511      0.00000
    121       1.1857      0.00000
    122       1.4726      0.00000
    123       1.5573      0.00000
    124       1.6305      0.00000
    125       1.6468      0.00000
    126       1.6489      0.00000
    127       1.9065      0.00000
    128       1.9581      0.00000
    129       1.9825      0.00000
    130       2.0452      0.00000
    131       2.1904      0.00000
    132       2.2641      0.00000
    133       2.4547      0.00000
    134       2.6074      0.00000
    135       2.6170      0.00000
    136       2.6483      0.00000
    137       2.7474      0.00000
    138       2.7624      0.00000
    139       2.7985      0.00000
    140       2.9093      0.00000
    141       2.9108      0.00000
    142       3.1901      0.00000
    143       3.2216      0.00000
    144       3.2865      0.00000
    145       3.3420      0.00000
    146       3.4239      0.00000
    147       3.5018      0.00000
    148       3.5242      0.00000
    149       3.5331      0.00000
    150       3.5518      0.00000
    151       3.5532      0.00000
    152       3.5928      0.00000
    153       3.8450      0.00000
    154       3.9082      0.00000
    155       3.9128      0.00000
    156       3.9296      0.00000
    157       3.9327      0.00000
    158       3.9531      0.00000
    159       3.9769      0.00000
    160       4.1174      0.00000
    161       4.1351      0.00000
    162       4.1406      0.00000
    163       4.1974      0.00000
    164       4.2348      0.00000
    165       4.3500      0.00000
    166       4.4750      0.00000
    167       4.5616      0.00000
    168       4.5930      0.00000
    169       4.5940      0.00000
    170       4.6454      0.00000
    171       4.6904      0.00000
    172       4.7035      0.00000
    173       4.8201      0.00000
    174       4.8398      0.00000
    175       4.8622      0.00000
    176       4.9076      0.00000
    177       5.0122      0.00000
    178       5.0440      0.00000
    179       5.1321      0.00000
    180       5.1827      0.00000
    181       5.2330      0.00000
    182       5.2655      0.00000
    183       5.2794      0.00000
    184       5.3100      0.00000
    185       5.3818      0.00000
    186       5.4614      0.00000
    187       5.4642      0.00000
    188       5.4867      0.00000
    189       5.4878      0.00000
    190       5.5266      0.00000
    191       5.5317      0.00000
    192       5.5589      0.00000
    193       5.5926      0.00000
    194       5.6128      0.00000
    195       5.6528      0.00000
    196       5.7014      0.00000
    197       5.7542      0.00000
    198       5.7794      0.00000
    199       5.8296      0.00000
    200       5.8659      0.00000
    201       5.8943      0.00000
    202       5.9027      0.00000
    203       5.9237      0.00000
    204       5.9309      0.00000
    205       5.9399      0.00000
    206       5.9735      0.00000
    207       6.0274      0.00000
    208       6.0728      0.00000
    209       6.1060      0.00000
    210       6.1723      0.00000
    211       6.1889      0.00000
    212       6.2672      0.00000
    213       6.2721      0.00000
    214       6.3180      0.00000
    215       6.3780      0.00000
    216       6.3840      0.00000
    217       6.4769      0.00000
    218       6.5471      0.00000
    219       6.5624      0.00000
    220       6.5881      0.00000
    221       6.6380      0.00000
    222       6.6911      0.00000
    223       6.7152      0.00000
    224       6.7909      0.00000
    225       6.8150      0.00000
    226       6.8182      0.00000
    227       6.8274      0.00000
    228       6.8831      0.00000
    229       6.9074      0.00000
    230       6.9276      0.00000
    231       7.0309      0.00000
    232       7.0880      0.00000
    233       7.0883      0.00000
    234       7.1263      0.00000
    235       7.1812      0.00000
    236       7.1908      0.00000
    237       7.2110      0.00000
    238       7.2140      0.00000
    239       7.2642      0.00000
    240       7.2661      0.00000
    241       7.2713      0.00000
    242       7.2770      0.00000
    243       7.3279      0.00000
    244       7.4241      0.00000
    245       7.4317      0.00000
    246       7.5180      0.00000
    247       7.5259      0.00000
    248       7.5432      0.00000
    249       7.5826      0.00000
    250       7.5873      0.00000
    251       7.6801      0.00000
    252       7.7352      0.00000
    253       7.7921      0.00000
    254       7.8840      0.00000
    255       7.8893      0.00000
    256       7.8895      0.00000

 k-point     4 :       0.5000    0.5000    0.0000
  band No.  band energies     occupation 
      1     -67.0067      1.00000
      2     -41.1233      1.00000
      3     -41.0838      1.00000
      4     -40.8472      1.00000
      5     -23.0923      1.00000
      6     -22.8034      1.00000
      7     -22.6113      1.00000
      8     -22.1743      1.00000
      9     -21.6672      1.00000
     10     -21.4575      1.00000
     11     -20.9570      1.00000
     12     -20.6113      1.00000
     13     -20.3764      1.00000
     14     -20.1944      1.00000
     15     -20.1653      1.00000
     16     -19.8736      1.00000
     17     -19.1238      1.00000
     18     -18.9939      1.00000
     19     -18.8227      1.00000
     20     -18.3497      1.00000
     21     -18.1229      1.00000
     22     -17.8701      1.00000
     23     -17.8494      1.00000
     24     -17.5627      1.00000
     25     -17.4157      1.00000
     26     -17.2773      1.00000
     27     -17.1389      1.00000
     28     -16.7806      1.00000
     29     -16.1880      1.00000
     30     -15.4901      1.00000
     31     -15.3748      1.00000
     32     -15.1817      1.00000
     33     -15.1439      1.00000
     34     -14.9182      1.00000
     35     -14.3902      1.00000
     36     -14.2932      1.00000
     37     -14.0500      1.00000
     38     -13.8958      1.00000
     39     -13.6991      1.00000
     40     -13.1433      1.00000
     41     -13.0902      1.00000
     42     -12.9927      1.00000
     43     -12.9261      1.00000
     44     -12.7872      1.00000
     45     -12.2639      1.00000
     46     -12.0086      1.00000
     47     -11.4926      1.00000
     48     -11.3377      1.00000
     49     -11.2942      1.00000
     50     -11.0533      1.00000
     51     -11.0271      1.00000
     52     -10.8678      1.00000
     53     -10.5137      1.00000
     54     -10.1893      1.00000
     55     -10.1852      1.00000
     56     -10.0934      1.00000
     57      -9.9994      1.00000
     58      -9.9065      1.00000
     59      -9.9012      1.00000
     60      -9.8296      1.00000
     61      -9.7598      1.00000
     62      -9.7559      1.00000
     63      -9.6622      1.00000
     64      -9.5151      1.00000
     65      -9.3766      1.00000
     66      -9.3446      1.00000
     67      -8.9385      1.00000
     68      -8.8259      1.00000
     69      -8.8090      1.00000
     70      -8.6776      1.00000
     71      -8.6007      1.00000
     72      -8.5276      1.00000
     73      -8.4590      1.00000
     74      -8.4150      1.00000
     75      -8.2523      1.00000
     76      -8.2364      1.00000
     77      -8.0630      1.00000
     78      -8.0186      1.00000
     79      -7.8359      1.00000
     80      -7.6562      1.00000
     81      -7.6378      1.00000
     82      -7.5600      1.00000
     83      -7.4288      1.00000
     84      -7.0646      1.00000
     85      -6.9883      1.00000
     86      -6.8655      1.00000
     87      -6.7501      1.00000
     88      -6.5935      1.00000
     89      -6.4457      1.00000
     90      -6.3824      1.00000
     91      -6.2186      1.00000
     92      -5.7843      1.00000
     93      -5.5227      1.00000
     94      -5.4368      1.00000
     95      -5.4041      1.00000
     96      -5.3879      1.00000
     97      -5.3560      1.00000
     98      -5.1898      1.00000
     99      -5.1746      1.00000
    100      -5.1001      1.00000
    101      -4.4072      1.00000
    102      -4.1181      1.00000
    103      -4.0148      1.00000
    104      -3.6343      1.00000
    105      -2.8491      1.00000
    106      -2.3715      0.99217
    107      -2.0234      0.00609
    108      -1.5932      0.00000
    109      -0.8337      0.00000
    110      -0.8173      0.00000
    111      -0.7020      0.00000
    112      -0.6624      0.00000
    113      -0.3865      0.00000
    114      -0.1218      0.00000
    115      -0.0664      0.00000
    116      -0.0363      0.00000
    117       0.3526      0.00000
    118       0.5991      0.00000
    119       0.8792      0.00000
    120       1.0416      0.00000
    121       1.0714      0.00000
    122       1.4185      0.00000
    123       1.5360      0.00000
    124       1.5749      0.00000
    125       1.5931      0.00000
    126       1.6418      0.00000
    127       1.9083      0.00000
    128       1.9612      0.00000
    129       2.0185      0.00000
    130       2.1880      0.00000
    131       2.2202      0.00000
    132       2.3899      0.00000
    133       2.5248      0.00000
    134       2.6045      0.00000
    135       2.6130      0.00000
    136       2.6884      0.00000
    137       2.7038      0.00000
    138       2.7274      0.00000
    139       2.7520      0.00000
    140       2.8147      0.00000
    141       2.9168      0.00000
    142       3.1597      0.00000
    143       3.2098      0.00000
    144       3.3013      0.00000
    145       3.3792      0.00000
    146       3.4063      0.00000
    147       3.4764      0.00000
    148       3.4936      0.00000
    149       3.5373      0.00000
    150       3.5475      0.00000
    151       3.5557      0.00000
    152       3.5989      0.00000
    153       3.8165      0.00000
    154       3.9043      0.00000
    155       3.9232      0.00000
    156       3.9270      0.00000
    157       3.9290      0.00000
    158       3.9606      0.00000
    159       3.9659      0.00000
    160       4.1419      0.00000
    161       4.1737      0.00000
    162       4.1884      0.00000
    163       4.2209      0.00000
    164       4.3405      0.00000
    165       4.3803      0.00000
    166       4.5130      0.00000
    167       4.5839      0.00000
    168       4.5884      0.00000
    169       4.6415      0.00000
    170       4.6680      0.00000
    171       4.6940      0.00000
    172       4.8209      0.00000
    173       4.8355      0.00000
    174       4.8557      0.00000
    175       4.9015      0.00000
    176       4.9221      0.00000
    177       4.9700      0.00000
    178       5.0244      0.00000
    179       5.0440      0.00000
    180       5.1437      0.00000
    181       5.1838      0.00000
    182       5.2718      0.00000
    183       5.2790      0.00000
    184       5.2898      0.00000
    185       5.3358      0.00000
    186       5.3834      0.00000
    187       5.4376      0.00000
    188       5.4759      0.00000
    189       5.4894      0.00000
    190       5.4928      0.00000
    191       5.5382      0.00000
    192       5.5464      0.00000
    193       5.5862      0.00000
    194       5.6231      0.00000
    195       5.6258      0.00000
    196       5.6337      0.00000
    197       5.6609      0.00000
    198       5.7397      0.00000
    199       5.7579      0.00000
    200       5.7641      0.00000
    201       5.8846      0.00000
    202       5.8982      0.00000
    203       5.9234      0.00000
    204       5.9250      0.00000
    205       5.9340      0.00000
    206       5.9450      0.00000
    207       5.9703      0.00000
    208       6.0207      0.00000
    209       6.0778      0.00000
    210       6.1629      0.00000
    211       6.1702      0.00000
    212       6.2717      0.00000
    213       6.3035      0.00000
    214       6.3146      0.00000
    215       6.3241      0.00000
    216       6.4671      0.00000
    217       6.4676      0.00000
    218       6.5514      0.00000
    219       6.5584      0.00000
    220       6.6255      0.00000
    221       6.6585      0.00000
    222       6.7053      0.00000
    223       6.7990      0.00000
    224       6.8199      0.00000
    225       6.8232      0.00000
    226       6.8369      0.00000
    227       6.8993      0.00000
    228       6.9056      0.00000
    229       6.9150      0.00000
    230       6.9278      0.00000
    231       6.9463      0.00000
    232       7.0747      0.00000
    233       7.1015      0.00000
    234       7.1127      0.00000
    235       7.1531      0.00000
    236       7.1589      0.00000
    237       7.1942      0.00000
    238       7.2134      0.00000
    239       7.2544      0.00000
    240       7.2667      0.00000
    241       7.2945      0.00000
    242       7.2958      0.00000
    243       7.3003      0.00000
    244       7.4068      0.00000
    245       7.4302      0.00000
    246       7.4682      0.00000
    247       7.5234      0.00000
    248       7.5448      0.00000
    249       7.5644      0.00000
    250       7.5823      0.00000
    251       7.5823      0.00000
    252       7.6163      0.00000
    253       7.6789      0.00000
    254       7.8182      0.00000
    255       7.8792      0.00000
    256       7.8893      0.00000

 spin component 2

 k-point     1 :       0.0000    0.0000    0.0000
  band No.  band energies     occupation 
      1     -64.6183      1.00000
      2     -39.1380      1.00000
      3     -38.6070      1.00000
      4     -38.1904      1.00000
      5     -23.1174      1.00000
      6     -22.7777      1.00000
      7     -22.5213      1.00000
      8     -22.2428      1.00000
      9     -21.7052      1.00000
     10     -21.3243      1.00000
     11     -21.2348      1.00000
     12     -20.8163      1.00000
     13     -20.3014      1.00000
     14     -20.0723      1.00000
     15     -19.5994      1.00000
     16     -19.4821      1.00000
     17     -19.1872      1.00000
     18     -19.1022      1.00000
     19     -18.9159      1.00000
     20     -18.7438      1.00000
     21     -18.6971      1.00000
     22     -18.4763      1.00000
     23     -17.9878      1.00000
     24     -17.1939      1.00000
     25     -17.1223      1.00000
     26     -16.6763      1.00000
     27     -16.5426      1.00000
     28     -16.3811      1.00000
     29     -15.9239      1.00000
     30     -15.6446      1.00000
     31     -15.6048      1.00000
     32     -15.4553      1.00000
     33     -15.4140      1.00000
     34     -15.0774      1.00000
     35     -14.5274      1.00000
     36     -14.4221      1.00000
     37     -14.4048      1.00000
     38     -14.3280      1.00000
     39     -14.0801      1.00000
     40     -13.2550      1.00000
     41     -12.5312      1.00000
     42     -12.4774      1.00000
     43     -12.3222      1.00000
     44     -12.1267      1.00000
     45     -11.7732      1.00000
     46     -11.7091      1.00000
     47     -11.6536      1.00000
     48     -11.6129      1.00000
     49     -11.5982      1.00000
     50     -11.4739      1.00000
     51     -11.1031      1.00000
     52     -10.6513      1.00000
     53     -10.6378      1.00000
     54     -10.5332      1.00000
     55     -10.3813      1.00000
     56     -10.1755      1.00000
     57     -10.0357      1.00000
     58     -10.0265      1.00000
     59      -9.7058      1.00000
     60      -9.6750      1.00000
     61      -9.6251      1.00000
     62      -9.4461      1.00000
     63      -9.3262      1.00000
     64      -9.3145      1.00000
     65      -9.2784      1.00000
     66      -9.1832      1.00000
     67      -9.1241      1.00000
     68      -9.0809      1.00000
     69      -9.0697      1.00000
     70      -8.9832      1.00000
     71      -8.9579      1.00000
     72      -8.9167      1.00000
     73      -8.8146      1.00000
     74      -8.4303      1.00000
     75      -8.4134      1.00000
     76      -7.7514      1.00000
     77      -7.7067      1.00000
     78      -7.6108      1.00000
     79      -7.5884      1.00000
     80      -7.4737      1.00000
     81      -7.3059      1.00000
     82      -7.2072      1.00000
     83      -7.1460      1.00000
     84      -7.0909      1.00000
     85      -7.0337      1.00000
     86      -6.8249      1.00000
     87      -6.6875      1.00000
     88      -6.6465      1.00000
     89      -6.5554      1.00000
     90      -6.3431      1.00000
     91      -6.2745      1.00000
     92      -6.2147      1.00000
     93      -6.1117      1.00000
     94      -6.0143      1.00000
     95      -5.4536      1.00000
     96      -5.4508      1.00000
     97      -5.2746      1.00000
     98      -4.5888      1.00000
     99      -4.4572      1.00000
    100      -4.2383      1.00000
    101      -4.2019      1.00000
    102      -4.0999      1.00000
    103      -2.7820      1.00000
    104      -1.9004      0.00001
    105      -1.6247      0.00000
    106      -1.3799      0.00000
    107      -1.3688      0.00000
    108      -1.0414      0.00000
    109      -0.3562      0.00000
    110       0.0809      0.00000
    111       0.1013      0.00000
    112       0.2898      0.00000
    113       0.4040      0.00000
    114       0.4366      0.00000
    115       0.6284      0.00000
    116       0.8625      0.00000
    117       1.2957      0.00000
    118       1.5007      0.00000
    119       1.5031      0.00000
    120       1.5785      0.00000
    121       1.6759      0.00000
    122       1.7218      0.00000
    123       1.8205      0.00000
    124       1.8396      0.00000
    125       1.8561      0.00000
    126       1.8669      0.00000
    127       1.9213      0.00000
    128       2.0604      0.00000
    129       2.1124      0.00000
    130       2.1615      0.00000
    131       2.2564      0.00000
    132       2.2908      0.00000
    133       2.5697      0.00000
    134       2.6097      0.00000
    135       2.6196      0.00000
    136       2.6277      0.00000
    137       2.6307      0.00000
    138       2.6458      0.00000
    139       2.6910      0.00000
    140       2.9941      0.00000
    141       2.9961      0.00000
    142       2.9968      0.00000
    143       2.9988      0.00000
    144       3.0011      0.00000
    145       3.0142      0.00000
    146       3.0701      0.00000
    147       3.3952      0.00000
    148       3.6122      0.00000
    149       3.8847      0.00000
    150       3.8862      0.00000
    151       3.9187      0.00000
    152       3.9200      0.00000
    153       3.9210      0.00000
    154       3.9288      0.00000
    155       4.0080      0.00000
    156       4.1093      0.00000
    157       4.2988      0.00000
    158       4.3091      0.00000
    159       4.3327      0.00000
    160       4.3329      0.00000
    161       4.3376      0.00000
    162       4.3428      0.00000
    163       4.3577      0.00000
    164       4.3700      0.00000
    165       4.3860      0.00000
    166       4.3868      0.00000
    167       4.4954      0.00000
    168       4.5819      0.00000
    169       4.6626      0.00000
    170       4.6745      0.00000
    171       4.8277      0.00000
    172       4.8921      0.00000
    173       5.0128      0.00000
    174       5.0692      0.00000
    175       5.1472      0.00000
    176       5.1688      0.00000
    177       5.1719      0.00000
    178       5.1827      0.00000
    179       5.1832      0.00000
    180       5.2036      0.00000
    181       5.3574      0.00000
    182       5.4161      0.00000
    183       5.4393      0.00000
    184       5.4568      0.00000
    185       5.5375      0.00000
    186       5.6050      0.00000
    187       5.6261      0.00000
    188       5.6351      0.00000
    189       5.6375      0.00000
    190       5.6385      0.00000
    191       5.6394      0.00000
    192       5.6407      0.00000
    193       5.6485      0.00000
    194       5.6680      0.00000
    195       5.6710      0.00000
    196       5.6747      0.00000
    197       5.6845      0.00000
    198       5.7553      0.00000
    199       5.7893      0.00000
    200       5.8139      0.00000
    201       5.8896      0.00000
    202       5.9612      0.00000
    203       5.9796      0.00000
    204       6.0136      0.00000
    205       6.0223      0.00000
    206       6.0355      0.00000
    207       6.0435      0.00000
    208       6.1442      0.00000
    209       6.2837      0.00000
    210       6.2944      0.00000
    211       6.3270      0.00000
    212       6.4354      0.00000
    213       6.4595      0.00000
    214       6.4750      0.00000
    215       6.4752      0.00000
    216       6.5007      0.00000
    217       6.5007      0.00000
    218       6.5024      0.00000
    219       6.5059      0.00000
    220       6.5172      0.00000
    221       6.5251      0.00000
    222       6.5299      0.00000
    223       6.5787      0.00000
    224       6.6535      0.00000
    225       6.6586      0.00000
    226       6.6714      0.00000
    227       6.6782      0.00000
    228       6.7067      0.00000
    229       6.7677      0.00000
    230       6.9328      0.00000
    231       6.9368      0.00000
    232       6.9479      0.00000
    233       6.9496      0.00000
    234       6.9592      0.00000
    235       6.9602      0.00000
    236       6.9603      0.00000
    237       6.9609      0.00000
    238       6.9637      0.00000
    239       6.9656      0.00000
    240       6.9763      0.00000
    241       6.9978      0.00000
    242       7.4368      0.00000
    243       7.6691      0.00000
    244       7.7123      0.00000
    245       7.7504      0.00000
    246       7.7653      0.00000
    247       7.7929      0.00000
    248       7.8079      0.00000
    249       7.8225      0.00000
    250       7.8239      0.00000
    251       7.8278      0.00000
    252       7.9071      0.00000
    253       7.9858      0.00000
    254       8.0316      0.00000
    255       8.0356      0.00000
    256       8.1925      0.00000

 k-point     2 :       0.5000   -0.0000    0.0000
  band No.  band energies     occupation 
      1     -64.6183      1.00000
      2     -39.1380      1.00000
      3     -38.6070      1.00000
      4     -38.1904      1.00000
      5     -23.0807      1.00000
      6     -22.8301      1.00000
      7     -22.5508      1.00000
      8     -22.2507      1.00000
      9     -21.5963      1.00000
     10     -21.4153      1.00000
     11     -21.0783      1.00000
     12     -20.6030      1.00000
     13     -20.5237      1.00000
     14     -20.2420      1.00000
     15     -19.7482      1.00000
     16     -19.7135      1.00000
     17     -19.2991      1.00000
     18     -19.2879      1.00000
     19     -18.6836      1.00000
     20     -18.4469      1.00000
     21     -18.0752      1.00000
     22     -17.8296      1.00000
     23     -17.8165      1.00000
     24     -17.6845      1.00000
     25     -17.4964      1.00000
     26     -17.2654      1.00000
     27     -16.8662      1.00000
     28     -16.4451      1.00000
     29     -16.0600      1.00000
     30     -15.9276      1.00000
     31     -15.3414      1.00000
     32     -15.3159      1.00000
     33     -15.1545      1.00000
     34     -15.0798      1.00000
     35     -14.5701      1.00000
     36     -14.1912      1.00000
     37     -13.9157      1.00000
     38     -13.8324      1.00000
     39     -13.4134      1.00000
     40     -13.3171      1.00000
     41     -12.9353      1.00000
     42     -12.8869      1.00000
     43     -12.8232      1.00000
     44     -12.7110      1.00000
     45     -12.2504      1.00000
     46     -11.8908      1.00000
     47     -11.6388      1.00000
     48     -11.4748      1.00000
     49     -11.4651      1.00000
     50     -11.3374      1.00000
     51     -10.8784      1.00000
     52     -10.6509      1.00000
     53     -10.6113      1.00000
     54     -10.3393      1.00000
     55     -10.1652      1.00000
     56     -10.1263      1.00000
     57     -10.0887      1.00000
     58      -9.9857      1.00000
     59      -9.7233      1.00000
     60      -9.6499      1.00000
     61      -9.6310      1.00000
     62      -9.6149      1.00000
     63      -9.5168      1.00000
     64      -9.5022      1.00000
     65      -9.3627      1.00000
     66      -9.1462      1.00000
     67      -9.0733      1.00000
     68      -8.8316      1.00000
     69      -8.7256      1.00000
     70      -8.5745      1.00000
     71      -8.5670      1.00000
     72      -8.5648      1.00000
     73      -8.5198      1.00000
     74      -8.4699      1.00000
     75      -8.4180      1.00000
     76      -8.2951      1.00000
     77      -8.2002      1.00000
     78      -8.0125      1.00000
     79      -7.9357      1.00000
     80      -7.5932      1.00000
     81      -7.5618      1.00000
     82      -7.3157      1.00000
     83      -7.0219      1.00000
     84      -6.9964      1.00000
     85      -6.8938      1.00000
     86      -6.8718      1.00000
     87      -6.8349      1.00000
     88      -6.5721      1.00000
     89      -6.4687      1.00000
     90      -6.0717      1.00000
     91      -6.0577      1.00000
     92      -5.8715      1.00000
     93      -5.6603      1.00000
     94      -5.4287      1.00000
     95      -5.3998      1.00000
     96      -5.3370      1.00000
     97      -5.2808      1.00000
     98      -5.2722      1.00000
     99      -5.1589      1.00000
    100      -5.0860      1.00000
    101      -4.1484      1.00000
    102      -3.6659      1.00000
    103      -3.0365      1.00000
    104      -1.9201      0.00004
    105      -1.2796      0.00000
    106      -1.1875      0.00000
    107      -0.8030      0.00000
    108      -0.7243      0.00000
    109      -0.5177      0.00000
    110      -0.2406      0.00000
    111      -0.1944      0.00000
    112      -0.0086      0.00000
    113       0.1573      0.00000
    114       0.2756      0.00000
    115       0.8148      0.00000
    116       0.8430      0.00000
    117       1.0904      0.00000
    118       1.1681      0.00000
    119       1.5200      0.00000
    120       1.5319      0.00000
    121       1.5581      0.00000
    122       1.6000      0.00000
    123       1.6527      0.00000
    124       1.7970      0.00000
    125       1.9164      0.00000
    126       1.9370      0.00000
    127       2.0167      0.00000
    128       2.0520      0.00000
    129       2.2072      0.00000
    130       2.2480      0.00000
    131       2.4483      0.00000
    132       2.6099      0.00000
    133       2.6675      0.00000
    134       2.6700      0.00000
    135       2.7762      0.00000
    136       2.8183      0.00000
    137       2.8472      0.00000
    138       2.8752      0.00000
    139       2.9487      0.00000
    140       3.0316      0.00000
    141       3.1847      0.00000
    142       3.3200      0.00000
    143       3.3523      0.00000
    144       3.4321      0.00000
    145       3.4400      0.00000
    146       3.5301      0.00000
    147       3.5661      0.00000
    148       3.5735      0.00000
    149       3.5941      0.00000
    150       3.5945      0.00000
    151       3.6052      0.00000
    152       3.6334      0.00000
    153       3.9166      0.00000
    154       3.9696      0.00000
    155       3.9860      0.00000
    156       3.9868      0.00000
    157       3.9954      0.00000
    158       4.0068      0.00000
    159       4.0284      0.00000
    160       4.1624      0.00000
    161       4.2004      0.00000
    162       4.2219      0.00000
    163       4.2606      0.00000
    164       4.2702      0.00000
    165       4.4463      0.00000
    166       4.6274      0.00000
    167       4.6462      0.00000
    168       4.6578      0.00000
    169       4.6918      0.00000
    170       4.7032      0.00000
    171       4.7244      0.00000
    172       4.8466      0.00000
    173       4.8843      0.00000
    174       4.8877      0.00000
    175       4.9004      0.00000
    176       4.9705      0.00000
    177       5.0437      0.00000
    178       5.0637      0.00000
    179       5.1770      0.00000
    180       5.2794      0.00000
    181       5.3054      0.00000
    182       5.3265      0.00000
    183       5.3290      0.00000
    184       5.3701      0.00000
    185       5.4513      0.00000
    186       5.5114      0.00000
    187       5.5300      0.00000
    188       5.5317      0.00000
    189       5.5329      0.00000
    190       5.5385      0.00000
    191       5.5664      0.00000
    192       5.6257      0.00000
    193       5.6371      0.00000
    194       5.6580      0.00000
    195       5.6793      0.00000
    196       5.7227      0.00000
    197       5.7788      0.00000
    198       5.7942      0.00000
    199       5.8778      0.00000
    200       5.8842      0.00000
    201       5.9617      0.00000
    202       5.9667      0.00000
    203       5.9691      0.00000
    204       5.9777      0.00000
    205       5.9858      0.00000
    206       6.0152      0.00000
    207       6.0641      0.00000
    208       6.0975      0.00000
    209       6.1246      0.00000
    210       6.2107      0.00000
    211       6.2962      0.00000
    212       6.3132      0.00000
    213       6.3308      0.00000
    214       6.3872      0.00000
    215       6.4649      0.00000
    216       6.5269      0.00000
    217       6.5763      0.00000
    218       6.5990      0.00000
    219       6.6370      0.00000
    220       6.6377      0.00000
    221       6.7035      0.00000
    222       6.7459      0.00000
    223       6.7839      0.00000
    224       6.8322      0.00000
    225       6.8472      0.00000
    226       6.8674      0.00000
    227       6.8724      0.00000
    228       6.9542      0.00000
    229       6.9607      0.00000
    230       6.9697      0.00000
    231       7.1307      0.00000
    232       7.1822      0.00000
    233       7.1946      0.00000
    234       7.2245      0.00000
    235       7.2468      0.00000
    236       7.2636      0.00000
    237       7.2744      0.00000
    238       7.2856      0.00000
    239       7.2877      0.00000
    240       7.2962      0.00000
    241       7.2974      0.00000
    242       7.3294      0.00000
    243       7.3879      0.00000
    244       7.4596      0.00000
    245       7.5318      0.00000
    246       7.5816      0.00000
    247       7.6015      0.00000
    248       7.6176      0.00000
    249       7.6264      0.00000
    250       7.6294      0.00000
    251       7.7923      0.00000
    252       7.8308      0.00000
    253       7.8538      0.00000
    254       7.9399      0.00000
    255       7.9449      0.00000
    256       7.9477      0.00000

 k-point     3 :       0.0000    0.5000    0.0000
  band No.  band energies     occupation 
      1     -64.6183      1.00000
      2     -39.1380      1.00000
      3     -38.6070      1.00000
      4     -38.1904      1.00000
      5     -23.0807      1.00000
      6     -22.8301      1.00000
      7     -22.5508      1.00000
      8     -22.2507      1.00000
      9     -21.5963      1.00000
     10     -21.4153      1.00000
     11     -21.0783      1.00000
     12     -20.6030      1.00000
     13     -20.5237      1.00000
     14     -20.2420      1.00000
     15     -19.7482      1.00000
     16     -19.7135      1.00000
     17     -19.2991      1.00000
     18     -19.2879      1.00000
     19     -18.6836      1.00000
     20     -18.4469      1.00000
     21     -18.0752      1.00000
     22     -17.8296      1.00000
     23     -17.8165      1.00000
     24     -17.6845      1.00000
     25     -17.4964      1.00000
     26     -17.2654      1.00000
     27     -16.8662      1.00000
     28     -16.4451      1.00000
     29     -16.0600      1.00000
     30     -15.9276      1.00000
     31     -15.3414      1.00000
     32     -15.3159      1.00000
     33     -15.1545      1.00000
     34     -15.0798      1.00000
     35     -14.5701      1.00000
     36     -14.1912      1.00000
     37     -13.9157      1.00000
     38     -13.8324      1.00000
     39     -13.4134      1.00000
     40     -13.3171      1.00000
     41     -12.9353      1.00000
     42     -12.8869      1.00000
     43     -12.8232      1.00000
     44     -12.7110      1.00000
     45     -12.2504      1.00000
     46     -11.8908      1.00000
     47     -11.6388      1.00000
     48     -11.4748      1.00000
     49     -11.4651      1.00000
     50     -11.3374      1.00000
     51     -10.8784      1.00000
     52     -10.6509      1.00000
     53     -10.6113      1.00000
     54     -10.3393      1.00000
     55     -10.1652      1.00000
     56     -10.1263      1.00000
     57     -10.0887      1.00000
     58      -9.9857      1.00000
     59      -9.7233      1.00000
     60      -9.6499      1.00000
     61      -9.6310      1.00000
     62      -9.6149      1.00000
     63      -9.5168      1.00000
     64      -9.5022      1.00000
     65      -9.3627      1.00000
     66      -9.1462      1.00000
     67      -9.0733      1.00000
     68      -8.8316      1.00000
     69      -8.7256      1.00000
     70      -8.5745      1.00000
     71      -8.5670      1.00000
     72      -8.5648      1.00000
     73      -8.5198      1.00000
     74      -8.4699      1.00000
     75      -8.4180      1.00000
     76      -8.2951      1.00000
     77      -8.2002      1.00000
     78      -8.0125      1.00000
     79      -7.9357      1.00000
     80      -7.5932      1.00000
     81      -7.5618      1.00000
     82      -7.3157      1.00000
     83      -7.0219      1.00000
     84      -6.9964      1.00000
     85      -6.8938      1.00000
     86      -6.8718      1.00000
     87      -6.8349      1.00000
     88      -6.5721      1.00000
     89      -6.4687      1.00000
     90      -6.0717      1.00000
     91      -6.0577      1.00000
     92      -5.8715      1.00000
     93      -5.6603      1.00000
     94      -5.4287      1.00000
     95      -5.3998      1.00000
     96      -5.3370      1.00000
     97      -5.2808      1.00000
     98      -5.2722      1.00000
     99      -5.1589      1.00000
    100      -5.0860      1.00000
    101      -4.1484      1.00000
    102      -3.6659      1.00000
    103      -3.0365      1.00000
    104      -1.9201      0.00004
    105      -1.2796      0.00000
    106      -1.1875      0.00000
    107      -0.8030      0.00000
    108      -0.7243      0.00000
    109      -0.5177      0.00000
    110      -0.2406      0.00000
    111      -0.1944      0.00000
    112      -0.0086      0.00000
    113       0.1573      0.00000
    114       0.2756      0.00000
    115       0.8148      0.00000
    116       0.8430      0.00000
    117       1.0904      0.00000
    118       1.1681      0.00000
    119       1.5200      0.00000
    120       1.5319      0.00000
    121       1.5581      0.00000
    122       1.6000      0.00000
    123       1.6527      0.00000
    124       1.7970      0.00000
    125       1.9164      0.00000
    126       1.9370      0.00000
    127       2.0167      0.00000
    128       2.0520      0.00000
    129       2.2072      0.00000
    130       2.2480      0.00000
    131       2.4483      0.00000
    132       2.6099      0.00000
    133       2.6675      0.00000
    134       2.6700      0.00000
    135       2.7762      0.00000
    136       2.8183      0.00000
    137       2.8472      0.00000
    138       2.8752      0.00000
    139       2.9487      0.00000
    140       3.0316      0.00000
    141       3.1847      0.00000
    142       3.3200      0.00000
    143       3.3523      0.00000
    144       3.4321      0.00000
    145       3.4400      0.00000
    146       3.5301      0.00000
    147       3.5661      0.00000
    148       3.5735      0.00000
    149       3.5941      0.00000
    150       3.5945      0.00000
    151       3.6052      0.00000
    152       3.6334      0.00000
    153       3.9166      0.00000
    154       3.9696      0.00000
    155       3.9860      0.00000
    156       3.9868      0.00000
    157       3.9954      0.00000
    158       4.0068      0.00000
    159       4.0284      0.00000
    160       4.1624      0.00000
    161       4.2004      0.00000
    162       4.2219      0.00000
    163       4.2606      0.00000
    164       4.2702      0.00000
    165       4.4463      0.00000
    166       4.6274      0.00000
    167       4.6462      0.00000
    168       4.6578      0.00000
    169       4.6918      0.00000
    170       4.7032      0.00000
    171       4.7244      0.00000
    172       4.8466      0.00000
    173       4.8843      0.00000
    174       4.8877      0.00000
    175       4.9004      0.00000
    176       4.9705      0.00000
    177       5.0437      0.00000
    178       5.0637      0.00000
    179       5.1770      0.00000
    180       5.2794      0.00000
    181       5.3054      0.00000
    182       5.3265      0.00000
    183       5.3290      0.00000
    184       5.3701      0.00000
    185       5.4513      0.00000
    186       5.5114      0.00000
    187       5.5300      0.00000
    188       5.5317      0.00000
    189       5.5329      0.00000
    190       5.5385      0.00000
    191       5.5664      0.00000
    192       5.6257      0.00000
    193       5.6371      0.00000
    194       5.6580      0.00000
    195       5.6793      0.00000
    196       5.7227      0.00000
    197       5.7788      0.00000
    198       5.7942      0.00000
    199       5.8778      0.00000
    200       5.8842      0.00000
    201       5.9617      0.00000
    202       5.9667      0.00000
    203       5.9691      0.00000
    204       5.9777      0.00000
    205       5.9858      0.00000
    206       6.0152      0.00000
    207       6.0641      0.00000
    208       6.0975      0.00000
    209       6.1246      0.00000
    210       6.2107      0.00000
    211       6.2962      0.00000
    212       6.3132      0.00000
    213       6.3308      0.00000
    214       6.3872      0.00000
    215       6.4649      0.00000
    216       6.5269      0.00000
    217       6.5763      0.00000
    218       6.5990      0.00000
    219       6.6370      0.00000
    220       6.6377      0.00000
    221       6.7035      0.00000
    222       6.7459      0.00000
    223       6.7839      0.00000
    224       6.8322      0.00000
    225       6.8472      0.00000
    226       6.8674      0.00000
    227       6.8724      0.00000
    228       6.9542      0.00000
    229       6.9607      0.00000
    230       6.9697      0.00000
    231       7.1307      0.00000
    232       7.1822      0.00000
    233       7.1946      0.00000
    234       7.2245      0.00000
    235       7.2468      0.00000
    236       7.2636      0.00000
    237       7.2744      0.00000
    238       7.2856      0.00000
    239       7.2877      0.00000
    240       7.2962      0.00000
    241       7.2974      0.00000
    242       7.3294      0.00000
    243       7.3879      0.00000
    244       7.4596      0.00000
    245       7.5318      0.00000
    246       7.5816      0.00000
    247       7.6015      0.00000
    248       7.6176      0.00000
    249       7.6264      0.00000
    250       7.6294      0.00000
    251       7.7923      0.00000
    252       7.8308      0.00000
    253       7.8538      0.00000
    254       7.9399      0.00000
    255       7.9449      0.00000
    256       7.9477      0.00000

 k-point     4 :       0.5000    0.5000    0.0000
  band No.  band energies     occupation 
      1     -64.6183      1.00000
      2     -39.1380      1.00000
      3     -38.6070      1.00000
      4     -38.1904      1.00000
      5     -23.0847      1.00000
      6     -22.7978      1.00000
      7     -22.6145      1.00000
      8     -22.1835      1.00000
      9     -21.6642      1.00000
     10     -21.4582      1.00000
     11     -20.9523      1.00000
     12     -20.6073      1.00000
     13     -20.3728      1.00000
     14     -20.1812      1.00000
     15     -20.1630      1.00000
     16     -19.8716      1.00000
     17     -19.1211      1.00000
     18     -18.9865      1.00000
     19     -18.8196      1.00000
     20     -18.3488      1.00000
     21     -18.1064      1.00000
     22     -17.8660      1.00000
     23     -17.8369      1.00000
     24     -17.5531      1.00000
     25     -17.4112      1.00000
     26     -17.2727      1.00000
     27     -17.1346      1.00000
     28     -16.7799      1.00000
     29     -16.1736      1.00000
     30     -15.4773      1.00000
     31     -15.3683      1.00000
     32     -15.1730      1.00000
     33     -15.1351      1.00000
     34     -14.9176      1.00000
     35     -14.3846      1.00000
     36     -14.2849      1.00000
     37     -14.0390      1.00000
     38     -13.8901      1.00000
     39     -13.6937      1.00000
     40     -13.1176      1.00000
     41     -13.0783      1.00000
     42     -12.9871      1.00000
     43     -12.9153      1.00000
     44     -12.7811      1.00000
     45     -12.2617      1.00000
     46     -11.9942      1.00000
     47     -11.4564      1.00000
     48     -11.3362      1.00000
     49     -11.2954      1.00000
     50     -11.0499      1.00000
     51     -11.0204      1.00000
     52     -10.8564      1.00000
     53     -10.4956      1.00000
     54     -10.1857      1.00000
     55     -10.1519      1.00000
     56     -10.0818      1.00000
     57      -9.9961      1.00000
     58      -9.9015      1.00000
     59      -9.8856      1.00000
     60      -9.8023      1.00000
     61      -9.7518      1.00000
     62      -9.7314      1.00000
     63      -9.6489      1.00000
     64      -9.4688      1.00000
     65      -9.3649      1.00000
     66      -9.3386      1.00000
     67      -8.9378      1.00000
     68      -8.8207      1.00000
     69      -8.7918      1.00000
     70      -8.6651      1.00000
     71      -8.5738      1.00000
     72      -8.5155      1.00000
     73      -8.4489      1.00000
     74      -8.4047      1.00000
     75      -8.2464      1.00000
     76      -8.2079      1.00000
     77      -8.0370      1.00000
     78      -8.0117      1.00000
     79      -7.7729      1.00000
     80      -7.6315      1.00000
     81      -7.5863      1.00000
     82      -7.4016      1.00000
     83      -7.3861      1.00000
     84      -7.0605      1.00000
     85      -6.9808      1.00000
     86      -6.7931      1.00000
     87      -6.7430      1.00000
     88      -6.5476      1.00000
     89      -6.4027      1.00000
     90      -6.3594      1.00000
     91      -6.1837      1.00000
     92      -5.7173      1.00000
     93      -5.4583      1.00000
     94      -5.4266      1.00000
     95      -5.3908      1.00000
     96      -5.3297      1.00000
     97      -5.1937      1.00000
     98      -5.1748      1.00000
     99      -5.1551      1.00000
    100      -5.0840      1.00000
    101      -4.2953      1.00000
    102      -4.0141      1.00000
    103      -2.4269      0.99931
    104      -2.0008      0.00235
    105      -1.5585      0.00000
    106      -1.2642      0.00000
    107      -0.8353      0.00000
    108      -0.6439      0.00000
    109      -0.3824      0.00000
    110      -0.3467      0.00000
    111      -0.0647      0.00000
    112      -0.0127      0.00000
    113       0.1541      0.00000
    114       0.1802      0.00000
    115       0.8469      0.00000
    116       1.1424      0.00000
    117       1.1564      0.00000
    118       1.1999      0.00000
    119       1.2706      0.00000
    120       1.3408      0.00000
    121       1.5361      0.00000
    122       1.5977      0.00000
    123       1.6542      0.00000
    124       1.6664      0.00000
    125       1.9113      0.00000
    126       2.0097      0.00000
    127       2.0448      0.00000
    128       2.0881      0.00000
    129       2.1672      0.00000
    130       2.3823      0.00000
    131       2.4797      0.00000
    132       2.5921      0.00000
    133       2.6694      0.00000
    134       2.6734      0.00000
    135       2.7487      0.00000
    136       2.8357      0.00000
    137       2.8465      0.00000
    138       2.8503      0.00000
    139       2.9487      0.00000
    140       3.0843      0.00000
    141       3.2578      0.00000
    142       3.2743      0.00000
    143       3.3558      0.00000
    144       3.3800      0.00000
    145       3.4274      0.00000
    146       3.4945      0.00000
    147       3.5166      0.00000
    148       3.5679      0.00000
    149       3.5918      0.00000
    150       3.5991      0.00000
    151       3.6006      0.00000
    152       3.6440      0.00000
    153       3.8989      0.00000
    154       3.9740      0.00000
    155       3.9838      0.00000
    156       3.9845      0.00000
    157       3.9970      0.00000
    158       3.9978      0.00000
    159       4.0414      0.00000
    160       4.1738      0.00000
    161       4.2079      0.00000
    162       4.2442      0.00000
    163       4.2727      0.00000
    164       4.4792      0.00000
    165       4.5341      0.00000
    166       4.6414      0.00000
    167       4.6471      0.00000
    168       4.6563      0.00000
    169       4.6688      0.00000
    170       4.7099      0.00000
    171       4.8369      0.00000
    172       4.8766      0.00000
    173       4.8913      0.00000
    174       4.8942      0.00000
    175       4.9668      0.00000
    176       4.9930      0.00000
    177       5.0320      0.00000
    178       5.0469      0.00000
    179       5.0711      0.00000
    180       5.1729      0.00000
    181       5.3136      0.00000
    182       5.3247      0.00000
    183       5.3296      0.00000
    184       5.3612      0.00000
    185       5.3680      0.00000
    186       5.4947      0.00000
    187       5.4951      0.00000
    188       5.5096      0.00000
    189       5.5373      0.00000
    190       5.5444      0.00000
    191       5.5477      0.00000
    192       5.6374      0.00000
    193       5.6543      0.00000
    194       5.6637      0.00000
    195       5.6796      0.00000
    196       5.6873      0.00000
    197       5.7268      0.00000
    198       5.7483      0.00000
    199       5.7670      0.00000
    200       5.7746      0.00000
    201       5.9364      0.00000
    202       5.9651      0.00000
    203       5.9694      0.00000
    204       5.9748      0.00000
    205       5.9803      0.00000
    206       5.9872      0.00000
    207       5.9909      0.00000
    208       6.0673      0.00000
    209       6.0911      0.00000
    210       6.1743      0.00000
    211       6.2189      0.00000
    212       6.3415      0.00000
    213       6.3453      0.00000
    214       6.3997      0.00000
    215       6.4825      0.00000
    216       6.5381      0.00000
    217       6.5799      0.00000
    218       6.5850      0.00000
    219       6.6486      0.00000
    220       6.6673      0.00000
    221       6.7181      0.00000
    222       6.8169      0.00000
    223       6.8391      0.00000
    224       6.8463      0.00000
    225       6.8474      0.00000
    226       6.8962      0.00000
    227       6.9479      0.00000
    228       6.9587      0.00000
    229       6.9594      0.00000
    230       6.9772      0.00000
    231       7.0619      0.00000
    232       7.1619      0.00000
    233       7.1966      0.00000
    234       7.2055      0.00000
    235       7.2291      0.00000
    236       7.2740      0.00000
    237       7.2757      0.00000
    238       7.2782      0.00000
    239       7.2930      0.00000
    240       7.3076      0.00000
    241       7.3085      0.00000
    242       7.3231      0.00000
    243       7.3479      0.00000
    244       7.4156      0.00000
    245       7.5255      0.00000
    246       7.5559      0.00000
    247       7.5944      0.00000
    248       7.6057      0.00000
    249       7.6145      0.00000
    250       7.6202      0.00000
    251       7.6513      0.00000
    252       7.7294      0.00000
    253       7.7739      0.00000
    254       7.8599      0.00000
    255       7.9419      0.00000
    256       7.9455      0.00000


--------------------------------------------------------------------------------------------------------


 soft charge-density along one line, spin component           1
         0         1         2         3         4         5         6         7         8         9
 total charge-density along one line
 
 soft charge-density along one line, spin component           2
         0         1         2         3         4         5         6         7         8         9
 total charge-density along one line
 
 pseudopotential strength for first ion, spin component:           1
 10.221   0.019   0.000  -0.000  -0.000   0.000  -0.000  -0.000
  0.019  -0.002  -0.000   0.000   0.000   0.000  -0.000  -0.000
  0.000  -0.000  -4.339  -0.000  -0.000  -0.019  -0.000  -0.000
 -0.000   0.000  -0.000  -4.318   0.000  -0.000  -0.014   0.000
 -0.000   0.000  -0.000   0.000  -4.338  -0.000   0.000  -0.019
  0.000   0.000  -0.019  -0.000  -0.000  -0.772  -0.000   0.000
 -0.000  -0.000  -0.000  -0.014   0.000  -0.000  -0.772   0.000
 -0.000  -0.000  -0.000   0.000  -0.019   0.000   0.000  -0.772
 pseudopotential strength for first ion, spin component:           2
 10.222   0.019   0.000  -0.000  -0.000   0.000  -0.000  -0.000
  0.019  -0.002  -0.000   0.000   0.000   0.000  -0.000  -0.000
  0.000  -0.000  -4.339  -0.000  -0.000  -0.019  -0.000  -0.000
 -0.000   0.000  -0.000  -4.318   0.000  -0.000  -0.014   0.000
 -0.000   0.000  -0.000   0.000  -4.338  -0.000   0.000  -0.019
  0.000   0.000  -0.019  -0.000  -0.000  -0.772  -0.000   0.000
 -0.000  -0.000  -0.000  -0.014   0.000  -0.000  -0.772   0.000
 -0.000  -0.000  -0.000   0.000  -0.019   0.000   0.000  -0.772
 total augmentation occupancy for first ion, spin component:           1
  1.475  -1.146  -0.003   0.004   0.006  -0.002   0.003   0.004
 -1.146   1.096   0.009  -0.011  -0.016   0.003  -0.004  -0.006
 -0.003   0.009   1.248   0.003   0.009   0.226   0.001  -0.000
  0.004  -0.011   0.003   0.928  -0.005   0.001   0.104  -0.002
  0.006  -0.016   0.009  -0.005   1.238  -0.000  -0.002   0.227
 -0.002   0.003   0.226   0.001  -0.000   0.047   0.000  -0.000
  0.003  -0.004   0.001   0.104  -0.002   0.000   0.013  -0.001
  0.004  -0.006  -0.000  -0.002   0.227  -0.000  -0.001   0.047
 total augmentation occupancy for first ion, spin component:           2
 -0.000   0.000  -0.000   0.000   0.000   0.000   0.000  -0.000
  0.000   0.000  -0.000  -0.000   0.000  -0.000  -0.000   0.000
 -0.000  -0.000  -0.000   0.000   0.000  -0.000  -0.000  -0.000
  0.000  -0.000   0.000  -0.001  -0.000  -0.000  -0.000   0.000
  0.000   0.000   0.000  -0.000  -0.000  -0.000   0.000   0.000
  0.000  -0.000  -0.000  -0.000  -0.000   0.000  -0.000  -0.000
  0.000  -0.000  -0.000  -0.000   0.000  -0.000   0.000   0.000
 -0.000   0.000  -0.000   0.000   0.000  -0.000   0.000   0.000


------------------------ aborting loop because EDIFF is reached ----------------------------------------


    CHARGE:  cpu time    1.8274: real time    1.8299
    FORLOC:  cpu time    0.0267: real time    0.0267
    FORNL :  cpu time    2.1851: real time    2.1963
    STRESS:  cpu time    6.5735: real time    6.6157
    FORCOR:  cpu time    2.1171: real time    2.1205
    FORHAR:  cpu time    0.2654: real time    0.2819
    MIXING:  cpu time    0.0603: real time    0.0604
    OFIELD:  cpu time    0.0003: real time    0.0096

 ---------------------------------------------------------------------------------------------

         DFTD3 V3.0 Rev 1        
 IVDW         = 11
 DF pbe       
 parameters
 VDW_S6       =    1.0000
 VDW_S8       =    0.7220
 VDW_SR       =    1.2170
 rs18     =    1.0000
 alpha6   =   14.0000
 alpha8   =   16.0000
 k1-k3    =   16.0000    1.3333   -4.0000
 VDW_RADIUS   =   50.2022 A
 VDW_CNRADIUS =   21.1671 A
 Edisp (eV)   -1.73482

 E6    (eV) :    -0.9509
 E8    (eV) :    -0.7839
 % E8        : 45.19
    FORVDW:  cpu time    0.1138: real time    0.2301

  FORCE on cell =-STRESS in cart. coord.  units (eV):
  Direction    XX          YY          ZZ          XY          YZ          ZX
  --------------------------------------------------------------------------------------
  Alpha Z    90.11582    90.11582    90.11582
  Ewald   42265.70485 42190.87438-49688.50967   -64.80512    -0.39558     0.68519
  Hartree 41941.28712 41931.77775-41117.43117    -8.23537    -0.36576     0.63352
  E(xc)    -801.37708  -801.72111  -830.04102    -0.29794     0.00027    -0.00046
  Local  -86407.41811-86341.79223 88164.35116    56.83372     0.76168    -1.31929
  n-local  -303.21495  -309.97868  -296.95628    -5.85756     0.00627    -0.01091
  augment    24.03918    26.75756    26.68865     2.35419     0.00166    -0.00285
  Kinetic  3190.35464  3233.31838  3651.47951    37.20769     0.00190    -0.00329
  Fock        0.00000     0.00000     0.00000     0.00000     0.00000     0.00000
  vdW        -0.43807    -0.41243     0.00214     0.02220    -0.00001     0.00002
  -------------------------------------------------------------------------------------
  Total      -0.94659    18.93945    -0.30087    17.22182     0.01043    -0.01807
  in kB      -0.57877    11.57996    -0.18396    10.52976     0.00638    -0.01105
  external pressure =        3.61 kB  Pullay stress =        0.00 kB


 VOLUME and BASIS-vectors are now :
 -----------------------------------------------------------------------------
  energy-cutoff  :      520.00
  volume of cell :     2620.42
      direct lattice vectors                 reciprocal lattice vectors
    12.300000000  0.000000000  0.000000000     0.081300813  0.046939046  0.000000000
    -6.150000000 10.652112467  0.000000000     0.000000000  0.093878093  0.000000000
     0.000000000  0.000000000 20.000000000     0.000000000  0.000000000  0.050000000

  length of vectors
    12.300000000 12.300000000 20.000000000     0.093878093  0.093878093  0.050000000


 FORCES acting on ions
    electron-ion (+dipol)            ewald-force                    non-local-force                 convergence-correction
 -----------------------------------------------------------------------------------------------
   0.836E+01 -.483E+01 0.378E+02   -.856E+01 0.494E+01 -.379E+02   0.168E+00 -.971E-01 0.865E-01   -.111E-04 0.640E-05 0.204E-04
   0.521E+01 0.758E+01 0.399E+02   -.519E+01 -.791E+01 -.400E+02   -.935E-02 0.339E+00 0.723E-01   0.141E-06 0.266E-04 0.230E-04
   0.396E+01 0.837E+01 0.394E+02   -.425E+01 -.852E+01 -.395E+02   0.289E+00 0.172E+00 0.563E-01   0.230E-04 0.136E-04 0.230E-04
   0.109E+01 0.294E+02 0.305E+02   -.131E+01 -.298E+02 -.306E+02   0.239E+00 0.397E+00 0.144E+00   0.168E-04 0.216E-04 0.293E-04
   -.463E+01 0.181E+02 0.180E+02   0.470E+01 -.185E+02 -.179E+02   -.838E-01 0.340E+00 -.862E-01   0.911E-05 0.139E-04 0.218E-04
   -.167E+02 0.164E+02 0.120E+02   0.171E+02 -.166E+02 -.121E+02   -.298E+00 0.197E+00 0.813E-01   -.341E-05 0.200E-04 0.249E-04
   -.323E+01 0.482E+01 0.110E+02   0.350E+01 -.486E+01 -.111E+02   -.286E+00 0.637E-01 0.822E-01   -.465E-05 0.929E-05 0.176E-04
   -.487E+01 -.179E+01 0.758E+01   0.495E+01 0.190E+01 -.749E+01   -.705E-01 -.124E+00 -.832E-01   -.113E-04 0.416E-05 0.179E-04
   0.610E+01 -.726E+01 0.184E+02   -.609E+01 0.755E+01 -.185E+02   -.734E-02 -.258E+00 0.841E-01   -.794E-05 -.751E-05 0.189E-04
   0.318E+01 -.184E+01 0.244E+02   -.322E+01 0.186E+01 -.243E+02   0.330E-01 -.191E-01 -.585E-01   -.114E-04 0.659E-05 0.195E-04
   0.934E+01 -.165E+01 0.184E+02   -.959E+01 0.150E+01 -.185E+02   0.220E+00 0.135E+00 0.841E-01   0.254E-05 0.106E-04 0.189E-04
   0.181E+02 0.500E+01 0.181E+02   -.184E+02 -.511E+01 -.181E+02   0.326E+00 0.982E-01 -.103E+00   0.735E-05 0.147E-04 0.218E-04
   0.248E+02 0.156E+02 0.311E+02   -.250E+02 -.160E+02 -.312E+02   0.248E+00 0.404E+00 0.158E+00   0.103E-04 0.252E-04 0.294E-04
   0.280E+02 0.555E+02 0.210E+02   -.283E+02 -.589E+02 -.217E+02   0.310E+00 0.345E+01 0.696E+00   0.426E-04 0.567E-04 0.493E-04
   0.340E+02 0.519E+02 0.206E+02   -.368E+02 -.539E+02 -.213E+02   0.283E+01 0.202E+01 0.691E+00   0.280E-04 0.651E-04 0.492E-04
   -.556E+02 0.305E+02 -.221E+01   0.591E+02 -.320E+02 0.183E+01   -.346E+01 0.145E+01 0.395E+00   -.323E-04 0.376E-04 0.377E-04
   -.253E+02 0.146E+02 -.115E+02   0.252E+02 -.145E+02 0.116E+02   0.662E-01 -.382E-01 -.128E+00   -.388E-04 0.224E-04 0.270E-04
   -.448E+01 0.259E+01 0.176E+01   0.431E+01 -.249E+01 -.185E+01   0.191E+00 -.111E+00 0.849E-01   -.597E-05 0.345E-05 0.181E-04
   -.887E+00 0.511E+01 0.758E+01   0.835E+00 -.524E+01 -.749E+01   0.721E-01 0.123E+00 -.832E-01   -.927E-05 0.773E-05 0.179E-04
   -.579E+01 0.384E+00 0.110E+02   0.596E+01 -.607E+00 -.111E+02   -.198E+00 0.216E+00 0.822E-01   -.104E-04 -.619E-06 0.176E-04
   0.590E+01 -.293E+00 0.111E+02   -.608E+01 0.509E+00 -.112E+02   0.214E+00 -.207E+00 0.731E-01   0.101E-04 0.563E-06 0.176E-04
   0.226E+02 -.622E+01 0.125E+02   -.229E+02 0.639E+01 -.126E+02   0.336E+00 -.187E+00 0.895E-01   0.188E-04 0.694E-05 0.249E-04
   0.542E+02 -.328E+02 -.163E+01   -.572E+02 0.351E+02 0.125E+01   0.301E+01 -.227E+01 0.395E+00   0.487E-04 -.929E-05 0.378E-04
   -.543E+02 0.329E+02 -.221E+01   0.573E+02 -.352E+02 0.183E+01   -.299E+01 0.227E+01 0.395E+00   -.487E-04 0.917E-05 0.377E-04
   -.226E+02 0.629E+01 0.120E+02   0.229E+02 -.647E+01 -.121E+02   -.320E+00 0.160E+00 0.813E-01   -.190E-04 -.703E-05 0.249E-04
   -.180E+02 -.505E+01 0.180E+02   0.183E+02 0.516E+01 -.179E+02   -.337E+00 -.976E-01 -.862E-01   -.749E-05 -.148E-04 0.218E-04
   -.932E+01 0.165E+01 0.179E+02   0.958E+01 -.149E+01 -.180E+02   -.218E+00 -.124E+00 0.789E-01   -.270E-05 -.108E-04 0.188E-04
   0.915E+00 -.517E+01 0.803E+01   -.870E+00 0.531E+01 -.795E+01   -.821E-01 -.117E+00 -.794E-01   0.903E-05 -.777E-05 0.179E-04
   0.447E+01 -.258E+01 0.230E+01   -.429E+01 0.248E+01 -.238E+01   -.188E+00 0.109E+00 0.849E-01   0.580E-05 -.335E-05 0.181E-04
   0.253E+02 -.146E+02 -.109E+02   -.252E+02 0.146E+02 0.110E+02   -.742E-01 0.428E-01 -.117E+00   0.388E-04 -.224E-04 0.271E-04
   0.555E+02 -.306E+02 -.163E+01   -.590E+02 0.320E+02 0.125E+01   0.347E+01 -.147E+01 0.395E+00   0.324E-04 -.375E-04 0.378E-04
   -.340E+02 -.520E+02 0.210E+02   0.369E+02 0.540E+02 -.217E+02   -.283E+01 -.199E+01 0.696E+00   -.278E-04 -.652E-04 0.493E-04
   -.280E+02 -.554E+02 0.206E+02   0.283E+02 0.588E+02 -.213E+02   -.331E+00 -.346E+01 0.691E+00   -.424E-04 -.568E-04 0.492E-04
   -.249E+02 -.156E+02 0.305E+02   0.252E+02 0.161E+02 -.306E+02   -.224E+00 -.405E+00 0.144E+00   -.103E-04 -.254E-04 0.293E-04
   -.527E+01 -.761E+01 0.394E+02   0.526E+01 0.794E+01 -.395E+02   -.424E-02 -.337E+00 0.563E-01   -.237E-06 -.267E-04 0.230E-04
   -.842E+01 0.486E+01 0.372E+02   0.862E+01 -.498E+01 -.373E+02   -.175E+00 0.101E+00 0.837E-01   0.110E-04 -.634E-05 0.204E-04
   -.312E+01 0.180E+01 0.233E+02   0.316E+01 -.183E+01 -.233E+02   -.427E-01 0.246E-01 -.717E-01   0.114E-04 -.660E-05 0.194E-04
   -.609E+01 0.725E+01 0.179E+02   0.608E+01 -.755E+01 -.180E+02   -.109E-02 0.251E+00 0.789E-01   0.802E-05 0.775E-05 0.188E-04
   0.494E+01 0.179E+01 0.803E+01   -.503E+01 -.190E+01 -.795E+01   0.605E-01 0.130E+00 -.794E-01   0.112E-04 -.394E-05 0.179E-04
   0.320E+01 -.496E+01 0.111E+02   -.348E+01 0.501E+01 -.112E+02   0.287E+00 -.817E-01 0.731E-01   0.458E-05 -.906E-05 0.176E-04
   0.167E+02 -.165E+02 0.125E+02   -.170E+02 0.167E+02 -.126E+02   0.330E+00 -.198E+00 0.895E-01   0.341E-05 -.198E-04 0.249E-04
   0.469E+01 -.181E+02 0.181E+02   -.478E+01 0.185E+02 -.181E+02   0.781E-01 -.332E+00 -.103E+00   -.909E-05 -.137E-04 0.218E-04
   -.112E+01 -.293E+02 0.311E+02   0.134E+01 0.297E+02 -.312E+02   -.226E+00 -.417E+00 0.158E+00   -.167E-04 -.215E-04 0.294E-04
   -.396E+01 -.830E+01 0.399E+02   0.426E+01 0.845E+01 -.400E+02   -.298E+00 -.161E+00 0.723E-01   -.230E-04 -.134E-04 0.230E-04
   -.467E+02 0.486E+02 -.237E+02   0.469E+02 -.277E+02 0.274E+02   -.226E+00 -.209E+02 -.371E+01   -.115E-04 0.593E-04 0.493E-04
   0.654E+02 -.162E+02 -.231E+02   -.474E+02 0.269E+02 0.269E+02   -.180E+02 -.107E+02 -.372E+01   0.574E-04 0.195E-04 0.492E-04
   -.654E+02 0.162E+02 -.237E+02   0.475E+02 -.268E+02 0.274E+02   0.180E+02 0.106E+02 -.371E+01   -.571E-04 -.197E-04 0.493E-04
   0.467E+02 -.485E+02 -.231E+02   -.470E+02 0.276E+02 0.269E+02   0.247E+00 0.209E+02 -.372E+01   0.118E-04 -.594E-04 0.492E-04
   0.153E+00 -.886E-01 -.635E+03   -.145E+00 0.838E-01 0.628E+03   -.872E-02 0.503E-02 0.718E+01   0.777E-06 -.449E-06 0.997E-04
 -----------------------------------------------------------------------------------------------
   -.114E-01 0.661E-02 0.226E+01   -.425E-13 0.125E-12 0.000E+00   0.350E-01 -.202E-01 -.224E+01   0.502E-06 -.291E-06 0.143E-02
 
 
 POSITION                                       TOTAL-FORCE (eV/Angst)
 -----------------------------------------------------------------------------------
     12.28659      0.00774     14.83557        -0.026305      0.015185     -0.002623
      1.21893      0.68945     14.84373         0.008837      0.010562     -0.004918
     -3.70244     10.63200     14.84523        -0.001324      0.024141     -0.019827
      3.67473      0.67387     14.92239         0.016984     -0.046255     -0.013819
     -1.23334     10.62715     14.94283        -0.006032     -0.009565     -0.000951
      6.13203      0.70598     14.99387         0.018147      0.014060     -0.011664
      7.36966      0.00427     14.97212        -0.009412      0.029284      0.002480
      8.58451      0.73636     14.97066         0.012984     -0.012505      0.006243
      9.82189      0.02287     14.92107         0.000023      0.034275      0.002424
     11.05389      0.71944     14.88472        -0.008579      0.004952     -0.012600
     11.04113      2.13467     14.92107        -0.029671     -0.017157      0.002425
     -0.01997      2.82545     14.94129        -0.026061     -0.006314     -0.014066
      1.20581      2.09919     14.92026        -0.006644      0.002122     -0.000551
      2.41812      2.79073     15.04536        -0.004779     -0.014127      0.003817
      3.66735      2.06893     15.04666        -0.002676      0.036534      0.002049
      6.07421      2.13007     15.09914         0.019777     -0.008189      0.012169
      7.30420      2.88433     15.09356        -0.018565      0.010716     -0.003165
      8.55257      2.16358     15.00949         0.019003     -0.010972      0.000229
      9.80455      2.84953     14.97066         0.017322     -0.004992      0.006243
      9.83113      4.26767     14.97212        -0.030066     -0.006490      0.002481
     -1.22154      4.96427     14.97145         0.036124      0.009454     -0.003940
      0.00492      4.24365     14.99179         0.018406     -0.009937     -0.006369
      1.26732      4.90520     15.09655         0.000989      0.012181      0.012637
      7.34241      4.32665     15.09914         0.016980     -0.013033      0.012168
      8.60462      4.98863     14.99387        -0.003101     -0.022743     -0.011665
     -3.67005      6.40664     14.94283         0.005268      0.010007     -0.000950
     -2.43103      7.09682     14.92297         0.040197      0.030570      0.000148
     -1.19413      6.38201     14.96960        -0.036090      0.017930      0.005691
      0.05758      7.06816     15.00747        -0.004131      0.002384      0.003602
      1.30623      6.34725     15.09084         0.002545     -0.001472      0.007496
      2.53563      7.10199     15.09655        -0.010055     -0.006949      0.012636
      4.94222      7.16259     15.04536         0.009846      0.011206      0.003818
      6.19193      6.44162     15.04666        -0.032975     -0.015948      0.002048
      7.40377      7.13277     14.92239         0.048550      0.008419     -0.013820
     -4.90880      8.54252     14.84522        -0.021570     -0.010927     -0.019825
     -3.67622      9.22387     14.83799         0.024609     -0.014212     -0.007581
     -2.44333      8.51206     14.88806        -0.003218      0.001857     -0.022374
     -1.21155      9.20904     14.92297        -0.006377     -0.050097      0.000148
      0.02595      8.49525     14.96960        -0.033574      0.022291      0.005691
      1.24004      9.22787     14.97145         0.009875     -0.036009     -0.003939
      2.47735      8.52603     14.99179         0.017809     -0.010969     -0.006369
      3.69310      9.25668     14.94129        -0.007562      0.025728     -0.014067
      4.93495      8.55826     14.92026        -0.005158      0.004693     -0.000550
      6.16239      9.25176     14.84373        -0.004731     -0.012939     -0.004918
      4.85558      2.74415     15.21065        -0.018367     -0.005281      0.022536
      2.40856      4.15706     15.20881         0.002202     -0.017336      0.021886
      6.20128      5.07498     15.21065        -0.004609      0.018548      0.022536
      3.75416      6.48771     15.20881         0.016115      0.006763      0.021885
      4.30472      4.61608     15.69941        -0.000960      0.000555      0.005071
 -----------------------------------------------------------------------------------
    total drift:                                0.023532     -0.013585      0.024913


--------------------------------------------------------------------------------------------------------



  FREE ENERGIE OF THE ION-ELECTRON SYSTEM (eV)
  ---------------------------------------------------
  free  energy   TOTEN  =      -446.13464794 eV

  energy  without entropy=     -446.13378477  energy(sigma->0) =     -446.13421635
 


--------------------------------------------------------------------------------------------------------


    POTLOK:  cpu time    2.7802: real time    2.7860


--------------------------------------------------------------------------------------------------------


 stress matrix after NEB project (eV)
     -0.94659     17.22182     -0.01807
     17.22182     18.93945      0.01044
     -0.01806      0.01043     -0.30087
  FORCES: max atom, RMS     0.051176    0.028670
  FORCE total and by dimension    0.200687    0.050097
  Stress total and by dimension   30.868625   18.939448
 Quasi-Newton relaxation of ions (Broydens 2nd method)
  g(Force)  = 0.777E-03   g(Stress)= 0.000E+00

 Reset! Starting new Quasi-Newton update for ions 


--------------------------------------------------------------------------------------------------------


    WAVPRE:  cpu time   38.7534: real time   38.8638
    FEWALD:  cpu time    0.0114: real time    0.0114
    ORTHCH:  cpu time    2.4958: real time    2.5013
     LOOP+:  cpu time 1765.4348: real time 1767.8303


--------------------------------------- Iteration      2(   1)  ---------------------------------------


    POTLOK:  cpu time    2.4538: real time    2.4584
    SETDIJ:  cpu time    0.5232: real time    0.5236
     EDDAV:  cpu time   59.2459: real time   59.3396
       DOS:  cpu time    0.0725: real time    0.0726
    CHARGE:  cpu time    1.9921: real time    1.9958
    MIXING:  cpu time    0.0379: real time    0.0380
    --------------------------------------------
      LOOP:  cpu time   64.3256: real time   64.4280

 eigenvalue-minimisations  :  6400
 total energy-change (2. order) :-0.3064527E-03  (-0.4291240E-02)
 number of electron     208.9999997 magnetization       2.9989187
 augmentation part        9.9697537 magnetization       1.3742247

 Broyden mixing:
  rms(total) = 0.45436E-02    rms(broyden)= 0.45379E-02
  rms(prec ) = 0.49347E-02
  weight for this iteration     100.00

 Free energy of the ion-electron system (eV)
  ---------------------------------------------------
  alpha Z        PSCENC =        90.11582226
  Ewald energy   TEWEN  =     34767.83995084
  -Hartree energ DENC   =    -42755.40601789
  -exchange      EXHF   =         0.00000000
  -V(xc)+E(xc)   XCENC  =       787.38581603
  PAW double counting   =      5126.63920951    -5204.11788936
  entropy T*S    EENTRO =        -0.00085510
  eigenvalues    EBANDS =     -2740.93777644
  atomic energy  EATOM  =      9484.08161297
  Solvation  Ediel_sol  =         0.00000000
  ---------------------------------------------------
  free energy    TOTEN  =      -444.40012719 eV

  energy without entropy =     -444.39927209  energy(sigma->0) =     -444.39969964


--------------------------------------------------------------------------------------------------------




--------------------------------------- Iteration      2(   2)  ---------------------------------------


    POTLOK:  cpu time    2.3195: real time    2.3224
    SETDIJ:  cpu time    0.4489: real time    0.4491
     EDDAV:  cpu time   57.6935: real time   57.7853
       DOS:  cpu time    0.0650: real time    0.0651
    CHARGE:  cpu time    1.8016: real time    1.8048
    MIXING:  cpu time    0.0395: real time    0.0395
    --------------------------------------------
      LOOP:  cpu time   62.3679: real time   62.4662

 eigenvalue-minimisations  :  6144
 total energy-change (2. order) : 0.3276624E-04  (-0.4545730E-04)
 number of electron     208.9999997 magnetization       2.9989683
 augmentation part        9.9696759 magnetization       1.3741532

 Broyden mixing:
  rms(total) = 0.24758E-02    rms(broyden)= 0.24751E-02
  rms(prec ) = 0.26099E-02
  weight for this iteration     100.00

 eigenvalues of (default mixing * dielectric matrix)
  average eigenvalue GAMMA=   1.5060
  1.5060

 Free energy of the ion-electron system (eV)
  ---------------------------------------------------
  alpha Z        PSCENC =        90.11582226
  Ewald energy   TEWEN  =     34767.83995084
  -Hartree energ DENC   =    -42755.39382386
  -exchange      EXHF   =         0.00000000
  -V(xc)+E(xc)   XCENC  =       787.38492398
  PAW double counting   =      5126.60358588    -5204.08305177
  entropy T*S    EENTRO =        -0.00085231
  eigenvalues    EBANDS =     -2740.94826242
  atomic energy  EATOM  =      9484.08161297
  Solvation  Ediel_sol  =         0.00000000
  ---------------------------------------------------
  free energy    TOTEN  =      -444.40009443 eV

  energy without entropy =     -444.39924212  energy(sigma->0) =     -444.39966827


--------------------------------------------------------------------------------------------------------




--------------------------------------- Iteration      2(   3)  ---------------------------------------


    POTLOK:  cpu time    2.3248: real time    2.3269
    SETDIJ:  cpu time    0.4517: real time    0.4523
     EDDAV:  cpu time   78.1388: real time   78.2547
       DOS:  cpu time    0.0690: real time    0.0691
    --------------------------------------------
      LOOP:  cpu time   80.9844: real time   81.1028

 eigenvalue-minimisations  :  7680
 total energy-change (2. order) : 0.8148249E-05  (-0.5062802E-05)
 number of electron     208.9999997 magnetization       2.9989683
 augmentation part        9.9696759 magnetization       1.3741532

 Free energy of the ion-electron system (eV)
  ---------------------------------------------------
  alpha Z        PSCENC =        90.11582226
  Ewald energy   TEWEN  =     34767.83995084
  -Hartree energ DENC   =    -42755.37316156
  -exchange      EXHF   =         0.00000000
  -V(xc)+E(xc)   XCENC  =       787.38400322
  PAW double counting   =      5126.55289510    -5204.03342487
  entropy T*S    EENTRO =        -0.00085107
  eigenvalues    EBANDS =     -2740.96693316
  atomic energy  EATOM  =      9484.08161297
  Solvation  Ediel_sol  =         0.00000000
  ---------------------------------------------------
  free energy    TOTEN  =      -444.40008628 eV

  energy without entropy =     -444.39923520  energy(sigma->0) =     -444.39966074


--------------------------------------------------------------------------------------------------------




 average (electrostatic) potential at core
  the test charge radii are     0.6991  0.7089  0.9956
  (the norm of the test charge is              1.0000)
       1 -58.0296       2 -58.0037       3 -58.0033       4 -58.0927       5 -58.1624
       6 -58.1656       7 -58.0965       8 -58.0707       9 -58.0470      10 -57.9515
      11 -58.0470      12 -58.1622      13 -58.0933      14 -58.7071      15 -58.7085
      16 -58.9099      17 -58.0212      18 -58.1617      19 -58.0707      20 -58.0965
      21 -58.0964      22 -58.1653      23 -58.9100      24 -58.9099      25 -58.1656
      26 -58.1624      27 -58.0467      28 -58.0700      29 -58.1616      30 -58.0205
      31 -58.9100      32 -58.7071      33 -58.7085      34 -58.0927      35 -58.0033
      36 -58.0293      37 -57.9510      38 -58.0467      39 -58.0700      40 -58.0964
      41 -58.1653      42 -58.1622      43 -58.0933      44 -58.0037      45 -72.5908
      46 -72.5900      47 -72.5908      48 -72.5900      49 -53.0237
 
 
 
 E-fermi :  -2.2015     XC(G=0):  -2.1818     alpha+bet : -1.8940


 spin component 1

 k-point     1 :       0.0000    0.0000    0.0000
  band No.  band energies     occupation 
      1     -67.0071      1.00000
      2     -41.1236      1.00000
      3     -41.0844      1.00000
      4     -40.8476      1.00000
      5     -23.1236      1.00000
      6     -22.7822      1.00000
      7     -22.5138      1.00000
      8     -22.2328      1.00000
      9     -21.7100      1.00000
     10     -21.3276      1.00000
     11     -21.2421      1.00000
     12     -20.8134      1.00000
     13     -20.3032      1.00000
     14     -20.0707      1.00000
     15     -19.6111      1.00000
     16     -19.4933      1.00000
     17     -19.1935      1.00000
     18     -19.1057      1.00000
     19     -18.9213      1.00000
     20     -18.7511      1.00000
     21     -18.7091      1.00000
     22     -18.4807      1.00000
     23     -17.9925      1.00000
     24     -17.2026      1.00000
     25     -17.1288      1.00000
     26     -16.6822      1.00000
     27     -16.5466      1.00000
     28     -16.3807      1.00000
     29     -15.9346      1.00000
     30     -15.6523      1.00000
     31     -15.6122      1.00000
     32     -15.4685      1.00000
     33     -15.4280      1.00000
     34     -15.0802      1.00000
     35     -14.5420      1.00000
     36     -14.4267      1.00000
     37     -14.4032      1.00000
     38     -14.3435      1.00000
     39     -14.0932      1.00000
     40     -13.2587      1.00000
     41     -12.5588      1.00000
     42     -12.4815      1.00000
     43     -12.3298      1.00000
     44     -12.1304      1.00000
     45     -11.7801      1.00000
     46     -11.7211      1.00000
     47     -11.6590      1.00000
     48     -11.6164      1.00000
     49     -11.6056      1.00000
     50     -11.4936      1.00000
     51     -11.1123      1.00000
     52     -10.6721      1.00000
     53     -10.6567      1.00000
     54     -10.5349      1.00000
     55     -10.4074      1.00000
     56     -10.1884      1.00000
     57     -10.0479      1.00000
     58     -10.0418      1.00000
     59      -9.7116      1.00000
     60      -9.7067      1.00000
     61      -9.6386      1.00000
     62      -9.4603      1.00000
     63      -9.3378      1.00000
     64      -9.3367      1.00000
     65      -9.2847      1.00000
     66      -9.1969      1.00000
     67      -9.1367      1.00000
     68      -9.1276      1.00000
     69      -9.0875      1.00000
     70      -8.9930      1.00000
     71      -8.9635      1.00000
     72      -8.9179      1.00000
     73      -8.8151      1.00000
     74      -8.4748      1.00000
     75      -8.4726      1.00000
     76      -7.7697      1.00000
     77      -7.7123      1.00000
     78      -7.6190      1.00000
     79      -7.6083      1.00000
     80      -7.5127      1.00000
     81      -7.3024      1.00000
     82      -7.2956      1.00000
     83      -7.2150      1.00000
     84      -7.1720      1.00000
     85      -7.0533      1.00000
     86      -6.8908      1.00000
     87      -6.7020      1.00000
     88      -6.6913      1.00000
     89      -6.5639      1.00000
     90      -6.3517      1.00000
     91      -6.3017      1.00000
     92      -6.2413      1.00000
     93      -6.1251      1.00000
     94      -6.0503      1.00000
     95      -5.6865      1.00000
     96      -5.5405      1.00000
     97      -5.3346      1.00000
     98      -4.5908      1.00000
     99      -4.5048      1.00000
    100      -4.2476      1.00000
    101      -4.2135      1.00000
    102      -4.1147      1.00000
    103      -4.0273      1.00000
    104      -3.7138      1.00000
    105      -3.0446      1.00000
    106      -2.6993      1.00000
    107      -1.6589      0.00000
    108      -1.5947      0.00000
    109      -1.3573      0.00000
    110      -1.2858      0.00000
    111      -1.1980      0.00000
    112      -0.4549      0.00000
    113      -0.2427      0.00000
    114       0.2766      0.00000
    115       0.3095      0.00000
    116       0.3287      0.00000
    117       0.3864      0.00000
    118       0.5007      0.00000
    119       0.8637      0.00000
    120       1.3194      0.00000
    121       1.4271      0.00000
    122       1.6326      0.00000
    123       1.6652      0.00000
    124       1.6715      0.00000
    125       1.7396      0.00000
    126       1.7835      0.00000
    127       1.8135      0.00000
    128       1.8280      0.00000
    129       1.8571      0.00000
    130       2.0909      0.00000
    131       2.1028      0.00000
    132       2.1368      0.00000
    133       2.1595      0.00000
    134       2.3899      0.00000
    135       2.5052      0.00000
    136       2.5281      0.00000
    137       2.5382      0.00000
    138       2.6220      0.00000
    139       2.6241      0.00000
    140       2.6500      0.00000
    141       2.8719      0.00000
    142       2.9359      0.00000
    143       2.9491      0.00000
    144       2.9664      0.00000
    145       2.9667      0.00000
    146       2.9757      0.00000
    147       3.0028      0.00000
    148       3.3695      0.00000
    149       3.7703      0.00000
    150       3.8403      0.00000
    151       3.8684      0.00000
    152       3.8816      0.00000
    153       3.8899      0.00000
    154       3.8906      0.00000
    155       3.9369      0.00000
    156       4.0029      0.00000
    157       4.1721      0.00000
    158       4.2260      0.00000
    159       4.2605      0.00000
    160       4.2885      0.00000
    161       4.2944      0.00000
    162       4.3226      0.00000
    163       4.3362      0.00000
    164       4.3453      0.00000
    165       4.3557      0.00000
    166       4.3576      0.00000
    167       4.3681      0.00000
    168       4.4912      0.00000
    169       4.5087      0.00000
    170       4.6490      0.00000
    171       4.7940      0.00000
    172       4.8163      0.00000
    173       4.9903      0.00000
    174       5.0266      0.00000
    175       5.0288      0.00000
    176       5.0882      0.00000
    177       5.1314      0.00000
    178       5.1350      0.00000
    179       5.1476      0.00000
    180       5.1624      0.00000
    181       5.3070      0.00000
    182       5.3813      0.00000
    183       5.4037      0.00000
    184       5.4334      0.00000
    185       5.5230      0.00000
    186       5.5231      0.00000
    187       5.5587      0.00000
    188       5.5769      0.00000
    189       5.5806      0.00000
    190       5.5981      0.00000
    191       5.5984      0.00000
    192       5.5998      0.00000
    193       5.5999      0.00000
    194       5.6055      0.00000
    195       5.6085      0.00000
    196       5.6225      0.00000
    197       5.6256      0.00000
    198       5.6546      0.00000
    199       5.7282      0.00000
    200       5.7679      0.00000
    201       5.8497      0.00000
    202       5.9001      0.00000
    203       5.9326      0.00000
    204       5.9467      0.00000
    205       6.0150      0.00000
    206       6.0193      0.00000
    207       6.0224      0.00000
    208       6.1042      0.00000
    209       6.1559      0.00000
    210       6.2299      0.00000
    211       6.2918      0.00000
    212       6.3708      0.00000
    213       6.3774      0.00000
    214       6.3937      0.00000
    215       6.4085      0.00000
    216       6.4340      0.00000
    217       6.4429      0.00000
    218       6.4565      0.00000
    219       6.4630      0.00000
    220       6.4694      0.00000
    221       6.4758      0.00000
    222       6.4797      0.00000
    223       6.4868      0.00000
    224       6.4960      0.00000
    225       6.6005      0.00000
    226       6.6157      0.00000
    227       6.6584      0.00000
    228       6.6637      0.00000
    229       6.6854      0.00000
    230       6.8727      0.00000
    231       6.8782      0.00000
    232       6.9041      0.00000
    233       6.9128      0.00000
    234       6.9199      0.00000
    235       6.9265      0.00000
    236       6.9287      0.00000
    237       6.9342      0.00000
    238       6.9393      0.00000
    239       6.9430      0.00000
    240       6.9462      0.00000
    241       6.9680      0.00000
    242       7.1928      0.00000
    243       7.4847      0.00000
    244       7.6534      0.00000
    245       7.6860      0.00000
    246       7.7014      0.00000
    247       7.7419      0.00000
    248       7.7624      0.00000
    249       7.7708      0.00000
    250       7.7808      0.00000
    251       7.7933      0.00000
    252       7.8930      0.00000
    253       7.9411      0.00000
    254       7.9737      0.00000
    255       8.0163      0.00000
    256       8.0820      0.00000

 k-point     2 :       0.5000   -0.0000    0.0000
  band No.  band energies     occupation 
      1     -67.0071      1.00000
      2     -41.1236      1.00000
      3     -41.0844      1.00000
      4     -40.8476      1.00000
      5     -23.0870      1.00000
      6     -22.8345      1.00000
      7     -22.5442      1.00000
      8     -22.2417      1.00000
      9     -21.5988      1.00000
     10     -21.4178      1.00000
     11     -21.0779      1.00000
     12     -20.6073      1.00000
     13     -20.5315      1.00000
     14     -20.2466      1.00000
     15     -19.7531      1.00000
     16     -19.7150      1.00000
     17     -19.3059      1.00000
     18     -19.2986      1.00000
     19     -18.6850      1.00000
     20     -18.4557      1.00000
     21     -18.0838      1.00000
     22     -17.8378      1.00000
     23     -17.8245      1.00000
     24     -17.6907      1.00000
     25     -17.4987      1.00000
     26     -17.2714      1.00000
     27     -16.8739      1.00000
     28     -16.4532      1.00000
     29     -16.0676      1.00000
     30     -15.9348      1.00000
     31     -15.3488      1.00000
     32     -15.3229      1.00000
     33     -15.1593      1.00000
     34     -15.0949      1.00000
     35     -14.5752      1.00000
     36     -14.2097      1.00000
     37     -13.9224      1.00000
     38     -13.8340      1.00000
     39     -13.4185      1.00000
     40     -13.3245      1.00000
     41     -12.9541      1.00000
     42     -12.8910      1.00000
     43     -12.8321      1.00000
     44     -12.7204      1.00000
     45     -12.2582      1.00000
     46     -11.9095      1.00000
     47     -11.6485      1.00000
     48     -11.4833      1.00000
     49     -11.4823      1.00000
     50     -11.3495      1.00000
     51     -10.8850      1.00000
     52     -10.6542      1.00000
     53     -10.6191      1.00000
     54     -10.3713      1.00000
     55     -10.1820      1.00000
     56     -10.1600      1.00000
     57     -10.0902      1.00000
     58      -9.9970      1.00000
     59      -9.7359      1.00000
     60      -9.6596      1.00000
     61      -9.6449      1.00000
     62      -9.6189      1.00000
     63      -9.5382      1.00000
     64      -9.5078      1.00000
     65      -9.3885      1.00000
     66      -9.1576      1.00000
     67      -9.0801      1.00000
     68      -8.8684      1.00000
     69      -8.7324      1.00000
     70      -8.6426      1.00000
     71      -8.5801      1.00000
     72      -8.5728      1.00000
     73      -8.5485      1.00000
     74      -8.4731      1.00000
     75      -8.4194      1.00000
     76      -8.3058      1.00000
     77      -8.2158      1.00000
     78      -8.0668      1.00000
     79      -7.9507      1.00000
     80      -7.6759      1.00000
     81      -7.5701      1.00000
     82      -7.3408      1.00000
     83      -7.0686      1.00000
     84      -7.0427      1.00000
     85      -6.9175      1.00000
     86      -6.8882      1.00000
     87      -6.8618      1.00000
     88      -6.6580      1.00000
     89      -6.4919      1.00000
     90      -6.1929      1.00000
     91      -6.0830      1.00000
     92      -5.9036      1.00000
     93      -5.6954      1.00000
     94      -5.6829      1.00000
     95      -5.4218      1.00000
     96      -5.3537      1.00000
     97      -5.3046      1.00000
     98      -5.2837      1.00000
     99      -5.1661      1.00000
    100      -5.0966      1.00000
    101      -4.2460      1.00000
    102      -3.9634      1.00000
    103      -3.7681      1.00000
    104      -3.6883      1.00000
    105      -2.9954      1.00000
    106      -2.8926      1.00000
    107      -1.7695      0.00000
    108      -1.2994      0.00000
    109      -0.9827      0.00000
    110      -0.8186      0.00000
    111      -0.7462      0.00000
    112      -0.6163      0.00000
    113      -0.2601      0.00000
    114      -0.2580      0.00000
    115      -0.2325      0.00000
    116      -0.0111      0.00000
    117       0.3065      0.00000
    118       0.7691      0.00000
    119       0.8520      0.00000
    120       0.9508      0.00000
    121       1.1856      0.00000
    122       1.4726      0.00000
    123       1.5566      0.00000
    124       1.6308      0.00000
    125       1.6454      0.00000
    126       1.6473      0.00000
    127       1.9215      0.00000
    128       1.9736      0.00000
    129       1.9870      0.00000
    130       2.0460      0.00000
    131       2.1911      0.00000
    132       2.2646      0.00000
    133       2.4568      0.00000
    134       2.6222      0.00000
    135       2.6323      0.00000
    136       2.6493      0.00000
    137       2.7474      0.00000
    138       2.7623      0.00000
    139       2.7993      0.00000
    140       2.9076      0.00000
    141       2.9093      0.00000
    142       3.1921      0.00000
    143       3.2309      0.00000
    144       3.2904      0.00000
    145       3.3507      0.00000
    146       3.4232      0.00000
    147       3.5022      0.00000
    148       3.5240      0.00000
    149       3.5332      0.00000
    150       3.5518      0.00000
    151       3.5531      0.00000
    152       3.5930      0.00000
    153       3.8475      0.00000
    154       3.9198      0.00000
    155       3.9229      0.00000
    156       3.9457      0.00000
    157       3.9476      0.00000
    158       3.9706      0.00000
    159       3.9910      0.00000
    160       4.1188      0.00000
    161       4.1352      0.00000
    162       4.1398      0.00000
    163       4.1975      0.00000
    164       4.2352      0.00000
    165       4.3511      0.00000
    166       4.4748      0.00000
    167       4.5621      0.00000
    168       4.6086      0.00000
    169       4.6088      0.00000
    170       4.6468      0.00000
    171       4.6907      0.00000
    172       4.7035      0.00000
    173       4.8186      0.00000
    174       4.8388      0.00000
    175       4.8591      0.00000
    176       4.9154      0.00000
    177       5.0207      0.00000
    178       5.0434      0.00000
    179       5.1355      0.00000
    180       5.1891      0.00000
    181       5.2433      0.00000
    182       5.2711      0.00000
    183       5.2895      0.00000
    184       5.3175      0.00000
    185       5.3815      0.00000
    186       5.4592      0.00000
    187       5.4685      0.00000
    188       5.4865      0.00000
    189       5.4883      0.00000
    190       5.5271      0.00000
    191       5.5323      0.00000
    192       5.5625      0.00000
    193       5.5925      0.00000
    194       5.6186      0.00000
    195       5.6560      0.00000
    196       5.7030      0.00000
    197       5.7557      0.00000
    198       5.7792      0.00000
    199       5.8307      0.00000
    200       5.8710      0.00000
    201       5.9131      0.00000
    202       5.9189      0.00000
    203       5.9383      0.00000
    204       5.9451      0.00000
    205       5.9512      0.00000
    206       5.9836      0.00000
    207       6.0293      0.00000
    208       6.0754      0.00000
    209       6.1087      0.00000
    210       6.1737      0.00000
    211       6.1895      0.00000
    212       6.2695      0.00000
    213       6.2699      0.00000
    214       6.3199      0.00000
    215       6.3783      0.00000
    216       6.3848      0.00000
    217       6.4788      0.00000
    218       6.5472      0.00000
    219       6.5628      0.00000
    220       6.5909      0.00000
    221       6.6402      0.00000
    222       6.6897      0.00000
    223       6.7175      0.00000
    224       6.7900      0.00000
    225       6.8127      0.00000
    226       6.8208      0.00000
    227       6.8256      0.00000
    228       6.8896      0.00000
    229       6.9168      0.00000
    230       6.9352      0.00000
    231       7.0347      0.00000
    232       7.0883      0.00000
    233       7.0893      0.00000
    234       7.1274      0.00000
    235       7.1889      0.00000
    236       7.1926      0.00000
    237       7.2170      0.00000
    238       7.2192      0.00000
    239       7.2644      0.00000
    240       7.2666      0.00000
    241       7.2835      0.00000
    242       7.2886      0.00000
    243       7.3273      0.00000
    244       7.4299      0.00000
    245       7.4322      0.00000
    246       7.5209      0.00000
    247       7.5304      0.00000
    248       7.5481      0.00000
    249       7.5871      0.00000
    250       7.5893      0.00000
    251       7.6853      0.00000
    252       7.7392      0.00000
    253       7.7952      0.00000
    254       7.8984      0.00000
    255       7.9037      0.00000
    256       7.9045      0.00000

 k-point     3 :       0.0000    0.5000    0.0000
  band No.  band energies     occupation 
      1     -67.0071      1.00000
      2     -41.1236      1.00000
      3     -41.0844      1.00000
      4     -40.8476      1.00000
      5     -23.0870      1.00000
      6     -22.8345      1.00000
      7     -22.5442      1.00000
      8     -22.2417      1.00000
      9     -21.5988      1.00000
     10     -21.4178      1.00000
     11     -21.0779      1.00000
     12     -20.6073      1.00000
     13     -20.5315      1.00000
     14     -20.2466      1.00000
     15     -19.7531      1.00000
     16     -19.7150      1.00000
     17     -19.3059      1.00000
     18     -19.2986      1.00000
     19     -18.6850      1.00000
     20     -18.4557      1.00000
     21     -18.0838      1.00000
     22     -17.8378      1.00000
     23     -17.8245      1.00000
     24     -17.6907      1.00000
     25     -17.4987      1.00000
     26     -17.2714      1.00000
     27     -16.8739      1.00000
     28     -16.4532      1.00000
     29     -16.0676      1.00000
     30     -15.9348      1.00000
     31     -15.3488      1.00000
     32     -15.3229      1.00000
     33     -15.1593      1.00000
     34     -15.0949      1.00000
     35     -14.5752      1.00000
     36     -14.2097      1.00000
     37     -13.9224      1.00000
     38     -13.8340      1.00000
     39     -13.4185      1.00000
     40     -13.3245      1.00000
     41     -12.9541      1.00000
     42     -12.8910      1.00000
     43     -12.8321      1.00000
     44     -12.7204      1.00000
     45     -12.2582      1.00000
     46     -11.9095      1.00000
     47     -11.6485      1.00000
     48     -11.4833      1.00000
     49     -11.4823      1.00000
     50     -11.3495      1.00000
     51     -10.8850      1.00000
     52     -10.6542      1.00000
     53     -10.6191      1.00000
     54     -10.3713      1.00000
     55     -10.1820      1.00000
     56     -10.1600      1.00000
     57     -10.0902      1.00000
     58      -9.9970      1.00000
     59      -9.7359      1.00000
     60      -9.6596      1.00000
     61      -9.6449      1.00000
     62      -9.6189      1.00000
     63      -9.5382      1.00000
     64      -9.5078      1.00000
     65      -9.3885      1.00000
     66      -9.1576      1.00000
     67      -9.0801      1.00000
     68      -8.8684      1.00000
     69      -8.7324      1.00000
     70      -8.6426      1.00000
     71      -8.5801      1.00000
     72      -8.5728      1.00000
     73      -8.5485      1.00000
     74      -8.4731      1.00000
     75      -8.4194      1.00000
     76      -8.3058      1.00000
     77      -8.2158      1.00000
     78      -8.0668      1.00000
     79      -7.9507      1.00000
     80      -7.6759      1.00000
     81      -7.5701      1.00000
     82      -7.3408      1.00000
     83      -7.0686      1.00000
     84      -7.0427      1.00000
     85      -6.9175      1.00000
     86      -6.8882      1.00000
     87      -6.8618      1.00000
     88      -6.6580      1.00000
     89      -6.4919      1.00000
     90      -6.1929      1.00000
     91      -6.0830      1.00000
     92      -5.9036      1.00000
     93      -5.6954      1.00000
     94      -5.6829      1.00000
     95      -5.4218      1.00000
     96      -5.3537      1.00000
     97      -5.3046      1.00000
     98      -5.2837      1.00000
     99      -5.1661      1.00000
    100      -5.0966      1.00000
    101      -4.2460      1.00000
    102      -3.9634      1.00000
    103      -3.7681      1.00000
    104      -3.6883      1.00000
    105      -2.9954      1.00000
    106      -2.8926      1.00000
    107      -1.7695      0.00000
    108      -1.2994      0.00000
    109      -0.9827      0.00000
    110      -0.8186      0.00000
    111      -0.7462      0.00000
    112      -0.6163      0.00000
    113      -0.2601      0.00000
    114      -0.2580      0.00000
    115      -0.2325      0.00000
    116      -0.0111      0.00000
    117       0.3065      0.00000
    118       0.7691      0.00000
    119       0.8520      0.00000
    120       0.9508      0.00000
    121       1.1856      0.00000
    122       1.4726      0.00000
    123       1.5566      0.00000
    124       1.6308      0.00000
    125       1.6454      0.00000
    126       1.6473      0.00000
    127       1.9215      0.00000
    128       1.9736      0.00000
    129       1.9870      0.00000
    130       2.0460      0.00000
    131       2.1911      0.00000
    132       2.2646      0.00000
    133       2.4568      0.00000
    134       2.6222      0.00000
    135       2.6323      0.00000
    136       2.6493      0.00000
    137       2.7474      0.00000
    138       2.7623      0.00000
    139       2.7993      0.00000
    140       2.9076      0.00000
    141       2.9093      0.00000
    142       3.1921      0.00000
    143       3.2309      0.00000
    144       3.2904      0.00000
    145       3.3507      0.00000
    146       3.4232      0.00000
    147       3.5022      0.00000
    148       3.5240      0.00000
    149       3.5332      0.00000
    150       3.5518      0.00000
    151       3.5531      0.00000
    152       3.5930      0.00000
    153       3.8475      0.00000
    154       3.9198      0.00000
    155       3.9229      0.00000
    156       3.9457      0.00000
    157       3.9476      0.00000
    158       3.9706      0.00000
    159       3.9910      0.00000
    160       4.1188      0.00000
    161       4.1352      0.00000
    162       4.1398      0.00000
    163       4.1975      0.00000
    164       4.2352      0.00000
    165       4.3511      0.00000
    166       4.4748      0.00000
    167       4.5621      0.00000
    168       4.6086      0.00000
    169       4.6088      0.00000
    170       4.6468      0.00000
    171       4.6907      0.00000
    172       4.7035      0.00000
    173       4.8186      0.00000
    174       4.8388      0.00000
    175       4.8591      0.00000
    176       4.9154      0.00000
    177       5.0207      0.00000
    178       5.0434      0.00000
    179       5.1355      0.00000
    180       5.1891      0.00000
    181       5.2433      0.00000
    182       5.2711      0.00000
    183       5.2895      0.00000
    184       5.3175      0.00000
    185       5.3815      0.00000
    186       5.4592      0.00000
    187       5.4685      0.00000
    188       5.4865      0.00000
    189       5.4883      0.00000
    190       5.5271      0.00000
    191       5.5323      0.00000
    192       5.5625      0.00000
    193       5.5925      0.00000
    194       5.6186      0.00000
    195       5.6560      0.00000
    196       5.7030      0.00000
    197       5.7557      0.00000
    198       5.7792      0.00000
    199       5.8307      0.00000
    200       5.8710      0.00000
    201       5.9131      0.00000
    202       5.9189      0.00000
    203       5.9383      0.00000
    204       5.9451      0.00000
    205       5.9512      0.00000
    206       5.9836      0.00000
    207       6.0293      0.00000
    208       6.0754      0.00000
    209       6.1087      0.00000
    210       6.1737      0.00000
    211       6.1895      0.00000
    212       6.2695      0.00000
    213       6.2699      0.00000
    214       6.3199      0.00000
    215       6.3783      0.00000
    216       6.3848      0.00000
    217       6.4788      0.00000
    218       6.5472      0.00000
    219       6.5628      0.00000
    220       6.5909      0.00000
    221       6.6402      0.00000
    222       6.6897      0.00000
    223       6.7175      0.00000
    224       6.7900      0.00000
    225       6.8127      0.00000
    226       6.8208      0.00000
    227       6.8256      0.00000
    228       6.8896      0.00000
    229       6.9168      0.00000
    230       6.9352      0.00000
    231       7.0347      0.00000
    232       7.0883      0.00000
    233       7.0893      0.00000
    234       7.1274      0.00000
    235       7.1889      0.00000
    236       7.1926      0.00000
    237       7.2170      0.00000
    238       7.2192      0.00000
    239       7.2644      0.00000
    240       7.2666      0.00000
    241       7.2835      0.00000
    242       7.2886      0.00000
    243       7.3273      0.00000
    244       7.4299      0.00000
    245       7.4322      0.00000
    246       7.5209      0.00000
    247       7.5304      0.00000
    248       7.5481      0.00000
    249       7.5871      0.00000
    250       7.5893      0.00000
    251       7.6853      0.00000
    252       7.7392      0.00000
    253       7.7952      0.00000
    254       7.8984      0.00000
    255       7.9037      0.00000
    256       7.9045      0.00000

 k-point     4 :       0.5000    0.5000    0.0000
  band No.  band energies     occupation 
      1     -67.0071      1.00000
      2     -41.1236      1.00000
      3     -41.0844      1.00000
      4     -40.8476      1.00000
      5     -23.0910      1.00000
      6     -22.8022      1.00000
      7     -22.6094      1.00000
      8     -22.1719      1.00000
      9     -21.6675      1.00000
     10     -21.4580      1.00000
     11     -20.9559      1.00000
     12     -20.6121      1.00000
     13     -20.3769      1.00000
     14     -20.1963      1.00000
     15     -20.1645      1.00000
     16     -19.8732      1.00000
     17     -19.1230      1.00000
     18     -18.9907      1.00000
     19     -18.8250      1.00000
     20     -18.3529      1.00000
     21     -18.1218      1.00000
     22     -17.8705      1.00000
     23     -17.8517      1.00000
     24     -17.5648      1.00000
     25     -17.4133      1.00000
     26     -17.2751      1.00000
     27     -17.1394      1.00000
     28     -16.7802      1.00000
     29     -16.1903      1.00000
     30     -15.4893      1.00000
     31     -15.3737      1.00000
     32     -15.1799      1.00000
     33     -15.1444      1.00000
     34     -14.9178      1.00000
     35     -14.3897      1.00000
     36     -14.2951      1.00000
     37     -14.0495      1.00000
     38     -13.8977      1.00000
     39     -13.6992      1.00000
     40     -13.1428      1.00000
     41     -13.0903      1.00000
     42     -12.9912      1.00000
     43     -12.9267      1.00000
     44     -12.7879      1.00000
     45     -12.2651      1.00000
     46     -12.0086      1.00000
     47     -11.4917      1.00000
     48     -11.3361      1.00000
     49     -11.2923      1.00000
     50     -11.0566      1.00000
     51     -11.0265      1.00000
     52     -10.8666      1.00000
     53     -10.5172      1.00000
     54     -10.1904      1.00000
     55     -10.1846      1.00000
     56     -10.0935      1.00000
     57      -9.9979      1.00000
     58      -9.9069      1.00000
     59      -9.9013      1.00000
     60      -9.8291      1.00000
     61      -9.7605      1.00000
     62      -9.7548      1.00000
     63      -9.6640      1.00000
     64      -9.5158      1.00000
     65      -9.3777      1.00000
     66      -9.3503      1.00000
     67      -8.9369      1.00000
     68      -8.8281      1.00000
     69      -8.8077      1.00000
     70      -8.6742      1.00000
     71      -8.5998      1.00000
     72      -8.5273      1.00000
     73      -8.4559      1.00000
     74      -8.4124      1.00000
     75      -8.2518      1.00000
     76      -8.2365      1.00000
     77      -8.0650      1.00000
     78      -8.0172      1.00000
     79      -7.8371      1.00000
     80      -7.6544      1.00000
     81      -7.6389      1.00000
     82      -7.5607      1.00000
     83      -7.4291      1.00000
     84      -7.0640      1.00000
     85      -6.9940      1.00000
     86      -6.8697      1.00000
     87      -6.7496      1.00000
     88      -6.5924      1.00000
     89      -6.4434      1.00000
     90      -6.3813      1.00000
     91      -6.2192      1.00000
     92      -5.7835      1.00000
     93      -5.5210      1.00000
     94      -5.4379      1.00000
     95      -5.4043      1.00000
     96      -5.3854      1.00000
     97      -5.3571      1.00000
     98      -5.1889      1.00000
     99      -5.1760      1.00000
    100      -5.0978      1.00000
    101      -4.4078      1.00000
    102      -4.1182      1.00000
    103      -4.0150      1.00000
    104      -3.6350      1.00000
    105      -2.8490      1.00000
    106      -2.3728      0.99229
    107      -2.0238      0.00600
    108      -1.5906      0.00000
    109      -0.8354      0.00000
    110      -0.8163      0.00000
    111      -0.7020      0.00000
    112      -0.6602      0.00000
    113      -0.3898      0.00000
    114      -0.1218      0.00000
    115      -0.0673      0.00000
    116      -0.0399      0.00000
    117       0.3534      0.00000
    118       0.5989      0.00000
    119       0.8789      0.00000
    120       1.0444      0.00000
    121       1.0718      0.00000
    122       1.4188      0.00000
    123       1.5348      0.00000
    124       1.5736      0.00000
    125       1.5966      0.00000
    126       1.6413      0.00000
    127       1.9250      0.00000
    128       1.9762      0.00000
    129       2.0224      0.00000
    130       2.1888      0.00000
    131       2.2210      0.00000
    132       2.3911      0.00000
    133       2.5259      0.00000
    134       2.6203      0.00000
    135       2.6294      0.00000
    136       2.6872      0.00000
    137       2.7046      0.00000
    138       2.7277      0.00000
    139       2.7511      0.00000
    140       2.8155      0.00000
    141       2.9126      0.00000
    142       3.1583      0.00000
    143       3.2221      0.00000
    144       3.3081      0.00000
    145       3.3847      0.00000
    146       3.4059      0.00000
    147       3.4753      0.00000
    148       3.4929      0.00000
    149       3.5377      0.00000
    150       3.5471      0.00000
    151       3.5561      0.00000
    152       3.5976      0.00000
    153       3.8195      0.00000
    154       3.9179      0.00000
    155       3.9355      0.00000
    156       3.9450      0.00000
    157       3.9451      0.00000
    158       3.9760      0.00000
    159       3.9792      0.00000
    160       4.1399      0.00000
    161       4.1732      0.00000
    162       4.1874      0.00000
    163       4.2210      0.00000
    164       4.3407      0.00000
    165       4.3813      0.00000
    166       4.5114      0.00000
    167       4.5971      0.00000
    168       4.6056      0.00000
    169       4.6407      0.00000
    170       4.6731      0.00000
    171       4.6929      0.00000
    172       4.8204      0.00000
    173       4.8330      0.00000
    174       4.8527      0.00000
    175       4.9090      0.00000
    176       4.9228      0.00000
    177       4.9705      0.00000
    178       5.0295      0.00000
    179       5.0478      0.00000
    180       5.1479      0.00000
    181       5.1891      0.00000
    182       5.2768      0.00000
    183       5.2904      0.00000
    184       5.2988      0.00000
    185       5.3449      0.00000
    186       5.3850      0.00000
    187       5.4404      0.00000
    188       5.4762      0.00000
    189       5.4887      0.00000
    190       5.4913      0.00000
    191       5.5378      0.00000
    192       5.5534      0.00000
    193       5.5919      0.00000
    194       5.6286      0.00000
    195       5.6314      0.00000
    196       5.6349      0.00000
    197       5.6627      0.00000
    198       5.7405      0.00000
    199       5.7605      0.00000
    200       5.7640      0.00000
    201       5.8985      0.00000
    202       5.9162      0.00000
    203       5.9362      0.00000
    204       5.9391      0.00000
    205       5.9487      0.00000
    206       5.9572      0.00000
    207       5.9653      0.00000
    208       6.0232      0.00000
    209       6.0789      0.00000
    210       6.1619      0.00000
    211       6.1743      0.00000
    212       6.2745      0.00000
    213       6.3057      0.00000
    214       6.3112      0.00000
    215       6.3267      0.00000
    216       6.4661      0.00000
    217       6.4676      0.00000
    218       6.5514      0.00000
    219       6.5528      0.00000
    220       6.6253      0.00000
    221       6.6602      0.00000
    222       6.7047      0.00000
    223       6.7978      0.00000
    224       6.8156      0.00000
    225       6.8233      0.00000
    226       6.8414      0.00000
    227       6.9041      0.00000
    228       6.9154      0.00000
    229       6.9237      0.00000
    230       6.9244      0.00000
    231       6.9458      0.00000
    232       7.0766      0.00000
    233       7.1018      0.00000
    234       7.1130      0.00000
    235       7.1545      0.00000
    236       7.1599      0.00000
    237       7.2060      0.00000
    238       7.2246      0.00000
    239       7.2573      0.00000
    240       7.2695      0.00000
    241       7.2961      0.00000
    242       7.3052      0.00000
    243       7.3089      0.00000
    244       7.4134      0.00000
    245       7.4357      0.00000
    246       7.4710      0.00000
    247       7.5274      0.00000
    248       7.5464      0.00000
    249       7.5708      0.00000
    250       7.5843      0.00000
    251       7.5861      0.00000
    252       7.6169      0.00000
    253       7.6862      0.00000
    254       7.8204      0.00000
    255       7.8967      0.00000
    256       7.9045      0.00000

 spin component 2

 k-point     1 :       0.0000    0.0000    0.0000
  band No.  band energies     occupation 
      1     -64.6192      1.00000
      2     -39.1384      1.00000
      3     -38.6083      1.00000
      4     -38.1915      1.00000
      5     -23.1161      1.00000
      6     -22.7765      1.00000
      7     -22.5189      1.00000
      8     -22.2405      1.00000
      9     -21.7058      1.00000
     10     -21.3233      1.00000
     11     -21.2378      1.00000
     12     -20.8145      1.00000
     13     -20.3009      1.00000
     14     -20.0721      1.00000
     15     -19.5999      1.00000
     16     -19.4810      1.00000
     17     -19.1902      1.00000
     18     -19.1013      1.00000
     19     -18.9176      1.00000
     20     -18.7461      1.00000
     21     -18.6962      1.00000
     22     -18.4763      1.00000
     23     -17.9842      1.00000
     24     -17.1970      1.00000
     25     -17.1207      1.00000
     26     -16.6785      1.00000
     27     -16.5407      1.00000
     28     -16.3800      1.00000
     29     -15.9262      1.00000
     30     -15.6465      1.00000
     31     -15.6045      1.00000
     32     -15.4540      1.00000
     33     -15.4143      1.00000
     34     -15.0759      1.00000
     35     -14.5298      1.00000
     36     -14.4223      1.00000
     37     -14.4003      1.00000
     38     -14.3282      1.00000
     39     -14.0812      1.00000
     40     -13.2550      1.00000
     41     -12.5308      1.00000
     42     -12.4773      1.00000
     43     -12.3216      1.00000
     44     -12.1281      1.00000
     45     -11.7706      1.00000
     46     -11.7089      1.00000
     47     -11.6537      1.00000
     48     -11.6135      1.00000
     49     -11.6009      1.00000
     50     -11.4733      1.00000
     51     -11.1047      1.00000
     52     -10.6527      1.00000
     53     -10.6388      1.00000
     54     -10.5326      1.00000
     55     -10.3811      1.00000
     56     -10.1760      1.00000
     57     -10.0340      1.00000
     58     -10.0271      1.00000
     59      -9.7053      1.00000
     60      -9.6743      1.00000
     61      -9.6205      1.00000
     62      -9.4462      1.00000
     63      -9.3252      1.00000
     64      -9.3129      1.00000
     65      -9.2809      1.00000
     66      -9.1817      1.00000
     67      -9.1264      1.00000
     68      -9.0848      1.00000
     69      -9.0708      1.00000
     70      -8.9852      1.00000
     71      -8.9606      1.00000
     72      -8.9161      1.00000
     73      -8.8128      1.00000
     74      -8.4307      1.00000
     75      -8.4137      1.00000
     76      -7.7515      1.00000
     77      -7.7045      1.00000
     78      -7.6132      1.00000
     79      -7.5898      1.00000
     80      -7.4732      1.00000
     81      -7.3016      1.00000
     82      -7.2062      1.00000
     83      -7.1461      1.00000
     84      -7.0908      1.00000
     85      -7.0325      1.00000
     86      -6.8251      1.00000
     87      -6.6893      1.00000
     88      -6.6439      1.00000
     89      -6.5542      1.00000
     90      -6.3430      1.00000
     91      -6.2775      1.00000
     92      -6.2138      1.00000
     93      -6.1123      1.00000
     94      -6.0192      1.00000
     95      -5.4520      1.00000
     96      -5.4489      1.00000
     97      -5.2730      1.00000
     98      -4.5908      1.00000
     99      -4.4561      1.00000
    100      -4.2361      1.00000
    101      -4.2007      1.00000
    102      -4.1020      1.00000
    103      -2.7823      1.00000
    104      -1.8998      0.00001
    105      -1.6254      0.00000
    106      -1.3834      0.00000
    107      -1.3693      0.00000
    108      -1.0399      0.00000
    109      -0.3588      0.00000
    110       0.0808      0.00000
    111       0.1024      0.00000
    112       0.2947      0.00000
    113       0.4026      0.00000
    114       0.4377      0.00000
    115       0.6269      0.00000
    116       0.8630      0.00000
    117       1.2957      0.00000
    118       1.4990      0.00000
    119       1.5041      0.00000
    120       1.5795      0.00000
    121       1.6815      0.00000
    122       1.7211      0.00000
    123       1.8213      0.00000
    124       1.8406      0.00000
    125       1.8556      0.00000
    126       1.8704      0.00000
    127       1.9218      0.00000
    128       2.0583      0.00000
    129       2.1102      0.00000
    130       2.1612      0.00000
    131       2.2563      0.00000
    132       2.2888      0.00000
    133       2.5706      0.00000
    134       2.6067      0.00000
    135       2.6108      0.00000
    136       2.6272      0.00000
    137       2.6311      0.00000
    138       2.6430      0.00000
    139       2.6910      0.00000
    140       2.9956      0.00000
    141       2.9981      0.00000
    142       3.0048      0.00000
    143       3.0050      0.00000
    144       3.0113      0.00000
    145       3.0160      0.00000
    146       3.0853      0.00000
    147       3.3961      0.00000
    148       3.6007      0.00000
    149       3.8711      0.00000
    150       3.8792      0.00000
    151       3.9012      0.00000
    152       3.9013      0.00000
    153       3.9030      0.00000
    154       3.9186      0.00000
    155       4.0058      0.00000
    156       4.1121      0.00000
    157       4.3041      0.00000
    158       4.3184      0.00000
    159       4.3348      0.00000
    160       4.3438      0.00000
    161       4.3524      0.00000
    162       4.3537      0.00000
    163       4.3683      0.00000
    164       4.3710      0.00000
    165       4.3882      0.00000
    166       4.3914      0.00000
    167       4.4981      0.00000
    168       4.5826      0.00000
    169       4.6630      0.00000
    170       4.6738      0.00000
    171       4.8257      0.00000
    172       4.8924      0.00000
    173       5.0138      0.00000
    174       5.0684      0.00000
    175       5.1476      0.00000
    176       5.1697      0.00000
    177       5.1723      0.00000
    178       5.1835      0.00000
    179       5.1841      0.00000
    180       5.2036      0.00000
    181       5.3562      0.00000
    182       5.4146      0.00000
    183       5.4429      0.00000
    184       5.4583      0.00000
    185       5.5319      0.00000
    186       5.6050      0.00000
    187       5.6279      0.00000
    188       5.6399      0.00000
    189       5.6410      0.00000
    190       5.6418      0.00000
    191       5.6460      0.00000
    192       5.6472      0.00000
    193       5.6532      0.00000
    194       5.6686      0.00000
    195       5.6726      0.00000
    196       5.6753      0.00000
    197       5.6847      0.00000
    198       5.7536      0.00000
    199       5.7887      0.00000
    200       5.8168      0.00000
    201       5.8875      0.00000
    202       5.9600      0.00000
    203       5.9827      0.00000
    204       6.0134      0.00000
    205       6.0268      0.00000
    206       6.0396      0.00000
    207       6.0459      0.00000
    208       6.1435      0.00000
    209       6.2811      0.00000
    210       6.2876      0.00000
    211       6.3241      0.00000
    212       6.4359      0.00000
    213       6.4531      0.00000
    214       6.4640      0.00000
    215       6.4759      0.00000
    216       6.4820      0.00000
    217       6.4908      0.00000
    218       6.4989      0.00000
    219       6.5005      0.00000
    220       6.5102      0.00000
    221       6.5165      0.00000
    222       6.5189      0.00000
    223       6.5779      0.00000
    224       6.6506      0.00000
    225       6.6572      0.00000
    226       6.6695      0.00000
    227       6.6751      0.00000
    228       6.7047      0.00000
    229       6.7689      0.00000
    230       6.9476      0.00000
    231       6.9524      0.00000
    232       6.9589      0.00000
    233       6.9621      0.00000
    234       6.9629      0.00000
    235       6.9630      0.00000
    236       6.9634      0.00000
    237       6.9659      0.00000
    238       6.9685      0.00000
    239       6.9797      0.00000
    240       6.9834      0.00000
    241       7.0130      0.00000
    242       7.4315      0.00000
    243       7.6673      0.00000
    244       7.7167      0.00000
    245       7.7416      0.00000
    246       7.7499      0.00000
    247       7.7844      0.00000
    248       7.7927      0.00000
    249       7.8040      0.00000
    250       7.8067      0.00000
    251       7.8187      0.00000
    252       7.9029      0.00000
    253       7.9903      0.00000
    254       8.0301      0.00000
    255       8.0328      0.00000
    256       8.1962      0.00000

 k-point     2 :       0.5000   -0.0000    0.0000
  band No.  band energies     occupation 
      1     -64.6192      1.00000
      2     -39.1384      1.00000
      3     -38.6083      1.00000
      4     -38.1915      1.00000
      5     -23.0793      1.00000
      6     -22.8290      1.00000
      7     -22.5486      1.00000
      8     -22.2487      1.00000
      9     -21.5968      1.00000
     10     -21.4162      1.00000
     11     -21.0769      1.00000
     12     -20.6028      1.00000
     13     -20.5242      1.00000
     14     -20.2422      1.00000
     15     -19.7485      1.00000
     16     -19.7133      1.00000
     17     -19.3009      1.00000
     18     -19.2885      1.00000
     19     -18.6796      1.00000
     20     -18.4491      1.00000
     21     -18.0759      1.00000
     22     -17.8304      1.00000
     23     -17.8176      1.00000
     24     -17.6830      1.00000
     25     -17.4974      1.00000
     26     -17.2661      1.00000
     27     -16.8645      1.00000
     28     -16.4460      1.00000
     29     -16.0597      1.00000
     30     -15.9274      1.00000
     31     -15.3433      1.00000
     32     -15.3151      1.00000
     33     -15.1527      1.00000
     34     -15.0810      1.00000
     35     -14.5706      1.00000
     36     -14.1921      1.00000
     37     -13.9142      1.00000
     38     -13.8309      1.00000
     39     -13.4138      1.00000
     40     -13.3164      1.00000
     41     -12.9344      1.00000
     42     -12.8887      1.00000
     43     -12.8255      1.00000
     44     -12.7091      1.00000
     45     -12.2519      1.00000
     46     -11.8906      1.00000
     47     -11.6382      1.00000
     48     -11.4732      1.00000
     49     -11.4650      1.00000
     50     -11.3395      1.00000
     51     -10.8787      1.00000
     52     -10.6524      1.00000
     53     -10.6129      1.00000
     54     -10.3384      1.00000
     55     -10.1651      1.00000
     56     -10.1256      1.00000
     57     -10.0889      1.00000
     58      -9.9847      1.00000
     59      -9.7222      1.00000
     60      -9.6492      1.00000
     61      -9.6306      1.00000
     62      -9.6158      1.00000
     63      -9.5171      1.00000
     64      -9.5012      1.00000
     65      -9.3629      1.00000
     66      -9.1467      1.00000
     67      -9.0754      1.00000
     68      -8.8321      1.00000
     69      -8.7274      1.00000
     70      -8.5735      1.00000
     71      -8.5675      1.00000
     72      -8.5654      1.00000
     73      -8.5193      1.00000
     74      -8.4695      1.00000
     75      -8.4176      1.00000
     76      -8.2984      1.00000
     77      -8.2007      1.00000
     78      -8.0123      1.00000
     79      -7.9356      1.00000
     80      -7.5916      1.00000
     81      -7.5587      1.00000
     82      -7.3141      1.00000
     83      -7.0213      1.00000
     84      -6.9957      1.00000
     85      -6.8981      1.00000
     86      -6.8725      1.00000
     87      -6.8347      1.00000
     88      -6.5693      1.00000
     89      -6.4740      1.00000
     90      -6.0717      1.00000
     91      -6.0544      1.00000
     92      -5.8694      1.00000
     93      -5.6611      1.00000
     94      -5.4274      1.00000
     95      -5.4006      1.00000
     96      -5.3380      1.00000
     97      -5.2805      1.00000
     98      -5.2696      1.00000
     99      -5.1605      1.00000
    100      -5.0870      1.00000
    101      -4.1474      1.00000
    102      -3.6663      1.00000
    103      -3.0353      1.00000
    104      -1.9211      0.00004
    105      -1.2826      0.00000
    106      -1.1879      0.00000
    107      -0.8019      0.00000
    108      -0.7253      0.00000
    109      -0.5193      0.00000
    110      -0.2402      0.00000
    111      -0.1936      0.00000
    112      -0.0081      0.00000
    113       0.1584      0.00000
    114       0.2761      0.00000
    115       0.8149      0.00000
    116       0.8437      0.00000
    117       1.0917      0.00000
    118       1.1686      0.00000
    119       1.5200      0.00000
    120       1.5322      0.00000
    121       1.5574      0.00000
    122       1.5997      0.00000
    123       1.6516      0.00000
    124       1.7966      0.00000
    125       1.9162      0.00000
    126       1.9373      0.00000
    127       2.0236      0.00000
    128       2.0549      0.00000
    129       2.2065      0.00000
    130       2.2488      0.00000
    131       2.4485      0.00000
    132       2.6094      0.00000
    133       2.6721      0.00000
    134       2.6758      0.00000
    135       2.7769      0.00000
    136       2.8193      0.00000
    137       2.8469      0.00000
    138       2.8647      0.00000
    139       2.9309      0.00000
    140       3.0328      0.00000
    141       3.1823      0.00000
    142       3.3275      0.00000
    143       3.3661      0.00000
    144       3.4297      0.00000
    145       3.4406      0.00000
    146       3.5308      0.00000
    147       3.5627      0.00000
    148       3.5708      0.00000
    149       3.5813      0.00000
    150       3.5883      0.00000
    151       3.6051      0.00000
    152       3.6334      0.00000
    153       3.9176      0.00000
    154       3.9749      0.00000
    155       3.9902      0.00000
    156       3.9911      0.00000
    157       4.0015      0.00000
    158       4.0198      0.00000
    159       4.0370      0.00000
    160       4.1614      0.00000
    161       4.1990      0.00000
    162       4.2232      0.00000
    163       4.2610      0.00000
    164       4.2708      0.00000
    165       4.4475      0.00000
    166       4.6218      0.00000
    167       4.6514      0.00000
    168       4.6578      0.00000
    169       4.6931      0.00000
    170       4.7036      0.00000
    171       4.7252      0.00000
    172       4.8480      0.00000
    173       4.8674      0.00000
    174       4.8706      0.00000
    175       4.8824      0.00000
    176       4.9664      0.00000
    177       5.0471      0.00000
    178       5.0631      0.00000
    179       5.1776      0.00000
    180       5.2900      0.00000
    181       5.3174      0.00000
    182       5.3287      0.00000
    183       5.3400      0.00000
    184       5.3746      0.00000
    185       5.4499      0.00000
    186       5.5112      0.00000
    187       5.5158      0.00000
    188       5.5193      0.00000
    189       5.5328      0.00000
    190       5.5368      0.00000
    191       5.5658      0.00000
    192       5.6245      0.00000
    193       5.6391      0.00000
    194       5.6587      0.00000
    195       5.6811      0.00000
    196       5.7220      0.00000
    197       5.7791      0.00000
    198       5.7934      0.00000
    199       5.8782      0.00000
    200       5.8884      0.00000
    201       5.9658      0.00000
    202       5.9701      0.00000
    203       5.9758      0.00000
    204       5.9845      0.00000
    205       5.9966      0.00000
    206       6.0229      0.00000
    207       6.0665      0.00000
    208       6.0998      0.00000
    209       6.1272      0.00000
    210       6.2106      0.00000
    211       6.2930      0.00000
    212       6.3114      0.00000
    213       6.3289      0.00000
    214       6.3857      0.00000
    215       6.4676      0.00000
    216       6.5260      0.00000
    217       6.5775      0.00000
    218       6.5998      0.00000
    219       6.6380      0.00000
    220       6.6389      0.00000
    221       6.7028      0.00000
    222       6.7475      0.00000
    223       6.7720      0.00000
    224       6.8190      0.00000
    225       6.8302      0.00000
    226       6.8590      0.00000
    227       6.8643      0.00000
    228       6.9561      0.00000
    229       6.9617      0.00000
    230       6.9698      0.00000
    231       7.1323      0.00000
    232       7.1838      0.00000
    233       7.1954      0.00000
    234       7.2251      0.00000
    235       7.2490      0.00000
    236       7.2725      0.00000
    237       7.2765      0.00000
    238       7.2914      0.00000
    239       7.2968      0.00000
    240       7.3084      0.00000
    241       7.3087      0.00000
    242       7.3317      0.00000
    243       7.3866      0.00000
    244       7.4595      0.00000
    245       7.5340      0.00000
    246       7.5822      0.00000
    247       7.6004      0.00000
    248       7.6151      0.00000
    249       7.6239      0.00000
    250       7.6289      0.00000
    251       7.7891      0.00000
    252       7.8320      0.00000
    253       7.8554      0.00000
    254       7.9432      0.00000
    255       7.9481      0.00000
    256       7.9518      0.00000

 k-point     3 :       0.0000    0.5000    0.0000
  band No.  band energies     occupation 
      1     -64.6192      1.00000
      2     -39.1384      1.00000
      3     -38.6083      1.00000
      4     -38.1915      1.00000
      5     -23.0793      1.00000
      6     -22.8290      1.00000
      7     -22.5486      1.00000
      8     -22.2487      1.00000
      9     -21.5968      1.00000
     10     -21.4162      1.00000
     11     -21.0769      1.00000
     12     -20.6028      1.00000
     13     -20.5242      1.00000
     14     -20.2422      1.00000
     15     -19.7485      1.00000
     16     -19.7133      1.00000
     17     -19.3009      1.00000
     18     -19.2885      1.00000
     19     -18.6796      1.00000
     20     -18.4491      1.00000
     21     -18.0759      1.00000
     22     -17.8304      1.00000
     23     -17.8176      1.00000
     24     -17.6830      1.00000
     25     -17.4974      1.00000
     26     -17.2661      1.00000
     27     -16.8645      1.00000
     28     -16.4460      1.00000
     29     -16.0597      1.00000
     30     -15.9274      1.00000
     31     -15.3433      1.00000
     32     -15.3151      1.00000
     33     -15.1527      1.00000
     34     -15.0810      1.00000
     35     -14.5706      1.00000
     36     -14.1921      1.00000
     37     -13.9142      1.00000
     38     -13.8309      1.00000
     39     -13.4138      1.00000
     40     -13.3164      1.00000
     41     -12.9344      1.00000
     42     -12.8887      1.00000
     43     -12.8255      1.00000
     44     -12.7091      1.00000
     45     -12.2519      1.00000
     46     -11.8906      1.00000
     47     -11.6382      1.00000
     48     -11.4732      1.00000
     49     -11.4650      1.00000
     50     -11.3395      1.00000
     51     -10.8787      1.00000
     52     -10.6524      1.00000
     53     -10.6129      1.00000
     54     -10.3384      1.00000
     55     -10.1651      1.00000
     56     -10.1256      1.00000
     57     -10.0889      1.00000
     58      -9.9847      1.00000
     59      -9.7222      1.00000
     60      -9.6492      1.00000
     61      -9.6306      1.00000
     62      -9.6158      1.00000
     63      -9.5171      1.00000
     64      -9.5012      1.00000
     65      -9.3629      1.00000
     66      -9.1467      1.00000
     67      -9.0754      1.00000
     68      -8.8321      1.00000
     69      -8.7274      1.00000
     70      -8.5735      1.00000
     71      -8.5675      1.00000
     72      -8.5654      1.00000
     73      -8.5193      1.00000
     74      -8.4695      1.00000
     75      -8.4176      1.00000
     76      -8.2984      1.00000
     77      -8.2007      1.00000
     78      -8.0123      1.00000
     79      -7.9356      1.00000
     80      -7.5916      1.00000
     81      -7.5587      1.00000
     82      -7.3141      1.00000
     83      -7.0213      1.00000
     84      -6.9957      1.00000
     85      -6.8981      1.00000
     86      -6.8725      1.00000
     87      -6.8347      1.00000
     88      -6.5693      1.00000
     89      -6.4740      1.00000
     90      -6.0717      1.00000
     91      -6.0544      1.00000
     92      -5.8694      1.00000
     93      -5.6611      1.00000
     94      -5.4274      1.00000
     95      -5.4006      1.00000
     96      -5.3380      1.00000
     97      -5.2805      1.00000
     98      -5.2696      1.00000
     99      -5.1605      1.00000
    100      -5.0870      1.00000
    101      -4.1474      1.00000
    102      -3.6663      1.00000
    103      -3.0353      1.00000
    104      -1.9211      0.00004
    105      -1.2826      0.00000
    106      -1.1879      0.00000
    107      -0.8019      0.00000
    108      -0.7253      0.00000
    109      -0.5193      0.00000
    110      -0.2402      0.00000
    111      -0.1936      0.00000
    112      -0.0081      0.00000
    113       0.1584      0.00000
    114       0.2761      0.00000
    115       0.8149      0.00000
    116       0.8437      0.00000
    117       1.0917      0.00000
    118       1.1686      0.00000
    119       1.5200      0.00000
    120       1.5322      0.00000
    121       1.5574      0.00000
    122       1.5997      0.00000
    123       1.6516      0.00000
    124       1.7966      0.00000
    125       1.9162      0.00000
    126       1.9373      0.00000
    127       2.0236      0.00000
    128       2.0549      0.00000
    129       2.2065      0.00000
    130       2.2488      0.00000
    131       2.4485      0.00000
    132       2.6094      0.00000
    133       2.6721      0.00000
    134       2.6758      0.00000
    135       2.7769      0.00000
    136       2.8193      0.00000
    137       2.8469      0.00000
    138       2.8647      0.00000
    139       2.9309      0.00000
    140       3.0328      0.00000
    141       3.1823      0.00000
    142       3.3275      0.00000
    143       3.3661      0.00000
    144       3.4297      0.00000
    145       3.4406      0.00000
    146       3.5308      0.00000
    147       3.5627      0.00000
    148       3.5708      0.00000
    149       3.5813      0.00000
    150       3.5883      0.00000
    151       3.6051      0.00000
    152       3.6334      0.00000
    153       3.9176      0.00000
    154       3.9749      0.00000
    155       3.9902      0.00000
    156       3.9911      0.00000
    157       4.0015      0.00000
    158       4.0198      0.00000
    159       4.0370      0.00000
    160       4.1614      0.00000
    161       4.1990      0.00000
    162       4.2232      0.00000
    163       4.2610      0.00000
    164       4.2708      0.00000
    165       4.4475      0.00000
    166       4.6218      0.00000
    167       4.6514      0.00000
    168       4.6578      0.00000
    169       4.6931      0.00000
    170       4.7036      0.00000
    171       4.7252      0.00000
    172       4.8480      0.00000
    173       4.8674      0.00000
    174       4.8706      0.00000
    175       4.8824      0.00000
    176       4.9664      0.00000
    177       5.0471      0.00000
    178       5.0631      0.00000
    179       5.1776      0.00000
    180       5.2900      0.00000
    181       5.3174      0.00000
    182       5.3287      0.00000
    183       5.3400      0.00000
    184       5.3746      0.00000
    185       5.4499      0.00000
    186       5.5112      0.00000
    187       5.5158      0.00000
    188       5.5193      0.00000
    189       5.5328      0.00000
    190       5.5368      0.00000
    191       5.5658      0.00000
    192       5.6245      0.00000
    193       5.6391      0.00000
    194       5.6587      0.00000
    195       5.6811      0.00000
    196       5.7220      0.00000
    197       5.7791      0.00000
    198       5.7934      0.00000
    199       5.8782      0.00000
    200       5.8884      0.00000
    201       5.9658      0.00000
    202       5.9701      0.00000
    203       5.9758      0.00000
    204       5.9845      0.00000
    205       5.9966      0.00000
    206       6.0229      0.00000
    207       6.0665      0.00000
    208       6.0998      0.00000
    209       6.1272      0.00000
    210       6.2106      0.00000
    211       6.2930      0.00000
    212       6.3114      0.00000
    213       6.3289      0.00000
    214       6.3857      0.00000
    215       6.4676      0.00000
    216       6.5260      0.00000
    217       6.5775      0.00000
    218       6.5998      0.00000
    219       6.6380      0.00000
    220       6.6389      0.00000
    221       6.7028      0.00000
    222       6.7475      0.00000
    223       6.7720      0.00000
    224       6.8190      0.00000
    225       6.8302      0.00000
    226       6.8590      0.00000
    227       6.8643      0.00000
    228       6.9561      0.00000
    229       6.9617      0.00000
    230       6.9698      0.00000
    231       7.1323      0.00000
    232       7.1838      0.00000
    233       7.1954      0.00000
    234       7.2251      0.00000
    235       7.2490      0.00000
    236       7.2725      0.00000
    237       7.2765      0.00000
    238       7.2914      0.00000
    239       7.2968      0.00000
    240       7.3084      0.00000
    241       7.3087      0.00000
    242       7.3317      0.00000
    243       7.3866      0.00000
    244       7.4595      0.00000
    245       7.5340      0.00000
    246       7.5822      0.00000
    247       7.6004      0.00000
    248       7.6151      0.00000
    249       7.6239      0.00000
    250       7.6289      0.00000
    251       7.7891      0.00000
    252       7.8320      0.00000
    253       7.8554      0.00000
    254       7.9432      0.00000
    255       7.9481      0.00000
    256       7.9518      0.00000

 k-point     4 :       0.5000    0.5000    0.0000
  band No.  band energies     occupation 
      1     -64.6192      1.00000
      2     -39.1384      1.00000
      3     -38.6083      1.00000
      4     -38.1915      1.00000
      5     -23.0833      1.00000
      6     -22.7966      1.00000
      7     -22.6125      1.00000
      8     -22.1811      1.00000
      9     -21.6645      1.00000
     10     -21.4587      1.00000
     11     -20.9511      1.00000
     12     -20.6080      1.00000
     13     -20.3733      1.00000
     14     -20.1831      1.00000
     15     -20.1622      1.00000
     16     -19.8712      1.00000
     17     -19.1203      1.00000
     18     -18.9833      1.00000
     19     -18.8219      1.00000
     20     -18.3520      1.00000
     21     -18.1052      1.00000
     22     -17.8664      1.00000
     23     -17.8392      1.00000
     24     -17.5553      1.00000
     25     -17.4087      1.00000
     26     -17.2706      1.00000
     27     -17.1351      1.00000
     28     -16.7794      1.00000
     29     -16.1760      1.00000
     30     -15.4765      1.00000
     31     -15.3671      1.00000
     32     -15.1712      1.00000
     33     -15.1356      1.00000
     34     -14.9172      1.00000
     35     -14.3841      1.00000
     36     -14.2868      1.00000
     37     -14.0386      1.00000
     38     -13.8920      1.00000
     39     -13.6938      1.00000
     40     -13.1171      1.00000
     41     -13.0784      1.00000
     42     -12.9856      1.00000
     43     -12.9159      1.00000
     44     -12.7818      1.00000
     45     -12.2628      1.00000
     46     -11.9942      1.00000
     47     -11.4553      1.00000
     48     -11.3346      1.00000
     49     -11.2935      1.00000
     50     -11.0532      1.00000
     51     -11.0198      1.00000
     52     -10.8551      1.00000
     53     -10.4992      1.00000
     54     -10.1868      1.00000
     55     -10.1512      1.00000
     56     -10.0819      1.00000
     57      -9.9945      1.00000
     58      -9.9020      1.00000
     59      -9.8856      1.00000
     60      -9.8018      1.00000
     61      -9.7508      1.00000
     62      -9.7316      1.00000
     63      -9.6505      1.00000
     64      -9.4699      1.00000
     65      -9.3659      1.00000
     66      -9.3442      1.00000
     67      -8.9362      1.00000
     68      -8.8230      1.00000
     69      -8.7905      1.00000
     70      -8.6614      1.00000
     71      -8.5728      1.00000
     72      -8.5153      1.00000
     73      -8.4457      1.00000
     74      -8.4019      1.00000
     75      -8.2460      1.00000
     76      -8.2080      1.00000
     77      -8.0390      1.00000
     78      -8.0103      1.00000
     79      -7.7740      1.00000
     80      -7.6327      1.00000
     81      -7.5844      1.00000
     82      -7.4037      1.00000
     83      -7.3864      1.00000
     84      -7.0598      1.00000
     85      -6.9867      1.00000
     86      -6.7957      1.00000
     87      -6.7425      1.00000
     88      -6.5462      1.00000
     89      -6.4002      1.00000
     90      -6.3583      1.00000
     91      -6.1845      1.00000
     92      -5.7163      1.00000
     93      -5.4563      1.00000
     94      -5.4274      1.00000
     95      -5.3910      1.00000
     96      -5.3307      1.00000
     97      -5.1920      1.00000
     98      -5.1741      1.00000
     99      -5.1563      1.00000
    100      -5.0816      1.00000
    101      -4.2965      1.00000
    102      -4.0141      1.00000
    103      -2.4279      0.99932
    104      -2.0012      0.00231
    105      -1.5560      0.00000
    106      -1.2644      0.00000
    107      -0.8369      0.00000
    108      -0.6418      0.00000
    109      -0.3858      0.00000
    110      -0.3460      0.00000
    111      -0.0655      0.00000
    112      -0.0163      0.00000
    113       0.1552      0.00000
    114       0.1793      0.00000
    115       0.8473      0.00000
    116       1.1451      0.00000
    117       1.1573      0.00000
    118       1.1997      0.00000
    119       1.2731      0.00000
    120       1.3400      0.00000
    121       1.5382      0.00000
    122       1.5983      0.00000
    123       1.6539      0.00000
    124       1.6650      0.00000
    125       1.9115      0.00000
    126       2.0167      0.00000
    127       2.0484      0.00000
    128       2.0886      0.00000
    129       2.1667      0.00000
    130       2.3820      0.00000
    131       2.4793      0.00000
    132       2.5936      0.00000
    133       2.6732      0.00000
    134       2.6804      0.00000
    135       2.7497      0.00000
    136       2.8357      0.00000
    137       2.8379      0.00000
    138       2.8471      0.00000
    139       2.9297      0.00000
    140       3.0858      0.00000
    141       3.2550      0.00000
    142       3.2750      0.00000
    143       3.3684      0.00000
    144       3.3876      0.00000
    145       3.4280      0.00000
    146       3.4947      0.00000
    147       3.5148      0.00000
    148       3.5680      0.00000
    149       3.5736      0.00000
    150       3.5927      0.00000
    151       3.5993      0.00000
    152       3.6434      0.00000
    153       3.9010      0.00000
    154       3.9856      0.00000
    155       3.9870      0.00000
    156       3.9901      0.00000
    157       4.0034      0.00000
    158       4.0038      0.00000
    159       4.0508      0.00000
    160       4.1720      0.00000
    161       4.2067      0.00000
    162       4.2437      0.00000
    163       4.2725      0.00000
    164       4.4800      0.00000
    165       4.5336      0.00000
    166       4.6441      0.00000
    167       4.6528      0.00000
    168       4.6561      0.00000
    169       4.6610      0.00000
    170       4.7094      0.00000
    171       4.8388      0.00000
    172       4.8619      0.00000
    173       4.8736      0.00000
    174       4.8750      0.00000
    175       4.9638      0.00000
    176       4.9907      0.00000
    177       5.0323      0.00000
    178       5.0484      0.00000
    179       5.0746      0.00000
    180       5.1773      0.00000
    181       5.3118      0.00000
    182       5.3357      0.00000
    183       5.3402      0.00000
    184       5.3720      0.00000
    185       5.3771      0.00000
    186       5.4951      0.00000
    187       5.4974      0.00000
    188       5.5116      0.00000
    189       5.5244      0.00000
    190       5.5283      0.00000
    191       5.5471      0.00000
    192       5.6416      0.00000
    193       5.6549      0.00000
    194       5.6678      0.00000
    195       5.6810      0.00000
    196       5.6860      0.00000
    197       5.7251      0.00000
    198       5.7487      0.00000
    199       5.7696      0.00000
    200       5.7741      0.00000
    201       5.9386      0.00000
    202       5.9726      0.00000
    203       5.9734      0.00000
    204       5.9757      0.00000
    205       5.9870      0.00000
    206       5.9954      0.00000
    207       5.9978      0.00000
    208       6.0694      0.00000
    209       6.0917      0.00000
    210       6.1721      0.00000
    211       6.2240      0.00000
    212       6.3381      0.00000
    213       6.3413      0.00000
    214       6.3965      0.00000
    215       6.4791      0.00000
    216       6.5334      0.00000
    217       6.5806      0.00000
    218       6.5832      0.00000
    219       6.6470      0.00000
    220       6.6664      0.00000
    221       6.7194      0.00000
    222       6.8017      0.00000
    223       6.8257      0.00000
    224       6.8290      0.00000
    225       6.8434      0.00000
    226       6.8911      0.00000
    227       6.9484      0.00000
    228       6.9595      0.00000
    229       6.9609      0.00000
    230       6.9762      0.00000
    231       7.0582      0.00000
    232       7.1624      0.00000
    233       7.1975      0.00000
    234       7.2076      0.00000
    235       7.2293      0.00000
    236       7.2772      0.00000
    237       7.2855      0.00000
    238       7.2879      0.00000
    239       7.2968      0.00000
    240       7.3194      0.00000
    241       7.3204      0.00000
    242       7.3245      0.00000
    243       7.3536      0.00000
    244       7.4222      0.00000
    245       7.5286      0.00000
    246       7.5580      0.00000
    247       7.5922      0.00000
    248       7.6039      0.00000
    249       7.6139      0.00000
    250       7.6175      0.00000
    251       7.6516      0.00000
    252       7.7317      0.00000
    253       7.7722      0.00000
    254       7.8585      0.00000
    255       7.9483      0.00000
    256       7.9486      0.00000


--------------------------------------------------------------------------------------------------------


 soft charge-density along one line, spin component           1
         0         1         2         3         4         5         6         7         8         9
 total charge-density along one line
 
 soft charge-density along one line, spin component           2
         0         1         2         3         4         5         6         7         8         9
 total charge-density along one line
 
 pseudopotential strength for first ion, spin component:           1
 10.222   0.019   0.000  -0.000  -0.000   0.000  -0.000  -0.000
  0.019  -0.002  -0.000   0.000   0.000   0.000  -0.000  -0.000
  0.000  -0.000  -4.339  -0.000  -0.000  -0.019  -0.000  -0.000
 -0.000   0.000  -0.000  -4.318   0.000  -0.000  -0.014   0.000
 -0.000   0.000  -0.000   0.000  -4.338  -0.000   0.000  -0.019
  0.000   0.000  -0.019  -0.000  -0.000  -0.772  -0.000   0.000
 -0.000  -0.000  -0.000  -0.014   0.000  -0.000  -0.772   0.000
 -0.000  -0.000  -0.000   0.000  -0.019   0.000   0.000  -0.772
 pseudopotential strength for first ion, spin component:           2
 10.222   0.019   0.000  -0.000  -0.000   0.000  -0.000  -0.000
  0.019  -0.002  -0.000   0.000   0.000   0.000  -0.000  -0.000
  0.000  -0.000  -4.339  -0.000  -0.000  -0.019  -0.000  -0.000
 -0.000   0.000  -0.000  -4.318   0.000  -0.000  -0.014   0.000
 -0.000   0.000  -0.000   0.000  -4.338  -0.000   0.000  -0.019
  0.000   0.000  -0.019  -0.000  -0.000  -0.772  -0.000   0.000
 -0.000  -0.000  -0.000  -0.014   0.000  -0.000  -0.772   0.000
 -0.000  -0.000  -0.000   0.000  -0.019   0.000   0.000  -0.772
 total augmentation occupancy for first ion, spin component:           1
  1.475  -1.146  -0.003   0.004   0.006  -0.002   0.003   0.004
 -1.146   1.095   0.009  -0.011  -0.016   0.003  -0.004  -0.006
 -0.003   0.009   1.248   0.003   0.009   0.226   0.001  -0.000
  0.004  -0.011   0.003   0.928  -0.005   0.001   0.104  -0.002
  0.006  -0.016   0.009  -0.005   1.238  -0.000  -0.002   0.227
 -0.002   0.003   0.226   0.001  -0.000   0.047   0.000  -0.000
  0.003  -0.004   0.001   0.104  -0.002   0.000   0.013  -0.001
  0.004  -0.006  -0.000  -0.002   0.227  -0.000  -0.001   0.047
 total augmentation occupancy for first ion, spin component:           2
 -0.000   0.000  -0.000   0.000   0.000   0.000   0.000  -0.000
  0.000   0.000  -0.000  -0.000   0.000  -0.000  -0.000   0.000
 -0.000  -0.000  -0.000   0.000   0.000  -0.000  -0.000  -0.000
  0.000  -0.000   0.000  -0.001  -0.000  -0.000  -0.000   0.000
  0.000   0.000   0.000  -0.000  -0.000  -0.000   0.000  -0.000
  0.000  -0.000  -0.000  -0.000  -0.000   0.000  -0.000  -0.000
  0.000  -0.000  -0.000  -0.000   0.000  -0.000   0.000   0.000
 -0.000   0.000  -0.000   0.000  -0.000  -0.000   0.000   0.000


------------------------ aborting loop because EDIFF is reached ----------------------------------------


    CHARGE:  cpu time    1.7959: real time    1.7994
    FORLOC:  cpu time    0.0239: real time    0.0239
    FORNL :  cpu time    2.2071: real time    2.2150
    STRESS:  cpu time    6.5516: real time    6.5788
    FORCOR:  cpu time    1.8577: real time    1.8594
    FORHAR:  cpu time    0.2540: real time    0.2543
    MIXING:  cpu time    0.0272: real time    0.0272
    OFIELD:  cpu time    0.0001: real time    0.0001

 ---------------------------------------------------------------------------------------------

         DFTD3 V3.0 Rev 1        
 Edisp (eV)   -1.73483

 E6    (eV) :    -0.9509
 E8    (eV) :    -0.7839
 % E8        : 45.19
    FORVDW:  cpu time    0.1375: real time    0.1378

  FORCE on cell =-STRESS in cart. coord.  units (eV):
  Direction    XX          YY          ZZ          XY          YZ          ZX
  --------------------------------------------------------------------------------------
  Alpha Z    90.11582    90.11582    90.11582
  Ewald   42265.95194 42189.91292-49688.04587   -65.85170    -0.44206     0.76568
  Hartree 41941.06086 41931.37401-41117.04831    -8.38905    -0.36940     0.63981
  E(xc)    -801.37172  -801.72035  -830.03746    -0.30192     0.00007    -0.00013
  Local  -86407.33491-86340.55740 88163.51954    57.83100     0.80326    -1.39128
  n-local  -303.19020  -309.97185  -296.94732    -5.87308     0.00673    -0.01169
  augment    24.04209    26.76211    26.68933     2.35560     0.00160    -0.00275
  Kinetic  3190.22574  3233.40634  3651.46182    37.39549     0.00732    -0.01267
  Fock        0.00000     0.00000     0.00000     0.00000     0.00000     0.00000
  vdW        -0.43839    -0.41264     0.00214     0.02230    -0.00002     0.00003
  -------------------------------------------------------------------------------------
  Total      -0.93877    18.90896    -0.29032    17.18864     0.00750    -0.01299
  in kB      -0.57398    11.56132    -0.17750    10.50948     0.00458    -0.00794
  external pressure =        3.60 kB  Pullay stress =        0.00 kB


 VOLUME and BASIS-vectors are now :
 -----------------------------------------------------------------------------
  energy-cutoff  :      520.00
  volume of cell :     2620.42
      direct lattice vectors                 reciprocal lattice vectors
    12.300000000  0.000000000  0.000000000     0.081300813  0.046939046  0.000000000
    -6.150000000 10.652112467  0.000000000     0.000000000  0.093878093  0.000000000
     0.000000000  0.000000000 20.000000000     0.000000000  0.000000000  0.050000000

  length of vectors
    12.300000000 12.300000000 20.000000000     0.093878093  0.093878093  0.050000000


 FORCES acting on ions
    electron-ion (+dipol)            ewald-force                    non-local-force                 convergence-correction
 -----------------------------------------------------------------------------------------------
   0.820E+01 -.473E+01 0.378E+02   -.836E+01 0.483E+01 -.379E+02   0.181E+00 -.104E+00 0.851E-01   -.245E-02 0.141E-02 -.293E-03
   0.529E+01 0.770E+01 0.399E+02   -.529E+01 -.804E+01 -.400E+02   -.162E-01 0.334E+00 0.707E-01   -.668E-03 0.142E-02 -.315E-03
   0.406E+01 0.847E+01 0.396E+02   -.435E+01 -.865E+01 -.397E+02   0.296E+00 0.151E+00 0.610E-01   0.857E-03 -.613E-03 -.569E-04
   0.108E+01 0.291E+02 0.305E+02   -.130E+01 -.295E+02 -.307E+02   0.229E+00 0.424E+00 0.146E+00   -.133E-02 0.172E-02 0.407E-04
   -.483E+01 0.181E+02 0.180E+02   0.492E+01 -.185E+02 -.179E+02   -.796E-01 0.341E+00 -.895E-01   0.182E-02 -.325E-02 -.273E-03
   -.166E+02 0.165E+02 0.122E+02   0.169E+02 -.167E+02 -.123E+02   -.305E+00 0.189E+00 0.889E-01   -.546E-03 0.772E-03 0.143E-03
   -.325E+01 0.507E+01 0.110E+02   0.353E+01 -.515E+01 -.111E+02   -.273E+00 0.462E-01 0.800E-01   0.192E-02 0.119E-02 -.154E-03
   -.472E+01 -.175E+01 0.751E+01   0.479E+01 0.187E+01 -.742E+01   -.746E-01 -.108E+00 -.832E-01   0.261E-02 0.443E-03 -.443E-03
   0.609E+01 -.711E+01 0.184E+02   -.608E+01 0.738E+01 -.184E+02   -.106E-01 -.279E+00 0.802E-01   0.131E-02 0.288E-02 -.328E-03
   0.308E+01 -.178E+01 0.245E+02   -.311E+01 0.180E+01 -.244E+02   0.296E-01 -.171E-01 -.525E-01   -.344E-02 0.198E-02 0.630E-04
   0.920E+01 -.172E+01 0.184E+02   -.943E+01 0.157E+01 -.184E+02   0.236E+00 0.149E+00 0.802E-01   -.184E-02 -.258E-02 -.328E-03
   0.180E+02 0.500E+01 0.183E+02   -.184E+02 -.511E+01 -.182E+02   0.342E+00 0.102E+00 -.983E-01   -.141E-02 -.127E-02 0.739E-04
   0.248E+02 0.155E+02 0.311E+02   -.251E+02 -.160E+02 -.312E+02   0.251E+00 0.400E+00 0.156E+00   0.272E-03 0.817E-03 -.163E-03
   0.281E+02 0.555E+02 0.210E+02   -.284E+02 -.590E+02 -.217E+02   0.312E+00 0.345E+01 0.698E+00   -.138E-02 0.260E-03 -.364E-03
   0.340E+02 0.523E+02 0.207E+02   -.369E+02 -.543E+02 -.214E+02   0.283E+01 0.199E+01 0.694E+00   -.125E-02 -.147E-02 -.410E-03
   -.554E+02 0.304E+02 -.232E+01   0.589E+02 -.319E+02 0.195E+01   -.348E+01 0.146E+01 0.393E+00   -.179E-03 0.706E-06 -.346E-03
   -.254E+02 0.146E+02 -.114E+02   0.253E+02 -.146E+02 0.115E+02   0.801E-01 -.462E-01 -.121E+00   0.151E-02 -.873E-03 -.676E-04
   -.433E+01 0.250E+01 0.176E+01   0.415E+01 -.239E+01 -.184E+01   0.180E+00 -.104E+00 0.849E-01   0.136E-02 -.784E-03 -.170E-03
   -.844E+00 0.497E+01 0.751E+01   0.773E+00 -.509E+01 -.742E+01   0.563E-01 0.119E+00 -.832E-01   0.923E-03 -.248E-02 -.443E-03
   -.602E+01 0.278E+00 0.110E+02   0.623E+01 -.486E+00 -.111E+02   -.176E+00 0.213E+00 0.800E-01   -.752E-04 -.226E-02 -.154E-03
   0.602E+01 -.226E+00 0.112E+02   -.623E+01 0.430E+00 -.112E+02   0.183E+00 -.210E+00 0.738E-01   -.402E-03 0.642E-03 -.569E-04
   0.226E+02 -.619E+01 0.126E+02   -.229E+02 0.636E+01 -.127E+02   0.317E+00 -.174E+00 0.906E-01   0.142E-02 -.582E-03 0.858E-04
   0.542E+02 -.328E+02 -.170E+01   -.572E+02 0.350E+02 0.132E+01   0.301E+01 -.228E+01 0.394E+00   -.505E-03 0.130E-03 -.464E-03
   -.541E+02 0.328E+02 -.232E+01   0.571E+02 -.350E+02 0.195E+01   -.300E+01 0.228E+01 0.393E+00   -.900E-04 0.154E-03 -.346E-03
   -.226E+02 0.608E+01 0.122E+02   0.229E+02 -.624E+01 -.123E+02   -.316E+00 0.170E+00 0.889E-01   -.941E-03 0.868E-04 0.143E-03
   -.181E+02 -.489E+01 0.180E+02   0.185E+02 0.499E+01 -.179E+02   -.335E+00 -.102E+00 -.895E-01   0.372E-02 0.470E-04 -.273E-03
   -.908E+01 0.178E+01 0.179E+02   0.929E+01 -.164E+01 -.180E+02   -.244E+00 -.148E+00 0.767E-01   0.819E-03 0.389E-02 -.471E-03
   0.791E+00 -.498E+01 0.796E+01   -.711E+00 0.510E+01 -.787E+01   -.536E-01 -.121E+00 -.806E-01   -.339E-03 0.316E-02 -.430E-03
   0.439E+01 -.254E+01 0.230E+01   -.422E+01 0.243E+01 -.238E+01   -.189E+00 0.109E+00 0.866E-01   -.218E-02 0.126E-02 -.344E-03
   0.253E+02 -.146E+02 -.109E+02   -.253E+02 0.146E+02 0.110E+02   -.766E-01 0.442E-01 -.115E+00   0.779E-04 -.452E-04 -.278E-03
   0.555E+02 -.305E+02 -.170E+01   -.589E+02 0.320E+02 0.132E+01   0.348E+01 -.146E+01 0.394E+00   -.365E-03 0.372E-03 -.464E-03
   -.340E+02 -.521E+02 0.210E+02   0.369E+02 0.541E+02 -.217E+02   -.283E+01 -.200E+01 0.698E+00   -.915E-03 0.107E-02 -.364E-03
   -.283E+02 -.556E+02 0.207E+02   0.286E+02 0.591E+02 -.214E+02   -.309E+00 -.345E+01 0.694E+00   0.650E-03 0.182E-02 -.410E-03
   -.246E+02 -.155E+02 0.305E+02   0.249E+02 0.159E+02 -.307E+02   -.253E+00 -.411E+00 0.146E+00   -.215E-02 0.291E-03 0.407E-04
   -.531E+01 -.775E+01 0.396E+02   0.532E+01 0.809E+01 -.397E+02   0.171E-01 -.331E+00 0.610E-01   0.959E-03 -.436E-03 -.569E-04
   -.820E+01 0.473E+01 0.372E+02   0.836E+01 -.482E+01 -.372E+02   -.187E+00 0.108E+00 0.777E-01   0.265E-02 -.153E-02 -.166E-03
   -.301E+01 0.174E+01 0.235E+02   0.304E+01 -.176E+01 -.235E+02   -.331E-01 0.191E-01 -.637E-01   0.357E-02 -.206E-02 0.170E-03
   -.608E+01 0.697E+01 0.179E+02   0.606E+01 -.723E+01 -.180E+02   0.623E-02 0.286E+00 0.767E-01   -.296E-02 -.265E-02 -.471E-03
   0.471E+01 0.180E+01 0.796E+01   -.477E+01 -.193E+01 -.787E+01   0.779E-01 0.107E+00 -.806E-01   -.290E-02 -.129E-02 -.430E-03
   0.321E+01 -.510E+01 0.112E+02   -.349E+01 0.518E+01 -.112E+02   0.274E+00 -.531E-01 0.738E-01   -.757E-03 0.275E-04 -.570E-04
   0.167E+02 -.165E+02 0.126E+02   -.170E+02 0.167E+02 -.127E+02   0.309E+00 -.188E+00 0.906E-01   0.121E-02 -.940E-03 0.858E-04
   0.469E+01 -.181E+02 0.183E+02   -.477E+01 0.185E+02 -.182E+02   0.830E-01 -.347E+00 -.983E-01   0.391E-03 0.185E-02 0.739E-04
   -.105E+01 -.293E+02 0.311E+02   0.127E+01 0.297E+02 -.312E+02   -.221E+00 -.417E+00 0.156E+00   -.571E-03 -.644E-03 -.163E-03
   -.403E+01 -.843E+01 0.399E+02   0.432E+01 0.860E+01 -.400E+02   -.297E+00 -.153E+00 0.707E-01   -.156E-02 -.131E-03 -.315E-03
   -.469E+02 0.487E+02 -.239E+02   0.472E+02 -.278E+02 0.276E+02   -.255E+00 -.209E+02 -.373E+01   0.391E-02 -.651E-04 -.170E-02
   0.655E+02 -.162E+02 -.233E+02   -.475E+02 0.269E+02 0.270E+02   -.180E+02 -.106E+02 -.373E+01   -.226E-02 -.100E-02 -.183E-02
   -.656E+02 0.163E+02 -.239E+02   0.477E+02 -.270E+02 0.276E+02   0.179E+02 0.107E+02 -.373E+01   0.201E-02 -.336E-02 -.170E-02
   0.468E+02 -.486E+02 -.233E+02   -.470E+02 0.277E+02 0.270E+02   0.236E+00 0.209E+02 -.373E+01   -.261E-03 0.245E-02 -.183E-02
   0.145E+00 -.840E-01 -.635E+03   -.144E+00 0.829E-01 0.628E+03   -.536E-02 0.309E-02 0.717E+01   0.143E-02 -.827E-03 -.174E-02
 -----------------------------------------------------------------------------------------------
   0.319E-01 -.184E-01 0.231E+01   -.192E-12 -.181E-12 0.000E+00   -.145E-01 0.838E-02 -.226E+01   0.171E-02 -.989E-03 -.177E-01
 
 
 POSITION                                       TOTAL-FORCE (eV/Angst)
 -----------------------------------------------------------------------------------
     12.28608      0.00803     14.83551         0.009924     -0.005732     -0.004383
      1.21910      0.68965     14.84363        -0.019510      0.003602     -0.006506
     -3.70247     10.63247     14.84484         0.008075     -0.024380     -0.017418
      3.67505      0.67298     14.92213         0.004274      0.031481     -0.008153
     -1.23345     10.62696     14.94281         0.016287     -0.029721     -0.003381
      6.13238      0.70625     14.99364        -0.009077     -0.000835     -0.007285
      7.36947      0.00484     14.97217         0.014797     -0.030152      0.000729
      8.58476      0.73611     14.97078        -0.005262      0.014809      0.006332
      9.82189      0.02354     14.92112        -0.000630     -0.005801     -0.000195
     11.05372      0.71954     14.88448        -0.008567      0.004947     -0.009165
     11.04056      2.13434     14.92112         0.004710      0.003445     -0.000195
     -0.02048      2.82533     14.94102        -0.009559     -0.012878     -0.010855
      1.20568      2.09923     14.92024        -0.015236      0.000635     -0.002269
      2.41803      2.79045     15.04544        -0.006078     -0.000128      0.005077
      3.66730      2.06964     15.04670        -0.000349     -0.038790     -0.003874
      6.07459      2.12992     15.09938        -0.012505      0.007403      0.011179
      7.30384      2.88453     15.09350         0.015772     -0.009106     -0.001548
      8.55294      2.16337     15.00949        -0.002182      0.001259      0.001013
      9.80489      2.84943     14.97078        -0.015456     -0.002847      0.006332
      9.83055      4.26754     14.97217         0.033512      0.002262      0.000730
     -1.22085      4.96445     14.97137        -0.021620     -0.005166     -0.004649
      0.00527      4.24346     14.99167        -0.000220      0.003640     -0.005599
      1.26734      4.90543     15.09680         0.016421     -0.013118      0.011767
      7.34273      4.32640     15.09938        -0.012663      0.007127      0.011178
      8.60456      4.98819     14.99364        -0.003815      0.008278     -0.007285
     -3.66995      6.40683     14.94281         0.033883      0.000757     -0.003380
     -2.43026      7.09741     14.92297        -0.027383     -0.007265     -0.001975
     -1.19483      6.38236     14.96971         0.027131      0.002267      0.006262
      0.05750      7.06821     15.00754        -0.014806      0.008549      0.004029
      1.30628      6.34723     15.09098        -0.010041      0.005797      0.008151
      2.53544      7.10185     15.09680         0.019570     -0.007662      0.011766
      4.94241      7.16281     15.04544        -0.002927      0.005328      0.005078
      6.19129      6.44132     15.04670         0.033418      0.019698     -0.003875
      7.40471      7.13293     14.92213        -0.025125     -0.019443     -0.008154
     -4.90922      8.54231     14.84484         0.025148      0.005195     -0.017418
     -3.67574      9.22360     14.83784        -0.023777      0.013727     -0.012522
     -2.44339      8.51210     14.88763         0.003298     -0.001905     -0.017731
     -1.21167      9.20807     14.92297        -0.007401      0.027347     -0.001975
      0.02530      8.49568     14.96971         0.011603     -0.024630      0.006263
      1.24023      9.22717     14.97137        -0.006337      0.021307     -0.004648
      2.47769      8.52582     14.99167        -0.003263     -0.001630     -0.005599
      3.69295      9.25718     14.94102         0.006374      0.014718     -0.010856
      4.93485      8.55835     14.92024        -0.008170      0.012877     -0.002268
      6.16230      9.25151     14.84363        -0.012874      0.015094     -0.006506
      4.85522      2.74405     15.21108         0.008173     -0.000181      0.021568
      2.40860      4.15673     15.20923        -0.005096      0.001963      0.021530
      6.20119      5.07534     15.21108         0.004244     -0.006986      0.021568
      3.75447      6.48784     15.20923        -0.004247      0.003433      0.021529
      4.30470      4.61609     15.69951        -0.002438      0.001408      0.007586
 -----------------------------------------------------------------------------------
    total drift:                                0.019101     -0.011028      0.030602


--------------------------------------------------------------------------------------------------------



  FREE ENERGIE OF THE ION-ELECTRON SYSTEM (eV)
  ---------------------------------------------------
  free  energy   TOTEN  =      -446.13491353 eV

  energy  without entropy=     -446.13406246  energy(sigma->0) =     -446.13448799
 
 d Force = 0.2622631E-03[-0.253E-03, 0.777E-03]  d Energy = 0.2655869E-03-0.332E-05
 d Force = 0.2505903E+00[ 0.249E+00, 0.252E+00]  d Ewald  = 0.2505898E+00 0.480E-06


--------------------------------------------------------------------------------------------------------


    POTLOK:  cpu time    2.8239: real time    2.8268


--------------------------------------------------------------------------------------------------------


 stress matrix after NEB project (eV)
     -0.93877     17.18864     -0.01299
     17.18864     18.90896      0.00750
     -0.01298      0.00750     -0.29032
  FORCES: max atom, RMS     0.038984    0.022812
  FORCE total and by dimension    0.159681    0.038790
  Stress total and by dimension   30.812551   18.908962
 Quasi-Newton relaxation of ions (Broydens 2nd method)
  g(Force)  = 0.492E-03   g(Stress)= 0.000E+00

 retain information from N=  1 steps
 eigenvalues of (default step * inverse Hessian matrix)
  average eigenvalue of G=   0.5866
 eigenvalue spectrum of G is  0.5866


--------------------------------------------------------------------------------------------------------


    WAVPRE:  cpu time    0.1019: real time    0.1619
    FEWALD:  cpu time    0.0107: real time    0.0108
    ORTHCH:  cpu time    2.6733: real time    2.6791
     LOOP+:  cpu time  226.6359: real time  227.0655


--------------------------------------- Iteration      3(   1)  ---------------------------------------


    POTLOK:  cpu time    2.3112: real time    2.3142
    SETDIJ:  cpu time    0.4485: real time    0.4487
     EDDAV:  cpu time   72.8759: real time   72.9786
       DOS:  cpu time    0.0474: real time    0.0475
    CHARGE:  cpu time    1.7910: real time    1.7950
    MIXING:  cpu time    0.0362: real time    0.0362
    --------------------------------------------
      LOOP:  cpu time   77.5102: real time   77.6204

 eigenvalue-minimisations  :  7424
 total energy-change (2. order) :-0.1510914E-03  (-0.9884194E-03)
 number of electron     208.9999997 magnetization       2.9990232
 augmentation part        9.9698184 magnetization       1.3742740

 Broyden mixing:
  rms(total) = 0.21720E-02    rms(broyden)= 0.21693E-02
  rms(prec ) = 0.23546E-02
  weight for this iteration     100.00

 Free energy of the ion-electron system (eV)
  ---------------------------------------------------
  alpha Z        PSCENC =        90.11582226
  Ewald energy   TEWEN  =     34767.67599477
  -Hartree energ DENC   =    -42755.20911862
  -exchange      EXHF   =         0.00000000
  -V(xc)+E(xc)   XCENC  =       787.38423642
  PAW double counting   =      5126.55887900    -5204.03953327
  entropy T*S    EENTRO =        -0.00085413
  eigenvalues    EBANDS =     -2740.96728492
  atomic energy  EATOM  =      9484.08161297
  Solvation  Ediel_sol  =         0.00000000
  ---------------------------------------------------
  free energy    TOTEN  =      -444.40024552 eV

  energy without entropy =     -444.39939138  energy(sigma->0) =     -444.39981845


--------------------------------------------------------------------------------------------------------




--------------------------------------- Iteration      3(   2)  ---------------------------------------


    POTLOK:  cpu time    2.3084: real time    2.3100
    SETDIJ:  cpu time    0.4486: real time    0.4489
     EDDAV:  cpu time   60.1803: real time   60.2646
       DOS:  cpu time    0.0520: real time    0.0521
    --------------------------------------------
      LOOP:  cpu time   62.9892: real time   63.0755

 eigenvalue-minimisations  :  6400
 total energy-change (2. order) : 0.6214856E-05  (-0.9998175E-05)
 number of electron     208.9999997 magnetization       2.9990232
 augmentation part        9.9698184 magnetization       1.3742740

 Free energy of the ion-electron system (eV)
  ---------------------------------------------------
  alpha Z        PSCENC =        90.11582226
  Ewald energy   TEWEN  =     34767.67599477
  -Hartree energ DENC   =    -42755.20659062
  -exchange      EXHF   =         0.00000000
  -V(xc)+E(xc)   XCENC  =       787.38431439
  PAW double counting   =      5126.56282333    -5204.04416520
  entropy T*S    EENTRO =        -0.00085325
  eigenvalues    EBANDS =     -2740.96919796
  atomic energy  EATOM  =      9484.08161297
  Solvation  Ediel_sol  =         0.00000000
  ---------------------------------------------------
  free energy    TOTEN  =      -444.40023930 eV

  energy without entropy =     -444.39938606  energy(sigma->0) =     -444.39981268


--------------------------------------------------------------------------------------------------------




 average (electrostatic) potential at core
  the test charge radii are     0.6991  0.7089  0.9956
  (the norm of the test charge is              1.0000)
       1 -58.0289       2 -58.0033       3 -58.0031       4 -58.0928       5 -58.1619
       6 -58.1650       7 -58.0962       8 -58.0710       9 -58.0471      10 -57.9516
      11 -58.0471      12 -58.1619      13 -58.0932      14 -58.7083      15 -58.7084
      16 -58.9099      17 -58.0208      18 -58.1616      19 -58.0710      20 -58.0962
      21 -58.0961      22 -58.1649      23 -58.9100      24 -58.9099      25 -58.1650
      26 -58.1619      27 -58.0469      28 -58.0707      29 -58.1616      30 -58.0198
      31 -58.9100      32 -58.7083      33 -58.7084      34 -58.0928      35 -58.0031
      36 -58.0290      37 -57.9512      38 -58.0469      39 -58.0707      40 -58.0961
      41 -58.1649      42 -58.1619      43 -58.0932      44 -58.0033      45 -72.5906
      46 -72.5914      47 -72.5906      48 -72.5914      49 -53.0234
 
 
 
 E-fermi :  -2.2015     XC(G=0):  -2.1825     alpha+bet : -1.8940


 spin component 1

 k-point     1 :       0.0000    0.0000    0.0000
  band No.  band energies     occupation 
      1     -67.0070      1.00000
      2     -41.1234      1.00000
      3     -41.0843      1.00000
      4     -40.8475      1.00000
      5     -23.1238      1.00000
      6     -22.7823      1.00000
      7     -22.5147      1.00000
      8     -22.2337      1.00000
      9     -21.7102      1.00000
     10     -21.3275      1.00000
     11     -21.2423      1.00000
     12     -20.8140      1.00000
     13     -20.3033      1.00000
     14     -20.0709      1.00000
     15     -19.6101      1.00000
     16     -19.4934      1.00000
     17     -19.1930      1.00000
     18     -19.1063      1.00000
     19     -18.9208      1.00000
     20     -18.7500      1.00000
     21     -18.7097      1.00000
     22     -18.4803      1.00000
     23     -17.9935      1.00000
     24     -17.2008      1.00000
     25     -17.1286      1.00000
     26     -16.6821      1.00000
     27     -16.5485      1.00000
     28     -16.3806      1.00000
     29     -15.9336      1.00000
     30     -15.6512      1.00000
     31     -15.6121      1.00000
     32     -15.4686      1.00000
     33     -15.4275      1.00000
     34     -15.0822      1.00000
     35     -14.5413      1.00000
     36     -14.4265      1.00000
     37     -14.4059      1.00000
     38     -14.3433      1.00000
     39     -14.0923      1.00000
     40     -13.2582      1.00000
     41     -12.5580      1.00000
     42     -12.4812      1.00000
     43     -12.3300      1.00000
     44     -12.1302      1.00000
     45     -11.7823      1.00000
     46     -11.7211      1.00000
     47     -11.6585      1.00000
     48     -11.6161      1.00000
     49     -11.6043      1.00000
     50     -11.4936      1.00000
     51     -11.1106      1.00000
     52     -10.6729      1.00000
     53     -10.6559      1.00000
     54     -10.5357      1.00000
     55     -10.4074      1.00000
     56     -10.1885      1.00000
     57     -10.0465      1.00000
     58     -10.0446      1.00000
     59      -9.7116      1.00000
     60      -9.7071      1.00000
     61      -9.6408      1.00000
     62      -9.4603      1.00000
     63      -9.3380      1.00000
     64      -9.3379      1.00000
     65      -9.2837      1.00000
     66      -9.1972      1.00000
     67      -9.1369      1.00000
     68      -9.1267      1.00000
     69      -9.0863      1.00000
     70      -8.9916      1.00000
     71      -8.9615      1.00000
     72      -8.9163      1.00000
     73      -8.8167      1.00000
     74      -8.4753      1.00000
     75      -8.4723      1.00000
     76      -7.7710      1.00000
     77      -7.7128      1.00000
     78      -7.6178      1.00000
     79      -7.6072      1.00000
     80      -7.5127      1.00000
     81      -7.3046      1.00000
     82      -7.2962      1.00000
     83      -7.2159      1.00000
     84      -7.1710      1.00000
     85      -7.0534      1.00000
     86      -6.8908      1.00000
     87      -6.7015      1.00000
     88      -6.6922      1.00000
     89      -6.5645      1.00000
     90      -6.3520      1.00000
     91      -6.3004      1.00000
     92      -6.2421      1.00000
     93      -6.1243      1.00000
     94      -6.0469      1.00000
     95      -5.6873      1.00000
     96      -5.5426      1.00000
     97      -5.3350      1.00000
     98      -4.5897      1.00000
     99      -4.5045      1.00000
    100      -4.2493      1.00000
    101      -4.2149      1.00000
    102      -4.1134      1.00000
    103      -4.0273      1.00000
    104      -3.7137      1.00000
    105      -3.0451      1.00000
    106      -2.6994      1.00000
    107      -1.6587      0.00000
    108      -1.5943      0.00000
    109      -1.3568      0.00000
    110      -1.2845      0.00000
    111      -1.1993      0.00000
    112      -0.4540      0.00000
    113      -0.2424      0.00000
    114       0.2736      0.00000
    115       0.3095      0.00000
    116       0.3294      0.00000
    117       0.3875      0.00000
    118       0.4997      0.00000
    119       0.8632      0.00000
    120       1.3195      0.00000
    121       1.4246      0.00000
    122       1.6360      0.00000
    123       1.6644      0.00000
    124       1.6702      0.00000
    125       1.7399      0.00000
    126       1.7825      0.00000
    127       1.8125      0.00000
    128       1.8272      0.00000
    129       1.8561      0.00000
    130       2.0916      0.00000
    131       2.1041      0.00000
    132       2.1369      0.00000
    133       2.1589      0.00000
    134       2.3890      0.00000
    135       2.5030      0.00000
    136       2.5257      0.00000
    137       2.5369      0.00000
    138       2.6195      0.00000
    139       2.6223      0.00000
    140       2.6476      0.00000
    141       2.8699      0.00000
    142       2.9402      0.00000
    143       2.9527      0.00000
    144       2.9694      0.00000
    145       2.9696      0.00000
    146       2.9776      0.00000
    147       3.0045      0.00000
    148       3.3669      0.00000
    149       3.7695      0.00000
    150       3.8375      0.00000
    151       3.8672      0.00000
    152       3.8817      0.00000
    153       3.8883      0.00000
    154       3.8896      0.00000
    155       3.9360      0.00000
    156       4.0031      0.00000
    157       4.1709      0.00000
    158       4.2261      0.00000
    159       4.2604      0.00000
    160       4.2878      0.00000
    161       4.2934      0.00000
    162       4.3222      0.00000
    163       4.3358      0.00000
    164       4.3442      0.00000
    165       4.3560      0.00000
    166       4.3578      0.00000
    167       4.3667      0.00000
    168       4.4909      0.00000
    169       4.5066      0.00000
    170       4.6487      0.00000
    171       4.7923      0.00000
    172       4.8163      0.00000
    173       4.9905      0.00000
    174       5.0251      0.00000
    175       5.0273      0.00000
    176       5.0875      0.00000
    177       5.1292      0.00000
    178       5.1336      0.00000
    179       5.1457      0.00000
    180       5.1599      0.00000
    181       5.3071      0.00000
    182       5.3791      0.00000
    183       5.4047      0.00000
    184       5.4312      0.00000
    185       5.5207      0.00000
    186       5.5257      0.00000
    187       5.5576      0.00000
    188       5.5762      0.00000
    189       5.5803      0.00000
    190       5.6004      0.00000
    191       5.6014      0.00000
    192       5.6024      0.00000
    193       5.6033      0.00000
    194       5.6066      0.00000
    195       5.6108      0.00000
    196       5.6222      0.00000
    197       5.6250      0.00000
    198       5.6537      0.00000
    199       5.7283      0.00000
    200       5.7670      0.00000
    201       5.8514      0.00000
    202       5.8998      0.00000
    203       5.9328      0.00000
    204       5.9469      0.00000
    205       6.0142      0.00000
    206       6.0167      0.00000
    207       6.0204      0.00000
    208       6.1035      0.00000
    209       6.1548      0.00000
    210       6.2294      0.00000
    211       6.2904      0.00000
    212       6.3697      0.00000
    213       6.3760      0.00000
    214       6.3921      0.00000
    215       6.4085      0.00000
    216       6.4325      0.00000
    217       6.4417      0.00000
    218       6.4549      0.00000
    219       6.4612      0.00000
    220       6.4673      0.00000
    221       6.4743      0.00000
    222       6.4784      0.00000
    223       6.4850      0.00000
    224       6.4950      0.00000
    225       6.6004      0.00000
    226       6.6149      0.00000
    227       6.6585      0.00000
    228       6.6642      0.00000
    229       6.6850      0.00000
    230       6.8704      0.00000
    231       6.8775      0.00000
    232       6.9043      0.00000
    233       6.9150      0.00000
    234       6.9229      0.00000
    235       6.9267      0.00000
    236       6.9314      0.00000
    237       6.9359      0.00000
    238       6.9403      0.00000
    239       6.9442      0.00000
    240       6.9470      0.00000
    241       6.9667      0.00000
    242       7.1921      0.00000
    243       7.4844      0.00000
    244       7.6514      0.00000
    245       7.6860      0.00000
    246       7.7000      0.00000
    247       7.7399      0.00000
    248       7.7617      0.00000
    249       7.7688      0.00000
    250       7.7790      0.00000
    251       7.7922      0.00000
    252       7.8935      0.00000
    253       7.9399      0.00000
    254       7.9719      0.00000
    255       8.0158      0.00000
    256       8.0824      0.00000

 k-point     2 :       0.5000   -0.0000    0.0000
  band No.  band energies     occupation 
      1     -67.0070      1.00000
      2     -41.1235      1.00000
      3     -41.0843      1.00000
      4     -40.8475      1.00000
      5     -23.0872      1.00000
      6     -22.8347      1.00000
      7     -22.5451      1.00000
      8     -22.2425      1.00000
      9     -21.5991      1.00000
     10     -21.4181      1.00000
     11     -21.0781      1.00000
     12     -20.6076      1.00000
     13     -20.5313      1.00000
     14     -20.2471      1.00000
     15     -19.7524      1.00000
     16     -19.7147      1.00000
     17     -19.3055      1.00000
     18     -19.2985      1.00000
     19     -18.6867      1.00000
     20     -18.4543      1.00000
     21     -18.0829      1.00000
     22     -17.8372      1.00000
     23     -17.8243      1.00000
     24     -17.6916      1.00000
     25     -17.4982      1.00000
     26     -17.2717      1.00000
     27     -16.8739      1.00000
     28     -16.4530      1.00000
     29     -16.0683      1.00000
     30     -15.9353      1.00000
     31     -15.3476      1.00000
     32     -15.3239      1.00000
     33     -15.1596      1.00000
     34     -15.0933      1.00000
     35     -14.5752      1.00000
     36     -14.2095      1.00000
     37     -13.9234      1.00000
     38     -13.8348      1.00000
     39     -13.4187      1.00000
     40     -13.3251      1.00000
     41     -12.9548      1.00000
     42     -12.8896      1.00000
     43     -12.8306      1.00000
     44     -12.7214      1.00000
     45     -12.2575      1.00000
     46     -11.9102      1.00000
     47     -11.6486      1.00000
     48     -11.4838      1.00000
     49     -11.4824      1.00000
     50     -11.3481      1.00000
     51     -10.8849      1.00000
     52     -10.6536      1.00000
     53     -10.6180      1.00000
     54     -10.3716      1.00000
     55     -10.1820      1.00000
     56     -10.1602      1.00000
     57     -10.0900      1.00000
     58      -9.9973      1.00000
     59      -9.7367      1.00000
     60      -9.6596      1.00000
     61      -9.6446      1.00000
     62      -9.6188      1.00000
     63      -9.5384      1.00000
     64      -9.5092      1.00000
     65      -9.3887      1.00000
     66      -9.1576      1.00000
     67      -9.0800      1.00000
     68      -8.8684      1.00000
     69      -8.7314      1.00000
     70      -8.6439      1.00000
     71      -8.5798      1.00000
     72      -8.5727      1.00000
     73      -8.5486      1.00000
     74      -8.4733      1.00000
     75      -8.4195      1.00000
     76      -8.3027      1.00000
     77      -8.2158      1.00000
     78      -8.0669      1.00000
     79      -7.9510      1.00000
     80      -7.6768      1.00000
     81      -7.5716      1.00000
     82      -7.3417      1.00000
     83      -7.0694      1.00000
     84      -7.0427      1.00000
     85      -6.9150      1.00000
     86      -6.8882      1.00000
     87      -6.8617      1.00000
     88      -6.6592      1.00000
     89      -6.4884      1.00000
     90      -6.1934      1.00000
     91      -6.0844      1.00000
     92      -5.9045      1.00000
     93      -5.6961      1.00000
     94      -5.6823      1.00000
     95      -5.4216      1.00000
     96      -5.3528      1.00000
     97      -5.3048      1.00000
     98      -5.2854      1.00000
     99      -5.1653      1.00000
    100      -5.0964      1.00000
    101      -4.2458      1.00000
    102      -3.9636      1.00000
    103      -3.7683      1.00000
    104      -3.6884      1.00000
    105      -2.9957      1.00000
    106      -2.8934      1.00000
    107      -1.7692      0.00000
    108      -1.2977      0.00000
    109      -0.9832      0.00000
    110      -0.8195      0.00000
    111      -0.7452      0.00000
    112      -0.6155      0.00000
    113      -0.2593      0.00000
    114      -0.2592      0.00000
    115      -0.2317      0.00000
    116      -0.0121      0.00000
    117       0.3061      0.00000
    118       0.7680      0.00000
    119       0.8511      0.00000
    120       0.9502      0.00000
    121       1.1852      0.00000
    122       1.4716      0.00000
    123       1.5546      0.00000
    124       1.6291      0.00000
    125       1.6462      0.00000
    126       1.6484      0.00000
    127       1.9215      0.00000
    128       1.9766      0.00000
    129       1.9881      0.00000
    130       2.0457      0.00000
    131       2.1899      0.00000
    132       2.2628      0.00000
    133       2.4540      0.00000
    134       2.6248      0.00000
    135       2.6344      0.00000
    136       2.6493      0.00000
    137       2.7464      0.00000
    138       2.7613      0.00000
    139       2.7984      0.00000
    140       2.9069      0.00000
    141       2.9084      0.00000
    142       3.1911      0.00000
    143       3.2317      0.00000
    144       3.2901      0.00000
    145       3.3503      0.00000
    146       3.4221      0.00000
    147       3.5013      0.00000
    148       3.5219      0.00000
    149       3.5305      0.00000
    150       3.5492      0.00000
    151       3.5510      0.00000
    152       3.5919      0.00000
    153       3.8467      0.00000
    154       3.9197      0.00000
    155       3.9246      0.00000
    156       3.9482      0.00000
    157       3.9513      0.00000
    158       3.9714      0.00000
    159       3.9918      0.00000
    160       4.1176      0.00000
    161       4.1337      0.00000
    162       4.1399      0.00000
    163       4.1953      0.00000
    164       4.2354      0.00000
    165       4.3492      0.00000
    166       4.4744      0.00000
    167       4.5611      0.00000
    168       4.6105      0.00000
    169       4.6120      0.00000
    170       4.6463      0.00000
    171       4.6898      0.00000
    172       4.7026      0.00000
    173       4.8173      0.00000
    174       4.8379      0.00000
    175       4.8570      0.00000
    176       4.9141      0.00000
    177       5.0198      0.00000
    178       5.0442      0.00000
    179       5.1351      0.00000
    180       5.1881      0.00000
    181       5.2434      0.00000
    182       5.2700      0.00000
    183       5.2891      0.00000
    184       5.3166      0.00000
    185       5.3798      0.00000
    186       5.4583      0.00000
    187       5.4683      0.00000
    188       5.4851      0.00000
    189       5.4873      0.00000
    190       5.5252      0.00000
    191       5.5304      0.00000
    192       5.5613      0.00000
    193       5.5928      0.00000
    194       5.6174      0.00000
    195       5.6554      0.00000
    196       5.7030      0.00000
    197       5.7553      0.00000
    198       5.7790      0.00000
    199       5.8313      0.00000
    200       5.8693      0.00000
    201       5.9148      0.00000
    202       5.9215      0.00000
    203       5.9404      0.00000
    204       5.9477      0.00000
    205       5.9514      0.00000
    206       5.9829      0.00000
    207       6.0294      0.00000
    208       6.0743      0.00000
    209       6.1080      0.00000
    210       6.1731      0.00000
    211       6.1896      0.00000
    212       6.2701      0.00000
    213       6.2708      0.00000
    214       6.3194      0.00000
    215       6.3776      0.00000
    216       6.3855      0.00000
    217       6.4774      0.00000
    218       6.5467      0.00000
    219       6.5622      0.00000
    220       6.5894      0.00000
    221       6.6386      0.00000
    222       6.6877      0.00000
    223       6.7160      0.00000
    224       6.7891      0.00000
    225       6.8111      0.00000
    226       6.8186      0.00000
    227       6.8250      0.00000
    228       6.8888      0.00000
    229       6.9159      0.00000
    230       6.9342      0.00000
    231       7.0336      0.00000
    232       7.0878      0.00000
    233       7.0885      0.00000
    234       7.1267      0.00000
    235       7.1880      0.00000
    236       7.1919      0.00000
    237       7.2154      0.00000
    238       7.2186      0.00000
    239       7.2629      0.00000
    240       7.2657      0.00000
    241       7.2826      0.00000
    242       7.2882      0.00000
    243       7.3275      0.00000
    244       7.4290      0.00000
    245       7.4324      0.00000
    246       7.5208      0.00000
    247       7.5310      0.00000
    248       7.5471      0.00000
    249       7.5872      0.00000
    250       7.5891      0.00000
    251       7.6850      0.00000
    252       7.7390      0.00000
    253       7.7939      0.00000
    254       7.9010      0.00000
    255       7.9056      0.00000
    256       7.9071      0.00000

 k-point     3 :       0.0000    0.5000    0.0000
  band No.  band energies     occupation 
      1     -67.0070      1.00000
      2     -41.1235      1.00000
      3     -41.0843      1.00000
      4     -40.8475      1.00000
      5     -23.0872      1.00000
      6     -22.8347      1.00000
      7     -22.5451      1.00000
      8     -22.2425      1.00000
      9     -21.5991      1.00000
     10     -21.4181      1.00000
     11     -21.0781      1.00000
     12     -20.6076      1.00000
     13     -20.5313      1.00000
     14     -20.2471      1.00000
     15     -19.7524      1.00000
     16     -19.7147      1.00000
     17     -19.3055      1.00000
     18     -19.2985      1.00000
     19     -18.6867      1.00000
     20     -18.4543      1.00000
     21     -18.0829      1.00000
     22     -17.8372      1.00000
     23     -17.8243      1.00000
     24     -17.6916      1.00000
     25     -17.4982      1.00000
     26     -17.2717      1.00000
     27     -16.8739      1.00000
     28     -16.4530      1.00000
     29     -16.0683      1.00000
     30     -15.9353      1.00000
     31     -15.3476      1.00000
     32     -15.3239      1.00000
     33     -15.1596      1.00000
     34     -15.0933      1.00000
     35     -14.5752      1.00000
     36     -14.2095      1.00000
     37     -13.9234      1.00000
     38     -13.8348      1.00000
     39     -13.4187      1.00000
     40     -13.3251      1.00000
     41     -12.9548      1.00000
     42     -12.8896      1.00000
     43     -12.8306      1.00000
     44     -12.7214      1.00000
     45     -12.2575      1.00000
     46     -11.9102      1.00000
     47     -11.6486      1.00000
     48     -11.4838      1.00000
     49     -11.4824      1.00000
     50     -11.3481      1.00000
     51     -10.8849      1.00000
     52     -10.6536      1.00000
     53     -10.6180      1.00000
     54     -10.3716      1.00000
     55     -10.1820      1.00000
     56     -10.1602      1.00000
     57     -10.0900      1.00000
     58      -9.9973      1.00000
     59      -9.7367      1.00000
     60      -9.6596      1.00000
     61      -9.6446      1.00000
     62      -9.6188      1.00000
     63      -9.5384      1.00000
     64      -9.5092      1.00000
     65      -9.3887      1.00000
     66      -9.1576      1.00000
     67      -9.0800      1.00000
     68      -8.8684      1.00000
     69      -8.7314      1.00000
     70      -8.6439      1.00000
     71      -8.5798      1.00000
     72      -8.5727      1.00000
     73      -8.5486      1.00000
     74      -8.4733      1.00000
     75      -8.4195      1.00000
     76      -8.3027      1.00000
     77      -8.2158      1.00000
     78      -8.0669      1.00000
     79      -7.9510      1.00000
     80      -7.6768      1.00000
     81      -7.5716      1.00000
     82      -7.3417      1.00000
     83      -7.0694      1.00000
     84      -7.0427      1.00000
     85      -6.9150      1.00000
     86      -6.8882      1.00000
     87      -6.8617      1.00000
     88      -6.6592      1.00000
     89      -6.4884      1.00000
     90      -6.1934      1.00000
     91      -6.0844      1.00000
     92      -5.9045      1.00000
     93      -5.6961      1.00000
     94      -5.6823      1.00000
     95      -5.4216      1.00000
     96      -5.3528      1.00000
     97      -5.3048      1.00000
     98      -5.2854      1.00000
     99      -5.1653      1.00000
    100      -5.0964      1.00000
    101      -4.2458      1.00000
    102      -3.9636      1.00000
    103      -3.7683      1.00000
    104      -3.6884      1.00000
    105      -2.9957      1.00000
    106      -2.8934      1.00000
    107      -1.7692      0.00000
    108      -1.2977      0.00000
    109      -0.9832      0.00000
    110      -0.8195      0.00000
    111      -0.7452      0.00000
    112      -0.6155      0.00000
    113      -0.2593      0.00000
    114      -0.2592      0.00000
    115      -0.2317      0.00000
    116      -0.0121      0.00000
    117       0.3061      0.00000
    118       0.7680      0.00000
    119       0.8511      0.00000
    120       0.9502      0.00000
    121       1.1852      0.00000
    122       1.4716      0.00000
    123       1.5546      0.00000
    124       1.6291      0.00000
    125       1.6462      0.00000
    126       1.6484      0.00000
    127       1.9215      0.00000
    128       1.9766      0.00000
    129       1.9881      0.00000
    130       2.0457      0.00000
    131       2.1899      0.00000
    132       2.2628      0.00000
    133       2.4540      0.00000
    134       2.6248      0.00000
    135       2.6344      0.00000
    136       2.6493      0.00000
    137       2.7464      0.00000
    138       2.7613      0.00000
    139       2.7984      0.00000
    140       2.9069      0.00000
    141       2.9084      0.00000
    142       3.1911      0.00000
    143       3.2317      0.00000
    144       3.2901      0.00000
    145       3.3503      0.00000
    146       3.4221      0.00000
    147       3.5013      0.00000
    148       3.5219      0.00000
    149       3.5305      0.00000
    150       3.5492      0.00000
    151       3.5510      0.00000
    152       3.5919      0.00000
    153       3.8467      0.00000
    154       3.9197      0.00000
    155       3.9246      0.00000
    156       3.9482      0.00000
    157       3.9513      0.00000
    158       3.9714      0.00000
    159       3.9918      0.00000
    160       4.1176      0.00000
    161       4.1337      0.00000
    162       4.1399      0.00000
    163       4.1953      0.00000
    164       4.2354      0.00000
    165       4.3492      0.00000
    166       4.4744      0.00000
    167       4.5611      0.00000
    168       4.6105      0.00000
    169       4.6120      0.00000
    170       4.6463      0.00000
    171       4.6898      0.00000
    172       4.7026      0.00000
    173       4.8173      0.00000
    174       4.8379      0.00000
    175       4.8570      0.00000
    176       4.9141      0.00000
    177       5.0198      0.00000
    178       5.0442      0.00000
    179       5.1351      0.00000
    180       5.1881      0.00000
    181       5.2434      0.00000
    182       5.2700      0.00000
    183       5.2891      0.00000
    184       5.3166      0.00000
    185       5.3798      0.00000
    186       5.4583      0.00000
    187       5.4683      0.00000
    188       5.4851      0.00000
    189       5.4873      0.00000
    190       5.5252      0.00000
    191       5.5304      0.00000
    192       5.5613      0.00000
    193       5.5928      0.00000
    194       5.6174      0.00000
    195       5.6554      0.00000
    196       5.7030      0.00000
    197       5.7553      0.00000
    198       5.7790      0.00000
    199       5.8313      0.00000
    200       5.8693      0.00000
    201       5.9148      0.00000
    202       5.9215      0.00000
    203       5.9404      0.00000
    204       5.9477      0.00000
    205       5.9514      0.00000
    206       5.9829      0.00000
    207       6.0294      0.00000
    208       6.0743      0.00000
    209       6.1080      0.00000
    210       6.1731      0.00000
    211       6.1896      0.00000
    212       6.2701      0.00000
    213       6.2708      0.00000
    214       6.3194      0.00000
    215       6.3776      0.00000
    216       6.3855      0.00000
    217       6.4774      0.00000
    218       6.5467      0.00000
    219       6.5622      0.00000
    220       6.5894      0.00000
    221       6.6386      0.00000
    222       6.6877      0.00000
    223       6.7160      0.00000
    224       6.7891      0.00000
    225       6.8111      0.00000
    226       6.8186      0.00000
    227       6.8250      0.00000
    228       6.8888      0.00000
    229       6.9159      0.00000
    230       6.9342      0.00000
    231       7.0336      0.00000
    232       7.0878      0.00000
    233       7.0885      0.00000
    234       7.1267      0.00000
    235       7.1880      0.00000
    236       7.1919      0.00000
    237       7.2154      0.00000
    238       7.2186      0.00000
    239       7.2629      0.00000
    240       7.2657      0.00000
    241       7.2826      0.00000
    242       7.2882      0.00000
    243       7.3275      0.00000
    244       7.4290      0.00000
    245       7.4324      0.00000
    246       7.5208      0.00000
    247       7.5310      0.00000
    248       7.5471      0.00000
    249       7.5872      0.00000
    250       7.5891      0.00000
    251       7.6850      0.00000
    252       7.7390      0.00000
    253       7.7939      0.00000
    254       7.9010      0.00000
    255       7.9056      0.00000
    256       7.9071      0.00000

 k-point     4 :       0.5000    0.5000    0.0000
  band No.  band energies     occupation 
      1     -67.0070      1.00000
      2     -41.1235      1.00000
      3     -41.0843      1.00000
      4     -40.8475      1.00000
      5     -23.0913      1.00000
      6     -22.8024      1.00000
      7     -22.6101      1.00000
      8     -22.1728      1.00000
      9     -21.6677      1.00000
     10     -21.4586      1.00000
     11     -20.9560      1.00000
     12     -20.6121      1.00000
     13     -20.3770      1.00000
     14     -20.1953      1.00000
     15     -20.1642      1.00000
     16     -19.8740      1.00000
     17     -19.1235      1.00000
     18     -18.9918      1.00000
     19     -18.8232      1.00000
     20     -18.3517      1.00000
     21     -18.1217      1.00000
     22     -17.8705      1.00000
     23     -17.8511      1.00000
     24     -17.5641      1.00000
     25     -17.4149      1.00000
     26     -17.2763      1.00000
     27     -17.1386      1.00000
     28     -16.7801      1.00000
     29     -16.1886      1.00000
     30     -15.4901      1.00000
     31     -15.3744      1.00000
     32     -15.1809      1.00000
     33     -15.1447      1.00000
     34     -14.9178      1.00000
     35     -14.3910      1.00000
     36     -14.2935      1.00000
     37     -14.0488      1.00000
     38     -13.8963      1.00000
     39     -13.6995      1.00000
     40     -13.1433      1.00000
     41     -13.0900      1.00000
     42     -12.9921      1.00000
     43     -12.9260      1.00000
     44     -12.7876      1.00000
     45     -12.2654      1.00000
     46     -12.0078      1.00000
     47     -11.4915      1.00000
     48     -11.3371      1.00000
     49     -11.2936      1.00000
     50     -11.0546      1.00000
     51     -11.0270      1.00000
     52     -10.8675      1.00000
     53     -10.5166      1.00000
     54     -10.1898      1.00000
     55     -10.1845      1.00000
     56     -10.0936      1.00000
     57      -9.9990      1.00000
     58      -9.9062      1.00000
     59      -9.9011      1.00000
     60      -9.8289      1.00000
     61      -9.7599      1.00000
     62      -9.7553      1.00000
     63      -9.6624      1.00000
     64      -9.5153      1.00000
     65      -9.3777      1.00000
     66      -9.3485      1.00000
     67      -8.9378      1.00000
     68      -8.8272      1.00000
     69      -8.8080      1.00000
     70      -8.6766      1.00000
     71      -8.5997      1.00000
     72      -8.5280      1.00000
     73      -8.4568      1.00000
     74      -8.4148      1.00000
     75      -8.2528      1.00000
     76      -8.2368      1.00000
     77      -8.0638      1.00000
     78      -8.0180      1.00000
     79      -7.8365      1.00000
     80      -7.6564      1.00000
     81      -7.6377      1.00000
     82      -7.5603      1.00000
     83      -7.4286      1.00000
     84      -7.0647      1.00000
     85      -6.9904      1.00000
     86      -6.8670      1.00000
     87      -6.7496      1.00000
     88      -6.5928      1.00000
     89      -6.4442      1.00000
     90      -6.3813      1.00000
     91      -6.2186      1.00000
     92      -5.7843      1.00000
     93      -5.5215      1.00000
     94      -5.4379      1.00000
     95      -5.4044      1.00000
     96      -5.3866      1.00000
     97      -5.3571      1.00000
     98      -5.1899      1.00000
     99      -5.1755      1.00000
    100      -5.0987      1.00000
    101      -4.4068      1.00000
    102      -4.1181      1.00000
    103      -4.0150      1.00000
    104      -3.6347      1.00000
    105      -2.8492      1.00000
    106      -2.3727      0.99228
    107      -2.0239      0.00601
    108      -1.5923      0.00000
    109      -0.8340      0.00000
    110      -0.8167      0.00000
    111      -0.7027      0.00000
    112      -0.6614      0.00000
    113      -0.3877      0.00000
    114      -0.1217      0.00000
    115      -0.0664      0.00000
    116      -0.0380      0.00000
    117       0.3533      0.00000
    118       0.5986      0.00000
    119       0.8778      0.00000
    120       1.0431      0.00000
    121       1.0711      0.00000
    122       1.4179      0.00000
    123       1.5346      0.00000
    124       1.5717      0.00000
    125       1.5949      0.00000
    126       1.6386      0.00000
    127       1.9259      0.00000
    128       1.9788      0.00000
    129       2.0238      0.00000
    130       2.1882      0.00000
    131       2.2190      0.00000
    132       2.3886      0.00000
    133       2.5251      0.00000
    134       2.6236      0.00000
    135       2.6320      0.00000
    136       2.6861      0.00000
    137       2.7037      0.00000
    138       2.7267      0.00000
    139       2.7501      0.00000
    140       2.8148      0.00000
    141       2.9111      0.00000
    142       3.1577      0.00000
    143       3.2227      0.00000
    144       3.3079      0.00000
    145       3.3835      0.00000
    146       3.4053      0.00000
    147       3.4751      0.00000
    148       3.4916      0.00000
    149       3.5352      0.00000
    150       3.5455      0.00000
    151       3.5538      0.00000
    152       3.5958      0.00000
    153       3.8185      0.00000
    154       3.9182      0.00000
    155       3.9372      0.00000
    156       3.9478      0.00000
    157       3.9487      0.00000
    158       3.9779      0.00000
    159       3.9786      0.00000
    160       4.1404      0.00000
    161       4.1725      0.00000
    162       4.1870      0.00000
    163       4.2188      0.00000
    164       4.3400      0.00000
    165       4.3788      0.00000
    166       4.5114      0.00000
    167       4.5984      0.00000
    168       4.6088      0.00000
    169       4.6402      0.00000
    170       4.6731      0.00000
    171       4.6921      0.00000
    172       4.8187      0.00000
    173       4.8321      0.00000
    174       4.8510      0.00000
    175       4.9078      0.00000
    176       4.9225      0.00000
    177       4.9713      0.00000
    178       5.0272      0.00000
    179       5.0457      0.00000
    180       5.1478      0.00000
    181       5.1878      0.00000
    182       5.2752      0.00000
    183       5.2910      0.00000
    184       5.2979      0.00000
    185       5.3451      0.00000
    186       5.3833      0.00000
    187       5.4402      0.00000
    188       5.4747      0.00000
    189       5.4864      0.00000
    190       5.4902      0.00000
    191       5.5352      0.00000
    192       5.5505      0.00000
    193       5.5889      0.00000
    194       5.6287      0.00000
    195       5.6296      0.00000
    196       5.6329      0.00000
    197       5.6625      0.00000
    198       5.7407      0.00000
    199       5.7604      0.00000
    200       5.7634      0.00000
    201       5.9003      0.00000
    202       5.9188      0.00000
    203       5.9367      0.00000
    204       5.9389      0.00000
    205       5.9509      0.00000
    206       5.9585      0.00000
    207       5.9700      0.00000
    208       6.0241      0.00000
    209       6.0789      0.00000
    210       6.1640      0.00000
    211       6.1715      0.00000
    212       6.2738      0.00000
    213       6.3070      0.00000
    214       6.3117      0.00000
    215       6.3273      0.00000
    216       6.4665      0.00000
    217       6.4671      0.00000
    218       6.5509      0.00000
    219       6.5572      0.00000
    220       6.6253      0.00000
    221       6.6583      0.00000
    222       6.7030      0.00000
    223       6.7957      0.00000
    224       6.8139      0.00000
    225       6.8220      0.00000
    226       6.8397      0.00000
    227       6.9025      0.00000
    228       6.9142      0.00000
    229       6.9226      0.00000
    230       6.9267      0.00000
    231       6.9462      0.00000
    232       7.0760      0.00000
    233       7.1008      0.00000
    234       7.1124      0.00000
    235       7.1537      0.00000
    236       7.1590      0.00000
    237       7.2059      0.00000
    238       7.2242      0.00000
    239       7.2555      0.00000
    240       7.2682      0.00000
    241       7.2943      0.00000
    242       7.3035      0.00000
    243       7.3078      0.00000
    244       7.4099      0.00000
    245       7.4349      0.00000
    246       7.4705      0.00000
    247       7.5262      0.00000
    248       7.5464      0.00000
    249       7.5704      0.00000
    250       7.5842      0.00000
    251       7.5858      0.00000
    252       7.6171      0.00000
    253       7.6853      0.00000
    254       7.8206      0.00000
    255       7.8979      0.00000
    256       7.9076      0.00000

 spin component 2

 k-point     1 :       0.0000    0.0000    0.0000
  band No.  band energies     occupation 
      1     -64.6189      1.00000
      2     -39.1381      1.00000
      3     -38.6080      1.00000
      4     -38.1912      1.00000
      5     -23.1164      1.00000
      6     -22.7767      1.00000
      7     -22.5198      1.00000
      8     -22.2413      1.00000
      9     -21.7061      1.00000
     10     -21.3232      1.00000
     11     -21.2381      1.00000
     12     -20.8151      1.00000
     13     -20.3010      1.00000
     14     -20.0722      1.00000
     15     -19.5988      1.00000
     16     -19.4811      1.00000
     17     -19.1897      1.00000
     18     -19.1019      1.00000
     19     -18.9171      1.00000
     20     -18.7451      1.00000
     21     -18.6969      1.00000
     22     -18.4760      1.00000
     23     -17.9852      1.00000
     24     -17.1953      1.00000
     25     -17.1205      1.00000
     26     -16.6784      1.00000
     27     -16.5426      1.00000
     28     -16.3800      1.00000
     29     -15.9252      1.00000
     30     -15.6454      1.00000
     31     -15.6044      1.00000
     32     -15.4540      1.00000
     33     -15.4138      1.00000
     34     -15.0779      1.00000
     35     -14.5290      1.00000
     36     -14.4221      1.00000
     37     -14.4031      1.00000
     38     -14.3280      1.00000
     39     -14.0803      1.00000
     40     -13.2545      1.00000
     41     -12.5299      1.00000
     42     -12.4771      1.00000
     43     -12.3219      1.00000
     44     -12.1279      1.00000
     45     -11.7729      1.00000
     46     -11.7089      1.00000
     47     -11.6532      1.00000
     48     -11.6132      1.00000
     49     -11.5996      1.00000
     50     -11.4733      1.00000
     51     -11.1030      1.00000
     52     -10.6519      1.00000
     53     -10.6396      1.00000
     54     -10.5334      1.00000
     55     -10.3810      1.00000
     56     -10.1761      1.00000
     57     -10.0362      1.00000
     58     -10.0262      1.00000
     59      -9.7057      1.00000
     60      -9.6743      1.00000
     61      -9.6227      1.00000
     62      -9.4462      1.00000
     63      -9.3253      1.00000
     64      -9.3140      1.00000
     65      -9.2799      1.00000
     66      -9.1820      1.00000
     67      -9.1266      1.00000
     68      -9.0835      1.00000
     69      -9.0703      1.00000
     70      -8.9837      1.00000
     71      -8.9586      1.00000
     72      -8.9145      1.00000
     73      -8.8143      1.00000
     74      -8.4311      1.00000
     75      -8.4137      1.00000
     76      -7.7528      1.00000
     77      -7.7052      1.00000
     78      -7.6120      1.00000
     79      -7.5886      1.00000
     80      -7.4735      1.00000
     81      -7.3038      1.00000
     82      -7.2071      1.00000
     83      -7.1452      1.00000
     84      -7.0910      1.00000
     85      -7.0326      1.00000
     86      -6.8252      1.00000
     87      -6.6889      1.00000
     88      -6.6449      1.00000
     89      -6.5548      1.00000
     90      -6.3433      1.00000
     91      -6.2761      1.00000
     92      -6.2145      1.00000
     93      -6.1115      1.00000
     94      -6.0161      1.00000
     95      -5.4534      1.00000
     96      -5.4503      1.00000
     97      -5.2733      1.00000
     98      -4.5896      1.00000
     99      -4.4558      1.00000
    100      -4.2378      1.00000
    101      -4.2020      1.00000
    102      -4.1008      1.00000
    103      -2.7823      1.00000
    104      -1.9008      0.00001
    105      -1.6252      0.00000
    106      -1.3810      0.00000
    107      -1.3688      0.00000
    108      -1.0413      0.00000
    109      -0.3575      0.00000
    110       0.0810      0.00000
    111       0.1024      0.00000
    112       0.2917      0.00000
    113       0.4036      0.00000
    114       0.4368      0.00000
    115       0.6276      0.00000
    116       0.8631      0.00000
    117       1.2982      0.00000
    118       1.5002      0.00000
    119       1.5043      0.00000
    120       1.5808      0.00000
    121       1.6754      0.00000
    122       1.7214      0.00000
    123       1.8222      0.00000
    124       1.8416      0.00000
    125       1.8559      0.00000
    126       1.8688      0.00000
    127       1.9227      0.00000
    128       2.0595      0.00000
    129       2.1109      0.00000
    130       2.1611      0.00000
    131       2.2569      0.00000
    132       2.2876      0.00000
    133       2.5751      0.00000
    134       2.6044      0.00000
    135       2.6147      0.00000
    136       2.6293      0.00000
    137       2.6341      0.00000
    138       2.6431      0.00000
    139       2.6968      0.00000
    140       2.9928      0.00000
    141       2.9948      0.00000
    142       2.9962      0.00000
    143       2.9968      0.00000
    144       2.9992      0.00000
    145       3.0140      0.00000
    146       3.0844      0.00000
    147       3.3958      0.00000
    148       3.6006      0.00000
    149       3.8712      0.00000
    150       3.8817      0.00000
    151       3.8958      0.00000
    152       3.8961      0.00000
    153       3.8992      0.00000
    154       3.9200      0.00000
    155       4.0039      0.00000
    156       4.1113      0.00000
    157       4.3040      0.00000
    158       4.3208      0.00000
    159       4.3362      0.00000
    160       4.3496      0.00000
    161       4.3535      0.00000
    162       4.3537      0.00000
    163       4.3695      0.00000
    164       4.3725      0.00000
    165       4.3894      0.00000
    166       4.3912      0.00000
    167       4.4993      0.00000
    168       4.5835      0.00000
    169       4.6630      0.00000
    170       4.6728      0.00000
    171       4.8260      0.00000
    172       4.8909      0.00000
    173       5.0143      0.00000
    174       5.0684      0.00000
    175       5.1480      0.00000
    176       5.1725      0.00000
    177       5.1737      0.00000
    178       5.1865      0.00000
    179       5.1870      0.00000
    180       5.2033      0.00000
    181       5.3544      0.00000
    182       5.4155      0.00000
    183       5.4413      0.00000
    184       5.4567      0.00000
    185       5.5349      0.00000
    186       5.6050      0.00000
    187       5.6261      0.00000
    188       5.6351      0.00000
    189       5.6354      0.00000
    190       5.6367      0.00000
    191       5.6399      0.00000
    192       5.6412      0.00000
    193       5.6497      0.00000
    194       5.6690      0.00000
    195       5.6728      0.00000
    196       5.6762      0.00000
    197       5.6827      0.00000
    198       5.7541      0.00000
    199       5.7881      0.00000
    200       5.8164      0.00000
    201       5.8898      0.00000
    202       5.9609      0.00000
    203       5.9826      0.00000
    204       6.0160      0.00000
    205       6.0223      0.00000
    206       6.0382      0.00000
    207       6.0433      0.00000
    208       6.1438      0.00000
    209       6.2808      0.00000
    210       6.2862      0.00000
    211       6.3230      0.00000
    212       6.4349      0.00000
    213       6.4532      0.00000
    214       6.4635      0.00000
    215       6.4762      0.00000
    216       6.4825      0.00000
    217       6.4932      0.00000
    218       6.5002      0.00000
    219       6.5017      0.00000
    220       6.5106      0.00000
    221       6.5163      0.00000
    222       6.5207      0.00000
    223       6.5776      0.00000
    224       6.6472      0.00000
    225       6.6546      0.00000
    226       6.6703      0.00000
    227       6.6728      0.00000
    228       6.7028      0.00000
    229       6.7692      0.00000
    230       6.9478      0.00000
    231       6.9535      0.00000
    232       6.9557      0.00000
    233       6.9575      0.00000
    234       6.9586      0.00000
    235       6.9591      0.00000
    236       6.9601      0.00000
    237       6.9602      0.00000
    238       6.9697      0.00000
    239       6.9777      0.00000
    240       6.9816      0.00000
    241       7.0109      0.00000
    242       7.4316      0.00000
    243       7.6663      0.00000
    244       7.7145      0.00000
    245       7.7394      0.00000
    246       7.7485      0.00000
    247       7.7842      0.00000
    248       7.7909      0.00000
    249       7.8043      0.00000
    250       7.8059      0.00000
    251       7.8183      0.00000
    252       7.9033      0.00000
    253       7.9884      0.00000
    254       8.0294      0.00000
    255       8.0319      0.00000
    256       8.1935      0.00000

 k-point     2 :       0.5000   -0.0000    0.0000
  band No.  band energies     occupation 
      1     -64.6189      1.00000
      2     -39.1381      1.00000
      3     -38.6080      1.00000
      4     -38.1912      1.00000
      5     -23.0796      1.00000
      6     -22.8292      1.00000
      7     -22.5494      1.00000
      8     -22.2495      1.00000
      9     -21.5971      1.00000
     10     -21.4165      1.00000
     11     -21.0772      1.00000
     12     -20.6031      1.00000
     13     -20.5239      1.00000
     14     -20.2427      1.00000
     15     -19.7479      1.00000
     16     -19.7130      1.00000
     17     -19.3004      1.00000
     18     -19.2883      1.00000
     19     -18.6813      1.00000
     20     -18.4477      1.00000
     21     -18.0751      1.00000
     22     -17.8298      1.00000
     23     -17.8175      1.00000
     24     -17.6840      1.00000
     25     -17.4969      1.00000
     26     -17.2664      1.00000
     27     -16.8645      1.00000
     28     -16.4458      1.00000
     29     -16.0604      1.00000
     30     -15.9279      1.00000
     31     -15.3421      1.00000
     32     -15.3162      1.00000
     33     -15.1530      1.00000
     34     -15.0793      1.00000
     35     -14.5706      1.00000
     36     -14.1919      1.00000
     37     -13.9151      1.00000
     38     -13.8317      1.00000
     39     -13.4140      1.00000
     40     -13.3169      1.00000
     41     -12.9351      1.00000
     42     -12.8873      1.00000
     43     -12.8239      1.00000
     44     -12.7101      1.00000
     45     -12.2512      1.00000
     46     -11.8912      1.00000
     47     -11.6382      1.00000
     48     -11.4737      1.00000
     49     -11.4651      1.00000
     50     -11.3381      1.00000
     51     -10.8786      1.00000
     52     -10.6518      1.00000
     53     -10.6117      1.00000
     54     -10.3387      1.00000
     55     -10.1652      1.00000
     56     -10.1258      1.00000
     57     -10.0887      1.00000
     58      -9.9850      1.00000
     59      -9.7230      1.00000
     60      -9.6491      1.00000
     61      -9.6305      1.00000
     62      -9.6157      1.00000
     63      -9.5173      1.00000
     64      -9.5026      1.00000
     65      -9.3631      1.00000
     66      -9.1468      1.00000
     67      -9.0752      1.00000
     68      -8.8320      1.00000
     69      -8.7264      1.00000
     70      -8.5746      1.00000
     71      -8.5671      1.00000
     72      -8.5653      1.00000
     73      -8.5195      1.00000
     74      -8.4696      1.00000
     75      -8.4177      1.00000
     76      -8.2954      1.00000
     77      -8.2007      1.00000
     78      -8.0124      1.00000
     79      -7.9359      1.00000
     80      -7.5927      1.00000
     81      -7.5602      1.00000
     82      -7.3152      1.00000
     83      -7.0214      1.00000
     84      -6.9960      1.00000
     85      -6.8952      1.00000
     86      -6.8724      1.00000
     87      -6.8346      1.00000
     88      -6.5711      1.00000
     89      -6.4704      1.00000
     90      -6.0721      1.00000
     91      -6.0561      1.00000
     92      -5.8703      1.00000
     93      -5.6606      1.00000
     94      -5.4282      1.00000
     95      -5.4003      1.00000
     96      -5.3370      1.00000
     97      -5.2806      1.00000
     98      -5.2714      1.00000
     99      -5.1598      1.00000
    100      -5.0868      1.00000
    101      -4.1474      1.00000
    102      -3.6664      1.00000
    103      -3.0361      1.00000
    104      -1.9210      0.00004
    105      -1.2809      0.00000
    106      -1.1878      0.00000
    107      -0.8028      0.00000
    108      -0.7247      0.00000
    109      -0.5182      0.00000
    110      -0.2404      0.00000
    111      -0.1939      0.00000
    112      -0.0088      0.00000
    113       0.1581      0.00000
    114       0.2754      0.00000
    115       0.8148      0.00000
    116       0.8447      0.00000
    117       1.0913      0.00000
    118       1.1687      0.00000
    119       1.5207      0.00000
    120       1.5335      0.00000
    121       1.5584      0.00000
    122       1.6008      0.00000
    123       1.6536      0.00000
    124       1.7976      0.00000
    125       1.9189      0.00000
    126       1.9369      0.00000
    127       2.0159      0.00000
    128       2.0502      0.00000
    129       2.2067      0.00000
    130       2.2510      0.00000
    131       2.4499      0.00000
    132       2.6122      0.00000
    133       2.6664      0.00000
    134       2.6681      0.00000
    135       2.7783      0.00000
    136       2.8202      0.00000
    137       2.8477      0.00000
    138       2.8659      0.00000
    139       2.9267      0.00000
    140       3.0330      0.00000
    141       3.1815      0.00000
    142       3.3288      0.00000
    143       3.3671      0.00000
    144       3.4297      0.00000
    145       3.4414      0.00000
    146       3.5311      0.00000
    147       3.5621      0.00000
    148       3.5721      0.00000
    149       3.5836      0.00000
    150       3.5891      0.00000
    151       3.6075      0.00000
    152       3.6331      0.00000
    153       3.9162      0.00000
    154       3.9706      0.00000
    155       3.9847      0.00000
    156       3.9857      0.00000
    157       3.9955      0.00000
    158       4.0219      0.00000
    159       4.0362      0.00000
    160       4.1618      0.00000
    161       4.1998      0.00000
    162       4.2224      0.00000
    163       4.2626      0.00000
    164       4.2706      0.00000
    165       4.4474      0.00000
    166       4.6223      0.00000
    167       4.6464      0.00000
    168       4.6509      0.00000
    169       4.6929      0.00000
    170       4.7042      0.00000
    171       4.7259      0.00000
    172       4.8475      0.00000
    173       4.8667      0.00000
    174       4.8703      0.00000
    175       4.8819      0.00000
    176       4.9664      0.00000
    177       5.0452      0.00000
    178       5.0638      0.00000
    179       5.1779      0.00000
    180       5.2913      0.00000
    181       5.3198      0.00000
    182       5.3277      0.00000
    183       5.3418      0.00000
    184       5.3737      0.00000
    185       5.4514      0.00000
    186       5.5132      0.00000
    187       5.5164      0.00000
    188       5.5176      0.00000
    189       5.5345      0.00000
    190       5.5382      0.00000
    191       5.5672      0.00000
    192       5.6245      0.00000
    193       5.6385      0.00000
    194       5.6569      0.00000
    195       5.6806      0.00000
    196       5.7204      0.00000
    197       5.7785      0.00000
    198       5.7930      0.00000
    199       5.8782      0.00000
    200       5.8867      0.00000
    201       5.9623      0.00000
    202       5.9659      0.00000
    203       5.9695      0.00000
    204       5.9766      0.00000
    205       5.9971      0.00000
    206       6.0226      0.00000
    207       6.0671      0.00000
    208       6.0985      0.00000
    209       6.1262      0.00000
    210       6.2102      0.00000
    211       6.2949      0.00000
    212       6.3113      0.00000
    213       6.3275      0.00000
    214       6.3860      0.00000
    215       6.4667      0.00000
    216       6.5252      0.00000
    217       6.5777      0.00000
    218       6.6007      0.00000
    219       6.6378      0.00000
    220       6.6387      0.00000
    221       6.7022      0.00000
    222       6.7461      0.00000
    223       6.7721      0.00000
    224       6.8169      0.00000
    225       6.8262      0.00000
    226       6.8582      0.00000
    227       6.8635      0.00000
    228       6.9562      0.00000
    229       6.9616      0.00000
    230       6.9701      0.00000
    231       7.1309      0.00000
    232       7.1842      0.00000
    233       7.1959      0.00000
    234       7.2261      0.00000
    235       7.2498      0.00000
    236       7.2738      0.00000
    237       7.2776      0.00000
    238       7.2921      0.00000
    239       7.2991      0.00000
    240       7.3092      0.00000
    241       7.3096      0.00000
    242       7.3329      0.00000
    243       7.3878      0.00000
    244       7.4599      0.00000
    245       7.5328      0.00000
    246       7.5812      0.00000
    247       7.5998      0.00000
    248       7.6128      0.00000
    249       7.6238      0.00000
    250       7.6280      0.00000
    251       7.7899      0.00000
    252       7.8316      0.00000
    253       7.8550      0.00000
    254       7.9390      0.00000
    255       7.9440      0.00000
    256       7.9468      0.00000

 k-point     3 :       0.0000    0.5000    0.0000
  band No.  band energies     occupation 
      1     -64.6189      1.00000
      2     -39.1381      1.00000
      3     -38.6080      1.00000
      4     -38.1912      1.00000
      5     -23.0796      1.00000
      6     -22.8292      1.00000
      7     -22.5494      1.00000
      8     -22.2495      1.00000
      9     -21.5971      1.00000
     10     -21.4165      1.00000
     11     -21.0772      1.00000
     12     -20.6031      1.00000
     13     -20.5239      1.00000
     14     -20.2427      1.00000
     15     -19.7479      1.00000
     16     -19.7130      1.00000
     17     -19.3004      1.00000
     18     -19.2883      1.00000
     19     -18.6813      1.00000
     20     -18.4477      1.00000
     21     -18.0751      1.00000
     22     -17.8298      1.00000
     23     -17.8175      1.00000
     24     -17.6840      1.00000
     25     -17.4969      1.00000
     26     -17.2664      1.00000
     27     -16.8645      1.00000
     28     -16.4458      1.00000
     29     -16.0604      1.00000
     30     -15.9279      1.00000
     31     -15.3421      1.00000
     32     -15.3162      1.00000
     33     -15.1530      1.00000
     34     -15.0793      1.00000
     35     -14.5706      1.00000
     36     -14.1919      1.00000
     37     -13.9151      1.00000
     38     -13.8317      1.00000
     39     -13.4140      1.00000
     40     -13.3169      1.00000
     41     -12.9351      1.00000
     42     -12.8873      1.00000
     43     -12.8239      1.00000
     44     -12.7101      1.00000
     45     -12.2512      1.00000
     46     -11.8912      1.00000
     47     -11.6382      1.00000
     48     -11.4737      1.00000
     49     -11.4651      1.00000
     50     -11.3381      1.00000
     51     -10.8786      1.00000
     52     -10.6518      1.00000
     53     -10.6117      1.00000
     54     -10.3387      1.00000
     55     -10.1652      1.00000
     56     -10.1258      1.00000
     57     -10.0887      1.00000
     58      -9.9850      1.00000
     59      -9.7230      1.00000
     60      -9.6491      1.00000
     61      -9.6305      1.00000
     62      -9.6157      1.00000
     63      -9.5173      1.00000
     64      -9.5026      1.00000
     65      -9.3631      1.00000
     66      -9.1468      1.00000
     67      -9.0752      1.00000
     68      -8.8320      1.00000
     69      -8.7264      1.00000
     70      -8.5746      1.00000
     71      -8.5671      1.00000
     72      -8.5653      1.00000
     73      -8.5195      1.00000
     74      -8.4696      1.00000
     75      -8.4177      1.00000
     76      -8.2954      1.00000
     77      -8.2007      1.00000
     78      -8.0124      1.00000
     79      -7.9359      1.00000
     80      -7.5927      1.00000
     81      -7.5602      1.00000
     82      -7.3152      1.00000
     83      -7.0214      1.00000
     84      -6.9960      1.00000
     85      -6.8952      1.00000
     86      -6.8724      1.00000
     87      -6.8346      1.00000
     88      -6.5711      1.00000
     89      -6.4704      1.00000
     90      -6.0721      1.00000
     91      -6.0561      1.00000
     92      -5.8703      1.00000
     93      -5.6606      1.00000
     94      -5.4282      1.00000
     95      -5.4003      1.00000
     96      -5.3370      1.00000
     97      -5.2806      1.00000
     98      -5.2714      1.00000
     99      -5.1598      1.00000
    100      -5.0868      1.00000
    101      -4.1474      1.00000
    102      -3.6664      1.00000
    103      -3.0361      1.00000
    104      -1.9210      0.00004
    105      -1.2809      0.00000
    106      -1.1878      0.00000
    107      -0.8028      0.00000
    108      -0.7247      0.00000
    109      -0.5182      0.00000
    110      -0.2404      0.00000
    111      -0.1939      0.00000
    112      -0.0088      0.00000
    113       0.1581      0.00000
    114       0.2754      0.00000
    115       0.8148      0.00000
    116       0.8447      0.00000
    117       1.0913      0.00000
    118       1.1687      0.00000
    119       1.5207      0.00000
    120       1.5335      0.00000
    121       1.5584      0.00000
    122       1.6008      0.00000
    123       1.6536      0.00000
    124       1.7976      0.00000
    125       1.9189      0.00000
    126       1.9369      0.00000
    127       2.0159      0.00000
    128       2.0502      0.00000
    129       2.2067      0.00000
    130       2.2510      0.00000
    131       2.4499      0.00000
    132       2.6122      0.00000
    133       2.6664      0.00000
    134       2.6681      0.00000
    135       2.7783      0.00000
    136       2.8202      0.00000
    137       2.8477      0.00000
    138       2.8659      0.00000
    139       2.9267      0.00000
    140       3.0330      0.00000
    141       3.1815      0.00000
    142       3.3288      0.00000
    143       3.3671      0.00000
    144       3.4297      0.00000
    145       3.4414      0.00000
    146       3.5311      0.00000
    147       3.5621      0.00000
    148       3.5721      0.00000
    149       3.5836      0.00000
    150       3.5891      0.00000
    151       3.6075      0.00000
    152       3.6331      0.00000
    153       3.9162      0.00000
    154       3.9706      0.00000
    155       3.9847      0.00000
    156       3.9857      0.00000
    157       3.9955      0.00000
    158       4.0219      0.00000
    159       4.0362      0.00000
    160       4.1618      0.00000
    161       4.1998      0.00000
    162       4.2224      0.00000
    163       4.2626      0.00000
    164       4.2706      0.00000
    165       4.4474      0.00000
    166       4.6223      0.00000
    167       4.6464      0.00000
    168       4.6509      0.00000
    169       4.6929      0.00000
    170       4.7042      0.00000
    171       4.7259      0.00000
    172       4.8475      0.00000
    173       4.8667      0.00000
    174       4.8703      0.00000
    175       4.8819      0.00000
    176       4.9664      0.00000
    177       5.0452      0.00000
    178       5.0638      0.00000
    179       5.1779      0.00000
    180       5.2913      0.00000
    181       5.3198      0.00000
    182       5.3277      0.00000
    183       5.3418      0.00000
    184       5.3737      0.00000
    185       5.4514      0.00000
    186       5.5132      0.00000
    187       5.5164      0.00000
    188       5.5176      0.00000
    189       5.5345      0.00000
    190       5.5382      0.00000
    191       5.5672      0.00000
    192       5.6245      0.00000
    193       5.6385      0.00000
    194       5.6569      0.00000
    195       5.6806      0.00000
    196       5.7204      0.00000
    197       5.7785      0.00000
    198       5.7930      0.00000
    199       5.8782      0.00000
    200       5.8867      0.00000
    201       5.9623      0.00000
    202       5.9659      0.00000
    203       5.9695      0.00000
    204       5.9766      0.00000
    205       5.9971      0.00000
    206       6.0226      0.00000
    207       6.0671      0.00000
    208       6.0985      0.00000
    209       6.1262      0.00000
    210       6.2102      0.00000
    211       6.2949      0.00000
    212       6.3113      0.00000
    213       6.3275      0.00000
    214       6.3860      0.00000
    215       6.4667      0.00000
    216       6.5252      0.00000
    217       6.5777      0.00000
    218       6.6007      0.00000
    219       6.6378      0.00000
    220       6.6387      0.00000
    221       6.7022      0.00000
    222       6.7461      0.00000
    223       6.7721      0.00000
    224       6.8169      0.00000
    225       6.8262      0.00000
    226       6.8582      0.00000
    227       6.8635      0.00000
    228       6.9562      0.00000
    229       6.9616      0.00000
    230       6.9701      0.00000
    231       7.1309      0.00000
    232       7.1842      0.00000
    233       7.1959      0.00000
    234       7.2261      0.00000
    235       7.2498      0.00000
    236       7.2738      0.00000
    237       7.2776      0.00000
    238       7.2921      0.00000
    239       7.2991      0.00000
    240       7.3092      0.00000
    241       7.3096      0.00000
    242       7.3329      0.00000
    243       7.3878      0.00000
    244       7.4599      0.00000
    245       7.5328      0.00000
    246       7.5812      0.00000
    247       7.5998      0.00000
    248       7.6128      0.00000
    249       7.6238      0.00000
    250       7.6280      0.00000
    251       7.7899      0.00000
    252       7.8316      0.00000
    253       7.8550      0.00000
    254       7.9390      0.00000
    255       7.9440      0.00000
    256       7.9468      0.00000

 k-point     4 :       0.5000    0.5000    0.0000
  band No.  band energies     occupation 
      1     -64.6189      1.00000
      2     -39.1381      1.00000
      3     -38.6080      1.00000
      4     -38.1912      1.00000
      5     -23.0836      1.00000
      6     -22.7968      1.00000
      7     -22.6132      1.00000
      8     -22.1820      1.00000
      9     -21.6647      1.00000
     10     -21.4593      1.00000
     11     -20.9513      1.00000
     12     -20.6080      1.00000
     13     -20.3735      1.00000
     14     -20.1821      1.00000
     15     -20.1619      1.00000
     16     -19.8720      1.00000
     17     -19.1208      1.00000
     18     -18.9844      1.00000
     19     -18.8201      1.00000
     20     -18.3508      1.00000
     21     -18.1052      1.00000
     22     -17.8664      1.00000
     23     -17.8386      1.00000
     24     -17.5545      1.00000
     25     -17.4103      1.00000
     26     -17.2718      1.00000
     27     -17.1343      1.00000
     28     -16.7793      1.00000
     29     -16.1743      1.00000
     30     -15.4773      1.00000
     31     -15.3679      1.00000
     32     -15.1722      1.00000
     33     -15.1359      1.00000
     34     -14.9172      1.00000
     35     -14.3854      1.00000
     36     -14.2852      1.00000
     37     -14.0379      1.00000
     38     -13.8906      1.00000
     39     -13.6942      1.00000
     40     -13.1176      1.00000
     41     -13.0782      1.00000
     42     -12.9865      1.00000
     43     -12.9152      1.00000
     44     -12.7815      1.00000
     45     -12.2631      1.00000
     46     -11.9933      1.00000
     47     -11.4552      1.00000
     48     -11.3355      1.00000
     49     -11.2948      1.00000
     50     -11.0512      1.00000
     51     -11.0203      1.00000
     52     -10.8561      1.00000
     53     -10.4985      1.00000
     54     -10.1862      1.00000
     55     -10.1512      1.00000
     56     -10.0821      1.00000
     57      -9.9957      1.00000
     58      -9.9013      1.00000
     59      -9.8853      1.00000
     60      -9.8016      1.00000
     61      -9.7513      1.00000
     62      -9.7311      1.00000
     63      -9.6489      1.00000
     64      -9.4695      1.00000
     65      -9.3659      1.00000
     66      -9.3424      1.00000
     67      -8.9371      1.00000
     68      -8.8221      1.00000
     69      -8.7907      1.00000
     70      -8.6640      1.00000
     71      -8.5727      1.00000
     72      -8.5159      1.00000
     73      -8.4467      1.00000
     74      -8.4044      1.00000
     75      -8.2469      1.00000
     76      -8.2083      1.00000
     77      -8.0378      1.00000
     78      -8.0111      1.00000
     79      -7.7733      1.00000
     80      -7.6314      1.00000
     81      -7.5865      1.00000
     82      -7.4023      1.00000
     83      -7.3858      1.00000
     84      -7.0606      1.00000
     85      -6.9829      1.00000
     86      -6.7940      1.00000
     87      -6.7425      1.00000
     88      -6.5470      1.00000
     89      -6.4011      1.00000
     90      -6.3583      1.00000
     91      -6.1837      1.00000
     92      -5.7173      1.00000
     93      -5.4567      1.00000
     94      -5.4275      1.00000
     95      -5.3911      1.00000
     96      -5.3307      1.00000
     97      -5.1930      1.00000
     98      -5.1750      1.00000
     99      -5.1561      1.00000
    100      -5.0826      1.00000
    101      -4.2953      1.00000
    102      -4.0138      1.00000
    103      -2.4277      0.99931
    104      -2.0013      0.00232
    105      -1.5576      0.00000
    106      -1.2649      0.00000
    107      -0.8355      0.00000
    108      -0.6429      0.00000
    109      -0.3836      0.00000
    110      -0.3471      0.00000
    111      -0.0646      0.00000
    112      -0.0144      0.00000
    113       0.1549      0.00000
    114       0.1798      0.00000
    115       0.8480      0.00000
    116       1.1436      0.00000
    117       1.1578      0.00000
    118       1.1996      0.00000
    119       1.2727      0.00000
    120       1.3406      0.00000
    121       1.5378      0.00000
    122       1.5999      0.00000
    123       1.6540      0.00000
    124       1.6667      0.00000
    125       1.9144      0.00000
    126       2.0069      0.00000
    127       2.0449      0.00000
    128       2.0893      0.00000
    129       2.1672      0.00000
    130       2.3855      0.00000
    131       2.4811      0.00000
    132       2.5928      0.00000
    133       2.6676      0.00000
    134       2.6729      0.00000
    135       2.7510      0.00000
    136       2.8363      0.00000
    137       2.8409      0.00000
    138       2.8481      0.00000
    139       2.9244      0.00000
    140       3.0862      0.00000
    141       3.2543      0.00000
    142       3.2748      0.00000
    143       3.3690      0.00000
    144       3.3907      0.00000
    145       3.4290      0.00000
    146       3.4952      0.00000
    147       3.5144      0.00000
    148       3.5710      0.00000
    149       3.5724      0.00000
    150       3.5928      0.00000
    151       3.6034      0.00000
    152       3.6448      0.00000
    153       3.8997      0.00000
    154       3.9807      0.00000
    155       3.9826      0.00000
    156       3.9857      0.00000
    157       3.9966      0.00000
    158       4.0050      0.00000
    159       4.0491      0.00000
    160       4.1726      0.00000
    161       4.2066      0.00000
    162       4.2454      0.00000
    163       4.2747      0.00000
    164       4.4805      0.00000
    165       4.5342      0.00000
    166       4.6402      0.00000
    167       4.6465      0.00000
    168       4.6568      0.00000
    169       4.6582      0.00000
    170       4.7102      0.00000
    171       4.8376      0.00000
    172       4.8621      0.00000
    173       4.8723      0.00000
    174       4.8748      0.00000
    175       4.9644      0.00000
    176       4.9912      0.00000
    177       5.0321      0.00000
    178       5.0452      0.00000
    179       5.0725      0.00000
    180       5.1792      0.00000
    181       5.3105      0.00000
    182       5.3384      0.00000
    183       5.3416      0.00000
    184       5.3708      0.00000
    185       5.3800      0.00000
    186       5.4950      0.00000
    187       5.5002      0.00000
    188       5.5094      0.00000
    189       5.5231      0.00000
    190       5.5279      0.00000
    191       5.5484      0.00000
    192       5.6401      0.00000
    193       5.6544      0.00000
    194       5.6654      0.00000
    195       5.6812      0.00000
    196       5.6816      0.00000
    197       5.7256      0.00000
    198       5.7485      0.00000
    199       5.7696      0.00000
    200       5.7736      0.00000
    201       5.9393      0.00000
    202       5.9656      0.00000
    203       5.9709      0.00000
    204       5.9762      0.00000
    205       5.9782      0.00000
    206       5.9972      0.00000
    207       5.9980      0.00000
    208       6.0693      0.00000
    209       6.0913      0.00000
    210       6.1736      0.00000
    211       6.2210      0.00000
    212       6.3393      0.00000
    213       6.3421      0.00000
    214       6.3967      0.00000
    215       6.4791      0.00000
    216       6.5374      0.00000
    217       6.5816      0.00000
    218       6.5858      0.00000
    219       6.6475      0.00000
    220       6.6667      0.00000
    221       6.7188      0.00000
    222       6.8027      0.00000
    223       6.8210      0.00000
    224       6.8248      0.00000
    225       6.8419      0.00000
    226       6.8898      0.00000
    227       6.9478      0.00000
    228       6.9600      0.00000
    229       6.9605      0.00000
    230       6.9765      0.00000
    231       7.0607      0.00000
    232       7.1619      0.00000
    233       7.1979      0.00000
    234       7.2077      0.00000
    235       7.2302      0.00000
    236       7.2778      0.00000
    237       7.2867      0.00000
    238       7.2916      0.00000
    239       7.2974      0.00000
    240       7.3189      0.00000
    241       7.3203      0.00000
    242       7.3263      0.00000
    243       7.3554      0.00000
    244       7.4191      0.00000
    245       7.5272      0.00000
    246       7.5563      0.00000
    247       7.5906      0.00000
    248       7.6008      0.00000
    249       7.6131      0.00000
    250       7.6167      0.00000
    251       7.6515      0.00000
    252       7.7309      0.00000
    253       7.7734      0.00000
    254       7.8593      0.00000
    255       7.9420      0.00000
    256       7.9436      0.00000


--------------------------------------------------------------------------------------------------------


 soft charge-density along one line, spin component           1
         0         1         2         3         4         5         6         7         8         9
 total charge-density along one line
 
 soft charge-density along one line, spin component           2
         0         1         2         3         4         5         6         7         8         9
 total charge-density along one line
 
 pseudopotential strength for first ion, spin component:           1
 10.222   0.019   0.000  -0.000  -0.000   0.000  -0.000  -0.000
  0.019  -0.002  -0.000   0.000   0.000   0.000  -0.000  -0.000
  0.000  -0.000  -4.339  -0.000  -0.000  -0.019  -0.000  -0.000
 -0.000   0.000  -0.000  -4.318   0.000  -0.000  -0.014   0.000
 -0.000   0.000  -0.000   0.000  -4.338  -0.000   0.000  -0.019
  0.000   0.000  -0.019  -0.000  -0.000  -0.772  -0.000   0.000
 -0.000  -0.000  -0.000  -0.014   0.000  -0.000  -0.772   0.000
 -0.000  -0.000  -0.000   0.000  -0.019   0.000   0.000  -0.772
 pseudopotential strength for first ion, spin component:           2
 10.222   0.019   0.000  -0.000  -0.000   0.000  -0.000  -0.000
  0.019  -0.002  -0.000   0.000   0.000   0.000  -0.000  -0.000
  0.000  -0.000  -4.339  -0.000  -0.000  -0.019  -0.000  -0.000
 -0.000   0.000  -0.000  -4.318   0.000  -0.000  -0.014   0.000
 -0.000   0.000  -0.000   0.000  -4.338  -0.000   0.000  -0.019
  0.000   0.000  -0.019  -0.000  -0.000  -0.772  -0.000   0.000
 -0.000  -0.000  -0.000  -0.014   0.000  -0.000  -0.772   0.000
 -0.000  -0.000  -0.000   0.000  -0.019   0.000   0.000  -0.772
 total augmentation occupancy for first ion, spin component:           1
  1.475  -1.146  -0.003   0.004   0.006  -0.002   0.003   0.004
 -1.146   1.095   0.009  -0.011  -0.016   0.003  -0.004  -0.006
 -0.003   0.009   1.248   0.003   0.009   0.226   0.001  -0.000
  0.004  -0.011   0.003   0.928  -0.005   0.001   0.104  -0.002
  0.006  -0.016   0.009  -0.005   1.238  -0.000  -0.002   0.227
 -0.002   0.003   0.226   0.001  -0.000   0.047   0.000  -0.000
  0.003  -0.004   0.001   0.104  -0.002   0.000   0.013  -0.001
  0.004  -0.006  -0.000  -0.002   0.227  -0.000  -0.001   0.047
 total augmentation occupancy for first ion, spin component:           2
 -0.000   0.000  -0.000   0.000   0.000   0.000   0.000  -0.000
  0.000   0.000  -0.000  -0.000   0.000  -0.000  -0.000   0.000
 -0.000  -0.000  -0.000   0.000   0.000  -0.000  -0.000  -0.000
  0.000  -0.000   0.000  -0.001  -0.000  -0.000  -0.000   0.000
  0.000   0.000   0.000  -0.000  -0.000  -0.000   0.000  -0.000
  0.000  -0.000  -0.000  -0.000  -0.000   0.000  -0.000  -0.000
  0.000  -0.000  -0.000  -0.000   0.000  -0.000   0.000   0.000
 -0.000   0.000  -0.000   0.000  -0.000  -0.000   0.000   0.000


------------------------ aborting loop because EDIFF is reached ----------------------------------------


    CHARGE:  cpu time    1.8666: real time    1.8703
    FORLOC:  cpu time    0.0166: real time    0.0166
    FORNL :  cpu time    2.1968: real time    2.2070
    STRESS:  cpu time    6.5713: real time    6.6010
    FORCOR:  cpu time    1.8508: real time    1.8524
    FORHAR:  cpu time    0.2569: real time    0.2573
    MIXING:  cpu time    0.0247: real time    0.0247
    OFIELD:  cpu time    0.0001: real time    0.0001

 ---------------------------------------------------------------------------------------------

         DFTD3 V3.0 Rev 1        
 Edisp (eV)   -1.73483

 E6    (eV) :    -0.9509
 E8    (eV) :    -0.7839
 % E8        : 45.19
    FORVDW:  cpu time    0.1380: real time    0.1382

  FORCE on cell =-STRESS in cart. coord.  units (eV):
  Direction    XX          YY          ZZ          XY          YZ          ZX
  --------------------------------------------------------------------------------------
  Alpha Z    90.11582    90.11582    90.11582
  Ewald   42265.36541 42190.05005-49687.76043   -65.22503    -0.41654     0.72146
  Hartree 41940.82610 41931.20145-41116.83245    -8.33519    -0.36244     0.62774
  E(xc)    -801.37354  -801.71959  -830.03767    -0.29969     0.00014    -0.00023
  Local  -86406.58987-86340.45635 88163.01487    57.27332     0.77438    -1.34124
  n-local  -303.19879  -309.96971  -296.95085    -5.86378     0.00621    -0.01079
  augment    24.04170    26.75943    26.68765     2.35363     0.00144    -0.00247
  Kinetic  3190.30560  3233.33959  3651.46275    37.26853     0.00420    -0.00727
  Fock        0.00000     0.00000     0.00000     0.00000     0.00000     0.00000
  vdW        -0.43807    -0.41228     0.00216     0.02233    -0.00001     0.00002
  -------------------------------------------------------------------------------------
  Total      -0.94564    18.90842    -0.29816    17.19412     0.00738    -0.01279
  in kB      -0.57818    11.56099    -0.18230    10.51283     0.00451    -0.00782
  external pressure =        3.60 kB  Pullay stress =        0.00 kB


 VOLUME and BASIS-vectors are now :
 -----------------------------------------------------------------------------
  energy-cutoff  :      520.00
  volume of cell :     2620.42
      direct lattice vectors                 reciprocal lattice vectors
    12.300000000  0.000000000  0.000000000     0.081300813  0.046939046  0.000000000
    -6.150000000 10.652112467  0.000000000     0.000000000  0.093878093  0.000000000
     0.000000000  0.000000000 20.000000000     0.000000000  0.000000000  0.050000000

  length of vectors
    12.300000000 12.300000000 20.000000000     0.093878093  0.093878093  0.050000000


 FORCES acting on ions
    electron-ion (+dipol)            ewald-force                    non-local-force                 convergence-correction
 -----------------------------------------------------------------------------------------------
   0.824E+01 -.476E+01 0.378E+02   -.841E+01 0.486E+01 -.379E+02   0.174E+00 -.100E+00 0.842E-01   -.291E-02 0.168E-02 0.153E-02
   0.518E+01 0.769E+01 0.399E+02   -.517E+01 -.803E+01 -.400E+02   -.120E-01 0.332E+00 0.701E-01   0.460E-02 0.712E-03 0.180E-02
   0.404E+01 0.836E+01 0.396E+02   -.433E+01 -.852E+01 -.397E+02   0.289E+00 0.162E+00 0.621E-01   0.130E-02 0.505E-02 0.320E-02
   0.107E+01 0.292E+02 0.306E+02   -.130E+01 -.296E+02 -.307E+02   0.226E+00 0.410E+00 0.145E+00   0.143E-02 -.819E-02 0.118E-02
   -.476E+01 0.180E+02 0.180E+02   0.485E+01 -.184E+02 -.179E+02   -.841E-01 0.354E+00 -.900E-01   -.506E-02 0.485E-02 0.793E-03
   -.166E+02 0.165E+02 0.122E+02   0.169E+02 -.167E+02 -.123E+02   -.301E+00 0.185E+00 0.908E-01   0.331E-02 0.195E-02 0.496E-03
   -.321E+01 0.496E+01 0.110E+02   0.349E+01 -.502E+01 -.111E+02   -.277E+00 0.575E-01 0.781E-01   -.178E-02 0.523E-02 0.535E-04
   -.472E+01 -.174E+01 0.748E+01   0.479E+01 0.186E+01 -.739E+01   -.716E-01 -.116E+00 -.842E-01   -.182E-03 -.583E-03 -.717E-03
   0.612E+01 -.714E+01 0.184E+02   -.611E+01 0.742E+01 -.184E+02   -.919E-02 -.273E+00 0.788E-01   -.125E-02 0.111E-02 0.503E-03
   0.306E+01 -.177E+01 0.245E+02   -.309E+01 0.179E+01 -.245E+02   0.316E-01 -.182E-01 -.507E-01   0.170E-02 -.979E-03 0.122E-02
   0.924E+01 -.172E+01 0.184E+02   -.948E+01 0.158E+01 -.184E+02   0.232E+00 0.145E+00 0.788E-01   -.158E-02 0.530E-03 0.503E-03
   0.180E+02 0.493E+01 0.183E+02   -.184E+02 -.504E+01 -.182E+02   0.342E+00 0.105E+00 -.962E-01   0.998E-03 0.264E-02 0.145E-02
   0.248E+02 0.155E+02 0.311E+02   -.250E+02 -.159E+02 -.312E+02   0.253E+00 0.398E+00 0.155E+00   0.221E-02 0.366E-03 0.612E-03
   0.280E+02 0.555E+02 0.210E+02   -.284E+02 -.590E+02 -.217E+02   0.311E+00 0.345E+01 0.698E+00   0.277E-02 0.110E-02 -.109E-02
   0.340E+02 0.521E+02 0.207E+02   -.368E+02 -.541E+02 -.214E+02   0.283E+01 0.200E+01 0.695E+00   0.105E-02 0.919E-02 0.857E-04
   -.555E+02 0.305E+02 -.235E+01   0.589E+02 -.319E+02 0.197E+01   -.347E+01 0.145E+01 0.391E+00   0.256E-02 -.779E-03 -.200E-02
   -.253E+02 0.146E+02 -.114E+02   0.253E+02 -.146E+02 0.115E+02   0.734E-01 -.424E-01 -.118E+00   -.243E-02 0.140E-02 -.735E-03
   -.433E+01 0.250E+01 0.177E+01   0.415E+01 -.239E+01 -.185E+01   0.181E+00 -.105E+00 0.855E-01   0.621E-03 -.358E-03 -.637E-03
   -.848E+00 0.496E+01 0.748E+01   0.786E+00 -.508E+01 -.739E+01   0.643E-01 0.120E+00 -.842E-01   0.414E-03 0.449E-03 -.718E-03
   -.590E+01 0.302E+00 0.110E+02   0.609E+01 -.515E+00 -.111E+02   -.188E+00 0.211E+00 0.781E-01   -.542E-02 -.107E-02 0.535E-04
   0.594E+01 -.274E+00 0.112E+02   -.613E+01 0.483E+00 -.113E+02   0.194E+00 -.207E+00 0.749E-01   0.374E-02 0.227E-02 0.355E-03
   0.226E+02 -.621E+01 0.126E+02   -.229E+02 0.638E+01 -.127E+02   0.318E+00 -.179E+00 0.906E-01   0.393E-03 0.786E-03 0.612E-03
   0.542E+02 -.328E+02 -.172E+01   -.572E+02 0.351E+02 0.134E+01   0.300E+01 -.228E+01 0.395E+00   -.665E-03 0.183E-02 -.200E-02
   -.541E+02 0.328E+02 -.235E+01   0.571E+02 -.351E+02 0.197E+01   -.299E+01 0.228E+01 0.391E+00   0.195E-02 -.182E-02 -.200E-02
   -.226E+02 0.616E+01 0.122E+02   0.229E+02 -.632E+01 -.123E+02   -.311E+00 0.168E+00 0.908E-01   -.329E-04 -.384E-02 0.496E-03
   -.180E+02 -.490E+01 0.180E+02   0.184E+02 0.500E+01 -.179E+02   -.349E+00 -.104E+00 -.900E-01   -.673E-02 0.195E-02 0.793E-03
   -.920E+01 0.174E+01 0.179E+02   0.943E+01 -.160E+01 -.179E+02   -.232E+00 -.142E+00 0.767E-01   0.583E-02 0.125E-02 0.751E-03
   0.862E+00 -.498E+01 0.793E+01   -.796E+00 0.510E+01 -.784E+01   -.664E-01 -.121E+00 -.822E-01   -.365E-02 -.121E-03 -.757E-03
   0.434E+01 -.251E+01 0.229E+01   -.416E+01 0.240E+01 -.237E+01   -.183E+00 0.106E+00 0.866E-01   0.280E-02 -.161E-02 -.102E-02
   0.253E+02 -.146E+02 -.109E+02   -.253E+02 0.146E+02 0.110E+02   -.705E-01 0.407E-01 -.113E+00   0.541E-03 -.312E-03 -.193E-02
   0.555E+02 -.305E+02 -.172E+01   -.590E+02 0.320E+02 0.134E+01   0.348E+01 -.146E+01 0.395E+00   -.191E-02 -.338E-03 -.200E-02
   -.341E+02 -.520E+02 0.210E+02   0.369E+02 0.540E+02 -.217E+02   -.283E+01 -.199E+01 0.698E+00   0.434E-03 -.295E-02 -.109E-02
   -.281E+02 -.555E+02 0.207E+02   0.284E+02 0.589E+02 -.214E+02   -.320E+00 -.346E+01 0.695E+00   -.743E-02 -.551E-02 0.857E-04
   -.248E+02 -.155E+02 0.306E+02   0.250E+02 0.159E+02 -.307E+02   -.242E+00 -.401E+00 0.145E+00   0.780E-02 0.286E-02 0.118E-02
   -.522E+01 -.768E+01 0.396E+02   0.521E+01 0.801E+01 -.397E+02   0.428E-02 -.332E+00 0.621E-01   -.372E-02 -.364E-02 0.320E-02
   -.828E+01 0.478E+01 0.372E+02   0.846E+01 -.488E+01 -.373E+02   -.179E+00 0.103E+00 0.752E-01   0.514E-02 -.297E-02 0.330E-02
   -.301E+01 0.174E+01 0.236E+02   0.304E+01 -.175E+01 -.235E+02   -.371E-01 0.214E-01 -.613E-01   -.677E-03 0.391E-03 0.255E-02
   -.611E+01 0.710E+01 0.179E+02   0.610E+01 -.737E+01 -.179E+02   0.694E-02 0.272E+00 0.767E-01   0.184E-02 -.568E-02 0.751E-03
   0.475E+01 0.174E+01 0.793E+01   -.482E+01 -.186E+01 -.784E+01   0.717E-01 0.118E+00 -.822E-01   -.172E-02 0.322E-02 -.758E-03
   0.321E+01 -.501E+01 0.112E+02   -.348E+01 0.507E+01 -.113E+02   0.276E+00 -.648E-01 0.749E-01   -.102E-03 -.437E-02 0.354E-03
   0.167E+02 -.164E+02 0.126E+02   -.170E+02 0.166E+02 -.127E+02   0.314E+00 -.186E+00 0.906E-01   -.484E-03 -.733E-03 0.612E-03
   0.474E+01 -.181E+02 0.183E+02   -.482E+01 0.184E+02 -.182E+02   0.804E-01 -.349E+00 -.962E-01   -.179E-02 -.218E-02 0.145E-02
   -.107E+01 -.292E+02 0.311E+02   0.129E+01 0.296E+02 -.312E+02   -.218E+00 -.418E+00 0.155E+00   0.791E-03 -.210E-02 0.612E-03
   -.407E+01 -.833E+01 0.399E+02   0.437E+01 0.850E+01 -.400E+02   -.293E+00 -.155E+00 0.701E-01   0.168E-02 -.434E-02 0.180E-02
   -.468E+02 0.487E+02 -.240E+02   0.471E+02 -.278E+02 0.277E+02   -.238E+00 -.209E+02 -.373E+01   -.793E-02 0.155E-02 -.671E-02
   0.654E+02 -.162E+02 -.234E+02   -.475E+02 0.268E+02 0.272E+02   -.180E+02 -.106E+02 -.374E+01   0.534E-02 0.242E-04 -.543E-02
   -.656E+02 0.162E+02 -.240E+02   0.476E+02 -.269E+02 0.277E+02   0.180E+02 0.106E+02 -.373E+01   -.531E-02 0.609E-02 -.671E-02
   0.467E+02 -.486E+02 -.234E+02   -.470E+02 0.277E+02 0.272E+02   0.233E+00 0.209E+02 -.374E+01   0.265E-02 -.464E-02 -.543E-02
   0.141E+00 -.814E-01 -.635E+03   -.129E+00 0.746E-01 0.628E+03   -.713E-02 0.412E-02 0.717E+01   -.466E-02 0.269E-02 -.500E-02
 -----------------------------------------------------------------------------------------------
   0.235E-01 -.136E-01 0.233E+01   -.425E-13 -.708E-13 0.227E-12   -.331E-02 0.191E-02 -.229E+01   -.355E-02 0.205E-02 -.143E-01
 
 
 POSITION                                       TOTAL-FORCE (eV/Angst)
 -----------------------------------------------------------------------------------
     12.28619      0.00797     14.83547        -0.005186      0.002993     -0.005255
      1.21888      0.68969     14.84356        -0.000502     -0.003082     -0.007367
     -3.70238     10.63219     14.84465        -0.002003      0.006323     -0.016774
      3.67510      0.67333     14.92204         0.003117     -0.009269     -0.010664
     -1.23327     10.62663     14.94277         0.007138      0.003167     -0.003242
      6.13228      0.70624     14.99356         0.002466     -0.008189     -0.006155
      7.36964      0.00450     14.97218         0.002750      0.001427     -0.000476
      8.58470      0.73628     14.97085        -0.000307     -0.000534      0.005362
      9.82188      0.02347     14.92112        -0.002367      0.008477     -0.001013
     11.05363      0.71959     14.88438        -0.002616      0.001510     -0.008291
     11.04061      2.13438     14.92112        -0.008524     -0.002188     -0.001012
     -0.02058      2.82519     14.94090        -0.006808      0.001800     -0.008915
      1.20551      2.09923     14.92022        -0.008013     -0.000338     -0.002271
      2.41796      2.79045     15.04549        -0.005922     -0.005586      0.005019
      3.66730      2.06920     15.04666        -0.000042     -0.004146      0.000326
      6.07445      2.13000     15.09950        -0.001247      0.000893      0.009390
      7.30402      2.88443     15.09348         0.003043     -0.001757      0.000717
      8.55291      2.16338     15.00951        -0.002533      0.001462      0.001614
      9.80471      2.84940     14.97085         0.000310      0.000534      0.005362
      9.83092      4.26757     14.97218         0.000140     -0.003095     -0.000476
     -1.22109      4.96440     14.97132         0.005549      0.005166     -0.003566
      0.00527      4.24350     14.99161        -0.000559     -0.004337     -0.005507
      1.26752      4.90528     15.09693         0.000436     -0.000293      0.011085
      7.34259      4.32648     15.09950        -0.001396      0.000633      0.009389
      8.60452      4.98828     14.99356         0.008326      0.001959     -0.006156
     -3.66957      6.40684     14.94277         0.000827     -0.007766     -0.003241
     -2.43056      7.09733     14.92295         0.007229      0.003907     -0.001576
     -1.19452      6.38238     14.96978        -0.002475      0.000850      0.004624
      0.05734      7.06831     15.00758        -0.000094      0.000054      0.004270
      1.30617      6.34729     15.09107         0.000462     -0.000267      0.009398
      2.53566      7.10177     15.09693         0.000471     -0.000230      0.011085
      4.94238      7.16287     15.04549         0.001876      0.007922      0.005019
      6.19167      6.44154     15.04666         0.003570      0.002109      0.000325
      7.40443      7.13272     14.92204         0.009586      0.001934     -0.010664
     -4.90894      8.54237     14.84465        -0.006478     -0.001428     -0.016774
     -3.67601      9.22375     14.83770         0.000748     -0.000433     -0.014254
     -2.44335      8.51208     14.88743        -0.005402      0.003118     -0.016767
     -1.21175      9.20838     14.92295         0.000231     -0.008213     -0.001576
      0.02543      8.49541     14.96978        -0.001974      0.001719      0.004625
      1.24016      9.22741     14.97132        -0.001699     -0.007388     -0.003565
      2.47766      8.52580     14.99161         0.003476      0.002653     -0.005507
      3.69302      9.25734     14.94090        -0.004963      0.004997     -0.008915
      4.93476      8.55850     14.92022        -0.003714      0.007109     -0.002270
      6.16215      9.25168     14.84356         0.002418      0.001973     -0.007367
      4.85531      2.74405     15.21132        -0.001384     -0.002743      0.020990
      2.40854      4.15675     15.20947         0.002636     -0.007881      0.020883
      6.20124      5.07526     15.21132         0.001685      0.002571      0.020989
      3.75442      6.48788     15.20947         0.008143      0.001658      0.020882
      4.30467      4.61610     15.69959        -0.000423      0.000245      0.008262
 -----------------------------------------------------------------------------------
    total drift:                                0.016638     -0.009605      0.029907


--------------------------------------------------------------------------------------------------------



  FREE ENERGIE OF THE ION-ELECTRON SYSTEM (eV)
  ---------------------------------------------------
  free  energy   TOTEN  =      -446.13507154 eV

  energy  without entropy=     -446.13421829  energy(sigma->0) =     -446.13464491
 
 d Force = 0.1608972E-03[ 0.362E-04, 0.286E-03]  d Energy = 0.1580091E-03 0.289E-05
 d Force = 0.1639560E+00[ 0.164E+00, 0.164E+00]  d Ewald  = 0.1639561E+00-0.659E-07


--------------------------------------------------------------------------------------------------------


    POTLOK:  cpu time    2.7487: real time    2.7529


--------------------------------------------------------------------------------------------------------


 stress matrix after NEB project (eV)
     -0.94564     17.19412     -0.01279
     17.19412     18.90842      0.00739
     -0.01278      0.00738     -0.29816
  FORCES: max atom, RMS     0.022476    0.011112
  FORCE total and by dimension    0.077782    0.020990
  Stress total and by dimension   30.818623   18.908421
 Quasi-Newton relaxation of ions (Broydens 2nd method)
  g(Force)  = 0.117E-03   g(Stress)= 0.000E+00

 retain information from N=  2 steps
 eigenvalues of (default step * inverse Hessian matrix)
  average eigenvalue of G=   2.0967
 eigenvalue spectrum of G is  0.5001  3.6932


--------------------------------------------------------------------------------------------------------


  
 reached required accuracy - stopping structural energy minimisation
 writing wavefunctions
     LOOP+:  cpu time  242.9757: real time  261.9879
    4ORBIT:  cpu time    0.0000: real time    0.0000

 total amount of memory used by VASP MPI-rank0   181298. kBytes
=======================================================================

   base      :      30000. kBytes
   nonlr-proj:      17135. kBytes
   fftplans  :       7547. kBytes
   grid      :     115983. kBytes
   one-center:       1524. kBytes
   wavefun   :       9109. kBytes
 
  
  
 General timing and accounting informations for this job:
 ========================================================
  
                  Total CPU time used (sec):     2317.259
                            User time (sec):     2243.143
                          System time (sec):       74.116
                         Elapsed time (sec):     2342.880
  
                   Maximum memory used (kb):      453336.
                   Average memory used (kb):           0.
  
                          Minor page faults:       915498
                          Major page faults:            6
                 Voluntary context switches:         4553
