C  N  V                                 
   1.00000000000000     
    12.3000000000000007    0.0000000000000000    0.0000000000000000
    -6.1499999999999977   10.6521124665485960    0.0000000000000000
     0.0000000000000000    0.0000000000000000   20.0000000000000000
   C    N    V 
    44     4     1
Direct
  0.9992732437731152  0.0007267907913053  0.7417782541226829
  0.1314620717972865  0.0647238801918745  0.7421863257893545
  0.1980443641010865  0.9981118860299261  0.7422612501330350
  0.3303890955267506  0.0632618416612069  0.7461197222757154
  0.3985567197243096  0.9976561580786136  0.7471413473763195
  0.5316768795195366  0.0662756789281637  0.7496933254896682
  0.5993594858667973  0.0004010181132328  0.7486061537857412
  0.7324915514072855  0.0691276244245470  0.7485327800690398
  0.7996013255801410  0.0021474544883686  0.7460536860935822
  0.9324601233703798  0.0675398898386100  0.7442360411887315
  0.9978525363260927  0.2003986810259386  0.7460536870535340
  0.1310002410477371  0.2652483035906787  0.7470647124872983
  0.1965668323855519  0.1970676212623149  0.7460127618090292
  0.3275894345118385  0.2619880176193413  0.7522681632103785
  0.3952726150687351  0.1942274423979670  0.7523331199052560
  0.5938219953844849  0.1999673275436341  0.7549570891552210
  0.7292249191912482  0.2707750801350444  0.7546781339991293
  0.7968873386670323  0.2031126517719984  0.7504744846197543
  0.9308723602602594  0.2675084485309748  0.7485327787792896
  0.9995989564233120  0.4006405130809026  0.7486061499994977
  0.1337055590923538  0.4660363121153725  0.7485722951577235
  0.1995928206935215  0.3983858818761289  0.7495895548251483
  0.3332791058785481  0.4604904413221155  0.7548277287487405
  0.8000326602104669  0.4061780035543746  0.7549570918289183
  0.9337243006356787  0.4683231213279135  0.7496933214798580
  0.0023438307234712  0.6014432872635617  0.7471413340069673
  0.1354730759909681  0.6662361457215047  0.7461484272881601
  0.2024818259158234  0.5991311113640303  0.7484798148606674
  0.3364542661574691  0.6635457239842411  0.7503734400777635
  0.4041318772137019  0.5958681206801738  0.7545417743392991
  0.5395095573366594  0.6667208804250703  0.7548277264481470
  0.7380119792974710  0.6724105583636477  0.7522681535439507
  0.8057725518336296  0.6047273857604304  0.7523331173341079
  0.9367381610163705  0.6696109236238119  0.7461197206334885
  0.0018881443757940  0.8019556680354553  0.7422612463607171
  0.1340803548014353  0.8659196811730966  0.7418995568834734
  0.2009037160774394  0.7990962989192298  0.7444031715109943
  0.3337638640162354  0.8645269172027030  0.7461484377055502
  0.4008688877052325  0.7975181576739402  0.7484798182403524
  0.5339636850655696  0.8662944136955150  0.7485722919942550
  0.6016141166926677  0.8004071563059680  0.7495895475778976
  0.7347517004328373  0.8689997456738205  0.7470647078941023
  0.8029323948846795  0.8034331694427422  0.7460127516103596
  0.9352761520739761  0.8685379616021180  0.7421863242154989
  0.5235702880855917  0.2576157366955150  0.7605323388728621
  0.3909462852793751  0.3902569893054200  0.7604402889574650
  0.7423842490415971  0.4764297091818745  0.7605323360200196
  0.6097430058619921  0.6090536986257181  0.7604402872789229
  0.5666514936764386  0.4333484895798607  0.7849704269623433
 
  0.00000000E+00  0.00000000E+00  0.00000000E+00
  0.00000000E+00  0.00000000E+00  0.00000000E+00
  0.00000000E+00  0.00000000E+00  0.00000000E+00
  0.00000000E+00  0.00000000E+00  0.00000000E+00
  0.00000000E+00  0.00000000E+00  0.00000000E+00
  0.00000000E+00  0.00000000E+00  0.00000000E+00
  0.00000000E+00  0.00000000E+00  0.00000000E+00
  0.00000000E+00  0.00000000E+00  0.00000000E+00
  0.00000000E+00  0.00000000E+00  0.00000000E+00
  0.00000000E+00  0.00000000E+00  0.00000000E+00
  0.00000000E+00  0.00000000E+00  0.00000000E+00
  0.00000000E+00  0.00000000E+00  0.00000000E+00
  0.00000000E+00  0.00000000E+00  0.00000000E+00
  0.00000000E+00  0.00000000E+00  0.00000000E+00
  0.00000000E+00  0.00000000E+00  0.00000000E+00
  0.00000000E+00  0.00000000E+00  0.00000000E+00
  0.00000000E+00  0.00000000E+00  0.00000000E+00
  0.00000000E+00  0.00000000E+00  0.00000000E+00
  0.00000000E+00  0.00000000E+00  0.00000000E+00
  0.00000000E+00  0.00000000E+00  0.00000000E+00
  0.00000000E+00  0.00000000E+00  0.00000000E+00
  0.00000000E+00  0.00000000E+00  0.00000000E+00
  0.00000000E+00  0.00000000E+00  0.00000000E+00
  0.00000000E+00  0.00000000E+00  0.00000000E+00
  0.00000000E+00  0.00000000E+00  0.00000000E+00
  0.00000000E+00  0.00000000E+00  0.00000000E+00
  0.00000000E+00  0.00000000E+00  0.00000000E+00
  0.00000000E+00  0.00000000E+00  0.00000000E+00
  0.00000000E+00  0.00000000E+00  0.00000000E+00
  0.00000000E+00  0.00000000E+00  0.00000000E+00
  0.00000000E+00  0.00000000E+00  0.00000000E+00
  0.00000000E+00  0.00000000E+00  0.00000000E+00
  0.00000000E+00  0.00000000E+00  0.00000000E+00
  0.00000000E+00  0.00000000E+00  0.00000000E+00
  0.00000000E+00  0.00000000E+00  0.00000000E+00
  0.00000000E+00  0.00000000E+00  0.00000000E+00
  0.00000000E+00  0.00000000E+00  0.00000000E+00
  0.00000000E+00  0.00000000E+00  0.00000000E+00
  0.00000000E+00  0.00000000E+00  0.00000000E+00
  0.00000000E+00  0.00000000E+00  0.00000000E+00
  0.00000000E+00  0.00000000E+00  0.00000000E+00
  0.00000000E+00  0.00000000E+00  0.00000000E+00
  0.00000000E+00  0.00000000E+00  0.00000000E+00
  0.00000000E+00  0.00000000E+00  0.00000000E+00
  0.00000000E+00  0.00000000E+00  0.00000000E+00
  0.00000000E+00  0.00000000E+00  0.00000000E+00
  0.00000000E+00  0.00000000E+00  0.00000000E+00
  0.00000000E+00  0.00000000E+00  0.00000000E+00
  0.00000000E+00  0.00000000E+00  0.00000000E+00
