C  N  Zr                                
   1.00000000000000     
    12.3000000000000007    0.0000000000000000    0.0000000000000000
    -6.1499999999999977   10.6521124665485960    0.0000000000000000
     0.0000000000000000    0.0000000000000000   20.0000000000000000
   C    N    Zr
    44     4     1
Direct
  0.9993725105426421  0.0006274804716568  0.7498537129565221
  0.1319947977749081  0.0654720626439271  0.7503557917380235
  0.1987970063726507  0.9986697034386580  0.7503453074226627
  0.3307887116532271  0.0638147082476053  0.7502879278184267
  0.3986045256938553  0.9980036051497834  0.7485112490923598
  0.5323074280203386  0.0669210712271209  0.7473227436988452
  0.5997697463191898  0.0006080887859241  0.7464085187574270
  0.7324972261728036  0.0684911688844778  0.7468870100195630
  0.7996785047281634  0.0012738481833665  0.7478872503121394
  0.9327885776303404  0.0672114229937648  0.7487416809409737
  0.9987261548492441  0.2003214983519470  0.7478872520760476
  0.1313411927791108  0.2652849359970233  0.7485112445309952
  0.1971478288377213  0.1974668873673338  0.7502546305979010
  0.3297718965572898  0.2637345638706137  0.7513567584882566
  0.3970371248006828  0.1964481664364115  0.7514166541693328
  0.5955226004484260  0.2001961398156240  0.7490205474229583
  0.7299817939605830  0.2700182079902760  0.7482160248231935
  0.7976560429773869  0.2023439657965369  0.7470896567659864
  0.9315088401776066  0.2675027834579069  0.7468870107684609
  0.9993919209783613  0.4002302636757378  0.7464085180149027
  0.1339685682669653  0.4664684482991746  0.7463969899081064
  0.2002626608855849  0.3989775679060159  0.7473037603615040
  0.3335554671028120  0.4622051044222033  0.7490347679459646
  0.7998038612608767  0.4044773996952173  0.7490205482997112
  0.9330789325302149  0.4676925755801378  0.7473227420695139
  0.0019963965903500  0.6013954762265570  0.7485112442893680
  0.1346101563236388  0.6663348245186285  0.7478620492321397
  0.2018298072046107  0.5991710902907528  0.7468599219633774
  0.3356658221381821  0.6643341872510504  0.7470931890567698
  0.4033397482117564  0.5966602536534751  0.7482689974414143
  0.5377948956463072  0.6664445339901661  0.7490347683100893
  0.7362654286677497  0.6702280960759595  0.7513567556540295
  0.8035518258403087  0.6029628675032157  0.7514166517054832
  0.9361852843604623  0.6692112811545528  0.7502879251243542
  0.0013302871340741  0.8012029840604526  0.7503453049341715
  0.1339616547372202  0.8660383371206493  0.7498186091046364
  0.2005511500000523  0.7994488517658098  0.7487199057714662
  0.3336651800516961  0.8653898476979478  0.7478620533965668
  0.4008289205326534  0.7981702026233890  0.7468599239657436
  0.5335315621182062  0.8660314417369435  0.7463969902805800
  0.6010224356802425  0.7997373427312056  0.7473037587348443
  0.7347150655806161  0.8686588085908511  0.7485112435736667
  0.8025331054921736  0.8028521638546238  0.7502546282684150
  0.9345279278924394  0.8680051922818990  0.7503557910890706
  0.5267987028483603  0.2609949579293271  0.7531705242813729
  0.3943377114047948  0.3934845739346571  0.7531568587242390
  0.7390050368381011  0.4732012911003807  0.7531705247556673
  0.6065154204064740  0.6056622844429569  0.7531568600596685
  0.5666715529785975  0.4333284407761084  0.7984962212830951
 
  0.00000000E+00  0.00000000E+00  0.00000000E+00
  0.00000000E+00  0.00000000E+00  0.00000000E+00
  0.00000000E+00  0.00000000E+00  0.00000000E+00
  0.00000000E+00  0.00000000E+00  0.00000000E+00
  0.00000000E+00  0.00000000E+00  0.00000000E+00
  0.00000000E+00  0.00000000E+00  0.00000000E+00
  0.00000000E+00  0.00000000E+00  0.00000000E+00
  0.00000000E+00  0.00000000E+00  0.00000000E+00
  0.00000000E+00  0.00000000E+00  0.00000000E+00
  0.00000000E+00  0.00000000E+00  0.00000000E+00
  0.00000000E+00  0.00000000E+00  0.00000000E+00
  0.00000000E+00  0.00000000E+00  0.00000000E+00
  0.00000000E+00  0.00000000E+00  0.00000000E+00
  0.00000000E+00  0.00000000E+00  0.00000000E+00
  0.00000000E+00  0.00000000E+00  0.00000000E+00
  0.00000000E+00  0.00000000E+00  0.00000000E+00
  0.00000000E+00  0.00000000E+00  0.00000000E+00
  0.00000000E+00  0.00000000E+00  0.00000000E+00
  0.00000000E+00  0.00000000E+00  0.00000000E+00
  0.00000000E+00  0.00000000E+00  0.00000000E+00
  0.00000000E+00  0.00000000E+00  0.00000000E+00
  0.00000000E+00  0.00000000E+00  0.00000000E+00
  0.00000000E+00  0.00000000E+00  0.00000000E+00
  0.00000000E+00  0.00000000E+00  0.00000000E+00
  0.00000000E+00  0.00000000E+00  0.00000000E+00
  0.00000000E+00  0.00000000E+00  0.00000000E+00
  0.00000000E+00  0.00000000E+00  0.00000000E+00
  0.00000000E+00  0.00000000E+00  0.00000000E+00
  0.00000000E+00  0.00000000E+00  0.00000000E+00
  0.00000000E+00  0.00000000E+00  0.00000000E+00
  0.00000000E+00  0.00000000E+00  0.00000000E+00
  0.00000000E+00  0.00000000E+00  0.00000000E+00
  0.00000000E+00  0.00000000E+00  0.00000000E+00
  0.00000000E+00  0.00000000E+00  0.00000000E+00
  0.00000000E+00  0.00000000E+00  0.00000000E+00
  0.00000000E+00  0.00000000E+00  0.00000000E+00
  0.00000000E+00  0.00000000E+00  0.00000000E+00
  0.00000000E+00  0.00000000E+00  0.00000000E+00
  0.00000000E+00  0.00000000E+00  0.00000000E+00
  0.00000000E+00  0.00000000E+00  0.00000000E+00
  0.00000000E+00  0.00000000E+00  0.00000000E+00
  0.00000000E+00  0.00000000E+00  0.00000000E+00
  0.00000000E+00  0.00000000E+00  0.00000000E+00
  0.00000000E+00  0.00000000E+00  0.00000000E+00
  0.00000000E+00  0.00000000E+00  0.00000000E+00
  0.00000000E+00  0.00000000E+00  0.00000000E+00
  0.00000000E+00  0.00000000E+00  0.00000000E+00
  0.00000000E+00  0.00000000E+00  0.00000000E+00
  0.00000000E+00  0.00000000E+00  0.00000000E+00
