       N       E                     dE             d eps       ncg     rms          ort
DAV:   1     0.100050624307E+04    0.10005E+04   -0.89150E+04  3328   0.678E+02
DAV:   2    -0.367792468610E+03   -0.13683E+04   -0.13680E+04  3328   0.970E+01
DAV:   3    -0.445059923474E+03   -0.77267E+02   -0.77249E+02  3328   0.365E+01
DAV:   4    -0.446143772533E+03   -0.10838E+01   -0.10838E+01  3328   0.468E+00
DAV:   5    -0.446144162921E+03   -0.39039E-03   -0.39039E-03  3328   0.828E-02
SDA:   6    -0.446144162921E+03   -0.72760E-11   -0.39039E-03  3328   0.251E-04 0.000E+00
   1 F= -.44788905E+03 E0= -.44788454E+03  d E =-.901199E-02  mag=     0.7756
