       N       E                     dE             d eps       ncg     rms          ort
DAV:   1     0.108301601645E+04    0.10830E+04   -0.89415E+04  3328   0.680E+02
DAV:   2    -0.363617059295E+03   -0.14466E+04   -0.14462E+04  3328   0.111E+02
DAV:   3    -0.444935022482E+03   -0.81318E+02   -0.81308E+02  3328   0.385E+01
DAV:   4    -0.446303668092E+03   -0.13686E+01   -0.13685E+01  3328   0.531E+00
DAV:   5    -0.446305024477E+03   -0.13564E-02   -0.13564E-02  3328   0.123E-01
SDA:   6    -0.446305024477E+03    0.00000E+00   -0.13564E-02  3328   0.676E-04 0.000E+00
CGA:   7    -0.446305034747E+03   -0.10270E-04   -0.10270E-04  3328   0.423E-04-0.354E-09
CGA:   8    -0.446305040017E+03   -0.52700E-05   -0.52701E-05  3328   0.168E-04 0.253E-09
   1 F= -.44803965E+03 E0= -.44803365E+03  d E =-.119906E-01  mag=     2.3320
