C  N  Rb                                
   1.00000000000000     
    12.3000000000000007    0.0000000000000000    0.0000000000000000
    -6.1499999999999977   10.6521124665485960    0.0000000000000000
     0.0000000000000000    0.0000000000000000   20.0000000000000000
   C    N    Rb
    44     4     1
Direct
  0.9995485447832732  0.0004514844281720  0.7419712046942906
  0.1322038248055426  0.0656126215135436  0.7421859807865885
  0.1988984890544321  0.9988949752344792  0.7421620637243777
  0.3318507817767052  0.0648911561486678  0.7448463736585200
  0.3988630407487818  0.9981404907376755  0.7455855657252758
  0.5315352930001346  0.0662360648701421  0.7476943250475984
  0.5993378344703623  0.0002815954961972  0.7470382061485560
  0.7322572825905297  0.0689346468933022  0.7472531804828345
  0.7996634513913997  0.0022601565518458  0.7452026063547516
  0.9324141473810523  0.0675858637273334  0.7439087367985942
  0.9977398299338471  0.2003365557820608  0.7452026119843053
  0.1315051726125274  0.2655736900389541  0.7456157096458916
  0.1982010718566068  0.1985170632822751  0.7449737241429070
  0.3309631600271820  0.2671381900373241  0.7504854308809523
  0.4004818819437538  0.1976194689921788  0.7504274092819461
  0.5929485522731763  0.2004012099880161  0.7523907697163831
  0.7291618982991733  0.2708380970602083  0.7527166791112682
  0.7965058694562441  0.2034941194410836  0.7490688594908081
  0.9310653368446170  0.2677427216316475  0.7472531823386408
  0.9997183790671544  0.4006621716848740  0.7470382037540045
  0.1336504061764043  0.4660333214421487  0.7469966627498570
  0.1995767815772495  0.3982159146075130  0.7476398652649816
  0.3337532739038602  0.4595933159686589  0.7524085837767122
  0.7995987753080206  0.4070514473979686  0.7523907679558628
  0.9337639183532406  0.4684647199711430  0.7476943221166340
  0.0018594996891133  0.6011369766907819  0.7455855475073688
  0.1356047410182904  0.6663249333332758  0.7451922731619908
  0.2022993144382598  0.5989499633521741  0.7471520227004490
  0.3368500185518245  0.6631499678348455  0.7490189004875137
  0.4041859067697899  0.5958140830110507  0.7526934683951498
  0.5404066784199075  0.6662467035639219  0.7524085795888734
  0.7328618081171797  0.6690368293286532  0.7504854182736677
  0.8023805258603448  0.5995181182189200  0.7504273997849893
  0.9351088450760046  0.6681492416363771  0.7448463602907723
  0.0011050538950915  0.8011015441339847  0.7421620516948586
  0.1337552070573500  0.8662448266144521  0.7420492443496544
  0.2009069624497397  0.7990930526507092  0.7439847132117318
  0.3336750785284795  0.8643952517762159  0.7451922918314055
  0.4010500391254335  0.7977006685795104  0.7471520308292163
  0.5339666818359156  0.8663495667706453  0.7469966655361423
  0.6017840916489328  0.8004231950816659  0.7476398615541240
  0.7344263202512995  0.8684948113794376  0.7456157012214399
  0.8014829541524066  0.8017989237106333  0.7449737084987560
  0.9343874086957533  0.8677962043341260  0.7421859722896467
  0.5258995446309285  0.2602904959564948  0.7566368208632981
  0.3936049996623550  0.3925432312378224  0.7566605740394342
  0.7397094869241616  0.4741004510253994  0.7566368120006415
  0.6074567626723747  0.6063949775096374  0.7566605617411210
  0.5666170728938242  0.4333829193418276  0.8584929945152302
 
  0.00000000E+00  0.00000000E+00  0.00000000E+00
  0.00000000E+00  0.00000000E+00  0.00000000E+00
  0.00000000E+00  0.00000000E+00  0.00000000E+00
  0.00000000E+00  0.00000000E+00  0.00000000E+00
  0.00000000E+00  0.00000000E+00  0.00000000E+00
  0.00000000E+00  0.00000000E+00  0.00000000E+00
  0.00000000E+00  0.00000000E+00  0.00000000E+00
  0.00000000E+00  0.00000000E+00  0.00000000E+00
  0.00000000E+00  0.00000000E+00  0.00000000E+00
  0.00000000E+00  0.00000000E+00  0.00000000E+00
  0.00000000E+00  0.00000000E+00  0.00000000E+00
  0.00000000E+00  0.00000000E+00  0.00000000E+00
  0.00000000E+00  0.00000000E+00  0.00000000E+00
  0.00000000E+00  0.00000000E+00  0.00000000E+00
  0.00000000E+00  0.00000000E+00  0.00000000E+00
  0.00000000E+00  0.00000000E+00  0.00000000E+00
  0.00000000E+00  0.00000000E+00  0.00000000E+00
  0.00000000E+00  0.00000000E+00  0.00000000E+00
  0.00000000E+00  0.00000000E+00  0.00000000E+00
  0.00000000E+00  0.00000000E+00  0.00000000E+00
  0.00000000E+00  0.00000000E+00  0.00000000E+00
  0.00000000E+00  0.00000000E+00  0.00000000E+00
  0.00000000E+00  0.00000000E+00  0.00000000E+00
  0.00000000E+00  0.00000000E+00  0.00000000E+00
  0.00000000E+00  0.00000000E+00  0.00000000E+00
  0.00000000E+00  0.00000000E+00  0.00000000E+00
  0.00000000E+00  0.00000000E+00  0.00000000E+00
  0.00000000E+00  0.00000000E+00  0.00000000E+00
  0.00000000E+00  0.00000000E+00  0.00000000E+00
  0.00000000E+00  0.00000000E+00  0.00000000E+00
  0.00000000E+00  0.00000000E+00  0.00000000E+00
  0.00000000E+00  0.00000000E+00  0.00000000E+00
  0.00000000E+00  0.00000000E+00  0.00000000E+00
  0.00000000E+00  0.00000000E+00  0.00000000E+00
  0.00000000E+00  0.00000000E+00  0.00000000E+00
  0.00000000E+00  0.00000000E+00  0.00000000E+00
  0.00000000E+00  0.00000000E+00  0.00000000E+00
  0.00000000E+00  0.00000000E+00  0.00000000E+00
  0.00000000E+00  0.00000000E+00  0.00000000E+00
  0.00000000E+00  0.00000000E+00  0.00000000E+00
  0.00000000E+00  0.00000000E+00  0.00000000E+00
  0.00000000E+00  0.00000000E+00  0.00000000E+00
  0.00000000E+00  0.00000000E+00  0.00000000E+00
  0.00000000E+00  0.00000000E+00  0.00000000E+00
  0.00000000E+00  0.00000000E+00  0.00000000E+00
  0.00000000E+00  0.00000000E+00  0.00000000E+00
  0.00000000E+00  0.00000000E+00  0.00000000E+00
  0.00000000E+00  0.00000000E+00  0.00000000E+00
  0.00000000E+00  0.00000000E+00  0.00000000E+00
