       N       E                     dE             d eps       ncg     rms          rms(c)
DAV:   1    -0.470542898686E+03   -0.47054E+03   -0.11734E+02  8192   0.121E+01    0.280E+01
DAV:   2    -0.447448196289E+03    0.23095E+02   -0.33248E+01  6656   0.699E+00    0.143E+01
DAV:   3    -0.439255420061E+03    0.81928E+01   -0.18550E+01  6144   0.518E+00    0.390E+00
DAV:   4    -0.438708888633E+03    0.54653E+00   -0.15831E+00  8192   0.156E+00    0.182E+00
DAV:   5    -0.438519878929E+03    0.18901E+00   -0.14535E-01  8192   0.506E-01    0.649E-01
DAV:   6    -0.438472436656E+03    0.47442E-01   -0.36365E-02  7424   0.224E-01    0.368E-01
DAV:   7    -0.438460058008E+03    0.12379E-01   -0.23601E-02  7680   0.162E-01    0.279E-01
DAV:   8    -0.438444273793E+03    0.15784E-01   -0.35977E-02  8192   0.188E-01    0.159E-01
DAV:   9    -0.438441548952E+03    0.27248E-02   -0.67092E-03  6400   0.802E-02    0.104E-01
DAV:  10    -0.438461429466E+03   -0.19881E-01   -0.23215E-03  8192   0.429E-02    0.674E-02
DAV:  11    -0.438480667544E+03   -0.19238E-01   -0.22223E-03  7168   0.402E-02    0.337E-02
DAV:  12    -0.438489146162E+03   -0.84786E-02   -0.72721E-04  7424   0.221E-02    0.223E-02
DAV:  13    -0.438493565175E+03   -0.44190E-02   -0.38115E-04  7424   0.153E-02    0.115E-02
DAV:  14    -0.438495574916E+03   -0.20097E-02   -0.17296E-04  6912   0.987E-03    0.589E-03
DAV:  15    -0.438496234093E+03   -0.65918E-03   -0.44652E-05  6656   0.509E-03    0.383E-03
DAV:  16    -0.438496541649E+03   -0.30756E-03   -0.20971E-05  7168   0.339E-03    0.245E-03
DAV:  17    -0.438496741146E+03   -0.19950E-03   -0.12783E-05  7680   0.231E-03    0.167E-03
DAV:  18    -0.438496821372E+03   -0.80226E-04   -0.29247E-06  7424   0.108E-03    0.119E-03
DAV:  19    -0.438496880187E+03   -0.58814E-04   -0.67884E-07  7168   0.596E-04    0.732E-04
DAV:  20    -0.438496918820E+03   -0.38633E-04   -0.45567E-07  7936   0.443E-04    0.380E-04
DAV:  21    -0.438496931122E+03   -0.12302E-04   -0.11844E-07  6400   0.252E-04    0.220E-04
DAV:  22    -0.438496935723E+03   -0.46006E-05   -0.53816E-08  6656   0.160E-04
   1 F= -.44027729E+03 E0= -.44027155E+03  d E =-.440277E+03  mag=     0.0002
       N       E                     dE             d eps       ncg     rms          rms(c)
DAV:   1    -0.438497665164E+03   -0.73404E-03   -0.44211E-02  8192   0.333E-01    0.425E-02
DAV:   2    -0.438497645997E+03    0.19167E-04   -0.30701E-04  6144   0.289E-02    0.227E-02
DAV:   3    -0.438497646159E+03   -0.16170E-06   -0.27507E-05  8192   0.808E-03
   2 F= -.44027798E+03 E0= -.44027229E+03  d E =-.690217E-03  mag=     0.0001
       N       E                     dE             d eps       ncg     rms          rms(c)
DAV:   1    -0.438497946623E+03   -0.30063E-03   -0.18281E-02  7680   0.211E-01    0.291E-02
DAV:   2    -0.438497937393E+03    0.92299E-05   -0.15198E-04  6656   0.206E-02    0.157E-02
DAV:   3    -0.438497936829E+03    0.56417E-06   -0.13567E-05  7168   0.566E-03
   3 F= -.44027820E+03 E0= -.44027252E+03  d E =-.227556E-03  mag=     0.0000
