       N       E                     dE             d eps       ncg     rms          ort
DAV:   1     0.101366552879E+04    0.10137E+04   -0.86601E+04  3328   0.663E+02
DAV:   2    -0.370015740217E+03   -0.13837E+04   -0.13834E+04  3328   0.100E+02
DAV:   3    -0.445206312154E+03   -0.75191E+02   -0.75188E+02  3328   0.360E+01
DAV:   4    -0.445919658281E+03   -0.71335E+00   -0.71333E+00  3328   0.379E+00
DAV:   5    -0.445919775840E+03   -0.11756E-03   -0.11756E-03  3328   0.595E-02
SDA:   6    -0.445919775840E+03    0.00000E+00   -0.11756E-03  3328   0.170E-05 0.000E+00
   1 F= -.44778131E+03 E0= -.44778043E+03  d E =-.176915E-02  mag=     0.0178
