       N       E                     dE             d eps       ncg     rms          ort
SDA:   1    -0.333742449017E+03   -0.33374E+03    0.00000E+00  3328   0.156E+03 0.000E+00
CGA:   2    -0.376273244286E+03   -0.42531E+02   -0.42164E+02  3328   0.266E+03 0.177E+01
CGA:   3    -0.421022225508E+03   -0.44749E+02   -0.45644E+02  3328   0.678E+02 0.878E+01
CGA:   4    -0.432068095337E+03   -0.11046E+02   -0.11131E+02  3328   0.375E+02 0.530E+00
CGA:   5    -0.439286917157E+03   -0.72188E+01   -0.72286E+01  3328   0.179E+02 0.482E+00
CGA:   6    -0.442622948029E+03   -0.33360E+01   -0.33422E+01  3328   0.818E+01 0.120E+00
CGA:   7    -0.444279673875E+03   -0.16567E+01   -0.16568E+01  3328   0.305E+01-0.320E-01
CGA:   8    -0.444945913348E+03   -0.66624E+00   -0.66611E+00  3328   0.129E+01 0.500E-02
CGA:   9    -0.445233941998E+03   -0.28803E+00   -0.28796E+00  3328   0.511E+00 0.321E-02
CGA:  10    -0.445354038661E+03   -0.12010E+00   -0.12004E+00  3328   0.193E+00 0.169E-02
CGA:  11    -0.445405495443E+03   -0.51457E-01   -0.51400E-01  3328   0.846E-01 0.871E-03
CGA:  12    -0.445428513944E+03   -0.23019E-01   -0.23000E-01  3328   0.364E-01 0.240E-03
CGA:  13    -0.445439472496E+03   -0.10959E-01   -0.10956E-01  3328   0.167E-01 0.152E-04
CGA:  14    -0.445444443527E+03   -0.49710E-02   -0.49750E-02  3328   0.669E-02-0.270E-04
CGA:  15    -0.445446569240E+03   -0.21257E-02   -0.21260E-02  3328   0.272E-02 0.938E-05
CGA:  16    -0.445447424409E+03   -0.85517E-03   -0.85392E-03  3328   0.110E-02 0.217E-04
CGA:  17    -0.445447805340E+03   -0.38093E-03   -0.37944E-03  3328   0.531E-03 0.121E-04
CGA:  18    -0.445447989737E+03   -0.18440E-03   -0.18388E-03  3328   0.256E-03 0.521E-05
CGA:  19    -0.445448082010E+03   -0.92273E-04   -0.91960E-04  3328   0.133E-03 0.269E-05
CGA:  20    -0.445448130732E+03   -0.48722E-04   -0.48513E-04  3328   0.634E-04 0.186E-05
CGA:  21    -0.445448154809E+03   -0.24077E-04   -0.23948E-04  3328   0.317E-04 0.109E-05
CGA:  22    -0.445448167478E+03   -0.12669E-04   -0.12564E-04  3328   0.157E-04 0.754E-06
CGA:  23    -0.445448174083E+03   -0.66043E-05   -0.65411E-05  3328   0.816E-05 0.424E-06
   1 F= -.44718877E+03 E0= -.44718392E+03  d E =-.970210E-02  mag=     4.0004
