C  N  Cr                                
   1.00000000000000     
    12.3000000000000007    0.0000000000000000    0.0000000000000000
    -6.1499999999999977   10.6521124665485960    0.0000000000000000
     0.0000000000000000    0.0000000000000000   20.0000000000000000
   C    N    Cr
    44     4     1
Direct
  0.9991978198807614  0.0008021712058184  0.7500023973784524
  0.1310166769805233  0.0642783519012719  0.7499911198601344
  0.1976203286373037  0.9976708922858036  0.7499893987826256
  0.3298059028627886  0.0623169100078189  0.7499665666388694
  0.3983991448324630  0.9972248587428177  0.7499885232621161
  0.5315211100084781  0.0658688677568668  0.7499789137810915
  0.5993402060305424  0.0003609931693031  0.7499857772916207
  0.7324464356666944  0.0692733011753935  0.7499989542050989
  0.7996581301341688  0.0025493357947662  0.7500028023995217
  0.9323482952687803  0.0676515822605521  0.7500027676938271
  0.9974505996908105  0.2003417449179677  0.7500028402586112
  0.1305282338944035  0.2650453318942488  0.7499881088896583
  0.1956122542005494  0.1964670624724138  0.7499674480790526
  0.3267088890650678  0.2614106432588316  0.7499876637230940
  0.3946659799696231  0.1934352873588489  0.7499879219145037
  0.5936512594552615  0.1998318123775690  0.7500236276112925
  0.7290627810988212  0.2709371543094100  0.7500158279613178
  0.7967395203007046  0.2032603326839883  0.7500002733225353
  0.9307265671144231  0.2675533521832300  0.7499990051162074
  0.9996390306276255  0.4006595774448833  0.7499859828411557
  0.1336870267025223  0.4659609999216329  0.7499859742328373
  0.1992083457755743  0.3981471255416810  0.7499781794152192
  0.3331884703104852  0.4603468454631243  0.7500252864381977
  0.8001682625375218  0.4063486677452274  0.7500236603183076
  0.9341312000575941  0.4684787265802665  0.7499792110131013
  0.0027751243452230  0.6016006937515421  0.7499884321975641
  0.1358475401007554  0.6662843287486123  0.7500018834337493
  0.2025745141844651  0.5990738472241218  0.7499994308322525
  0.3365788626124102  0.6634210331443683  0.7500033297183019
  0.4042461284380781  0.5957538680128553  0.7500241971918177
  0.5396531590850351  0.6668116300744965  0.7500254591650777
  0.7385894028411526  0.6732911469818994  0.7499872295919684
  0.8065647601335931  0.6053339890432006  0.7499873766681255
  0.9376831240994499  0.6701940229503232  0.7499661318630519
  0.0023291041715229  0.8023796173044178  0.7499890265135609
  0.1341783521015980  0.8658216114279919  0.7500031688794103
  0.2010185456315269  0.7989813446646601  0.7500050499769564
  0.3337155370798201  0.8641524007665858  0.7500019300503272
  0.4009259697382208  0.7974253904953036  0.7499994820533815
  0.5340388168355945  0.8663129992298130  0.7499861336750941
  0.6018527707324505  0.8007917328130215  0.7499784720401630
  0.7349545717008231  0.8694717392278346  0.7499880175233613
  0.8035329399510811  0.8043877693916760  0.7499670096976946
  0.9357216447473522  0.8689833001998661  0.7499907236984042
  0.5232058012602813  0.2569435788501675  0.7501200886940222
  0.3902881873347123  0.3899313812817519  0.7501201561855932
  0.7430565034643359  0.4767941643296554  0.7501196434667429
  0.6100686537336779  0.6097119110988166  0.7501200398335033
  0.5666685145733106  0.4333315705333182  0.7507663546214531
 
  0.00000000E+00  0.00000000E+00  0.00000000E+00
  0.00000000E+00  0.00000000E+00  0.00000000E+00
  0.00000000E+00  0.00000000E+00  0.00000000E+00
  0.00000000E+00  0.00000000E+00  0.00000000E+00
  0.00000000E+00  0.00000000E+00  0.00000000E+00
  0.00000000E+00  0.00000000E+00  0.00000000E+00
  0.00000000E+00  0.00000000E+00  0.00000000E+00
  0.00000000E+00  0.00000000E+00  0.00000000E+00
  0.00000000E+00  0.00000000E+00  0.00000000E+00
  0.00000000E+00  0.00000000E+00  0.00000000E+00
  0.00000000E+00  0.00000000E+00  0.00000000E+00
  0.00000000E+00  0.00000000E+00  0.00000000E+00
  0.00000000E+00  0.00000000E+00  0.00000000E+00
  0.00000000E+00  0.00000000E+00  0.00000000E+00
  0.00000000E+00  0.00000000E+00  0.00000000E+00
  0.00000000E+00  0.00000000E+00  0.00000000E+00
  0.00000000E+00  0.00000000E+00  0.00000000E+00
  0.00000000E+00  0.00000000E+00  0.00000000E+00
  0.00000000E+00  0.00000000E+00  0.00000000E+00
  0.00000000E+00  0.00000000E+00  0.00000000E+00
  0.00000000E+00  0.00000000E+00  0.00000000E+00
  0.00000000E+00  0.00000000E+00  0.00000000E+00
  0.00000000E+00  0.00000000E+00  0.00000000E+00
  0.00000000E+00  0.00000000E+00  0.00000000E+00
  0.00000000E+00  0.00000000E+00  0.00000000E+00
  0.00000000E+00  0.00000000E+00  0.00000000E+00
  0.00000000E+00  0.00000000E+00  0.00000000E+00
  0.00000000E+00  0.00000000E+00  0.00000000E+00
  0.00000000E+00  0.00000000E+00  0.00000000E+00
  0.00000000E+00  0.00000000E+00  0.00000000E+00
  0.00000000E+00  0.00000000E+00  0.00000000E+00
  0.00000000E+00  0.00000000E+00  0.00000000E+00
  0.00000000E+00  0.00000000E+00  0.00000000E+00
  0.00000000E+00  0.00000000E+00  0.00000000E+00
  0.00000000E+00  0.00000000E+00  0.00000000E+00
  0.00000000E+00  0.00000000E+00  0.00000000E+00
  0.00000000E+00  0.00000000E+00  0.00000000E+00
  0.00000000E+00  0.00000000E+00  0.00000000E+00
  0.00000000E+00  0.00000000E+00  0.00000000E+00
  0.00000000E+00  0.00000000E+00  0.00000000E+00
  0.00000000E+00  0.00000000E+00  0.00000000E+00
  0.00000000E+00  0.00000000E+00  0.00000000E+00
  0.00000000E+00  0.00000000E+00  0.00000000E+00
  0.00000000E+00  0.00000000E+00  0.00000000E+00
  0.00000000E+00  0.00000000E+00  0.00000000E+00
  0.00000000E+00  0.00000000E+00  0.00000000E+00
  0.00000000E+00  0.00000000E+00  0.00000000E+00
  0.00000000E+00  0.00000000E+00  0.00000000E+00
  0.00000000E+00  0.00000000E+00  0.00000000E+00
