       N       E                     dE             d eps       ncg     rms          ort
DAV:   1     0.174167095416E+02    0.17417E+02   -0.45171E+03   256   0.402E+01
DAV:   2    -0.649027769059E-01   -0.17482E+02   -0.17444E+02   256   0.489E+00
DAV:   3    -0.892165630771E-01   -0.24314E-01   -0.24310E-01   256   0.242E-01
DAV:   4    -0.895054087011E-01   -0.28885E-03   -0.28885E-03   256   0.272E-02
DAV:   5    -0.895056130601E-01   -0.20436E-06   -0.20443E-06   256   0.530E-04
SDA:   6    -0.335655123597E+00   -0.24615E+00   -0.20443E-06   256   0.415E-01 0.000E+00
CGA:   7    -0.344683905401E+00   -0.90288E-02   -0.90295E-02   256   0.710E-02-0.413E-04
CGA:   8    -0.347151163165E+00   -0.24673E-02   -0.24656E-02   256   0.433E-02 0.165E-04
CGA:   9    -0.348325950232E+00   -0.11748E-02   -0.11747E-02   256   0.157E-02 0.163E-05
CGA:  10    -0.348757119219E+00   -0.43117E-03   -0.43115E-03   256   0.660E-03-0.187E-06
CGA:  11    -0.348978206732E+00   -0.22109E-03   -0.22130E-03   256   0.152E-03-0.181E-05
CGA:  12    -0.349022458555E+00   -0.44252E-04   -0.44357E-04   256   0.189E-04-0.147E-05
CGA:  13    -0.349028418191E+00   -0.59596E-05   -0.60110E-05   256   0.360E-05-0.531E-06
   1 F= -.34902842E+00 E0= -.32974563E+00  d E =-.385656E-01  mag=     1.0000
