       N       E                     dE             d eps       ncg     rms          ort
SDA:   1    -0.335244141061E+03   -0.33524E+03    0.00000E+00  3328   0.129E+03 0.000E+00
CGA:   2    -0.407052312797E+03   -0.71808E+02   -0.79501E+02  3328   0.895E+02-0.158E+02
CGA:   3    -0.423908533268E+03   -0.16856E+02   -0.16893E+02  3328   0.321E+02 0.259E+01
CGA:   4    -0.433222220035E+03   -0.93137E+01   -0.93318E+01  3328   0.157E+02-0.328E+00
CGA:   5    -0.436752973207E+03   -0.35308E+01   -0.35288E+01  3328   0.494E+01 0.214E+00
CGA:   6    -0.438166781640E+03   -0.14138E+01   -0.14151E+01  3328   0.163E+01-0.212E-01
CGA:   7    -0.438629305374E+03   -0.46252E+00   -0.46263E+00  3328   0.508E+00-0.120E-02
CGA:   8    -0.438774302701E+03   -0.14500E+00   -0.14493E+00  3328   0.164E+00 0.813E-03
CGA:   9    -0.438823614790E+03   -0.49312E-01   -0.49329E-01  3328   0.561E-01-0.238E-03
CGA:  10    -0.438842750292E+03   -0.19136E-01   -0.19149E-01  3328   0.213E-01-0.122E-03
CGA:  11    -0.438850201060E+03   -0.74508E-02   -0.74594E-02  3328   0.771E-02-0.738E-04
CGA:  12    -0.438852816641E+03   -0.26156E-02   -0.26181E-02  3328   0.244E-02-0.228E-04
CGA:  13    -0.438853644689E+03   -0.82805E-03   -0.82879E-03  3328   0.716E-03-0.722E-05
CGA:  14    -0.438853900848E+03   -0.25616E-03   -0.25641E-03  3328   0.233E-03-0.227E-05
CGA:  15    -0.438853989996E+03   -0.89147E-04   -0.89212E-04  3328   0.861E-04-0.566E-06
CGA:  16    -0.438854024653E+03   -0.34658E-04   -0.34805E-04  3328   0.320E-04-0.109E-05
CGA:  17    -0.438854037481E+03   -0.12828E-04   -0.12928E-04  3328   0.108E-04-0.737E-06
CGA:  18    -0.438854041610E+03   -0.41282E-05   -0.41630E-05  3328   0.341E-05-0.276E-06
   1 F= -.44057067E+03 E0= -.44056469E+03  d E =-.119725E-01  mag=     0.0000
