       N       E                     dE             d eps       ncg     rms          ort
DAV:   1     0.303803485931E+02    0.30380E+02   -0.45142E+03   256   0.395E+01
DAV:   2    -0.142457509190E+00   -0.30523E+02   -0.30485E+02   256   0.578E+00
DAV:   3    -0.182926833430E+00   -0.40469E-01   -0.40464E-01   256   0.311E-01
DAV:   4    -0.183292300605E+00   -0.36547E-03   -0.36547E-03   256   0.300E-02
DAV:   5    -0.183292307002E+00   -0.63965E-08   -0.63861E-08   256   0.122E-04
SDA:   6    -0.363952393487E+00   -0.18066E+00   -0.63861E-08   256   0.271E-01 0.000E+00
CGA:   7    -0.369885668872E+00   -0.59333E-02   -0.59329E-02   256   0.663E-02 0.153E-04
CGA:   8    -0.372243666090E+00   -0.23580E-02   -0.23665E-02   256   0.393E-02-0.504E-04
CGA:   9    -0.373162422798E+00   -0.91876E-03   -0.91763E-03   256   0.141E-02 0.442E-04
CGA:  10    -0.373656839879E+00   -0.49442E-03   -0.49743E-03   256   0.655E-03-0.213E-04
CGA:  11    -0.373847282515E+00   -0.19044E-03   -0.19021E-03   256   0.893E-04 0.294E-05
CGA:  12    -0.373873580081E+00   -0.26298E-04   -0.26174E-04   256   0.159E-04 0.174E-05
CGA:  13    -0.373878630920E+00   -0.50508E-05   -0.54214E-05   256   0.610E-05-0.340E-05
   1 F= -.37387863E+00 E0= -.35459584E+00  d E =-.385656E-01  mag=     1.0000
