 vasp.5.4.4.18Apr17-6-g9f103f2a35 (build Nov 21 2023 15:34:30) complex          
  
 executed on             LinuxIFC date 2026.09.21  17:57:30
 running on  256 total cores
 distrk:  each k-point on  256 cores,    1 groups
 distr:  one band on NCORES_PER_BAND=   1 cores,  256 groups


--------------------------------------------------------------------------------------------------------


 INCAR:
 POTCAR:   PAW_PBE In_d 06Sep2000                 

 ----------------------------------------------------------------------------- 
|                                                                             |
|           W    W    AA    RRRRR   N    N  II  N    N   GGGG   !!!           |
|           W    W   A  A   R    R  NN   N  II  NN   N  G    G  !!!           |
|           W    W  A    A  R    R  N N  N  II  N N  N  G       !!!           |
|           W WW W  AAAAAA  RRRRR   N  N N  II  N  N N  G  GGG   !            |
|           WW  WW  A    A  R   R   N   NN  II  N   NN  G    G                |
|           W    W  A    A  R    R  N    N  II  N    N   GGGG   !!!           |
|                                                                             |
|      For optimal performance we recommend to set                            |
|        NCORE= 4 - approx SQRT( number of cores)                             |
|      NCORE specifies how many cores store one orbital (NPAR=cpu/NCORE).     |
|      This setting can  greatly improve the performance of VASP for DFT.     |
|      The default,   NCORE=1            might be grossly inefficient         |
|      on modern multi-core architectures or massively parallel machines.     |
|      Do your own testing !!!!                                               |
|      Unfortunately you need to use the default for GW and RPA calculations. |
|      (for HF NCORE is supported but not extensively tested yet)             |
|                                                                             |
 ----------------------------------------------------------------------------- 

 POTCAR:   PAW_PBE In_d 06Sep2000                 
   VRHFIN =In: s2p1                                                             
   LEXCH  = PE                                                                  
   EATOM  =  1576.8738 eV,  115.8970 Ry                                         
                                                                                
   TITEL  = PAW_PBE In_d 06Sep2000                                              
   LULTRA =        F    use ultrasoft PP ?                                      
   IUNSCR =        1    unscreen: 0-lin 1-nonlin 2-no                           
   RPACOR =    2.200    partial core radius                                     
   POMASS =  114.820; ZVAL   =   13.000    mass and valenz                      
   RCORE  =    2.500    outmost cutoff radius                                   
   RWIGS  =    3.170; RWIGS  =    1.677    wigner-seitz radius (au A)           
   ENMAX  =  239.218; ENMIN  =  179.413 eV                                      
   ICORE  =        3    local potential                                         
   LCOR   =        T    correct aug charges                                     
   LPAW   =        T    paw PP                                                  
   EAUG   =  449.704                                                            
   DEXC   =    -.003                                                            
   RMAX   =    2.981    core radius for proj-oper                               
   RAUG   =    1.300    factor for augmentation sphere                          
   RDEP   =    2.630    radius for radial grids                                 
   QCUT   =   -4.193; QGAM   =    8.386    optimization parameters              
                                                                                
   Description                                                                  
     l     E      TYP  RCUT    TYP  RCUT                                        
     2   .000     23  2.500                                                     
     2  -.100     23  2.500                                                     
     0   .000     23  2.500                                                     
     0   .000     23  2.500                                                     
     1   .000     23  2.500                                                     
     1   .000     23  2.500                                                     
     3  -.100      7  2.500                                                     
  local pseudopotential read in
  partial core-charges read in
  atomic valenz-charges read in
  non local Contribution for L=           2  read in
    real space projection operators read in
  non local Contribution for L=           2  read in
    real space projection operators read in
  non local Contribution for L=           0  read in
    real space projection operators read in
  non local Contribution for L=           0  read in
    real space projection operators read in
  non local Contribution for L=           1  read in
    real space projection operators read in
  non local Contribution for L=           1  read in
    real space projection operators read in
    PAW grid and wavefunctions read in
 
   number of l-projection  operators is LMAX  =           6
   number of lm-projection operators is LMMAX =          18
 
 PAW_PBE In_d 06Sep2000                 :
 energy of atom  1       EATOM=-1576.8738
 kinetic energy error for atom=    0.0029 (will be added to EATOM!!)
 
 
 POSCAR: In                                      
  positions in direct lattice
  No initial velocities read in
 exchange correlation table for  LEXCH =        8
   RHO(1)=    0.500       N(1)  =     2000
   RHO(2)=  100.500       N(2)  =     4000

 VTST: version 3.2, (02/03/18)

 CHAIN: initializing optimizer
 
 OPT: Using VASP Dynamics algorithm
 CHAIN: Read ICHAIN            0
 
 POSCAR: In                                      
  positions in direct lattice
  No initial velocities read in
 


--------------------------------------------------------------------------------------------------------


 ion  position               nearest neighbor table
   1  0.010  0.010  0.751-
 

IMPORTANT INFORMATION: All symmetrisations will be switched off!
NOSYMM: (Re-)initialisation of all symmetry stuff for point group C_1.

 
 

Automatic generation of k-mesh.
 generate k-points for:    1    1    1
Space group operators:
 irot       det(A)        alpha          n_x          n_y          n_z        tau_x        tau_y        tau_z
    1     1.000000     0.000000     1.000000     0.000000     0.000000     0.000000     0.000000     0.000000
 
 Subroutine IBZKPT returns following result:
 ===========================================
 
 Found      1 irreducible k-points:
 
 Following reciprocal coordinates:
            Coordinates               Weight
  0.000000  0.000000  0.000000      1.000000
 
 Following cartesian coordinates:
            Coordinates               Weight
  0.000000  0.000000  0.000000      1.000000
 


--------------------------------------------------------------------------------------------------------




 Dimension of arrays:
   k-points           NKPTS =      1   k-points in BZ     NKDIM =      1   number of bands    NBANDS=    256
   number of dos      NEDOS =    301   number of ions     NIONS =      1
   non local maximal  LDIM  =      6   non local SUM 2l+1 LMDIM =     18
   total plane-waves  NPLWV = ******
   max r-space proj   IRMAX =      1   max aug-charges    IRDMAX=  18178
   dimension x,y,z NGX =   112 NGY =  112 NGZ =  112
   dimension x,y,z NGXF=   224 NGYF=  224 NGZF=  224
   support grid    NGXF=   224 NGYF=  224 NGZF=  224
   ions per type =               1
   NGX,Y,Z   is equivalent  to a cutoff of  12.41, 12.41, 12.41 a.u.
   NGXF,Y,Z  is equivalent  to a cutoff of  24.83, 24.83, 24.83 a.u.

 SYSTEM =  In                                      
 POSCAR =  In                                      

 Startparameter for this run:
   NWRITE =      2    write-flag & timer
   PREC   = accura    normal or accurate (medium, high low for compatibility)
   ISTART =      0    job   : 0-new  1-cont  2-samecut
   ICHARG =      2    charge: 1-file 2-atom 10-const
   ISPIN  =      2    spin polarized calculation?
   LNONCOLLINEAR =      F non collinear calculations
   LSORBIT =      F    spin-orbit coupling
   INIWAV =      1    electr: 0-lowe 1-rand  2-diag
   LASPH  =      T    aspherical Exc in radial PAW
   METAGGA=      F    non-selfconsistent MetaGGA calc.

 Electronic Relaxation 1
   ENCUT  =  520.0 eV  38.22 Ry    6.18 a.u.  27.89 27.89 27.89*2*pi/ulx,y,z
   ENINI  =  520.0     initial cutoff
   ENAUG  =  449.7 eV  augmentation charge cutoff
   NELM   =    200;   NELMIN=  2; NELMDL= -5     # of ELM steps 
   EDIFF  = 0.1E-04   stopping-criterion for ELM
   LREAL  =      F    real-space projection
   NLSPLINE    = F    spline interpolate recip. space projectors
   LCOMPAT=      F    compatible to vasp.4.4
   GGA_COMPAT  = T    GGA compatible to vasp.4.4-vasp.4.6
   LMAXPAW     = -100 max onsite density
   LMAXMIX     =    2 max onsite mixed and CHGCAR
   VOSKOWN=      0    Vosko Wilk Nusair interpolation
   ROPT   =    0.00000
 Ionic relaxation
   EDIFFG = 0.1E-03   stopping-criterion for IOM
   NSW    =      0    number of steps for IOM
   NBLOCK =      1;   KBLOCK =      1    inner block; outer block 
   IBRION =     -1    ionic relax: 0-MD 1-quasi-New 2-CG
   NFREE  =      0    steps in history (QN), initial steepest desc. (CG)
   ISIF   =      0    stress and relaxation
   IWAVPR =     10    prediction:  0-non 1-charg 2-wave 3-comb
   ISYM   =      0    0-nonsym 1-usesym 2-fastsym
   LCORR  =      T    Harris-Foulkes like correction to forces

   POTIM  = 0.5000    time-step for ionic-motion
   TEIN   =    0.0    initial temperature
   TEBEG  =    0.0;   TEEND  =   0.0 temperature during run
   SMASS  =  -3.00    Nose mass-parameter (am)
   estimated Nose-frequenzy (Omega)   =  0.10E-29 period in steps =****** mass=  -0.514E-26a.u.
   SCALEE = 1.0000    scale energy and forces
   NPACO  =    256;   APACO  = 16.0  distance and # of slots for P.C.
   PSTRESS=    0.0 pullay stress

  Mass of Ions in am
   POMASS = 114.82
  Ionic Valenz
   ZVAL   =  13.00
  Atomic Wigner-Seitz radii
   RWIGS  =  -1.00
  virtual crystal weights 
   VCA    =   1.00
   NELECT =      13.0000    total number of electrons
   NUPDOWN=       1.0000    fix difference up-down

 DOS related values:
   EMIN   =  10.00;   EMAX   =-10.00  energy-range for DOS
   EFERMI =   0.00
   ISMEAR =     0;   SIGMA  =   0.05  broadening in eV -4-tet -1-fermi 0-gaus

 Electronic relaxation 2 (details)
   IALGO  =     58    algorithm
   LDIAG  =      T    sub-space diagonalisation (order eigenvalues)
   LSUBROT=      F    optimize rotation matrix (better conditioning)
   TURBO    =      0    0=normal 1=particle mesh
   IRESTART =      0    0=no restart 2=restart with 2 vectors
   NREBOOT  =      0    no. of reboots
   NMIN     =      0    reboot dimension
   EREF     =   0.00    reference energy to select bands
   IMIX   =      4    mixing-type and parameters
     AMIX     =   0.40;   BMIX     =  1.00
     AMIX_MAG =   1.60;   BMIX_MAG =  1.00
     AMIN     =   0.10
     WC   =   100.;   INIMIX=   1;  MIXPRE=   1;  MAXMIX= -45

 Intra band minimization:
   WEIMIN = 0.0000     energy-eigenvalue tresh-hold
   EBREAK =  0.98E-08  absolut break condition
   DEPER  =   0.30     relativ break condition  

   TIME   =   0.40     timestep for ELM

  volume/ion in A,a.u.               =    3375.00     22775.62
  Fermi-wavevector in a.u.,A,eV,Ry     =   0.256624  0.484950  0.896027  0.065856
  Thomas-Fermi vector in A             =   1.080197
 
 Write flags
   LWAVE        =      F    write WAVECAR
   LDOWNSAMPLE  =      F    k-point downsampling of WAVECAR
   LCHARG       =      F    write CHGCAR
   LVTOT        =      F    write LOCPOT, total local potential
   LVHAR        =      F    write LOCPOT, Hartree potential only
   LELF         =      F    write electronic localiz. function (ELF)
   LORBIT       =      0    0 simple, 1 ext, 2 COOP (PROOUT), +10 PAW based schemes


 Dipole corrections
   LMONO  =      F    monopole corrections only (constant potential shift)
   LDIPOL =      F    correct potential (dipole corrections)
   IDIPOL =      0    1-x, 2-y, 3-z, 4-all directions 
   EPSILON=  1.0000000 bulk dielectric constant

 Exchange correlation treatment:
   GGA     =    --    GGA type
   LEXCH   =     8    internal setting for exchange type
   VOSKOWN=      0    Vosko Wilk Nusair interpolation
   LHFCALC =     F    Hartree Fock is set to
   LHFONE  =     F    Hartree Fock one center treatment
   AEXX    =    0.0000 exact exchange contribution

 Linear response parameters
   LEPSILON=     F    determine dielectric tensor
   LRPA    =     F    only Hartree local field effects (RPA)
   LNABLA  =     F    use nabla operator in PAW spheres
   LVEL    =     F    velocity operator in full k-point grid
   LINTERFAST=   F  fast interpolation
   KINTER  =     0    interpolate to denser k-point grid
   CSHIFT  =0.1000    complex shift for real part using Kramers Kronig
   OMEGAMAX=  -1.0    maximum frequency
   DEG_THRESHOLD= 0.2000000E-02 threshold for treating states as degnerate
   RTIME   =   -0.100 relaxation time in fs
  (WPLASMAI=    0.000 imaginary part of plasma frequency in eV, 0.658/RTIME)
   DFIELD  = 0.0000000 0.0000000 0.0000000 field for delta impulse in time
 
 Orbital magnetization related:
   ORBITALMAG=     F  switch on orbital magnetization
   LCHIMAG   =     F  perturbation theory with respect to B field
   DQ        =  0.001000  dq finite difference perturbation B field
   LLRAUG    =     F  two centre corrections for induced B field



--------------------------------------------------------------------------------------------------------


 Static calculation
 charge density and potential will be updated during run
 spin polarized calculation
 Conjugate gradient for all bands (Freysoldt, et al. PRB 79, 241103 (2009))
 preconditioned conjugated gradient                                        
 perform sub-space diagonalisation
    before iterative eigenvector-optimisation
 modified Broyden-mixing scheme, WC =      100.0
 initial mixing is a Kerker type mixing with AMIX =  0.4000 and BMIX =      1.0000
 Hartree-type preconditioning will be used
 using additional bands          249
 reciprocal scheme for non local part
 use partial core corrections
 no Harris-corrections to forces 
 use gradient corrections 
 use of overlap-Matrix (Vanderbilt PP)
 Gauss-broadening in eV      SIGMA  =   0.05


--------------------------------------------------------------------------------------------------------


  energy-cutoff  :      520.00
  volume of cell :     3375.00
      direct lattice vectors                 reciprocal lattice vectors
    15.000000000  0.000000000  0.000000000     0.066666667  0.000000000  0.000000000
     0.000000000 15.000000000  0.000000000     0.000000000  0.066666667  0.000000000
     0.000000000  0.000000000 15.000000000     0.000000000  0.000000000  0.066666667

  length of vectors
    15.000000000 15.000000000 15.000000000     0.066666667  0.066666667  0.066666667


 
 k-points in units of 2pi/SCALE and weight: read from INCAR                         
   0.00000000  0.00000000  0.00000000       1.000
 
 k-points in reciprocal lattice and weights: read from INCAR                         
   0.00000000  0.00000000  0.00000000       1.000
 
 position of ions in fractional coordinates (direct lattice) 
   0.01000000  0.01000000  0.75100000
 
 position of ions in cartesian coordinates  (Angst):
   0.15000000  0.15000000 11.26500000
 


--------------------------------------------------------------------------------------------------------


 k-point  1 :   0.0000 0.0000 0.0000  plane waves:   90879

 maximum and minimum number of plane-waves per node :     90879    90879

 maximum number of plane-waves:     90879
 maximum index in each direction: 
   IXMAX=   27   IYMAX=   27   IZMAX=   27
   IXMIN=  -27   IYMIN=  -27   IZMIN=  -27


 serial   3D FFT for wavefunctions
 parallel 3D FFT for charge:
    minimum data exchange during FFTs selected (reduces bandwidth)


 total amount of memory used by VASP MPI-rank0   177231. kBytes
=======================================================================

   base      :      30000. kBytes
   nonl-proj :      14540. kBytes
   fftplans  :       7479. kBytes
   grid      :     116433. kBytes
   one-center:         31. kBytes
   wavefun   :       8748. kBytes
 
     INWAV:  cpu time    0.0000: real time    0.0000
 Broyden mixing: mesh for mixing (old mesh)
   NGX = 55   NGY = 55   NGZ = 55
  (NGX  =224   NGY  =224   NGZ  =224)
  gives a total of 166375 points

 initial charge density was supplied:
 charge density of overlapping atoms calculated
 number of electron      13.0000000 magnetization       1.0000000
 keeping initial charge density in first step


--------------------------------------------------------------------------------------------------------


 Maximum index for augmentation-charges          796 (set IRDMAX)


--------------------------------------------------------------------------------------------------------


 First call to EWALD:  gamma=   0.118
 Maximum number of real-space cells 3x 3x 3
 Maximum number of reciprocal cells 3x 3x 3

    FEWALD:  cpu time    0.0090: real time    0.0091


--------------------------------------- Iteration      1(   1)  ---------------------------------------


    POTLOK:  cpu time    2.5626: real time    2.5889
    SETDIJ:  cpu time    0.4274: real time    0.4471
    TRIAL :  cpu time    8.5109: real time    8.5514
    CORREC:  cpu time    0.0409: real time    0.0412
    --------------------------------------------
      LOOP:  cpu time   11.5518: real time   11.6471

 eigenvalue-minimisations  :  1024
 total energy-change (2. order) : 0.3038035E+02  (-0.4514199E+03)
 number of electron      13.0000000 magnetization       1.0000000
 augmentation part       13.0000000 magnetization       1.0000000

 Free energy of the ion-electron system (eV)
  ---------------------------------------------------
  alpha Z        PSCENC =         0.27113618
  Ewald energy   TEWEN  =      -230.15817073
  -Hartree energ DENC   =     -1192.20668007
  -exchange      EXHF   =         0.00000000
  -V(xc)+E(xc)   XCENC  =        40.02499067
  PAW double counting   =      1218.43076859    -1208.96596379
  entropy T*S    EENTRO =        -0.00000000
  eigenvalues    EBANDS =      -173.88667042
  atomic energy  EATOM  =      1576.87093814
  ---------------------------------------------------
  free energy    TOTEN  =        30.38034859 eV

  energy without entropy =       30.38034859  energy(sigma->0) =       30.38034859


--------------------------------------------------------------------------------------------------------




--------------------------------------- Iteration      1(   2)  ---------------------------------------


    TRIAL :  cpu time   27.9820: real time   28.1540
    CORREC:  cpu time    0.3341: real time    0.3341
    --------------------------------------------
      LOOP:  cpu time   28.3234: real time   28.5549

 eigenvalue-minimisations  :  1536
 total energy-change (2. order) :-0.3052281E+02  (-0.3048489E+02)
 number of electron      13.0000000 magnetization       1.0000000
 augmentation part       13.0000000 magnetization       1.0000000

 Free energy of the ion-electron system (eV)
  ---------------------------------------------------
  alpha Z        PSCENC =         0.27113618
  Ewald energy   TEWEN  =      -230.15817073
  -Hartree energ DENC   =     -1192.20668007
  -exchange      EXHF   =         0.00000000
  -V(xc)+E(xc)   XCENC  =        40.02499067
  PAW double counting   =      1218.43076859    -1208.96596379
  entropy T*S    EENTRO =        -0.03856068
  eigenvalues    EBANDS =      -204.37091584
  atomic energy  EATOM  =      1576.87093814
  ---------------------------------------------------
  free energy    TOTEN  =        -0.14245751 eV

  energy without entropy =       -0.10389683  energy(sigma->0) =       -0.12317717


--------------------------------------------------------------------------------------------------------




--------------------------------------- Iteration      1(   3)  ---------------------------------------


    TRIAL :  cpu time   19.2175: real time   19.2244
    CORREC:  cpu time    0.0950: real time    0.0950
    --------------------------------------------
      LOOP:  cpu time   19.3274: real time   19.3343

 eigenvalue-minimisations  :  1024
 total energy-change (2. order) :-0.4046932E-01  (-0.4046444E-01)
 number of electron      13.0000000 magnetization       1.0000000
 augmentation part       13.0000000 magnetization       1.0000000

 Free energy of the ion-electron system (eV)
  ---------------------------------------------------
  alpha Z        PSCENC =         0.27113618
  Ewald energy   TEWEN  =      -230.15817073
  -Hartree energ DENC   =     -1192.20668007
  -exchange      EXHF   =         0.00000000
  -V(xc)+E(xc)   XCENC  =        40.02499067
  PAW double counting   =      1218.43076859    -1208.96596379
  entropy T*S    EENTRO =        -0.03856558
  eigenvalues    EBANDS =      -204.41138026
  atomic energy  EATOM  =      1576.87093814
  ---------------------------------------------------
  free energy    TOTEN  =        -0.18292683 eV

  energy without entropy =       -0.14436125  energy(sigma->0) =       -0.16364404


--------------------------------------------------------------------------------------------------------




--------------------------------------- Iteration      1(   4)  ---------------------------------------


    TRIAL :  cpu time   21.4648: real time   21.4987
    CORREC:  cpu time    0.1086: real time    0.1086
    --------------------------------------------
      LOOP:  cpu time   21.5824: real time   21.6163

 eigenvalue-minimisations  :  2048
 total energy-change (2. order) :-0.3654672E-03  (-0.3654672E-03)
 number of electron      13.0000000 magnetization       1.0000000
 augmentation part       13.0000000 magnetization       1.0000000

 Free energy of the ion-electron system (eV)
  ---------------------------------------------------
  alpha Z        PSCENC =         0.27113618
  Ewald energy   TEWEN  =      -230.15817073
  -Hartree energ DENC   =     -1192.20668007
  -exchange      EXHF   =         0.00000000
  -V(xc)+E(xc)   XCENC  =        40.02499067
  PAW double counting   =      1218.43076859    -1208.96596379
  entropy T*S    EENTRO =        -0.03856558
  eigenvalues    EBANDS =      -204.41174573
  atomic energy  EATOM  =      1576.87093814
  ---------------------------------------------------
  free energy    TOTEN  =        -0.18329230 eV

  energy without entropy =       -0.14472672  energy(sigma->0) =       -0.16400951


--------------------------------------------------------------------------------------------------------




--------------------------------------- Iteration      1(   5)  ---------------------------------------


    TRIAL :  cpu time    8.9979: real time    9.0007
    CORREC:  cpu time    0.0875: real time    0.0875
    CHARGE:  cpu time    1.3313: real time    1.3526
    --------------------------------------------
      LOOP:  cpu time   10.4263: real time   10.4503

 eigenvalue-minimisations  :  1024
 total energy-change (2. order) :-0.6396476E-08  (-0.6386081E-08)
 number of electron      13.0000001 magnetization       1.0000000
 augmentation part        6.9073943 magnetization      -0.0264335

 Free energy of the ion-electron system (eV)
  ---------------------------------------------------
  alpha Z        PSCENC =         0.27113618
  Ewald energy   TEWEN  =      -230.15817073
  -Hartree energ DENC   =     -1192.20668007
  -exchange      EXHF   =         0.00000000
  -V(xc)+E(xc)   XCENC  =        40.02499067
  PAW double counting   =      1218.43076859    -1208.96596379
  entropy T*S    EENTRO =        -0.03856558
  eigenvalues    EBANDS =      -204.41174574
  atomic energy  EATOM  =      1576.87093814
  ---------------------------------------------------
  free energy    TOTEN  =        -0.18329231 eV

  energy without entropy =       -0.14472673  energy(sigma->0) =       -0.16400952


--------------------------------------------------------------------------------------------------------




--------------------------------------- Iteration      1(   6)  ---------------------------------------


    POTLOK:  cpu time    2.4610: real time    2.4614
    SETDIJ:  cpu time    0.4200: real time    0.4201
    TRIAL :  cpu time    3.5813: real time    3.9381
    CORREC:  cpu time    6.1028: real time    6.2106
    CHARGE:  cpu time    1.3106: real time    1.3111
    --------------------------------------------
      LOOP:  cpu time   13.9001: real time   14.3659

 eigenvalue-minimisations  :     0
 total energy-change (2. order) :-0.1806601E+00  (-0.5932911E-02)
 number of electron      13.0000001 magnetization       1.0000000
 augmentation part        6.9046634 magnetization      -0.0458547

 Free energy of the ion-electron system (eV)
  ---------------------------------------------------
  alpha Z        PSCENC =         0.27113618
  Ewald energy   TEWEN  =      -230.15817073
  -Hartree energ DENC   =     -1193.29728755
  -exchange      EXHF   =         0.00000000
  -V(xc)+E(xc)   XCENC  =        40.05480870
  PAW double counting   =      1219.32282559    -1209.94704038
  entropy T*S    EENTRO =        -0.03856558
  eigenvalues    EBANDS =      -203.44259677
  atomic energy  EATOM  =      1576.87093814
  ---------------------------------------------------
  free energy    TOTEN  =        -0.36395239 eV

  energy without entropy =       -0.32538681  energy(sigma->0) =       -0.34466960


--------------------------------------------------------------------------------------------------------




--------------------------------------- Iteration      1(   7)  ---------------------------------------


    POTLOK:  cpu time    2.4354: real time    2.4361
    SETDIJ:  cpu time    0.4211: real time    0.4212
    TRIAL :  cpu time    3.4434: real time    3.5314
    CORREC:  cpu time    6.1160: real time    6.2126
    CHARGE:  cpu time    1.3614: real time    1.3616
    --------------------------------------------
      LOOP:  cpu time   13.8028: real time   13.9883

 eigenvalue-minimisations  :     0
 total energy-change (2. order) :-0.5933275E-02  (-0.2366515E-02)
 number of electron      13.0000001 magnetization       1.0000000
 augmentation part        6.9114043 magnetization      -0.0399723

 Free energy of the ion-electron system (eV)
  ---------------------------------------------------
  alpha Z        PSCENC =         0.27113618
  Ewald energy   TEWEN  =      -230.15817073
  -Hartree energ DENC   =     -1192.77514337
  -exchange      EXHF   =         0.00000000
  -V(xc)+E(xc)   XCENC  =        40.04012706
  PAW double counting   =      1218.70441699    -1209.27633854
  entropy T*S    EENTRO =        -0.03856558
  eigenvalues    EBANDS =      -204.00828583
  atomic energy  EATOM  =      1576.87093814
  ---------------------------------------------------
  free energy    TOTEN  =        -0.36988567 eV

  energy without entropy =       -0.33132009  energy(sigma->0) =       -0.35060288


--------------------------------------------------------------------------------------------------------




--------------------------------------- Iteration      1(   8)  ---------------------------------------


    POTLOK:  cpu time    2.4662: real time    2.4666
    SETDIJ:  cpu time    0.4206: real time    0.4206
    TRIAL :  cpu time    3.4471: real time    3.5666
    CORREC:  cpu time    6.0929: real time    6.1890
    CHARGE:  cpu time    1.5538: real time    1.5544
    --------------------------------------------
      LOOP:  cpu time   14.0062: real time   14.2228

 eigenvalue-minimisations  :     0
 total energy-change (2. order) :-0.2357997E-02  (-0.9176282E-03)
 number of electron      13.0000001 magnetization       1.0000000
 augmentation part        6.9063925 magnetization      -0.0352381

 Free energy of the ion-electron system (eV)
  ---------------------------------------------------
  alpha Z        PSCENC =         0.27113618
  Ewald energy   TEWEN  =      -230.15817073
  -Hartree energ DENC   =     -1193.31077160
  -exchange      EXHF   =         0.00000000
  -V(xc)+E(xc)   XCENC  =        40.06409795
  PAW double counting   =      1218.95244457    -1209.51857904
  entropy T*S    EENTRO =        -0.03856558
  eigenvalues    EBANDS =      -203.50477357
  atomic energy  EATOM  =      1576.87093814
  ---------------------------------------------------
  free energy    TOTEN  =        -0.37224367 eV

  energy without entropy =       -0.33367809  energy(sigma->0) =       -0.35296088


--------------------------------------------------------------------------------------------------------




--------------------------------------- Iteration      1(   9)  ---------------------------------------


    POTLOK:  cpu time    2.5411: real time    2.5835
    SETDIJ:  cpu time    0.4173: real time    0.4173
    TRIAL :  cpu time    3.4919: real time    3.5713
    CORREC:  cpu time    6.2314: real time    6.3150
    CHARGE:  cpu time    1.3422: real time    1.3446
    --------------------------------------------
      LOOP:  cpu time   14.0467: real time   14.2545

 eigenvalue-minimisations  :     0
 total energy-change (2. order) :-0.9187567E-03  (-0.4974314E-03)
 number of electron      13.0000001 magnetization       1.0000000
 augmentation part        6.9083977 magnetization      -0.0368036

 Free energy of the ion-electron system (eV)
  ---------------------------------------------------
  alpha Z        PSCENC =         0.27113618
  Ewald energy   TEWEN  =      -230.15817073
  -Hartree energ DENC   =     -1192.74782613
  -exchange      EXHF   =         0.00000000
  -V(xc)+E(xc)   XCENC  =        40.04303224
  PAW double counting   =      1218.46148705    -1208.99344907
  entropy T*S    EENTRO =        -0.03856558
  eigenvalues    EBANDS =      -204.08174453
  atomic energy  EATOM  =      1576.87093814
  ---------------------------------------------------
  free energy    TOTEN  =        -0.37316242 eV

  energy without entropy =       -0.33459684  energy(sigma->0) =       -0.35387963


--------------------------------------------------------------------------------------------------------




--------------------------------------- Iteration      1(  10)  ---------------------------------------


    POTLOK:  cpu time    2.4388: real time    2.4434
    SETDIJ:  cpu time    0.4188: real time    0.4190
    TRIAL :  cpu time    3.5042: real time    3.6075
    CORREC:  cpu time    6.0459: real time    6.1359
    CHARGE:  cpu time    1.3521: real time    1.3525
    --------------------------------------------
      LOOP:  cpu time   13.8086: real time   14.0072

 eigenvalue-minimisations  :     0
 total energy-change (2. order) :-0.4944171E-03  (-0.1902139E-03)
 number of electron      13.0000001 magnetization       1.0000000
 augmentation part        6.9077330 magnetization      -0.0392830

 Free energy of the ion-electron system (eV)
  ---------------------------------------------------
  alpha Z        PSCENC =         0.27113618
  Ewald energy   TEWEN  =      -230.15817073
  -Hartree energ DENC   =     -1193.04716322
  -exchange      EXHF   =         0.00000000
  -V(xc)+E(xc)   XCENC  =        40.05401098
  PAW double counting   =      1218.79978441    -1209.34911766
  entropy T*S    EENTRO =        -0.03856558
  eigenvalues    EBANDS =      -203.77650936
  atomic energy  EATOM  =      1576.87093814
  ---------------------------------------------------
  free energy    TOTEN  =        -0.37365684 eV

  energy without entropy =       -0.33509126  energy(sigma->0) =       -0.35437405


--------------------------------------------------------------------------------------------------------




--------------------------------------- Iteration      1(  11)  ---------------------------------------


    POTLOK:  cpu time    2.5144: real time    2.5149
    SETDIJ:  cpu time    0.4293: real time    0.4294
    TRIAL :  cpu time    3.4739: real time    3.5744
    CORREC:  cpu time    6.1318: real time    6.2139
    CHARGE:  cpu time    1.3813: real time    1.3821
    --------------------------------------------
      LOOP:  cpu time   13.9479: real time   14.1322

 eigenvalue-minimisations  :     0
 total energy-change (2. order) :-0.1904426E-03  (-0.2617439E-04)
 number of electron      13.0000001 magnetization       1.0000000
 augmentation part        6.9074865 magnetization      -0.0395810

 Free energy of the ion-electron system (eV)
  ---------------------------------------------------
  alpha Z        PSCENC =         0.27113618
  Ewald energy   TEWEN  =      -230.15817073
  -Hartree energ DENC   =     -1193.02196647
  -exchange      EXHF   =         0.00000000
  -V(xc)+E(xc)   XCENC  =        40.05259570
  PAW double counting   =      1218.84898793    -1209.40227709
  entropy T*S    EENTRO =        -0.03856558
  eigenvalues    EBANDS =      -203.79652537
  atomic energy  EATOM  =      1576.87093814
  ---------------------------------------------------
  free energy    TOTEN  =        -0.37384728 eV

  energy without entropy =       -0.33528170  energy(sigma->0) =       -0.35456449


--------------------------------------------------------------------------------------------------------




--------------------------------------- Iteration      1(  12)  ---------------------------------------


    POTLOK:  cpu time    2.4619: real time    2.4626
    SETDIJ:  cpu time    0.4174: real time    0.4175
    TRIAL :  cpu time    3.5933: real time    3.6692
    CORREC:  cpu time    6.1212: real time    6.2093
    CHARGE:  cpu time    1.3781: real time    1.3787
    --------------------------------------------
      LOOP:  cpu time   14.0001: real time   14.1654

 eigenvalue-minimisations  :     0
 total energy-change (2. order) :-0.2629757E-04  (-0.5421400E-05)
 number of electron      13.0000001 magnetization       1.0000000
 augmentation part        6.9078411 magnetization      -0.0394463

 Free energy of the ion-electron system (eV)
  ---------------------------------------------------
  alpha Z        PSCENC =         0.27113618
  Ewald energy   TEWEN  =      -230.15817073
  -Hartree energ DENC   =     -1192.99672472
  -exchange      EXHF   =         0.00000000
  -V(xc)+E(xc)   XCENC  =        40.05163920
  PAW double counting   =      1218.84309444    -1209.39693881
  entropy T*S    EENTRO =        -0.03856558
  eigenvalues    EBANDS =      -203.82028170
  atomic energy  EATOM  =      1576.87093814
  ---------------------------------------------------
  free energy    TOTEN  =        -0.37387358 eV

  energy without entropy =       -0.33530800  energy(sigma->0) =       -0.35459079


--------------------------------------------------------------------------------------------------------




--------------------------------------- Iteration      1(  13)  ---------------------------------------


    POTLOK:  cpu time    2.5532: real time    2.5539
    SETDIJ:  cpu time    0.4192: real time    0.4194
    TRIAL :  cpu time    3.8466: real time    3.9741
    CORREC:  cpu time    6.3880: real time    6.4778
    EDDIAG:  cpu time    1.7313: real time    1.7464
    CHARGE:  cpu time    1.3342: real time    1.3342
    --------------------------------------------
      LOOP:  cpu time   16.2965: real time   16.5297

 eigenvalue-minimisations  :     0
 total energy-change (2. order) :-0.5050839E-05  (-0.8072394E-06)
 number of electron      13.0000001 magnetization       1.0000000
 augmentation part        6.9077039 magnetization      -0.0394043

 Free energy of the ion-electron system (eV)
  ---------------------------------------------------
  alpha Z        PSCENC =         0.27113618
  Ewald energy   TEWEN  =      -230.15817073
  -Hartree energ DENC   =     -1193.03344865
  -exchange      EXHF   =         0.00000000
  -V(xc)+E(xc)   XCENC  =        40.05308336
  PAW double counting   =      1218.87849819    -1209.43484681
  entropy T*S    EENTRO =        -0.03856558
  eigenvalues    EBANDS =      -203.78250274
  atomic energy  EATOM  =      1576.87093814
  ---------------------------------------------------
  free energy    TOTEN  =        -0.37387863 eV

  energy without entropy =       -0.33531305  energy(sigma->0) =       -0.35459584


--------------------------------------------------------------------------------------------------------


  average scaling for gradient   1.2554


 average (electrostatic) potential at core
  the test charge radii are     1.0774
  (the norm of the test charge is              1.0000)
       1-105.4618
 
 
 
 E-fermi :  -7.4169     XC(G=0):  -0.3775     alpha+bet : -0.1003


 spin component 1

 k-point     1 :       0.0000    0.0000    0.0000
  band No.  band energies     occupation 
      1     -18.5439      1.00000
      2     -18.5439      1.00000
      3     -18.5439      1.00000
      4     -18.5439      1.00000
      5     -18.5438      1.00000
      6      -8.3175      1.00000
      7      -2.6788      0.33341
      8      -2.6788      0.33335
      9      -2.6787      0.33324
     10      -0.4686      0.00000
     11       0.3621      0.00000
     12       0.3621      0.00000
     13       0.3927      0.00000
     14       0.3957      0.00000
     15       0.3958      0.00000
     16       0.3958      0.00000
     17       0.6999      0.00000
     18       0.6999      0.00000
     19       0.6999      0.00000
     20       1.1052      0.00000
     21       1.1052      0.00000
     22       1.1394      0.00000
     23       1.1394      0.00000
     24       1.1394      0.00000
     25       1.1446      0.00000
     26       1.1446      0.00000
     27       1.1446      0.00000
     28       1.2296      0.00000
     29       1.6308      0.00000
     30       1.6441      0.00000
     31       1.6441      0.00000
     32       1.6442      0.00000
     33       1.7885      0.00000
     34       1.7885      0.00000
     35       1.8425      0.00000
     36       1.8425      0.00000
     37       1.8425      0.00000
     38       1.9490      0.00000
     39       2.3883      0.00000
     40       2.3883      0.00000
     41       2.3883      0.00000
     42       2.4604      0.00000
     43       2.4604      0.00000
     44       2.4604      0.00000
     45       2.5485      0.00000
     46       2.7903      0.00000
     47       2.7904      0.00000
     48       2.7904      0.00000
     49       2.8177      0.00000
     50       2.8177      0.00000
     51       3.0010      0.00000
     52       3.0010      0.00000
     53       3.0010      0.00000
     54       3.0234      0.00000
     55       3.0234      0.00000
     56       3.0234      0.00000
     57       3.1564      0.00000
     58       3.1564      0.00000
     59       3.2080      0.00000
     60       3.2080      0.00000
     61       3.2080      0.00000
     62       3.2656      0.00000
     63       3.3248      0.00000
     64       3.3248      0.00000
     65       3.3248      0.00000
     66       3.3792      0.00000
     67       3.4274      0.00000
     68       3.4276      0.00000
     69       3.4276      0.00000
     70       3.4276      0.00000
     71       3.7658      0.00000
     72       3.7658      0.00000
     73       3.7658      0.00000
     74       3.7713      0.00000
     75       3.7713      0.00000
     76       3.7799      0.00000
     77       3.7799      0.00000
     78       3.7873      0.00000
     79       3.7873      0.00000
     80       3.7873      0.00000
     81       3.8043      0.00000
     82       3.8043      0.00000
     83       3.8043      0.00000
     84       3.8153      0.00000
     85       3.8153      0.00000
     86       3.8153      0.00000
     87       4.0624      0.00000
     88       4.0624      0.00000
     89       4.0624      0.00000
     90       4.2400      0.00000
     91       4.5860      0.00000
     92       4.5860      0.00000
     93       4.5999      0.00000
     94       4.6000      0.00000
     95       4.6000      0.00000
     96       4.8275      0.00000
     97       4.8275      0.00000
     98       4.8275      0.00000
     99       5.0695      0.00000
    100       5.0695      0.00000
    101       5.0866      0.00000
    102       5.0867      0.00000
    103       5.0867      0.00000
    104       5.2055      0.00000
    105       5.3163      0.00000
    106       5.3295      0.00000
    107       5.3295      0.00000
    108       5.3295      0.00000
    109       5.3868      0.00000
    110       5.3868      0.00000
    111       5.3868      0.00000
    112       5.5309      0.00000
    113       5.7676      0.00000
    114       5.7676      0.00000
    115       5.7676      0.00000
    116       5.7700      0.00000
    117       5.7700      0.00000
    118       5.7773      0.00000
    119       5.7773      0.00000
    120       5.7773      0.00000
    121       5.7790      0.00000
    122       5.7790      0.00000
    123       5.7790      0.00000
    124       5.7849      0.00000
    125       5.7849      0.00000
    126       5.7849      0.00000
    127       5.8104      0.00000
    128       5.8104      0.00000
    129       6.0681      0.00000
    130       6.0681      0.00000
    131       6.0681      0.00000
    132       6.1411      0.00000
    133       6.1411      0.00000
    134       6.1453      0.00000
    135       6.1453      0.00000
    136       6.1453      0.00000
    137       6.1556      0.00000
    138       6.1654      0.00000
    139       6.1654      0.00000
    140       6.1654      0.00000
    141       6.1798      0.00000
    142       6.1798      0.00000
    143       6.1798      0.00000
    144       6.1965      0.00000
    145       6.1966      0.00000
    146       6.1966      0.00000
    147       6.5025      0.00000
    148       6.5059      0.00000
    149       6.5059      0.00000
    150       6.5060      0.00000
    151       6.5118      0.00000
    152       6.5119      0.00000
    153       6.7550      0.00000
    154       6.7550      0.00000
    155       6.7550      0.00000
    156       6.9085      0.00000
    157       6.9085      0.00000
    158       6.9085      0.00000
    159       6.9118      0.00000
    160       6.9308      0.00000
    161       7.0098      0.00000
    162       7.0098      0.00000
    163       7.0148      0.00000
    164       7.0148      0.00000
    165       7.0148      0.00000
    166       7.0227      0.00000
    167       7.0227      0.00000
    168       7.0364      0.00000
    169       7.0364      0.00000
    170       7.0364      0.00000
    171       7.0520      0.00000
    172       7.0521      0.00000
    173       7.0521      0.00000
    174       7.0698      0.00000
    175       7.0698      0.00000
    176       7.0698      0.00000
    177       7.3927      0.00000
    178       7.3927      0.00000
    179       7.3927      0.00000
    180       7.4863      0.00000
    181       7.4863      0.00000
    182       7.4863      0.00000
    183       7.5155      0.00000
    184       7.5477      0.00000
    185       7.8139      0.00000
    186       7.8139      0.00000
    187       7.8140      0.00000
    188       7.8590      0.00000
    189       7.8591      0.00000
    190       7.8591      0.00000
    191       7.8665      0.00000
    192       7.8665      0.00000
    193       7.8884      0.00000
    194       7.8884      0.00000
    195       7.8884      0.00000
    196       7.9093      0.00000
    197       8.3144      0.00000
    198       8.3144      0.00000
    199       8.3144      0.00000
    200       8.3392      0.00000
    201       8.3392      0.00000
    202       8.3778      0.00000
    203       8.3779      0.00000
    204       8.3779      0.00000
    205       8.3921      0.00000
    206       8.3921      0.00000
    207       8.3921      0.00000
    208       8.4042      0.00000
    209       8.6084      0.00000
    210       8.6897      0.00000
    211       8.6897      0.00000
    212       8.6897      0.00000
    213       8.7053      0.00000
    214       8.7053      0.00000
    215       8.7053      0.00000
    216       8.8259      0.00000
    217       8.8593      0.00000
    218       8.8593      0.00000
    219       8.8593      0.00000
    220       8.8958      0.00000
    221       8.8958      0.00000
    222       8.9107      0.00000
    223       8.9107      0.00000
    224       8.9107      0.00000
    225       8.9121      0.00000
    226       8.9121      0.00000
    227       8.9288      0.00000
    228       8.9288      0.00000
    229       8.9288      0.00000
    230       8.9393      0.00000
    231       8.9393      0.00000
    232       8.9393      0.00000
    233       9.1257      0.00000
    234       9.1257      0.00000
    235       9.1392      0.00000
    236       9.1392      0.00000
    237       9.1392      0.00000
    238       9.1438      0.00000
    239       9.1438      0.00000
    240       9.1438      0.00000
    241       9.1465      0.00000
    242       9.1465      0.00000
    243       9.1465      0.00000
    244       9.1618      0.00000
    245       9.1618      0.00000
    246       9.1618      0.00000
    247       9.1695      0.00000
    248       9.1695      0.00000
    249       9.2126      0.00000
    250       9.2265      0.00000
    251       9.2265      0.00000
    252       9.2265      0.00000
    253       9.2388      0.00000
    254       9.2388      0.00000
    255       9.2388      0.00000
    256       9.2494      0.00000

 spin component 2

 k-point     1 :       0.0000    0.0000    0.0000
  band No.  band energies     occupation 
      1     -18.4697      1.00000
      2     -18.4697      1.00000
      3     -18.4697      1.00000
      4     -18.4696      1.00000
      5     -18.4696      1.00000
      6      -7.7421      1.00000
      7      -2.0215      0.00000
      8      -2.0214      0.00000
      9      -2.0214      0.00000
     10      -0.0259      0.00000
     11       0.6196      0.00000
     12       0.6889      0.00000
     13       0.6889      0.00000
     14       0.7537      0.00000
     15       0.7537      0.00000
     16       0.7537      0.00000
     17       1.2035      0.00000
     18       1.2035      0.00000
     19       1.2035      0.00000
     20       1.3293      0.00000
     21       1.3293      0.00000
     22       1.3975      0.00000
     23       1.3975      0.00000
     24       1.3975      0.00000
     25       1.4145      0.00000
     26       1.4458      0.00000
     27       1.4458      0.00000
     28       1.4458      0.00000
     29       1.8797      0.00000
     30       1.8797      0.00000
     31       1.8797      0.00000
     32       2.0086      0.00000
     33       2.0974      0.00000
     34       2.0974      0.00000
     35       2.0974      0.00000
     36       2.1328      0.00000
     37       2.2087      0.00000
     38       2.2087      0.00000
     39       2.7285      0.00000
     40       2.7285      0.00000
     41       2.7285      0.00000
     42       2.7903      0.00000
     43       2.8367      0.00000
     44       2.8367      0.00000
     45       2.8367      0.00000
     46       3.0210      0.00000
     47       3.0210      0.00000
     48       3.2108      0.00000
     49       3.2108      0.00000
     50       3.2108      0.00000
     51       3.2940      0.00000
     52       3.2941      0.00000
     53       3.2941      0.00000
     54       3.3762      0.00000
     55       3.3762      0.00000
     56       3.3762      0.00000
     57       3.3900      0.00000
     58       3.3900      0.00000
     59       3.4214      0.00000
     60       3.4214      0.00000
     61       3.4214      0.00000
     62       3.4334      0.00000
     63       3.5604      0.00000
     64       3.5604      0.00000
     65       3.5604      0.00000
     66       3.6278      0.00000
     67       3.7082      0.00000
     68       3.7082      0.00000
     69       3.7082      0.00000
     70       3.7765      0.00000
     71       3.9235      0.00000
     72       3.9235      0.00000
     73       3.9815      0.00000
     74       3.9816      0.00000
     75       3.9816      0.00000
     76       3.9979      0.00000
     77       3.9979      0.00000
     78       3.9979      0.00000
     79       4.0362      0.00000
     80       4.0362      0.00000
     81       4.0362      0.00000
     82       4.0463      0.00000
     83       4.0463      0.00000
     84       4.0463      0.00000
     85       4.0695      0.00000
     86       4.0695      0.00000
     87       4.3382      0.00000
     88       4.3382      0.00000
     89       4.3382      0.00000
     90       4.5261      0.00000
     91       4.9470      0.00000
     92       4.9470      0.00000
     93       4.9470      0.00000
     94       4.9779      0.00000
     95       4.9779      0.00000
     96       5.1605      0.00000
     97       5.1605      0.00000
     98       5.1605      0.00000
     99       5.4487      0.00000
    100       5.4487      0.00000
    101       5.4487      0.00000
    102       5.4801      0.00000
    103       5.4801      0.00000
    104       5.5303      0.00000
    105       5.6218      0.00000
    106       5.6218      0.00000
    107       5.6218      0.00000
    108       5.6312      0.00000
    109       5.7052      0.00000
    110       5.7052      0.00000
    111       5.7052      0.00000
    112       5.8771      0.00000
    113       5.9420      0.00000
    114       5.9420      0.00000
    115       5.9420      0.00000
    116       6.0011      0.00000
    117       6.0011      0.00000
    118       6.0026      0.00000
    119       6.0026      0.00000
    120       6.0026      0.00000
    121       6.0439      0.00000
    122       6.0439      0.00000
    123       6.0439      0.00000
    124       6.0509      0.00000
    125       6.0509      0.00000
    126       6.0509      0.00000
    127       6.0571      0.00000
    128       6.0571      0.00000
    129       6.2771      0.00000
    130       6.2771      0.00000
    131       6.2771      0.00000
    132       6.3283      0.00000
    133       6.3283      0.00000
    134       6.3451      0.00000
    135       6.5374      0.00000
    136       6.5374      0.00000
    137       6.5374      0.00000
    138       6.5376      0.00000
    139       6.5376      0.00000
    140       6.5376      0.00000
    141       6.5584      0.00000
    142       6.5584      0.00000
    143       6.5584      0.00000
    144       6.5936      0.00000
    145       6.5936      0.00000
    146       6.5936      0.00000
    147       6.7308      0.00000
    148       6.7308      0.00000
    149       6.7362      0.00000
    150       6.7362      0.00000
    151       6.7362      0.00000
    152       6.7439      0.00000
    153       6.9550      0.00000
    154       6.9550      0.00000
    155       6.9550      0.00000
    156       7.0810      0.00000
    157       7.1266      0.00000
    158       7.1266      0.00000
    159       7.1266      0.00000
    160       7.1905      0.00000
    161       7.1905      0.00000
    162       7.2325      0.00000
    163       7.2369      0.00000
    164       7.2369      0.00000
    165       7.2369      0.00000
    166       7.2436      0.00000
    167       7.2436      0.00000
    168       7.2436      0.00000
    169       7.2806      0.00000
    170       7.2806      0.00000
    171       7.2806      0.00000
    172       7.3306      0.00000
    173       7.3306      0.00000
    174       7.3306      0.00000
    175       7.3481      0.00000
    176       7.3481      0.00000
    177       7.6428      0.00000
    178       7.6428      0.00000
    179       7.6428      0.00000
    180       7.7591      0.00000
    181       7.7838      0.00000
    182       7.7838      0.00000
    183       7.7838      0.00000
    184       7.8294      0.00000
    185       8.1168      0.00000
    186       8.1168      0.00000
    187       8.1168      0.00000
    188       8.2178      0.00000
    189       8.2178      0.00000
    190       8.2185      0.00000
    191       8.2185      0.00000
    192       8.2185      0.00000
    193       8.2332      0.00000
    194       8.2332      0.00000
    195       8.2332      0.00000
    196       8.2358      0.00000
    197       8.6081      0.00000
    198       8.6081      0.00000
    199       8.6081      0.00000
    200       8.6326      0.00000
    201       8.6327      0.00000
    202       8.6666      0.00000
    203       8.6666      0.00000
    204       8.6666      0.00000
    205       8.6914      0.00000
    206       8.6914      0.00000
    207       8.6914      0.00000
    208       8.7075      0.00000
    209       8.9065      0.00000
    210       8.9203      0.00000
    211       8.9203      0.00000
    212       8.9203      0.00000
    213       8.9672      0.00000
    214       8.9672      0.00000
    215       8.9672      0.00000
    216       9.0144      0.00000
    217       9.1130      0.00000
    218       9.1130      0.00000
    219       9.1372      0.00000
    220       9.1372      0.00000
    221       9.1372      0.00000
    222       9.1509      0.00000
    223       9.1509      0.00000
    224       9.1509      0.00000
    225       9.2040      0.00000
    226       9.2040      0.00000
    227       9.2040      0.00000
    228       9.2208      0.00000
    229       9.2208      0.00000
    230       9.2208      0.00000
    231       9.2485      0.00000
    232       9.2485      0.00000
    233       9.3386      0.00000
    234       9.3386      0.00000
    235       9.3643      0.00000
    236       9.3643      0.00000
    237       9.3643      0.00000
    238       9.3712      0.00000
    239       9.3712      0.00000
    240       9.3712      0.00000
    241       9.3860      0.00000
    242       9.3860      0.00000
    243       9.3860      0.00000
    244       9.3961      0.00000
    245       9.3961      0.00000
    246       9.3961      0.00000
    247       9.4083      0.00000
    248       9.4083      0.00000
    249       9.4118      0.00000
    250       9.4279      0.00000
    251       9.4279      0.00000
    252       9.4279      0.00000
    253       9.4373      0.00000
    254       9.4373      0.00000
    255       9.4373      0.00000
    256       9.4438      0.00000


--------------------------------------------------------------------------------------------------------


 soft charge-density along one line, spin component           1
         0         1         2         3         4         5         6         7         8         9
 total charge-density along one line
 
 soft charge-density along one line, spin component           2
         0         1         2         3         4         5         6         7         8         9
 total charge-density along one line
 
 pseudopotential strength for first ion, spin component:           1
-18.770  -0.000   0.000  -0.000   0.000  13.063   0.000  -0.000
 -0.000 -18.770  -0.000  -0.000   0.000   0.000  13.063   0.000
  0.000  -0.000 -18.770  -0.000   0.000  -0.000   0.000  13.063
 -0.000  -0.000  -0.000 -18.770  -0.000   0.000   0.000   0.000
  0.000   0.000   0.000  -0.000 -18.770  -0.000  -0.000  -0.000
 13.063   0.000  -0.000   0.000  -0.000  -5.768  -0.000   0.000
  0.000  13.063   0.000   0.000  -0.000  -0.000  -5.768  -0.000
 -0.000   0.000  13.063   0.000  -0.000   0.000  -0.000  -5.768
  0.000   0.000   0.000  13.063   0.000  -0.000  -0.000  -0.000
 -0.000  -0.000  -0.000   0.000  13.063   0.000   0.000   0.000
  0.000   0.000  -0.000   0.000   0.000   0.000   0.000  -0.000
 -0.000  -0.000   0.000  -0.000  -0.000   0.000   0.000  -0.000
  0.000   0.000  -0.000  -0.000  -0.000  -0.000  -0.000  -0.000
 -0.000   0.000   0.000   0.000  -0.000  -0.000  -0.000   0.000
  0.000  -0.000  -0.000   0.000   0.000  -0.000  -0.000  -0.000
  0.000   0.000   0.000   0.000   0.000   0.000   0.000  -0.000
  0.000   0.000  -0.000   0.000   0.000  -0.000   0.000   0.000
  0.000   0.000   0.000   0.000  -0.000   0.000  -0.000  -0.000
 pseudopotential strength for first ion, spin component:           2
-18.770  -0.000   0.000  -0.000  -0.000  13.054   0.000  -0.000
 -0.000 -18.770  -0.000  -0.000   0.000   0.000  13.054   0.000
  0.000  -0.000 -18.770  -0.000   0.000  -0.000   0.000  13.054
 -0.000  -0.000  -0.000 -18.770  -0.000   0.000   0.000   0.000
 -0.000   0.000   0.000  -0.000 -18.770   0.000  -0.000  -0.000
 13.054   0.000  -0.000   0.000   0.000  -5.767  -0.000   0.000
  0.000  13.054   0.000   0.000  -0.000  -0.000  -5.767  -0.000
 -0.000   0.000  13.054   0.000  -0.000   0.000  -0.000  -5.767
  0.000   0.000   0.000  13.054   0.000  -0.000  -0.000  -0.000
  0.000  -0.000  -0.000   0.000  13.054  -0.000   0.000   0.000
  0.000   0.000  -0.000   0.000   0.000   0.000   0.000  -0.000
 -0.000  -0.000   0.000  -0.000  -0.000   0.000   0.000  -0.000
  0.000   0.000  -0.000  -0.000  -0.000  -0.000  -0.000  -0.000
 -0.000   0.000   0.000   0.000  -0.000  -0.000  -0.000   0.000
  0.000  -0.000  -0.000   0.000   0.000  -0.000  -0.000  -0.000
  0.000   0.000   0.000   0.000   0.000   0.000   0.000  -0.000
  0.000   0.000  -0.000   0.000   0.000  -0.000   0.000   0.000
  0.000   0.000   0.000   0.000  -0.000   0.000  -0.000  -0.000
 total augmentation occupancy for first ion, spin component:           1
  1.998   0.000  -0.000   0.000   0.000  -0.001   0.000  -0.000   0.000  -0.000   0.000   0.000  -0.000  -0.000  -0.000  -0.000
  0.000   1.998   0.000   0.000  -0.000   0.000  -0.001   0.000   0.000  -0.000   0.000   0.000  -0.000  -0.000  -0.000  -0.000
 -0.000   0.000   1.998   0.000  -0.000  -0.000   0.000  -0.001   0.000  -0.000  -0.000  -0.000  -0.000   0.000  -0.000  -0.000
  0.000   0.000   0.000   1.998   0.000   0.000   0.000   0.000  -0.001   0.000   0.000   0.000  -0.000  -0.000  -0.000  -0.000
  0.000  -0.000  -0.000   0.000   1.998   0.000  -0.000  -0.000   0.000  -0.001   0.000   0.000  -0.000   0.000   0.000  -0.000
 -0.001   0.000  -0.000   0.000   0.000   0.000  -0.000   0.000  -0.000   0.000   0.000   0.000   0.000   0.000   0.000   0.000
  0.000  -0.001   0.000   0.000  -0.000  -0.000   0.000  -0.000  -0.000   0.000   0.000   0.000   0.000   0.000   0.000   0.000
 -0.000   0.000  -0.001   0.000  -0.000   0.000  -0.000   0.000  -0.000   0.000  -0.000  -0.000   0.000  -0.000   0.000   0.000
  0.000   0.000   0.000  -0.001   0.000  -0.000  -0.000  -0.000   0.000  -0.000   0.000   0.000   0.000   0.000   0.000  -0.000
 -0.000  -0.000  -0.000   0.000  -0.001   0.000   0.000   0.000  -0.000   0.000   0.000   0.000   0.000  -0.000  -0.000   0.000
  0.000   0.000  -0.000   0.000   0.000   0.000   0.000  -0.000   0.000   0.000   2.001   0.015  -0.000  -0.000  -0.000  -0.000
  0.000   0.000  -0.000   0.000   0.000   0.000   0.000  -0.000   0.000   0.000   0.015   0.007  -0.000  -0.000  -0.000  -0.000
 -0.000  -0.000  -0.000  -0.000  -0.000   0.000   0.000   0.000   0.000   0.000  -0.000  -0.000   0.334  -0.000  -0.000  -0.009
 -0.000  -0.000   0.000  -0.000   0.000   0.000   0.000  -0.000   0.000  -0.000  -0.000  -0.000  -0.000   0.334  -0.000   0.000
 -0.000  -0.000  -0.000  -0.000   0.000   0.000   0.000   0.000   0.000  -0.000  -0.000  -0.000  -0.000  -0.000   0.334   0.000
 -0.000  -0.000  -0.000  -0.000  -0.000   0.000   0.000   0.000  -0.000   0.000  -0.000  -0.000  -0.009   0.000   0.000   0.000
 -0.000  -0.000   0.000  -0.000   0.000  -0.000   0.000  -0.000   0.000  -0.000  -0.000  -0.000   0.000  -0.009   0.000  -0.000
 -0.000  -0.000  -0.000  -0.000   0.000   0.000  -0.000   0.000   0.000  -0.000  -0.000  -0.000   0.000   0.000  -0.009  -0.000
 total augmentation occupancy for first ion, spin component:           2
  0.009  -0.000   0.000  -0.000   0.000   0.007  -0.000   0.000  -0.000   0.000  -0.000   0.000   0.000  -0.000   0.000   0.000
 -0.000   0.009  -0.000  -0.000   0.000  -0.000   0.007  -0.000  -0.000   0.000  -0.000   0.000   0.000   0.000  -0.000   0.000
  0.000  -0.000   0.009  -0.000   0.000   0.000  -0.000   0.007  -0.000   0.000   0.000  -0.000   0.000  -0.000   0.000   0.000
 -0.000  -0.000  -0.000   0.009  -0.000  -0.000  -0.000  -0.000   0.007  -0.000  -0.000   0.000  -0.000   0.000   0.000  -0.000
  0.000   0.000   0.000  -0.000   0.009   0.000   0.000   0.000  -0.000   0.007  -0.000   0.000   0.000   0.000  -0.000   0.000
  0.007  -0.000   0.000  -0.000   0.000  -0.000   0.000  -0.000   0.000   0.000  -0.000  -0.000   0.000   0.000   0.000  -0.000
 -0.000   0.007  -0.000  -0.000   0.000   0.000  -0.000   0.000   0.000  -0.000  -0.000  -0.000   0.000   0.000   0.000  -0.000
  0.000  -0.000   0.007  -0.000   0.000  -0.000   0.000  -0.000   0.000  -0.000   0.000   0.000   0.000  -0.000   0.000  -0.000
 -0.000  -0.000  -0.000   0.007  -0.000   0.000   0.000   0.000  -0.000   0.000  -0.000  -0.000   0.000   0.000   0.000  -0.000
  0.000   0.000   0.000  -0.000   0.007   0.000  -0.000  -0.000   0.000  -0.000  -0.000  -0.000   0.000  -0.000  -0.000  -0.000
 -0.000  -0.000   0.000  -0.000  -0.000  -0.000  -0.000   0.000  -0.000  -0.000  -0.033  -0.120   0.000   0.000   0.000   0.000
  0.000   0.000  -0.000   0.000   0.000  -0.000  -0.000   0.000  -0.000  -0.000  -0.120  -0.002  -0.000  -0.000  -0.000   0.000
  0.000   0.000   0.000  -0.000   0.000   0.000   0.000   0.000   0.000   0.000   0.000  -0.000   0.334  -0.000  -0.000  -0.009
 -0.000   0.000  -0.000   0.000   0.000   0.000   0.000  -0.000   0.000  -0.000   0.000  -0.000  -0.000   0.334  -0.000   0.000
  0.000  -0.000   0.000   0.000  -0.000   0.000   0.000   0.000   0.000  -0.000   0.000  -0.000  -0.000  -0.000   0.334   0.000
  0.000   0.000   0.000  -0.000   0.000  -0.000  -0.000  -0.000  -0.000  -0.000   0.000   0.000  -0.009   0.000   0.000   0.000
 -0.000   0.000  -0.000   0.000  -0.000  -0.000  -0.000   0.000  -0.000   0.000   0.000   0.000   0.000  -0.009   0.000  -0.000
  0.000  -0.000   0.000   0.000  -0.000  -0.000  -0.000  -0.000  -0.000   0.000   0.000   0.000   0.000   0.000  -0.009  -0.000


------------------------ aborting loop because EDIFF is reached ----------------------------------------


    FORLOC:  cpu time    0.0135: real time    0.0158
    FORNL :  cpu time    0.0501: real time    0.0632
    FORCOR:  cpu time    2.3877: real time    2.3942
    OFIELD:  cpu time    0.0004: real time    0.0036

 VOLUME and BASIS-vectors are now :
 -----------------------------------------------------------------------------
  energy-cutoff  :      520.00
  volume of cell :     3375.00
      direct lattice vectors                 reciprocal lattice vectors
    15.000000000  0.000000000  0.000000000     0.066666667  0.000000000  0.000000000
     0.000000000 15.000000000  0.000000000     0.000000000  0.066666667  0.000000000
     0.000000000  0.000000000 15.000000000     0.000000000  0.000000000  0.066666667

  length of vectors
    15.000000000 15.000000000 15.000000000     0.066666667  0.066666667  0.066666667


 FORCES acting on ions:
    Electron-Ion                     Ewald-Force                    Non-Local-Force
 -----------------------------------------------------------------------------------------------
   0.430E-04 0.430E-04 0.457E-04   0.924E-16 0.347E-17 0.186E-16   -.579E-04 -.579E-04 -.115E-03
 -----------------------------------------------------------------------------------------------
   0.451E-04 0.451E-04 0.480E-04   0.924E-16 0.347E-17 0.186E-16   -.579E-04 -.579E-04 -.115E-03
 
 
 POSITION                                       TOTAL-FORCE (eV/Angst)
 -----------------------------------------------------------------------------------
      0.15000      0.15000     11.26500        -0.000013     -0.000013     -0.000067
 -----------------------------------------------------------------------------------
    total drift:                               -0.000013     -0.000013     -0.000067


--------------------------------------------------------------------------------------------------------



  FREE ENERGIE OF THE ION-ELECTRON SYSTEM (eV)
  ---------------------------------------------------
  free  energy   TOTEN  =        -0.37387863 eV

  energy  without entropy=       -0.33531305  energy(sigma->0) =       -0.35459584
 


--------------------------------------------------------------------------------------------------------


    POTLOK:  cpu time    2.9104: real time    2.9234


--------------------------------------------------------------------------------------------------------


 stress matrix after NEB project (eV)
      0.00000      0.00000      0.00000
      0.00000      0.00000      0.00000
      0.00000      0.00000      0.00000
  FORCES: max atom, RMS     0.000070    0.000070
  FORCE total and by dimension    0.000070    0.000067
  Stress total and by dimension    0.000000    0.000000
     LOOP+:  cpu time  210.4344: real time  212.7765
    4ORBIT:  cpu time    0.0000: real time    0.0000

 total amount of memory used by VASP MPI-rank0   177231. kBytes
=======================================================================

   base      :      30000. kBytes
   nonl-proj :      14540. kBytes
   fftplans  :       7479. kBytes
   grid      :     116433. kBytes
   one-center:         31. kBytes
   wavefun   :       8748. kBytes
 
  
  
 General timing and accounting informations for this job:
 ========================================================
  
                  Total CPU time used (sec):      224.403
                            User time (sec):      219.211
                          System time (sec):        5.193
                         Elapsed time (sec):      229.464
  
                   Maximum memory used (kb):      452100.
                   Average memory used (kb):           0.
  
                          Minor page faults:        56080
                          Major page faults:            0
                 Voluntary context switches:         2334
