       N       E                     dE             d eps       ncg     rms          ort
DAV:   1     0.381661859218E+02    0.38166E+02   -0.50530E+03   256   0.420E+01
DAV:   2    -0.170228714251E+01   -0.39868E+02   -0.39755E+02   256   0.321E+00
DAV:   3    -0.177362768962E+01   -0.71341E-01   -0.71133E-01   256   0.414E-01
DAV:   4    -0.177422396428E+01   -0.59627E-03   -0.59627E-03   256   0.470E-02
DAV:   5    -0.177422666407E+01   -0.26998E-05   -0.26998E-05   256   0.207E-03
SDA:   6    -0.211335831330E+01   -0.33913E+00   -0.26998E-05   256   0.251E+00 0.000E+00
CGA:   7    -0.215585167359E+01   -0.42493E-01   -0.42487E-01   256   0.658E-01 0.268E-03
CGA:   8    -0.216763602447E+01   -0.11784E-01   -0.11784E-01   256   0.333E-01-0.530E-06
CGA:   9    -0.217439113567E+01   -0.67551E-02   -0.67548E-02   256   0.177E-01 0.378E-04
CGA:  10    -0.217944574544E+01   -0.50546E-02   -0.50532E-02   256   0.997E-02 0.262E-04
CGA:  11    -0.218156951976E+01   -0.21238E-02   -0.21239E-02   256   0.394E-02 0.231E-05
CGA:  12    -0.218633496703E+01   -0.47654E-02   -0.10096E-03   256   0.183E+00-0.552E-03
CGA:  13    -0.218949755902E+01   -0.31626E-02   -0.11660E-02   256   0.276E+00 0.188E+00
CGA:  14    -0.139540345166E+00    0.20500E+01   -0.13716E+01   256   0.158E+02-0.116E+01
CGA:  15    -0.241105081848E+01   -0.22715E+01   -0.25713E+01   256   0.948E+00 0.311E+01
CGA:  16    -0.258716580933E+01   -0.17611E+00   -0.17559E+00   256   0.999E-01 0.231E-01
CGA:  17    -0.260892695154E+01   -0.21761E-01   -0.21715E-01   256   0.168E-01 0.178E-03
CGA:  18    -0.261389183621E+01   -0.49649E-02   -0.49694E-02   256   0.626E-02-0.654E-05
CGA:  19    -0.261554966269E+01   -0.16578E-02   -0.16622E-02   256   0.150E-02 0.693E-05
CGA:  20    -0.261605473746E+01   -0.50507E-03   -0.50524E-03   256   0.616E-03 0.398E-06
CGA:  21    -0.261626793079E+01   -0.21319E-03   -0.21277E-03   256   0.221E-03-0.207E-05
CGA:  22    -0.261634653062E+01   -0.78600E-04   -0.78536E-04   256   0.674E-04-0.450E-06
CGA:  23    -0.261636702865E+01   -0.20498E-04   -0.20483E-04   256   0.169E-04-0.920E-07
CGA:  24    -0.261637364604E+01   -0.66174E-05   -0.66164E-05   256   0.570E-05-0.113E-07
   1 F= -.26163736E+01 E0= -.26163736E+01  d E =-.634601E-18  mag=     4.0000
