C  N  Ni                                
   1.00000000000000     
    12.3000000000000007    0.0000000000000000    0.0000000000000000
    -6.1499999999999977   10.6521124665485960    0.0000000000000000
     0.0000000000000000    0.0000000000000000   20.0000000000000000
   C    N    Ni
    44     4     1
Direct
  0.9991981724217140  0.0008018313112927  0.7500007318189148
  0.1315236472409111  0.0648350764238472  0.7499898120176098
  0.1981507510433929  0.9981815930775326  0.7499905862860388
  0.3307928122436010  0.0634532381410509  0.7499787578165638
  0.3986350402321150  0.9977892918324898  0.7499938824330670
  0.5315393412893386  0.0679587174539691  0.7499888782026787
  0.5990864413575281  0.0009454496093397  0.7499888709027758
  0.7321750208673237  0.0696011273398653  0.7499992060777672
  0.7993221638703503  0.0024177044133467  0.7500023399117453
  0.9322500700795118  0.0677499249194611  0.7500032524848308
  0.9975822926177855  0.2006778261429005  0.7500023422535662
  0.1310966499697770  0.2652799577639655  0.7499927750776791
  0.1967767301354257  0.1974676074223751  0.7499772598810495
  0.3285014814523066  0.2621292482571533  0.7500193843300522
  0.3954058462811432  0.1951813854582554  0.7500204316613903
  0.5933413669489482  0.2034224305343741  0.7500475303575058
  0.7281533838211871  0.2718466161567434  0.7500217613442786
  0.7962210727441601  0.2037789005196018  0.7499987425221093
  0.9303988373978029  0.2678249388661342  0.7499992091230823
  0.9990545096750196  0.4009134991233054  0.7499888705467157
  0.1342977841282789  0.4657427520010913  0.7499883075460971
  0.2012854856383015  0.3981799611201566  0.7499876896049429
  0.3367493395559222  0.4600248756171013  0.7500466102699264
  0.7965775734331046  0.4066586357588236  0.7500475320014175
  0.9320412805944756  0.4684606470519483  0.7499888781258406
  0.0022107319434781  0.6013649350926400  0.7499938783007210
  0.1357309436459104  0.6659715798056780  0.7500022713866699
  0.2029289871750919  0.5988234853707510  0.7499987611577481
  0.3371035445880395  0.6628963967652410  0.7499989772408782
  0.4051785445433254  0.5948214572729569  0.7500222936558600
  0.5399751264341290  0.6632506742827715  0.7500466101089032
  0.7378707608029131  0.6714985262357942  0.7500193818539458
  0.8048186335678622  0.6045941571866891  0.7500204301608733
  0.9365467846324904  0.6692071833659838  0.7499787544945278
  0.0018183868490240  0.8018492426476556  0.7499905816813168
  0.1341513894605129  0.8658485738957467  0.7500007803994677
  0.2010954860681053  0.7989044297678447  0.7500033427482649
  0.3340283156372479  0.8642690638511752  0.7500022760986909
  0.4011763478659987  0.7970709666053395  0.7499987644118278
  0.5342570992069753  0.8657021654648389  0.7499883083145917
  0.6018199626671077  0.7987145163527316  0.7499876891265203
  0.7347199895558134  0.8689033469161203  0.7499927732200717
  0.8025323694949691  0.8032232746990928  0.7499772559750753
  0.9351649059424005  0.8684763545910101  0.7499898094810291
  0.5241710324115374  0.2638044888621138  0.7501576499855531
  0.3971530066118092  0.3908808068973144  0.7501559488897911
  0.7361955159815139  0.4758289721886442  0.7501576503554972
  0.6091191997307419  0.6028470019824468  0.7501559501963229
  0.5666658401435640  0.4333341635833037  0.7502962181581765
 
  0.00000000E+00  0.00000000E+00  0.00000000E+00
  0.00000000E+00  0.00000000E+00  0.00000000E+00
  0.00000000E+00  0.00000000E+00  0.00000000E+00
  0.00000000E+00  0.00000000E+00  0.00000000E+00
  0.00000000E+00  0.00000000E+00  0.00000000E+00
  0.00000000E+00  0.00000000E+00  0.00000000E+00
  0.00000000E+00  0.00000000E+00  0.00000000E+00
  0.00000000E+00  0.00000000E+00  0.00000000E+00
  0.00000000E+00  0.00000000E+00  0.00000000E+00
  0.00000000E+00  0.00000000E+00  0.00000000E+00
  0.00000000E+00  0.00000000E+00  0.00000000E+00
  0.00000000E+00  0.00000000E+00  0.00000000E+00
  0.00000000E+00  0.00000000E+00  0.00000000E+00
  0.00000000E+00  0.00000000E+00  0.00000000E+00
  0.00000000E+00  0.00000000E+00  0.00000000E+00
  0.00000000E+00  0.00000000E+00  0.00000000E+00
  0.00000000E+00  0.00000000E+00  0.00000000E+00
  0.00000000E+00  0.00000000E+00  0.00000000E+00
  0.00000000E+00  0.00000000E+00  0.00000000E+00
  0.00000000E+00  0.00000000E+00  0.00000000E+00
  0.00000000E+00  0.00000000E+00  0.00000000E+00
  0.00000000E+00  0.00000000E+00  0.00000000E+00
  0.00000000E+00  0.00000000E+00  0.00000000E+00
  0.00000000E+00  0.00000000E+00  0.00000000E+00
  0.00000000E+00  0.00000000E+00  0.00000000E+00
  0.00000000E+00  0.00000000E+00  0.00000000E+00
  0.00000000E+00  0.00000000E+00  0.00000000E+00
  0.00000000E+00  0.00000000E+00  0.00000000E+00
  0.00000000E+00  0.00000000E+00  0.00000000E+00
  0.00000000E+00  0.00000000E+00  0.00000000E+00
  0.00000000E+00  0.00000000E+00  0.00000000E+00
  0.00000000E+00  0.00000000E+00  0.00000000E+00
  0.00000000E+00  0.00000000E+00  0.00000000E+00
  0.00000000E+00  0.00000000E+00  0.00000000E+00
  0.00000000E+00  0.00000000E+00  0.00000000E+00
  0.00000000E+00  0.00000000E+00  0.00000000E+00
  0.00000000E+00  0.00000000E+00  0.00000000E+00
  0.00000000E+00  0.00000000E+00  0.00000000E+00
  0.00000000E+00  0.00000000E+00  0.00000000E+00
  0.00000000E+00  0.00000000E+00  0.00000000E+00
  0.00000000E+00  0.00000000E+00  0.00000000E+00
  0.00000000E+00  0.00000000E+00  0.00000000E+00
  0.00000000E+00  0.00000000E+00  0.00000000E+00
  0.00000000E+00  0.00000000E+00  0.00000000E+00
  0.00000000E+00  0.00000000E+00  0.00000000E+00
  0.00000000E+00  0.00000000E+00  0.00000000E+00
  0.00000000E+00  0.00000000E+00  0.00000000E+00
  0.00000000E+00  0.00000000E+00  0.00000000E+00
  0.00000000E+00  0.00000000E+00  0.00000000E+00
