       N       E                     dE             d eps       ncg     rms          ort
DAV:   1     0.992256994232E+03    0.99226E+03   -0.87677E+04  3328   0.671E+02
DAV:   2    -0.365986022081E+03   -0.13582E+04   -0.13578E+04  3328   0.974E+01
DAV:   3    -0.440832247814E+03   -0.74846E+02   -0.74845E+02  3328   0.365E+01
DAV:   4    -0.441599267852E+03   -0.76702E+00   -0.76702E+00  3328   0.395E+00
DAV:   5    -0.441599420831E+03   -0.15298E-03   -0.15298E-03  3328   0.694E-02
SDA:   6    -0.441599420831E+03    0.00000E+00   -0.15298E-03  3328   0.181E-05 0.000E+00
   1 F= -.44334967E+03 E0= -.44334786E+03  d E =-.361295E-02  mag=     0.0000
