       N       E                     dE             d eps       ncg     rms          ort
DAV:   1     0.170096815586E+01    0.17010E+01   -0.10362E+03   256   0.915E+00
DAV:   2    -0.212076298501E+00   -0.19130E+01   -0.18751E+01   256   0.465E-01
DAV:   3    -0.213900749095E+00   -0.18245E-02   -0.18202E-02   256   0.270E-02
DAV:   4    -0.213904850571E+00   -0.41015E-05   -0.41014E-05   256   0.122E-03
DAV:   5    -0.213904851155E+00   -0.58359E-09   -0.58322E-09   256   0.152E-05
SDA:   6    -0.231705411261E+00   -0.17801E-01   -0.58322E-09   256   0.511E-02 0.000E+00
CGA:   7    -0.234129528801E+00   -0.24241E-02   -0.24115E-02   256   0.157E-02 0.529E-04
CGA:   8    -0.234927548359E+00   -0.79802E-03   -0.79622E-03   256   0.586E-03 0.483E-05
CGA:   9    -0.235199686092E+00   -0.27214E-03   -0.27233E-03   256   0.114E-03-0.959E-06
CGA:  10    -0.235246005312E+00   -0.46319E-04   -0.46427E-04   256   0.151E-04-0.643E-06
CGA:  11    -0.235252636028E+00   -0.66307E-05   -0.66678E-05   256   0.263E-05-0.186E-06
   1 F= -.23525264E+00 E0= -.21596985E+00  d E =-.385656E-01  mag=     1.0000
