 vasp.5.4.4.18Apr17-6-g9f103f2a35 (build Nov 21 2023 15:34:30) complex          
  
 executed on             LinuxIFC date 2026.09.21  17:32:28
 running on  256 total cores
 distrk:  each k-point on  256 cores,    1 groups
 distr:  one band on NCORES_PER_BAND=   1 cores,  256 groups


--------------------------------------------------------------------------------------------------------


 INCAR:
 POTCAR:   PAW_PBE Al 04Jan2001                   

 ----------------------------------------------------------------------------- 
|                                                                             |
|           W    W    AA    RRRRR   N    N  II  N    N   GGGG   !!!           |
|           W    W   A  A   R    R  NN   N  II  NN   N  G    G  !!!           |
|           W    W  A    A  R    R  N N  N  II  N N  N  G       !!!           |
|           W WW W  AAAAAA  RRRRR   N  N N  II  N  N N  G  GGG   !            |
|           WW  WW  A    A  R   R   N   NN  II  N   NN  G    G                |
|           W    W  A    A  R    R  N    N  II  N    N   GGGG   !!!           |
|                                                                             |
|      For optimal performance we recommend to set                            |
|        NCORE= 4 - approx SQRT( number of cores)                             |
|      NCORE specifies how many cores store one orbital (NPAR=cpu/NCORE).     |
|      This setting can  greatly improve the performance of VASP for DFT.     |
|      The default,   NCORE=1            might be grossly inefficient         |
|      on modern multi-core architectures or massively parallel machines.     |
|      Do your own testing !!!!                                               |
|      Unfortunately you need to use the default for GW and RPA calculations. |
|      (for HF NCORE is supported but not extensively tested yet)             |
|                                                                             |
 ----------------------------------------------------------------------------- 

 POTCAR:   PAW_PBE Al 04Jan2001                   
   VRHFIN =Al: s2p1                                                             
   LEXCH  = PE                                                                  
   EATOM  =    53.5387 eV,    3.9350 Ry                                         
                                                                                
   TITEL  = PAW_PBE Al 04Jan2001                                                
   LULTRA =        F    use ultrasoft PP ?                                      
   IUNSCR =        1    unscreen: 0-lin 1-nonlin 2-no                           
   RPACOR =    1.500    partial core radius                                     
   POMASS =   26.982; ZVAL   =    3.000    mass and valenz                      
   RCORE  =    1.900    outmost cutoff radius                                   
   RWIGS  =    2.650; RWIGS  =    1.402    wigner-seitz radius (au A)           
   ENMAX  =  240.300; ENMIN  =  180.225 eV                                      
   ICORE  =        2    local potential                                         
   LCOR   =        T    correct aug charges                                     
   LPAW   =        T    paw PP                                                  
   EAUG   =  291.052                                                            
   DEXC   =    -.041                                                            
   RMAX   =    2.974    core radius for proj-oper                               
   RAUG   =    1.300    factor for augmentation sphere                          
   RDEP   =    1.966    radius for radial grids                                 
   QCUT   =   -4.203; QGAM   =    8.405    optimization parameters              
                                                                                
   Description                                                                  
     l     E      TYP  RCUT    TYP  RCUT                                        
     0   .000     23  1.900                                                     
     0   .000     23  1.900                                                     
     1   .000     23  1.900                                                     
     1  1.000     23  1.900                                                     
     2   .000      7  1.900                                                     
  local pseudopotential read in
  partial core-charges read in
  atomic valenz-charges read in
  non local Contribution for L=           0  read in
    real space projection operators read in
  non local Contribution for L=           0  read in
    real space projection operators read in
  non local Contribution for L=           1  read in
    real space projection operators read in
  non local Contribution for L=           1  read in
    real space projection operators read in
    PAW grid and wavefunctions read in
 
   number of l-projection  operators is LMAX  =           4
   number of lm-projection operators is LMMAX =           8
 
 PAW_PBE Al 04Jan2001                   :
 energy of atom  1       EATOM=  -53.5387
 kinetic energy error for atom=    0.0002 (will be added to EATOM!!)
 
 
 POSCAR: Al                                      
  positions in direct lattice
  No initial velocities read in
 exchange correlation table for  LEXCH =        8
   RHO(1)=    0.500       N(1)  =     2000
   RHO(2)=  100.500       N(2)  =     4000

 VTST: version 3.2, (02/03/18)

 CHAIN: initializing optimizer
 
 OPT: Using VASP Dynamics algorithm
 CHAIN: Read ICHAIN            0
 
 POSCAR: Al                                      
  positions in direct lattice
  No initial velocities read in
 


--------------------------------------------------------------------------------------------------------


 ion  position               nearest neighbor table
   1  0.010  0.010  0.751-
 

IMPORTANT INFORMATION: All symmetrisations will be switched off!
NOSYMM: (Re-)initialisation of all symmetry stuff for point group C_1.

 
 

Automatic generation of k-mesh.
 generate k-points for:    1    1    1
Space group operators:
 irot       det(A)        alpha          n_x          n_y          n_z        tau_x        tau_y        tau_z
    1     1.000000     0.000000     1.000000     0.000000     0.000000     0.000000     0.000000     0.000000
 
 Subroutine IBZKPT returns following result:
 ===========================================
 
 Found      1 irreducible k-points:
 
 Following reciprocal coordinates:
            Coordinates               Weight
  0.000000  0.000000  0.000000      1.000000
 
 Following cartesian coordinates:
            Coordinates               Weight
  0.000000  0.000000  0.000000      1.000000
 


--------------------------------------------------------------------------------------------------------




 Dimension of arrays:
   k-points           NKPTS =      1   k-points in BZ     NKDIM =      1   number of bands    NBANDS=    256
   number of dos      NEDOS =    301   number of ions     NIONS =      1
   non local maximal  LDIM  =      4   non local SUM 2l+1 LMDIM =      8
   total plane-waves  NPLWV = ******
   max r-space proj   IRMAX =      1   max aug-charges    IRDMAX=  16399
   dimension x,y,z NGX =   112 NGY =  112 NGZ =  112
   dimension x,y,z NGXF=   224 NGYF=  224 NGZF=  224
   support grid    NGXF=   224 NGYF=  224 NGZF=  224
   ions per type =               1
   NGX,Y,Z   is equivalent  to a cutoff of  12.41, 12.41, 12.41 a.u.
   NGXF,Y,Z  is equivalent  to a cutoff of  24.83, 24.83, 24.83 a.u.

 SYSTEM =  Al                                      
 POSCAR =  Al                                      

 Startparameter for this run:
   NWRITE =      2    write-flag & timer
   PREC   = accura    normal or accurate (medium, high low for compatibility)
   ISTART =      0    job   : 0-new  1-cont  2-samecut
   ICHARG =      2    charge: 1-file 2-atom 10-const
   ISPIN  =      2    spin polarized calculation?
   LNONCOLLINEAR =      F non collinear calculations
   LSORBIT =      F    spin-orbit coupling
   INIWAV =      1    electr: 0-lowe 1-rand  2-diag
   LASPH  =      T    aspherical Exc in radial PAW
   METAGGA=      F    non-selfconsistent MetaGGA calc.

 Electronic Relaxation 1
   ENCUT  =  520.0 eV  38.22 Ry    6.18 a.u.  27.89 27.89 27.89*2*pi/ulx,y,z
   ENINI  =  520.0     initial cutoff
   ENAUG  =  291.1 eV  augmentation charge cutoff
   NELM   =    200;   NELMIN=  2; NELMDL= -5     # of ELM steps 
   EDIFF  = 0.1E-04   stopping-criterion for ELM
   LREAL  =      F    real-space projection
   NLSPLINE    = F    spline interpolate recip. space projectors
   LCOMPAT=      F    compatible to vasp.4.4
   GGA_COMPAT  = T    GGA compatible to vasp.4.4-vasp.4.6
   LMAXPAW     = -100 max onsite density
   LMAXMIX     =    2 max onsite mixed and CHGCAR
   VOSKOWN=      0    Vosko Wilk Nusair interpolation
   ROPT   =    0.00000
 Ionic relaxation
   EDIFFG = 0.1E-03   stopping-criterion for IOM
   NSW    =      0    number of steps for IOM
   NBLOCK =      1;   KBLOCK =      1    inner block; outer block 
   IBRION =     -1    ionic relax: 0-MD 1-quasi-New 2-CG
   NFREE  =      0    steps in history (QN), initial steepest desc. (CG)
   ISIF   =      0    stress and relaxation
   IWAVPR =     10    prediction:  0-non 1-charg 2-wave 3-comb
   ISYM   =      0    0-nonsym 1-usesym 2-fastsym
   LCORR  =      T    Harris-Foulkes like correction to forces

   POTIM  = 0.5000    time-step for ionic-motion
   TEIN   =    0.0    initial temperature
   TEBEG  =    0.0;   TEEND  =   0.0 temperature during run
   SMASS  =  -3.00    Nose mass-parameter (am)
   estimated Nose-frequenzy (Omega)   =  0.10E-29 period in steps =****** mass=  -0.514E-26a.u.
   SCALEE = 1.0000    scale energy and forces
   NPACO  =    256;   APACO  = 16.0  distance and # of slots for P.C.
   PSTRESS=    0.0 pullay stress

  Mass of Ions in am
   POMASS =  26.98
  Ionic Valenz
   ZVAL   =   3.00
  Atomic Wigner-Seitz radii
   RWIGS  =  -1.00
  virtual crystal weights 
   VCA    =   1.00
   NELECT =       3.0000    total number of electrons
   NUPDOWN=       1.0000    fix difference up-down

 DOS related values:
   EMIN   =  10.00;   EMAX   =-10.00  energy-range for DOS
   EFERMI =   0.00
   ISMEAR =     0;   SIGMA  =   0.05  broadening in eV -4-tet -1-fermi 0-gaus

 Electronic relaxation 2 (details)
   IALGO  =     58    algorithm
   LDIAG  =      T    sub-space diagonalisation (order eigenvalues)
   LSUBROT=      F    optimize rotation matrix (better conditioning)
   TURBO    =      0    0=normal 1=particle mesh
   IRESTART =      0    0=no restart 2=restart with 2 vectors
   NREBOOT  =      0    no. of reboots
   NMIN     =      0    reboot dimension
   EREF     =   0.00    reference energy to select bands
   IMIX   =      4    mixing-type and parameters
     AMIX     =   0.40;   BMIX     =  1.00
     AMIX_MAG =   1.60;   BMIX_MAG =  1.00
     AMIN     =   0.10
     WC   =   100.;   INIMIX=   1;  MIXPRE=   1;  MAXMIX= -45

 Intra band minimization:
   WEIMIN = 0.0000     energy-eigenvalue tresh-hold
   EBREAK =  0.98E-08  absolut break condition
   DEPER  =   0.30     relativ break condition  

   TIME   =   0.40     timestep for ELM

  volume/ion in A,a.u.               =    3375.00     22775.62
  Fermi-wavevector in a.u.,A,eV,Ry     =   0.157407  0.297456  0.337111  0.024777
  Thomas-Fermi vector in A             =   0.845991
 
 Write flags
   LWAVE        =      F    write WAVECAR
   LDOWNSAMPLE  =      F    k-point downsampling of WAVECAR
   LCHARG       =      F    write CHGCAR
   LVTOT        =      F    write LOCPOT, total local potential
   LVHAR        =      F    write LOCPOT, Hartree potential only
   LELF         =      F    write electronic localiz. function (ELF)
   LORBIT       =      0    0 simple, 1 ext, 2 COOP (PROOUT), +10 PAW based schemes


 Dipole corrections
   LMONO  =      F    monopole corrections only (constant potential shift)
   LDIPOL =      F    correct potential (dipole corrections)
   IDIPOL =      0    1-x, 2-y, 3-z, 4-all directions 
   EPSILON=  1.0000000 bulk dielectric constant

 Exchange correlation treatment:
   GGA     =    --    GGA type
   LEXCH   =     8    internal setting for exchange type
   VOSKOWN=      0    Vosko Wilk Nusair interpolation
   LHFCALC =     F    Hartree Fock is set to
   LHFONE  =     F    Hartree Fock one center treatment
   AEXX    =    0.0000 exact exchange contribution

 Linear response parameters
   LEPSILON=     F    determine dielectric tensor
   LRPA    =     F    only Hartree local field effects (RPA)
   LNABLA  =     F    use nabla operator in PAW spheres
   LVEL    =     F    velocity operator in full k-point grid
   LINTERFAST=   F  fast interpolation
   KINTER  =     0    interpolate to denser k-point grid
   CSHIFT  =0.1000    complex shift for real part using Kramers Kronig
   OMEGAMAX=  -1.0    maximum frequency
   DEG_THRESHOLD= 0.2000000E-02 threshold for treating states as degnerate
   RTIME   =   -0.100 relaxation time in fs
  (WPLASMAI=    0.000 imaginary part of plasma frequency in eV, 0.658/RTIME)
   DFIELD  = 0.0000000 0.0000000 0.0000000 field for delta impulse in time
 
 Orbital magnetization related:
   ORBITALMAG=     F  switch on orbital magnetization
   LCHIMAG   =     F  perturbation theory with respect to B field
   DQ        =  0.001000  dq finite difference perturbation B field
   LLRAUG    =     F  two centre corrections for induced B field



--------------------------------------------------------------------------------------------------------


 Static calculation
 charge density and potential will be updated during run
 spin polarized calculation
 Conjugate gradient for all bands (Freysoldt, et al. PRB 79, 241103 (2009))
 preconditioned conjugated gradient                                        
 perform sub-space diagonalisation
    before iterative eigenvector-optimisation
 modified Broyden-mixing scheme, WC =      100.0
 initial mixing is a Kerker type mixing with AMIX =  0.4000 and BMIX =      1.0000
 Hartree-type preconditioning will be used
 using additional bands          254
 reciprocal scheme for non local part
 use partial core corrections
 no Harris-corrections to forces 
 use gradient corrections 
 use of overlap-Matrix (Vanderbilt PP)
 Gauss-broadening in eV      SIGMA  =   0.05


--------------------------------------------------------------------------------------------------------


  energy-cutoff  :      520.00
  volume of cell :     3375.00
      direct lattice vectors                 reciprocal lattice vectors
    15.000000000  0.000000000  0.000000000     0.066666667  0.000000000  0.000000000
     0.000000000 15.000000000  0.000000000     0.000000000  0.066666667  0.000000000
     0.000000000  0.000000000 15.000000000     0.000000000  0.000000000  0.066666667

  length of vectors
    15.000000000 15.000000000 15.000000000     0.066666667  0.066666667  0.066666667


 
 k-points in units of 2pi/SCALE and weight: read from INCAR                         
   0.00000000  0.00000000  0.00000000       1.000
 
 k-points in reciprocal lattice and weights: read from INCAR                         
   0.00000000  0.00000000  0.00000000       1.000
 
 position of ions in fractional coordinates (direct lattice) 
   0.01000000  0.01000000  0.75100000
 
 position of ions in cartesian coordinates  (Angst):
   0.15000000  0.15000000 11.26500000
 


--------------------------------------------------------------------------------------------------------


 k-point  1 :   0.0000 0.0000 0.0000  plane waves:   90879

 maximum and minimum number of plane-waves per node :     90879    90879

 maximum number of plane-waves:     90879
 maximum index in each direction: 
   IXMAX=   27   IYMAX=   27   IZMAX=   27
   IXMIN=  -27   IYMIN=  -27   IZMIN=  -27


 serial   3D FFT for wavefunctions
 parallel 3D FFT for charge:
    minimum data exchange during FFTs selected (reduces bandwidth)


 total amount of memory used by VASP MPI-rank0   169936. kBytes
=======================================================================

   base      :      30000. kBytes
   nonl-proj :       7270. kBytes
   fftplans  :       7479. kBytes
   grid      :     116433. kBytes
   one-center:          6. kBytes
   wavefun   :       8748. kBytes
 
     INWAV:  cpu time    0.0000: real time    0.0000
 Broyden mixing: mesh for mixing (old mesh)
   NGX = 55   NGY = 55   NGZ = 55
  (NGX  =224   NGY  =224   NGZ  =224)
  gives a total of 166375 points

 initial charge density was supplied:
 charge density of overlapping atoms calculated
 number of electron       3.0000000 magnetization       1.0000000
 keeping initial charge density in first step


--------------------------------------------------------------------------------------------------------


 Maximum index for augmentation-charges          748 (set IRDMAX)


--------------------------------------------------------------------------------------------------------


 First call to EWALD:  gamma=   0.118
 Maximum number of real-space cells 3x 3x 3
 Maximum number of reciprocal cells 3x 3x 3

    FEWALD:  cpu time    0.0199: real time    0.0199


--------------------------------------- Iteration      1(   1)  ---------------------------------------


    POTLOK:  cpu time    2.3314: real time    2.3670
    SETDIJ:  cpu time    0.1871: real time    0.2024
    TRIAL :  cpu time    8.0929: real time    8.1174
    CORREC:  cpu time    0.0347: real time    0.0359
    --------------------------------------------
      LOOP:  cpu time   10.6555: real time   10.7382

 eigenvalue-minimisations  :  1024
 total energy-change (2. order) : 0.1700968E+01  (-0.1036238E+03)
 number of electron       3.0000000 magnetization       1.0000000
 augmentation part        3.0000000 magnetization       1.0000000

 Free energy of the ion-electron system (eV)
  ---------------------------------------------------
  alpha Z        PSCENC =        -0.00099520
  Ewald energy   TEWEN  =       -12.25694400
  -Hartree energ DENC   =       -27.17198790
  -exchange      EXHF   =         0.00000000
  -V(xc)+E(xc)   XCENC  =       -27.96751690
  PAW double counting   =        35.50090414       -3.54792879
  entropy T*S    EENTRO =        -0.00000000
  eigenvalues    EBANDS =       -16.39302026
  atomic energy  EATOM  =        53.53845706
  ---------------------------------------------------
  free energy    TOTEN  =         1.70096816 eV

  energy without entropy =        1.70096816  energy(sigma->0) =        1.70096816


--------------------------------------------------------------------------------------------------------




--------------------------------------- Iteration      1(   2)  ---------------------------------------


    TRIAL :  cpu time   29.3925: real time   29.4152
    CORREC:  cpu time    0.2458: real time    0.2458
    --------------------------------------------
      LOOP:  cpu time   29.6767: real time   29.7032

 eigenvalue-minimisations  :  1536
 total energy-change (2. order) :-0.1913044E+01  (-0.1875109E+01)
 number of electron       3.0000000 magnetization       1.0000000
 augmentation part        3.0000000 magnetization       1.0000000

 Free energy of the ion-electron system (eV)
  ---------------------------------------------------
  alpha Z        PSCENC =        -0.00099520
  Ewald energy   TEWEN  =       -12.25694400
  -Hartree energ DENC   =       -27.17198790
  -exchange      EXHF   =         0.00000000
  -V(xc)+E(xc)   XCENC  =       -27.96751690
  PAW double counting   =        35.50090414       -3.54792879
  entropy T*S    EENTRO =        -0.03856134
  eigenvalues    EBANDS =       -18.26750337
  atomic energy  EATOM  =        53.53845706
  ---------------------------------------------------
  free energy    TOTEN  =        -0.21207630 eV

  energy without entropy =       -0.17351496  energy(sigma->0) =       -0.19279563


--------------------------------------------------------------------------------------------------------




--------------------------------------- Iteration      1(   3)  ---------------------------------------


    TRIAL :  cpu time   17.1019: real time   17.1024
    CORREC:  cpu time    0.0921: real time    0.0921
    --------------------------------------------
      LOOP:  cpu time   17.2684: real time   17.2795

 eigenvalue-minimisations  :  1024
 total energy-change (2. order) :-0.1824451E-02  (-0.1820223E-02)
 number of electron       3.0000000 magnetization       1.0000000
 augmentation part        3.0000000 magnetization       1.0000000

 Free energy of the ion-electron system (eV)
  ---------------------------------------------------
  alpha Z        PSCENC =        -0.00099520
  Ewald energy   TEWEN  =       -12.25694400
  -Hartree energ DENC   =       -27.17198790
  -exchange      EXHF   =         0.00000000
  -V(xc)+E(xc)   XCENC  =       -27.96751690
  PAW double counting   =        35.50090414       -3.54792879
  entropy T*S    EENTRO =        -0.03856558
  eigenvalues    EBANDS =       -18.26932358
  atomic energy  EATOM  =        53.53845706
  ---------------------------------------------------
  free energy    TOTEN  =        -0.21390075 eV

  energy without entropy =       -0.17533517  energy(sigma->0) =       -0.19461796


--------------------------------------------------------------------------------------------------------




--------------------------------------- Iteration      1(   4)  ---------------------------------------


    TRIAL :  cpu time   13.0383: real time   13.0387
    CORREC:  cpu time    0.0776: real time    0.0775
    --------------------------------------------
      LOOP:  cpu time   13.1233: real time   13.1248

 eigenvalue-minimisations  :  1536
 total energy-change (2. order) :-0.4101476E-05  (-0.4101393E-05)
 number of electron       3.0000000 magnetization       1.0000000
 augmentation part        3.0000000 magnetization       1.0000000

 Free energy of the ion-electron system (eV)
  ---------------------------------------------------
  alpha Z        PSCENC =        -0.00099520
  Ewald energy   TEWEN  =       -12.25694400
  -Hartree energ DENC   =       -27.17198790
  -exchange      EXHF   =         0.00000000
  -V(xc)+E(xc)   XCENC  =       -27.96751690
  PAW double counting   =        35.50090414       -3.54792879
  entropy T*S    EENTRO =        -0.03856558
  eigenvalues    EBANDS =       -18.26932768
  atomic energy  EATOM  =        53.53845706
  ---------------------------------------------------
  free energy    TOTEN  =        -0.21390485 eV

  energy without entropy =       -0.17533927  energy(sigma->0) =       -0.19462206


--------------------------------------------------------------------------------------------------------




--------------------------------------- Iteration      1(   5)  ---------------------------------------


    TRIAL :  cpu time    8.5733: real time    8.5972
    CORREC:  cpu time    0.0770: real time    0.0770
    CHARGE:  cpu time    1.1941: real time    1.2168
    --------------------------------------------
      LOOP:  cpu time    9.8508: real time    9.8975

 eigenvalue-minimisations  :  1024
 total energy-change (2. order) :-0.5835901E-09  (-0.5832172E-09)
 number of electron       3.0000000 magnetization       1.0000000
 augmentation part       -0.0673691 magnetization       0.0031156

 Free energy of the ion-electron system (eV)
  ---------------------------------------------------
  alpha Z        PSCENC =        -0.00099520
  Ewald energy   TEWEN  =       -12.25694400
  -Hartree energ DENC   =       -27.17198790
  -exchange      EXHF   =         0.00000000
  -V(xc)+E(xc)   XCENC  =       -27.96751690
  PAW double counting   =        35.50090414       -3.54792879
  entropy T*S    EENTRO =        -0.03856558
  eigenvalues    EBANDS =       -18.26932768
  atomic energy  EATOM  =        53.53845706
  ---------------------------------------------------
  free energy    TOTEN  =        -0.21390485 eV

  energy without entropy =       -0.17533927  energy(sigma->0) =       -0.19462206


--------------------------------------------------------------------------------------------------------




--------------------------------------- Iteration      1(   6)  ---------------------------------------


    POTLOK:  cpu time    2.4021: real time    2.4022
    SETDIJ:  cpu time    0.1842: real time    0.1842
    TRIAL :  cpu time    3.4029: real time    3.7169
    CORREC:  cpu time    5.4533: real time    5.5804
    CHARGE:  cpu time    1.2313: real time    1.2313
    --------------------------------------------
      LOOP:  cpu time   12.6936: real time   13.1352

 eigenvalue-minimisations  :     0
 total energy-change (2. order) :-0.1780056E-01  (-0.2411541E-02)
 number of electron       3.0000000 magnetization       1.0000000
 augmentation part       -0.0667860 magnetization       0.0039906

 Free energy of the ion-electron system (eV)
  ---------------------------------------------------
  alpha Z        PSCENC =        -0.00099520
  Ewald energy   TEWEN  =       -12.25694400
  -Hartree energ DENC   =       -27.51534064
  -exchange      EXHF   =         0.00000000
  -V(xc)+E(xc)   XCENC  =       -27.95577963
  PAW double counting   =        35.63580060       -3.68511711
  entropy T*S    EENTRO =        -0.03856558
  eigenvalues    EBANDS =       -17.95322092
  atomic energy  EATOM  =        53.53845706
  ---------------------------------------------------
  free energy    TOTEN  =        -0.23170541 eV

  energy without entropy =       -0.19313983  energy(sigma->0) =       -0.21242262


--------------------------------------------------------------------------------------------------------




--------------------------------------- Iteration      1(   7)  ---------------------------------------


    POTLOK:  cpu time    2.2938: real time    2.2938
    SETDIJ:  cpu time    0.1846: real time    0.1846
    TRIAL :  cpu time    3.3561: real time    3.4377
    CORREC:  cpu time    5.3586: real time    5.4355
    CHARGE:  cpu time    1.2673: real time    1.2677
    --------------------------------------------
      LOOP:  cpu time   12.4799: real time   12.6390

 eigenvalue-minimisations  :     0
 total energy-change (2. order) :-0.2424118E-02  (-0.7962241E-03)
 number of electron       3.0000000 magnetization       1.0000000
 augmentation part       -0.0669960 magnetization       0.0040157

 Free energy of the ion-electron system (eV)
  ---------------------------------------------------
  alpha Z        PSCENC =        -0.00099520
  Ewald energy   TEWEN  =       -12.25694400
  -Hartree energ DENC   =       -27.39173957
  -exchange      EXHF   =         0.00000000
  -V(xc)+E(xc)   XCENC  =       -27.96631447
  PAW double counting   =        35.57261808       -3.61825756
  entropy T*S    EENTRO =        -0.03856558
  eigenvalues    EBANDS =       -18.07238829
  atomic energy  EATOM  =        53.53845706
  ---------------------------------------------------
  free energy    TOTEN  =        -0.23412953 eV

  energy without entropy =       -0.19556395  energy(sigma->0) =       -0.21484674


--------------------------------------------------------------------------------------------------------




--------------------------------------- Iteration      1(   8)  ---------------------------------------


    POTLOK:  cpu time    2.2757: real time    2.2765
    SETDIJ:  cpu time    0.1803: real time    0.1803
    TRIAL :  cpu time    3.2592: real time    3.3428
    CORREC:  cpu time    5.3933: real time    5.4905
    CHARGE:  cpu time    1.2146: real time    1.2149
    --------------------------------------------
      LOOP:  cpu time   12.3415: real time   12.5256

 eigenvalue-minimisations  :     0
 total energy-change (2. order) :-0.7980196E-03  (-0.2723286E-03)
 number of electron       3.0000000 magnetization       1.0000000
 augmentation part       -0.0670970 magnetization       0.0040257

 Free energy of the ion-electron system (eV)
  ---------------------------------------------------
  alpha Z        PSCENC =        -0.00099520
  Ewald energy   TEWEN  =       -12.25694400
  -Hartree energ DENC   =       -27.34937100
  -exchange      EXHF   =         0.00000000
  -V(xc)+E(xc)   XCENC  =       -27.97244120
  PAW double counting   =        35.56349054       -3.60869359
  entropy T*S    EENTRO =        -0.03856558
  eigenvalues    EBANDS =       -18.10986457
  atomic energy  EATOM  =        53.53845706
  ---------------------------------------------------
  free energy    TOTEN  =        -0.23492755 eV

  energy without entropy =       -0.19636197  energy(sigma->0) =       -0.21564476


--------------------------------------------------------------------------------------------------------




--------------------------------------- Iteration      1(   9)  ---------------------------------------


    POTLOK:  cpu time    2.3003: real time    2.3010
    SETDIJ:  cpu time    0.1834: real time    0.1834
    TRIAL :  cpu time    3.2458: real time    3.3348
    CORREC:  cpu time    5.3813: real time    5.4778
    CHARGE:  cpu time    1.2319: real time    1.2320
    --------------------------------------------
      LOOP:  cpu time   12.3674: real time   12.5537

 eigenvalue-minimisations  :     0
 total energy-change (2. order) :-0.2721377E-03  (-0.4642662E-04)
 number of electron       3.0000000 magnetization       1.0000000
 augmentation part       -0.0671110 magnetization       0.0040785

 Free energy of the ion-electron system (eV)
  ---------------------------------------------------
  alpha Z        PSCENC =        -0.00099520
  Ewald energy   TEWEN  =       -12.25694400
  -Hartree energ DENC   =       -27.33039848
  -exchange      EXHF   =         0.00000000
  -V(xc)+E(xc)   XCENC  =       -27.97587682
  PAW double counting   =        35.56429680       -3.60961429
  entropy T*S    EENTRO =        -0.03856558
  eigenvalues    EBANDS =       -18.12555916
  atomic energy  EATOM  =        53.53845706
  ---------------------------------------------------
  free energy    TOTEN  =        -0.23519969 eV

  energy without entropy =       -0.19663411  energy(sigma->0) =       -0.21591690


--------------------------------------------------------------------------------------------------------




--------------------------------------- Iteration      1(  10)  ---------------------------------------


    POTLOK:  cpu time    2.3729: real time    2.4148
    SETDIJ:  cpu time    0.2621: real time    0.2621
    TRIAL :  cpu time    3.3584: real time    3.4521
    CORREC:  cpu time    5.7549: real time    5.8405
    CHARGE:  cpu time    1.2091: real time    1.2096
    --------------------------------------------
      LOOP:  cpu time   12.9788: real time   13.2024

 eigenvalue-minimisations  :     0
 total energy-change (2. order) :-0.4631922E-04  (-0.6667766E-05)
 number of electron       3.0000000 magnetization       1.0000000
 augmentation part       -0.0671098 magnetization       0.0041006

 Free energy of the ion-electron system (eV)
  ---------------------------------------------------
  alpha Z        PSCENC =        -0.00099520
  Ewald energy   TEWEN  =       -12.25694400
  -Hartree energ DENC   =       -27.33162216
  -exchange      EXHF   =         0.00000000
  -V(xc)+E(xc)   XCENC  =       -27.97596659
  PAW double counting   =        35.56714417       -3.61259799
  entropy T*S    EENTRO =        -0.03856558
  eigenvalues    EBANDS =       -18.12415571
  atomic energy  EATOM  =        53.53845706
  ---------------------------------------------------
  free energy    TOTEN  =        -0.23524601 eV

  energy without entropy =       -0.19668043  energy(sigma->0) =       -0.21596322


--------------------------------------------------------------------------------------------------------




--------------------------------------- Iteration      1(  11)  ---------------------------------------


    POTLOK:  cpu time    2.3120: real time    2.3129
    SETDIJ:  cpu time    0.1832: real time    0.1832
    TRIAL :  cpu time    3.2789: real time    3.3724
    CORREC:  cpu time    5.4089: real time    5.4945
    EDDIAG:  cpu time    1.5522: real time    1.5696
    CHARGE:  cpu time    1.2957: real time    1.2964
    --------------------------------------------
      LOOP:  cpu time   14.0502: real time   14.2483

 eigenvalue-minimisations  :     0
 total energy-change (2. order) :-0.6630715E-05  (-0.1306392E-05)
 number of electron       3.0000000 magnetization       1.0000000
 augmentation part       -0.0671085 magnetization       0.0041026

 Free energy of the ion-electron system (eV)
  ---------------------------------------------------
  alpha Z        PSCENC =        -0.00099520
  Ewald energy   TEWEN  =       -12.25694400
  -Hartree energ DENC   =       -27.33597588
  -exchange      EXHF   =         0.00000000
  -V(xc)+E(xc)   XCENC  =       -27.97541678
  PAW double counting   =        35.56879980       -3.61431847
  entropy T*S    EENTRO =        -0.03856558
  eigenvalues    EBANDS =       -18.12029358
  atomic energy  EATOM  =        53.53845706
  ---------------------------------------------------
  free energy    TOTEN  =        -0.23525264 eV

  energy without entropy =       -0.19668706  energy(sigma->0) =       -0.21596985


--------------------------------------------------------------------------------------------------------


  average scaling for gradient   1.1323


 average (electrostatic) potential at core
  the test charge radii are     1.0406
  (the norm of the test charge is              1.0000)
       1 -85.1845
 
 
 
 E-fermi :  -6.9687     XC(G=0):  -0.3446     alpha+bet : -0.0727


 spin component 1

 k-point     1 :       0.0000    0.0000    0.0000
  band No.  band energies     occupation 
      1      -7.9725      1.00000
      2      -2.9370      0.33334
      3      -2.9370      0.33334
      4      -2.9370      0.33332
      5      -0.4420      0.00000
      6       0.3754      0.00000
      7       0.3754      0.00000
      8       0.3779      0.00000
      9       0.3779      0.00000
     10       0.3779      0.00000
     11       0.3839      0.00000
     12       0.6971      0.00000
     13       0.6971      0.00000
     14       0.6971      0.00000
     15       1.0854      0.00000
     16       1.0854      0.00000
     17       1.1091      0.00000
     18       1.1091      0.00000
     19       1.1091      0.00000
     20       1.1647      0.00000
     21       1.1647      0.00000
     22       1.1647      0.00000
     23       1.2195      0.00000
     24       1.6170      0.00000
     25       1.6170      0.00000
     26       1.6170      0.00000
     27       1.6685      0.00000
     28       1.6948      0.00000
     29       1.6948      0.00000
     30       1.8452      0.00000
     31       1.8452      0.00000
     32       1.8452      0.00000
     33       1.9492      0.00000
     34       2.3407      0.00000
     35       2.3407      0.00000
     36       2.3407      0.00000
     37       2.3843      0.00000
     38       2.3843      0.00000
     39       2.3843      0.00000
     40       2.5566      0.00000
     41       2.7792      0.00000
     42       2.7792      0.00000
     43       2.8297      0.00000
     44       2.8297      0.00000
     45       2.8297      0.00000
     46       3.0209      0.00000
     47       3.0209      0.00000
     48       3.0209      0.00000
     49       3.0589      0.00000
     50       3.0589      0.00000
     51       3.0589      0.00000
     52       3.1692      0.00000
     53       3.1692      0.00000
     54       3.2217      0.00000
     55       3.2217      0.00000
     56       3.2217      0.00000
     57       3.2718      0.00000
     58       3.2796      0.00000
     59       3.2796      0.00000
     60       3.2796      0.00000
     61       3.3933      0.00000
     62       3.3933      0.00000
     63       3.3933      0.00000
     64       3.4156      0.00000
     65       3.4174      0.00000
     66       3.7079      0.00000
     67       3.7079      0.00000
     68       3.7625      0.00000
     69       3.7625      0.00000
     70       3.7625      0.00000
     71       3.7963      0.00000
     72       3.7963      0.00000
     73       3.7963      0.00000
     74       3.7981      0.00000
     75       3.7981      0.00000
     76       3.8146      0.00000
     77       3.8146      0.00000
     78       3.8146      0.00000
     79       3.8210      0.00000
     80       3.8210      0.00000
     81       3.8210      0.00000
     82       3.9980      0.00000
     83       3.9980      0.00000
     84       3.9980      0.00000
     85       4.2122      0.00000
     86       4.3193      0.00000
     87       4.3193      0.00000
     88       4.3952      0.00000
     89       4.3952      0.00000
     90       4.3952      0.00000
     91       4.8661      0.00000
     92       4.8661      0.00000
     93       4.8661      0.00000
     94       5.0525      0.00000
     95       5.0525      0.00000
     96       5.1190      0.00000
     97       5.1190      0.00000
     98       5.1190      0.00000
     99       5.2277      0.00000
    100       5.2766      0.00000
    101       5.2766      0.00000
    102       5.2766      0.00000
    103       5.3618      0.00000
    104       5.4169      0.00000
    105       5.4169      0.00000
    106       5.4169      0.00000
    107       5.5472      0.00000
    108       5.7734      0.00000
    109       5.7734      0.00000
    110       5.7734      0.00000
    111       5.7892      0.00000
    112       5.7892      0.00000
    113       5.7892      0.00000
    114       5.7892      0.00000
    115       5.7892      0.00000
    116       5.7892      0.00000
    117       5.7918      0.00000
    118       5.7918      0.00000
    119       5.7975      0.00000
    120       5.7975      0.00000
    121       5.7975      0.00000
    122       5.8056      0.00000
    123       5.8056      0.00000
    124       6.0394      0.00000
    125       6.0394      0.00000
    126       6.0394      0.00000
    127       6.0877      0.00000
    128       6.0877      0.00000
    129       6.0996      0.00000
    130       6.0996      0.00000
    131       6.0996      0.00000
    132       6.1494      0.00000
    133       6.2047      0.00000
    134       6.2047      0.00000
    135       6.2047      0.00000
    136       6.2249      0.00000
    137       6.2249      0.00000
    138       6.2249      0.00000
    139       6.2315      0.00000
    140       6.2315      0.00000
    141       6.2315      0.00000
    142       6.5196      0.00000
    143       6.5213      0.00000
    144       6.5213      0.00000
    145       6.5213      0.00000
    146       6.5231      0.00000
    147       6.5231      0.00000
    148       6.6845      0.00000
    149       6.6845      0.00000
    150       6.6845      0.00000
    151       6.7519      0.00000
    152       6.7519      0.00000
    153       6.7519      0.00000
    154       6.8826      0.00000
    155       6.9319      0.00000
    156       6.9319      0.00000
    157       6.9746      0.00000
    158       7.0374      0.00000
    159       7.0374      0.00000
    160       7.0385      0.00000
    161       7.0385      0.00000
    162       7.0385      0.00000
    163       7.0546      0.00000
    164       7.0546      0.00000
    165       7.0546      0.00000
    166       7.0636      0.00000
    167       7.0636      0.00000
    168       7.0636      0.00000
    169       7.0781      0.00000
    170       7.0781      0.00000
    171       7.0781      0.00000
    172       7.3611      0.00000
    173       7.3611      0.00000
    174       7.3611      0.00000
    175       7.3683      0.00000
    176       7.3683      0.00000
    177       7.3683      0.00000
    178       7.5043      0.00000
    179       7.5910      0.00000
    180       7.6462      0.00000
    181       7.6462      0.00000
    182       7.8064      0.00000
    183       7.8064      0.00000
    184       7.8064      0.00000
    185       7.8405      0.00000
    186       7.8405      0.00000
    187       7.8405      0.00000
    188       7.9112      0.00000
    189       7.9358      0.00000
    190       7.9358      0.00000
    191       7.9358      0.00000
    192       8.3151      0.00000
    193       8.3151      0.00000
    194       8.3516      0.00000
    195       8.3516      0.00000
    196       8.3516      0.00000
    197       8.4031      0.00000
    198       8.4031      0.00000
    199       8.4031      0.00000
    200       8.4154      0.00000
    201       8.4154      0.00000
    202       8.4154      0.00000
    203       8.4266      0.00000
    204       8.6289      0.00000
    205       8.6289      0.00000
    206       8.6289      0.00000
    207       8.6558      0.00000
    208       8.6558      0.00000
    209       8.6558      0.00000
    210       8.6743      0.00000
    211       8.7516      0.00000
    212       8.7516      0.00000
    213       8.8100      0.00000
    214       8.8877      0.00000
    215       8.8877      0.00000
    216       8.8877      0.00000
    217       8.9341      0.00000
    218       8.9341      0.00000
    219       8.9349      0.00000
    220       8.9349      0.00000
    221       8.9349      0.00000
    222       8.9459      0.00000
    223       8.9459      0.00000
    224       8.9459      0.00000
    225       8.9572      0.00000
    226       8.9572      0.00000
    227       8.9572      0.00000
    228       9.1476      0.00000
    229       9.1476      0.00000
    230       9.1556      0.00000
    231       9.1556      0.00000
    232       9.1556      0.00000
    233       9.1561      0.00000
    234       9.1562      0.00000
    235       9.1562      0.00000
    236       9.1592      0.00000
    237       9.1592      0.00000
    238       9.1592      0.00000
    239       9.1675      0.00000
    240       9.1675      0.00000
    241       9.1720      0.00000
    242       9.1720      0.00000
    243       9.1721      0.00000
    244       9.2295      0.00000
    245       9.2366      0.00000
    246       9.2366      0.00000
    247       9.2366      0.00000
    248       9.2434      0.00000
    249       9.2434      0.00000
    250       9.2434      0.00000
    251       9.2500      0.00000
    252       9.3059      0.00000
    253       9.3059      0.00000
    254       9.3830      0.00000
    255       9.3830      0.00000
    256       9.3831      0.00000

 spin component 2

 k-point     1 :       0.0000    0.0000    0.0000
  band No.  band energies     occupation 
      1      -7.2094      1.00000
      2      -2.1505      0.00000
      3      -2.1505      0.00000
      4      -2.1505      0.00000
      5      -0.0626      0.00000
      6       0.5835      0.00000
      7       0.6515      0.00000
      8       0.6515      0.00000
      9       0.6997      0.00000
     10       0.6997      0.00000
     11       0.6997      0.00000
     12       1.1494      0.00000
     13       1.1494      0.00000
     14       1.1494      0.00000
     15       1.2881      0.00000
     16       1.2881      0.00000
     17       1.3642      0.00000
     18       1.3642      0.00000
     19       1.3642      0.00000
     20       1.3719      0.00000
     21       1.3719      0.00000
     22       1.3719      0.00000
     23       1.3771      0.00000
     24       1.8266      0.00000
     25       1.8266      0.00000
     26       1.8266      0.00000
     27       1.9735      0.00000
     28       2.0439      0.00000
     29       2.0439      0.00000
     30       2.0439      0.00000
     31       2.0941      0.00000
     32       2.0941      0.00000
     33       2.0955      0.00000
     34       2.6782      0.00000
     35       2.6782      0.00000
     36       2.6782      0.00000
     37       2.7052      0.00000
     38       2.7052      0.00000
     39       2.7052      0.00000
     40       2.7532      0.00000
     41       2.9582      0.00000
     42       2.9582      0.00000
     43       3.1841      0.00000
     44       3.1841      0.00000
     45       3.1841      0.00000
     46       3.2640      0.00000
     47       3.2640      0.00000
     48       3.2640      0.00000
     49       3.3412      0.00000
     50       3.3412      0.00000
     51       3.3412      0.00000
     52       3.3563      0.00000
     53       3.3563      0.00000
     54       3.3879      0.00000
     55       3.3879      0.00000
     56       3.3879      0.00000
     57       3.4011      0.00000
     58       3.4854      0.00000
     59       3.4854      0.00000
     60       3.4854      0.00000
     61       3.5864      0.00000
     62       3.6369      0.00000
     63       3.6369      0.00000
     64       3.6369      0.00000
     65       3.7555      0.00000
     66       3.8586      0.00000
     67       3.8586      0.00000
     68       3.9490      0.00000
     69       3.9490      0.00000
     70       3.9490      0.00000
     71       3.9694      0.00000
     72       3.9694      0.00000
     73       3.9694      0.00000
     74       4.0031      0.00000
     75       4.0031      0.00000
     76       4.0031      0.00000
     77       4.0113      0.00000
     78       4.0113      0.00000
     79       4.0113      0.00000
     80       4.0341      0.00000
     81       4.0341      0.00000
     82       4.2174      0.00000
     83       4.2174      0.00000
     84       4.2174      0.00000
     85       4.4618      0.00000
     86       4.7253      0.00000
     87       4.7253      0.00000
     88       4.7469      0.00000
     89       4.7469      0.00000
     90       4.7470      0.00000
     91       5.1464      0.00000
     92       5.1464      0.00000
     93       5.1464      0.00000
     94       5.3800      0.00000
     95       5.3800      0.00000
     96       5.4032      0.00000
     97       5.4032      0.00000
     98       5.4032      0.00000
     99       5.4879      0.00000
    100       5.5301      0.00000
    101       5.5301      0.00000
    102       5.5301      0.00000
    103       5.6336      0.00000
    104       5.7017      0.00000
    105       5.7017      0.00000
    106       5.7017      0.00000
    107       5.8456      0.00000
    108       5.9230      0.00000
    109       5.9230      0.00000
    110       5.9230      0.00000
    111       5.9673      0.00000
    112       5.9674      0.00000
    113       5.9674      0.00000
    114       5.9681      0.00000
    115       5.9681      0.00000
    116       6.0097      0.00000
    117       6.0097      0.00000
    118       6.0097      0.00000
    119       6.0172      0.00000
    120       6.0172      0.00000
    121       6.0172      0.00000
    122       6.0223      0.00000
    123       6.0223      0.00000
    124       6.2182      0.00000
    125       6.2182      0.00000
    126       6.2182      0.00000
    127       6.2494      0.00000
    128       6.2494      0.00000
    129       6.3038      0.00000
    130       6.4298      0.00000
    131       6.4298      0.00000
    132       6.4298      0.00000
    133       6.5068      0.00000
    134       6.5068      0.00000
    135       6.5068      0.00000
    136       6.5372      0.00000
    137       6.5372      0.00000
    138       6.5372      0.00000
    139       6.5623      0.00000
    140       6.5623      0.00000
    141       6.5623      0.00000
    142       6.6964      0.00000
    143       6.6964      0.00000
    144       6.7033      0.00000
    145       6.7033      0.00000
    146       6.7033      0.00000
    147       6.7109      0.00000
    148       6.8676      0.00000
    149       6.8676      0.00000
    150       6.8676      0.00000
    151       6.9674      0.00000
    152       6.9674      0.00000
    153       6.9674      0.00000
    154       7.0295      0.00000
    155       7.0956      0.00000
    156       7.0956      0.00000
    157       7.2164      0.00000
    158       7.2164      0.00000
    159       7.2164      0.00000
    160       7.2221      0.00000
    161       7.2258      0.00000
    162       7.2258      0.00000
    163       7.2258      0.00000
    164       7.2513      0.00000
    165       7.2513      0.00000
    166       7.2514      0.00000
    167       7.2975      0.00000
    168       7.2975      0.00000
    169       7.2975      0.00000
    170       7.3134      0.00000
    171       7.3134      0.00000
    172       7.5621      0.00000
    173       7.5621      0.00000
    174       7.5621      0.00000
    175       7.6280      0.00000
    176       7.6280      0.00000
    177       7.6280      0.00000
    178       7.7080      0.00000
    179       7.8216      0.00000
    180       7.9679      0.00000
    181       7.9679      0.00000
    182       8.0516      0.00000
    183       8.0516      0.00000
    184       8.0516      0.00000
    185       8.1081      0.00000
    186       8.1081      0.00000
    187       8.1081      0.00000
    188       8.1807      0.00000
    189       8.2456      0.00000
    190       8.2456      0.00000
    191       8.2456      0.00000
    192       8.5759      0.00000
    193       8.5759      0.00000
    194       8.5925      0.00000
    195       8.5925      0.00000
    196       8.5925      0.00000
    197       8.6365      0.00000
    198       8.6365      0.00000
    199       8.6365      0.00000
    200       8.6583      0.00000
    201       8.6583      0.00000
    202       8.6583      0.00000
    203       8.6728      0.00000
    204       8.8530      0.00000
    205       8.8530      0.00000
    206       8.8530      0.00000
    207       8.8545      0.00000
    208       8.8545      0.00000
    209       8.8545      0.00000
    210       8.9291      0.00000
    211       8.9622      0.00000
    212       8.9622      0.00000
    213       8.9665      0.00000
    214       9.1267      0.00000
    215       9.1268      0.00000
    216       9.1268      0.00000
    217       9.1386      0.00000
    218       9.1386      0.00000
    219       9.1386      0.00000
    220       9.1733      0.00000
    221       9.1733      0.00000
    222       9.1733      0.00000
    223       9.1933      0.00000
    224       9.1933      0.00000
    225       9.1933      0.00000
    226       9.2160      0.00000
    227       9.2160      0.00000
    228       9.3039      0.00000
    229       9.3039      0.00000
    230       9.3329      0.00000
    231       9.3329      0.00000
    232       9.3329      0.00000
    233       9.3385      0.00000
    234       9.3385      0.00000
    235       9.3385      0.00000
    236       9.3523      0.00000
    237       9.3523      0.00000
    238       9.3523      0.00000
    239       9.3614      0.00000
    240       9.3614      0.00000
    241       9.3614      0.00000
    242       9.3735      0.00000
    243       9.3735      0.00000
    244       9.3789      0.00000
    245       9.3940      0.00000
    246       9.3940      0.00000
    247       9.3940      0.00000
    248       9.4040      0.00000
    249       9.4040      0.00000
    250       9.4040      0.00000
    251       9.4102      0.00000
    252       9.6725      0.00000
    253       9.6725      0.00000
    254       9.7332      0.00000
    255       9.7332      0.00000
    256       9.7332      0.00000


--------------------------------------------------------------------------------------------------------


 soft charge-density along one line, spin component           1
         0         1         2         3         4         5         6         7         8         9
 total charge-density along one line
 
 soft charge-density along one line, spin component           2
         0         1         2         3         4         5         6         7         8         9
 total charge-density along one line
 
 pseudopotential strength for first ion, spin component:           1
  8.875   0.009  -0.000  -0.000  -0.000  -0.000  -0.000  -0.000
  0.009  -0.000  -0.000  -0.000  -0.000   0.000   0.000   0.000
 -0.000  -0.000   1.970   0.000   0.000   0.007   0.000   0.000
 -0.000  -0.000   0.000   1.970   0.000   0.000   0.007   0.000
 -0.000  -0.000   0.000   0.000   1.970   0.000   0.000   0.007
 -0.000   0.000   0.007   0.000   0.000  -0.020  -0.000  -0.000
 -0.000   0.000   0.000   0.007   0.000  -0.000  -0.020  -0.000
 -0.000   0.000   0.000   0.000   0.007  -0.000  -0.000  -0.020
 pseudopotential strength for first ion, spin component:           2
  8.857   0.009  -0.000  -0.000  -0.000  -0.000  -0.000  -0.000
  0.009  -0.000  -0.000  -0.000  -0.000   0.000   0.000   0.000
 -0.000  -0.000   1.966   0.000   0.000   0.006   0.000   0.000
 -0.000  -0.000   0.000   1.966   0.000   0.000   0.006   0.000
 -0.000  -0.000   0.000   0.000   1.966   0.000   0.000   0.006
 -0.000   0.000   0.006   0.000   0.000  -0.019  -0.000  -0.000
 -0.000   0.000   0.000   0.006   0.000  -0.000  -0.019  -0.000
 -0.000   0.000   0.000   0.000   0.006  -0.000  -0.000  -0.019
 total augmentation occupancy for first ion, spin component:           1
  2.006   0.034   0.000   0.000   0.000   0.000   0.000   0.000
  0.034   0.036   0.000   0.000   0.000   0.000   0.000   0.000
  0.000   0.000   0.333  -0.000  -0.000  -0.008   0.000   0.000
  0.000   0.000  -0.000   0.333  -0.000   0.000  -0.008   0.000
  0.000   0.000  -0.000  -0.000   0.333   0.000   0.000  -0.008
  0.000   0.000  -0.008   0.000   0.000   0.000  -0.000  -0.000
  0.000   0.000   0.000  -0.008   0.000  -0.000   0.000  -0.000
  0.000   0.000   0.000   0.000  -0.008  -0.000  -0.000   0.000
 total augmentation occupancy for first ion, spin component:           2
 -0.056  -0.269   0.000   0.000   0.000  -0.000  -0.000  -0.000
 -0.269  -0.008   0.000   0.000   0.000  -0.000  -0.000  -0.000
  0.000   0.000   0.333  -0.000  -0.000  -0.008   0.000   0.000
  0.000   0.000  -0.000   0.333  -0.000   0.000  -0.008   0.000
  0.000   0.000  -0.000  -0.000   0.333   0.000   0.000  -0.008
 -0.000  -0.000  -0.008   0.000   0.000   0.000  -0.000  -0.000
 -0.000  -0.000   0.000  -0.008   0.000  -0.000   0.000  -0.000
 -0.000  -0.000   0.000   0.000  -0.008  -0.000  -0.000   0.000


------------------------ aborting loop because EDIFF is reached ----------------------------------------


    FORLOC:  cpu time    0.0015: real time    0.0049
    FORNL :  cpu time    0.0306: real time    0.0440
    FORCOR:  cpu time    2.0263: real time    2.0364
    OFIELD:  cpu time    0.0009: real time    0.0053

 VOLUME and BASIS-vectors are now :
 -----------------------------------------------------------------------------
  energy-cutoff  :      520.00
  volume of cell :     3375.00
      direct lattice vectors                 reciprocal lattice vectors
    15.000000000  0.000000000  0.000000000     0.066666667  0.000000000  0.000000000
     0.000000000 15.000000000  0.000000000     0.000000000  0.066666667  0.000000000
     0.000000000  0.000000000 15.000000000     0.000000000  0.000000000  0.066666667

  length of vectors
    15.000000000 15.000000000 15.000000000     0.066666667  0.066666667  0.066666667


 FORCES acting on ions:
    Electron-Ion                     Ewald-Force                    Non-Local-Force
 -----------------------------------------------------------------------------------------------
   0.283E-05 0.284E-05 0.290E-05   -.122E-17 0.164E-17 -.342E-17   -.481E-05 -.478E-05 -.456E-05
 -----------------------------------------------------------------------------------------------
   -.879E-05 -.878E-05 -.655E-05   -.122E-17 0.164E-17 -.342E-17   -.481E-05 -.478E-05 -.456E-05
 
 
 POSITION                                       TOTAL-FORCE (eV/Angst)
 -----------------------------------------------------------------------------------
      0.15000      0.15000     11.26500        -0.000014     -0.000014     -0.000011
 -----------------------------------------------------------------------------------
    total drift:                               -0.000014     -0.000014     -0.000011


--------------------------------------------------------------------------------------------------------



  FREE ENERGIE OF THE ION-ELECTRON SYSTEM (eV)
  ---------------------------------------------------
  free  energy   TOTEN  =        -0.23525264 eV

  energy  without entropy=       -0.19668706  energy(sigma->0) =       -0.21596985
 


--------------------------------------------------------------------------------------------------------


    POTLOK:  cpu time    2.4718: real time    2.4865


--------------------------------------------------------------------------------------------------------


 stress matrix after NEB project (eV)
      0.00000      0.00000      0.00000
      0.00000      0.00000      0.00000
      0.00000      0.00000      0.00000
  FORCES: max atom, RMS     0.000022    0.000022
  FORCE total and by dimension    0.000022    0.000014
  Stress total and by dimension    0.000000    0.000000
     LOOP+:  cpu time  162.0706: real time  163.7248
    4ORBIT:  cpu time    0.0000: real time    0.0000

 total amount of memory used by VASP MPI-rank0   169936. kBytes
=======================================================================

   base      :      30000. kBytes
   nonl-proj :       7270. kBytes
   fftplans  :       7479. kBytes
   grid      :     116433. kBytes
   one-center:          6. kBytes
   wavefun   :       8748. kBytes
 
  
  
 General timing and accounting informations for this job:
 ========================================================
  
                  Total CPU time used (sec):      180.084
                            User time (sec):      175.865
                          System time (sec):        4.219
                         Elapsed time (sec):      185.366
  
                   Maximum memory used (kb):      441748.
                   Average memory used (kb):           0.
  
                          Minor page faults:        56299
                          Major page faults:            0
                 Voluntary context switches:         2421
