       N       E                     dE             d eps       ncg     rms          ort
DAV:   1     0.259377635723E+02    0.25938E+02   -0.47718E+03   256   0.390E+01
DAV:   2    -0.174582882839E+01   -0.27684E+02   -0.27647E+02   256   0.552E+00
DAV:   3    -0.177937978967E+01   -0.33551E-01   -0.33533E-01   256   0.261E-01
DAV:   4    -0.177956002984E+01   -0.18024E-03   -0.18024E-03   256   0.240E-02
DAV:   5    -0.177956008163E+01   -0.51793E-07   -0.51668E-07   256   0.292E-04
SDA:   6    -0.290560702925E+01   -0.11260E+01   -0.51668E-07   256   0.104E+01 0.000E+00
CGA:   7    -0.306775516779E+01   -0.16215E+00   -0.16237E+00   256   0.284E+00 0.558E-02
CGA:   8    -0.313364408605E+01   -0.65889E-01   -0.65878E-01   256   0.146E+00 0.575E-03
CGA:   9    -0.315568272679E+01   -0.22039E-01   -0.22041E-01   256   0.543E-01 0.809E-04
CGA:  10    -0.316611062467E+01   -0.10428E-01   -0.10427E-01   256   0.269E-01-0.840E-04
CGA:  11    -0.317214955442E+01   -0.60389E-02   -0.60390E-02   256   0.104E-01-0.148E-04
CGA:  12    -0.317461108487E+01   -0.24615E-02   -0.24629E-02   256   0.550E-02-0.572E-04
CGA:  13    -0.317590140482E+01   -0.12903E-02   -0.12947E-02   256   0.192E-02-0.161E-03
CGA:  14    -0.317641254759E+01   -0.51114E-03   -0.54622E-03   256   0.949E-03-0.497E-03
CGA:  15    -0.317680108177E+01   -0.38853E-03    0.21584E-03   256   0.289E-03-0.236E-04
CGA:  16    -0.317745183142E+01   -0.65075E-03    0.63157E-05   256   0.157E-03 0.686E-04
CGA:  17    -0.317917734030E+01   -0.17255E-02    0.97747E-06   256   0.239E-03 0.134E-03
CGA:  18    -0.318213022718E+01   -0.29529E-02    0.85094E-06   256   0.398E-03 0.265E-03
CGA:  19    -0.318802962015E+01   -0.58994E-02    0.11762E-05   256   0.805E-03 0.550E-03
CGA:  20    -0.319869855133E+01   -0.10669E-01    0.26719E-05   256   0.150E-02 0.108E-02
CGA:  21    -0.321350414883E+01   -0.14806E-01    0.67892E-05   256   0.225E-02 0.180E-02
CGA:  22    -0.322502595158E+01   -0.11522E-01    0.20385E-04   256   0.224E-02 0.219E-02
CGA:  23    -0.322886871096E+01   -0.38428E-02    0.73064E-04   256   0.149E-02 0.178E-02
CGA:  24    -0.322975709135E+01   -0.88838E-03    0.34571E-03   256   0.863E-03 0.110E-02
CGA:  25    -0.322990241520E+01   -0.14532E-03   -0.13090E-03   256   0.322E-02-0.780E-03
CGA:  26    -0.323023085283E+01   -0.32844E-03   -0.32853E-03   256   0.496E-03-0.818E-06
CGA:  27    -0.323048446543E+01   -0.25361E-03   -0.25356E-03   256   0.904E-04 0.323E-06
CGA:  28    -0.323049709894E+01   -0.12634E-04   -0.12643E-04   256   0.177E-04-0.147E-07
CGA:  29    -0.323050406269E+01   -0.69638E-05   -0.69739E-05   256   0.538E-05-0.267E-06
   1 F= -.32305041E+01 E0= -.32163993E+01  d E =-.282095E-01  mag=     5.0000
