       N       E                     dE             d eps       ncg     rms          ort
SDA:   1    -0.334291814882E+03   -0.33429E+03    0.00000E+00  3328   0.131E+03 0.000E+00
CGA:   2    -0.411634004237E+03   -0.77342E+02   -0.92878E+02  3328   0.825E+02-0.271E+02
CGA:   3    -0.429067235963E+03   -0.17433E+02   -0.17358E+02  3328   0.286E+02 0.979E+00
CGA:   4    -0.438337261188E+03   -0.92700E+01   -0.92556E+01  3328   0.108E+02 0.594E-01
CGA:   5    -0.441624913012E+03   -0.32877E+01   -0.33274E+01  3328   0.389E+01-0.383E+00
CGA:   6    -0.442694735205E+03   -0.10698E+01   -0.10667E+01  3328   0.125E+01 0.394E-01
CGA:   7    -0.443082745324E+03   -0.38801E+00   -0.38831E+00  3328   0.400E+00-0.267E-02
CGA:   8    -0.443212978376E+03   -0.13023E+00   -0.13041E+00  3328   0.133E+00-0.142E-02
CGA:   9    -0.443260725649E+03   -0.47747E-01   -0.47740E-01  3328   0.514E-01 0.615E-04
CGA:  10    -0.443279548570E+03   -0.18823E-01   -0.18819E-01  3328   0.179E-01 0.717E-05
CGA:  11    -0.443286014241E+03   -0.64657E-02   -0.64711E-02  3328   0.551E-02-0.492E-04
CGA:  12    -0.443287944968E+03   -0.19307E-02   -0.19315E-02  3328   0.158E-02-0.685E-05
CGA:  13    -0.443288526548E+03   -0.58158E-03   -0.58233E-03  3328   0.511E-03-0.703E-05
CGA:  14    -0.443288730475E+03   -0.20393E-03   -0.20412E-03  3328   0.188E-03-0.156E-05
CGA:  15    -0.443288809619E+03   -0.79143E-04   -0.79460E-04  3328   0.693E-04-0.218E-05
CGA:  16    -0.443288837856E+03   -0.28238E-04   -0.28306E-04  3328   0.217E-04-0.516E-06
CGA:  17    -0.443288846611E+03   -0.87546E-05   -0.88086E-05  3328   0.651E-05-0.451E-06
   1 F= -.44517956E+03 E0= -.44517491E+03  d E =-.930789E-02  mag=    -0.0000
