C  N  Pt                                
   1.00000000000000     
    12.3000000000000007    0.0000000000000000    0.0000000000000000
    -6.1499999999999977   10.6521124665485960    0.0000000000000000
     0.0000000000000000    0.0000000000000000   20.0000000000000000
   C    N    Pt
    44     4     1
Direct
  0.9988680000000016  0.0011319999999984  0.7478309999999979
  0.1303470000000004  0.0637320000000017  0.7485039999999969
  0.1970560000000035  0.9970280000000002  0.7484779999999986
  0.3288769999999985  0.0607559999999978  0.7503850000000014
  0.3980609999999984  0.9964549999999974  0.7500989999999987
  0.5309850000000012  0.0663199999999975  0.7511670000000024
  0.5990060000000028  0.0006059999999977  0.7503200000000021
  0.7320220000000006  0.0699860000000001  0.7500900000000001
  0.7993430000000004  0.0032470000000018  0.7491240000000019
  0.9319399999999973  0.0680600000000027  0.7483440000000030
  0.9967529999999982  0.2006569999999996  0.7491240000000019
  0.1297599999999974  0.2647139999999979  0.7501340000000027
  0.1940829999999991  0.1955499999999972  0.7504259999999974
  0.3243489999999980  0.2583970000000022  0.7531099999999995
  0.3917100000000033  0.1910280000000029  0.7531079999999974
  0.5927160000000029  0.2007180000000020  0.7532339999999991
  0.7280119999999997  0.2719880000000003  0.7528909999999982
  0.7959430000000012  0.2040569999999988  0.7509510000000006
  0.9300139999999999  0.2679779999999994  0.7500900000000001
  0.9993940000000023  0.4009939999999972  0.7503200000000021
  0.1339370000000031  0.4656769999999995  0.7503180000000000
  0.1996439999999993  0.3976260000000025  0.7511790000000005
  0.3340590000000034  0.4593640000000008  0.7532470000000018
  0.7992819999999980  0.4072839999999971  0.7532339999999991
  0.9336800000000025  0.4690149999999988  0.7511670000000024
  0.0035450000000026  0.6019390000000016  0.7500989999999987
  0.1365499999999997  0.6660129999999995  0.7490680000000012
  0.2033180000000030  0.5986949999999993  0.7500550000000032
  0.3373840000000001  0.6626159999999999  0.7509319999999988
  0.4053430000000020  0.5946569999999980  0.7528939999999977
  0.5406359999999992  0.6659409999999966  0.7532470000000018
  0.7416029999999978  0.6756510000000020  0.7531099999999995
  0.8089719999999971  0.6082899999999967  0.7531079999999974
  0.9392440000000022  0.6711230000000015  0.7503850000000014
  0.0029719999999998  0.8029439999999965  0.7484779999999986
  0.1344560000000001  0.8655439999999999  0.7478020000000001
  0.2013839999999973  0.7986160000000027  0.7483250000000012
  0.3339870000000005  0.8634500000000003  0.7490680000000012
  0.4013050000000007  0.7966819999999970  0.7500550000000032
  0.5343230000000005  0.8660629999999969  0.7503180000000000
  0.6023739999999975  0.8003560000000007  0.7511790000000005
  0.7352860000000021  0.8702400000000026  0.7501340000000027
  0.8044500000000028  0.8059170000000009  0.7504259999999974
  0.9362679999999983  0.8696529999999996  0.7485039999999969
  0.5201750000000018  0.2564860000000024  0.7550990000000013
  0.3898330000000030  0.3868440000000035  0.7551040000000029
  0.7435139999999976  0.4798249999999982  0.7550990000000013
  0.6131560000000036  0.6101669999999970  0.7551040000000029
  0.5666730000000015  0.4333269999999985  0.7565290000000005
 
  0.00000000E+00  0.00000000E+00  0.00000000E+00
  0.00000000E+00  0.00000000E+00  0.00000000E+00
  0.00000000E+00  0.00000000E+00  0.00000000E+00
  0.00000000E+00  0.00000000E+00  0.00000000E+00
  0.00000000E+00  0.00000000E+00  0.00000000E+00
  0.00000000E+00  0.00000000E+00  0.00000000E+00
  0.00000000E+00  0.00000000E+00  0.00000000E+00
  0.00000000E+00  0.00000000E+00  0.00000000E+00
  0.00000000E+00  0.00000000E+00  0.00000000E+00
  0.00000000E+00  0.00000000E+00  0.00000000E+00
  0.00000000E+00  0.00000000E+00  0.00000000E+00
  0.00000000E+00  0.00000000E+00  0.00000000E+00
  0.00000000E+00  0.00000000E+00  0.00000000E+00
  0.00000000E+00  0.00000000E+00  0.00000000E+00
  0.00000000E+00  0.00000000E+00  0.00000000E+00
  0.00000000E+00  0.00000000E+00  0.00000000E+00
  0.00000000E+00  0.00000000E+00  0.00000000E+00
  0.00000000E+00  0.00000000E+00  0.00000000E+00
  0.00000000E+00  0.00000000E+00  0.00000000E+00
  0.00000000E+00  0.00000000E+00  0.00000000E+00
  0.00000000E+00  0.00000000E+00  0.00000000E+00
  0.00000000E+00  0.00000000E+00  0.00000000E+00
  0.00000000E+00  0.00000000E+00  0.00000000E+00
  0.00000000E+00  0.00000000E+00  0.00000000E+00
  0.00000000E+00  0.00000000E+00  0.00000000E+00
  0.00000000E+00  0.00000000E+00  0.00000000E+00
  0.00000000E+00  0.00000000E+00  0.00000000E+00
  0.00000000E+00  0.00000000E+00  0.00000000E+00
  0.00000000E+00  0.00000000E+00  0.00000000E+00
  0.00000000E+00  0.00000000E+00  0.00000000E+00
  0.00000000E+00  0.00000000E+00  0.00000000E+00
  0.00000000E+00  0.00000000E+00  0.00000000E+00
  0.00000000E+00  0.00000000E+00  0.00000000E+00
  0.00000000E+00  0.00000000E+00  0.00000000E+00
  0.00000000E+00  0.00000000E+00  0.00000000E+00
  0.00000000E+00  0.00000000E+00  0.00000000E+00
  0.00000000E+00  0.00000000E+00  0.00000000E+00
  0.00000000E+00  0.00000000E+00  0.00000000E+00
  0.00000000E+00  0.00000000E+00  0.00000000E+00
  0.00000000E+00  0.00000000E+00  0.00000000E+00
  0.00000000E+00  0.00000000E+00  0.00000000E+00
  0.00000000E+00  0.00000000E+00  0.00000000E+00
  0.00000000E+00  0.00000000E+00  0.00000000E+00
  0.00000000E+00  0.00000000E+00  0.00000000E+00
  0.00000000E+00  0.00000000E+00  0.00000000E+00
  0.00000000E+00  0.00000000E+00  0.00000000E+00
  0.00000000E+00  0.00000000E+00  0.00000000E+00
  0.00000000E+00  0.00000000E+00  0.00000000E+00
  0.00000000E+00  0.00000000E+00  0.00000000E+00
