       N       E                     dE             d eps       ncg     rms          ort
SDA:   1    -0.336804317157E+03   -0.33680E+03    0.00000E+00  3328   0.135E+03 0.000E+00
CGA:   2    -0.397351153280E+03   -0.60547E+02   -0.76042E+02  3328   0.317E+03-0.321E+02
CGA:   3    -0.419343713340E+03   -0.21993E+02   -0.24876E+02  3328   0.642E+02-0.149E+02
CGA:   4    -0.429519942748E+03   -0.10176E+02   -0.10522E+02  3328   0.441E+02 0.259E+01
CGA:   5    -0.438865012224E+03   -0.93451E+01   -0.93523E+01  3328   0.156E+02 0.493E+00
CGA:   6    -0.441729465671E+03   -0.28645E+01   -0.28164E+01  3328   0.110E+02-0.557E+00
CGA:   7    -0.443640493158E+03   -0.19110E+01   -0.19136E+01  3328   0.388E+01-0.213E-02
CGA:   8    -0.444303541876E+03   -0.66305E+00   -0.66738E+00  3328   0.227E+01 0.529E-01
CGA:   9    -0.444777753801E+03   -0.47421E+00   -0.47428E+00  3328   0.709E+00-0.257E-01
CGA:  10    -0.444921722668E+03   -0.14397E+00   -0.14397E+00  3328   0.596E+00-0.894E-02
CGA:  11    -0.445022434823E+03   -0.10071E+00   -0.10089E+00  3328   0.170E+00 0.148E-02
CGA:  12    -0.445060483012E+03   -0.38048E-01   -0.38018E-01  3328   0.151E+00 0.116E-02
CGA:  13    -0.445086975692E+03   -0.26493E-01   -0.26476E-01  3328   0.447E-01-0.135E-03
CGA:  14    -0.445098596573E+03   -0.11621E-01   -0.11628E-01  3328   0.397E-01-0.139E-03
CGA:  15    -0.445104560695E+03   -0.59641E-02   -0.59597E-02  3328   0.985E-02-0.812E-04
CGA:  16    -0.445107324152E+03   -0.27635E-02   -0.27664E-02  3328   0.802E-02-0.314E-04
CGA:  17    -0.445108466775E+03   -0.11426E-02   -0.11428E-02  3328   0.219E-02 0.661E-05
CGA:  18    -0.445109157482E+03   -0.69071E-03   -0.69118E-03  3328   0.178E-02-0.441E-05
CGA:  19    -0.445109419686E+03   -0.26220E-03   -0.26165E-03  3328   0.655E-03-0.115E-04
CGA:  20    -0.445109655240E+03   -0.23555E-03   -0.23631E-03  3328   0.499E-03-0.487E-05
CGA:  21    -0.445109733611E+03   -0.78371E-04   -0.78496E-04  3328   0.266E-03 0.320E-05
CGA:  22    -0.445109831564E+03   -0.97953E-04   -0.98286E-04  3328   0.183E-03-0.195E-05
CGA:  23    -0.445109867713E+03   -0.36149E-04   -0.36099E-04  3328   0.168E-03-0.298E-05
CGA:  24    -0.445109933103E+03   -0.65391E-04   -0.65489E-04  3328   0.137E-03-0.272E-06
CGA:  25    -0.445109977290E+03   -0.44187E-04   -0.44154E-04  3328   0.269E-03 0.113E-05
CGA:  26    -0.445110073030E+03   -0.95740E-04   -0.95639E-04  3328   0.241E-03 0.107E-05
CGA:  27    -0.445110148226E+03   -0.75196E-04   -0.74462E-04  3328   0.392E-03 0.778E-05
CGA:  28    -0.445110251790E+03   -0.10356E-03   -0.10409E-03  3328   0.178E-03-0.151E-04
CGA:  29    -0.445110306680E+03   -0.54890E-04   -0.55030E-04  3328   0.183E-03-0.431E-06
CGA:  30    -0.445110337623E+03   -0.30943E-04   -0.31028E-04  3328   0.651E-04-0.913E-06
CGA:  31    -0.445110357576E+03   -0.19952E-04   -0.19937E-04  3328   0.454E-04 0.165E-06
SDA:  32    -0.445110364984E+03   -0.74086E-05   -0.75018E-05  3328   0.219E-04 0.117E-05
   1 F= -.44690730E+03 E0= -.44689298E+03  d E =-.286372E-01  mag=     0.4020
