C  N  Ir                                
   1.00000000000000     
    12.3000000000000007    0.0000000000000000    0.0000000000000000
    -6.1499999999999977   10.6521124665485960    0.0000000000000000
     0.0000000000000000    0.0000000000000000   20.0000000000000000
   C    N    Ir
    44     4     1
Direct
  0.9989004301336299  0.0010995706168238  0.7478492526508476
  0.1302402355227567  0.0635774756328038  0.7484032756231916
  0.1969160338273436  0.9969302021761191  0.7484028884453692
  0.3289070841087929  0.0608020822921774  0.7502403466021753
  0.3981683518388108  0.9962544033520843  0.7499490106990856
  0.5306782734980309  0.0662813029241223  0.7509588718977507
  0.5989249660514631  0.0004377303007319  0.7500410528347465
  0.7317789510126802  0.0700812369904153  0.7499465266609100
  0.7992933481476955  0.0034737516802536  0.7490551738022905
  0.9318174898833074  0.0681825111924017  0.7484063479249743
  0.9965262477995834  0.2007066516747926  0.7490551738090998
  0.1295779233727221  0.2648349689510365  0.7499489853468445
  0.1941454119408051  0.1955814914806125  0.7502434157228121
  0.3238673586905161  0.2584049872034132  0.7531229592772782
  0.3917249979369529  0.1905445782549642  0.7531247862849978
  0.5923757940425187  0.2005137615636927  0.7533056124627818
  0.7278174432238298  0.2721825567969915  0.7529681371670541
  0.7956362625466352  0.2043637370636009  0.7508874472153229
  0.9299187628163008  0.2682210491986942  0.7499465268924933
  0.9995622696726613  0.4010750342329935  0.7500410529645145
  0.1337608458839221  0.4656013800135702  0.7500420783093582
  0.1996076621191653  0.3973283445854939  0.7509606552714031
  0.3338591791896987  0.4590452879335197  0.7533065157856914
  0.7994862385900401  0.4076242059282743  0.7533056123670079
  0.9337186969251202  0.4693217262132071  0.7509588720171687
  0.0037455961536111  0.6018316476016533  0.7499490107745974
  0.1367946438920773  0.6659719102132102  0.7490497549269113
  0.2034136582275525  0.5984481371723810  0.7499452720144815
  0.3376828353266630  0.6623171644157944  0.7508825248833743
  0.4055301594997907  0.5944698405131137  0.7529711819191153
  0.5409547122077805  0.6661408210659614  0.7533065157694651
  0.7415950126368259  0.6761326411156261  0.7531229592414921
  0.8094554216017543  0.6082750018883097  0.7531247863598307
  0.9391979172852248  0.6710929154469595  0.7502403468242100
  0.0030697983595994  0.8030839665373494  0.7484028883652415
  0.1344362996914679  0.8655637009762966  0.7478477983211632
  0.2015168611584574  0.7984831396254443  0.7484181432994369
  0.3340280897993002  0.8632053558123163  0.7490497547376188
  0.4015518629089722  0.7965863414677453  0.7499452720946472
  0.5343986201305045  0.8662391539752557  0.7500420783693580
  0.6026716553269436  0.8003923378654870  0.7509606553782339
  0.7351650303145452  0.8704220760201028  0.7499489854759571
  0.8044185081041385  0.8058545876433798  0.7502434157257410
  0.9364225248066331  0.8697597651765570  0.7484032755672988
  0.5201291875485043  0.2572151196337227  0.7554805479399942
  0.3905455988138927  0.3867981033953660  0.7554803830406790
  0.7427848808378846  0.4798708127055804  0.7554805478529535
  0.6132018966765420  0.6094544013945729  0.7554803830687574
  0.5666669699163717  0.4333330300850042  0.7577579400142640
 
  0.00000000E+00  0.00000000E+00  0.00000000E+00
  0.00000000E+00  0.00000000E+00  0.00000000E+00
  0.00000000E+00  0.00000000E+00  0.00000000E+00
  0.00000000E+00  0.00000000E+00  0.00000000E+00
  0.00000000E+00  0.00000000E+00  0.00000000E+00
  0.00000000E+00  0.00000000E+00  0.00000000E+00
  0.00000000E+00  0.00000000E+00  0.00000000E+00
  0.00000000E+00  0.00000000E+00  0.00000000E+00
  0.00000000E+00  0.00000000E+00  0.00000000E+00
  0.00000000E+00  0.00000000E+00  0.00000000E+00
  0.00000000E+00  0.00000000E+00  0.00000000E+00
  0.00000000E+00  0.00000000E+00  0.00000000E+00
  0.00000000E+00  0.00000000E+00  0.00000000E+00
  0.00000000E+00  0.00000000E+00  0.00000000E+00
  0.00000000E+00  0.00000000E+00  0.00000000E+00
  0.00000000E+00  0.00000000E+00  0.00000000E+00
  0.00000000E+00  0.00000000E+00  0.00000000E+00
  0.00000000E+00  0.00000000E+00  0.00000000E+00
  0.00000000E+00  0.00000000E+00  0.00000000E+00
  0.00000000E+00  0.00000000E+00  0.00000000E+00
  0.00000000E+00  0.00000000E+00  0.00000000E+00
  0.00000000E+00  0.00000000E+00  0.00000000E+00
  0.00000000E+00  0.00000000E+00  0.00000000E+00
  0.00000000E+00  0.00000000E+00  0.00000000E+00
  0.00000000E+00  0.00000000E+00  0.00000000E+00
  0.00000000E+00  0.00000000E+00  0.00000000E+00
  0.00000000E+00  0.00000000E+00  0.00000000E+00
  0.00000000E+00  0.00000000E+00  0.00000000E+00
  0.00000000E+00  0.00000000E+00  0.00000000E+00
  0.00000000E+00  0.00000000E+00  0.00000000E+00
  0.00000000E+00  0.00000000E+00  0.00000000E+00
  0.00000000E+00  0.00000000E+00  0.00000000E+00
  0.00000000E+00  0.00000000E+00  0.00000000E+00
  0.00000000E+00  0.00000000E+00  0.00000000E+00
  0.00000000E+00  0.00000000E+00  0.00000000E+00
  0.00000000E+00  0.00000000E+00  0.00000000E+00
  0.00000000E+00  0.00000000E+00  0.00000000E+00
  0.00000000E+00  0.00000000E+00  0.00000000E+00
  0.00000000E+00  0.00000000E+00  0.00000000E+00
  0.00000000E+00  0.00000000E+00  0.00000000E+00
  0.00000000E+00  0.00000000E+00  0.00000000E+00
  0.00000000E+00  0.00000000E+00  0.00000000E+00
  0.00000000E+00  0.00000000E+00  0.00000000E+00
  0.00000000E+00  0.00000000E+00  0.00000000E+00
  0.00000000E+00  0.00000000E+00  0.00000000E+00
  0.00000000E+00  0.00000000E+00  0.00000000E+00
  0.00000000E+00  0.00000000E+00  0.00000000E+00
  0.00000000E+00  0.00000000E+00  0.00000000E+00
  0.00000000E+00  0.00000000E+00  0.00000000E+00
